 <VTKFile type="UnstructuredGrid"  version="0.1"   >
 <UnstructuredGrid>
 <Piece  NumberOfPoints="          1600 "  NumberOfCells="         1024 ">
 <Points>
 <DataArray  type="Float64" NumberOfComponents="3"  format="ascii" >
   0.0000000000000000        0.0000000000000000        0.0000000000000000     
   3.1250000000000000E-002   0.0000000000000000        0.0000000000000000     
   6.2500000000000000E-002   0.0000000000000000        0.0000000000000000     
   9.3750000000000000E-002   0.0000000000000000        0.0000000000000000     
  0.12500000000000000        0.0000000000000000        0.0000000000000000     
   0.0000000000000000        3.1250000000000000E-002   0.0000000000000000     
   3.1250000000000000E-002   3.1250000000000000E-002   0.0000000000000000     
   6.2500000000000000E-002   3.1250000000000000E-002   0.0000000000000000     
   9.3750000000000000E-002   3.1250000000000000E-002   0.0000000000000000     
  0.12500000000000000        3.1250000000000000E-002   0.0000000000000000     
   0.0000000000000000        6.2500000000000000E-002   0.0000000000000000     
   3.1250000000000000E-002   6.2500000000000000E-002   0.0000000000000000     
   6.2500000000000000E-002   6.2500000000000000E-002   0.0000000000000000     
   9.3750000000000000E-002   6.2500000000000000E-002   0.0000000000000000     
  0.12500000000000000        6.2500000000000000E-002   0.0000000000000000     
   0.0000000000000000        9.3750000000000000E-002   0.0000000000000000     
   3.1250000000000000E-002   9.3750000000000000E-002   0.0000000000000000     
   6.2500000000000000E-002   9.3750000000000000E-002   0.0000000000000000     
   9.3750000000000000E-002   9.3750000000000000E-002   0.0000000000000000     
  0.12500000000000000        9.3750000000000000E-002   0.0000000000000000     
   0.0000000000000000       0.12500000000000000        0.0000000000000000     
   3.1250000000000000E-002  0.12500000000000000        0.0000000000000000     
   6.2500000000000000E-002  0.12500000000000000        0.0000000000000000     
   9.3750000000000000E-002  0.12500000000000000        0.0000000000000000     
  0.12500000000000000       0.12500000000000000        0.0000000000000000     
  0.12500000000000000        0.0000000000000000        0.0000000000000000     
  0.15625000000000000        0.0000000000000000        0.0000000000000000     
  0.18750000000000000        0.0000000000000000        0.0000000000000000     
  0.21875000000000000        0.0000000000000000        0.0000000000000000     
  0.25000000000000000        0.0000000000000000        0.0000000000000000     
  0.12500000000000000        3.1250000000000000E-002   0.0000000000000000     
  0.15625000000000000        3.1250000000000000E-002   0.0000000000000000     
  0.18750000000000000        3.1250000000000000E-002   0.0000000000000000     
  0.21875000000000000        3.1250000000000000E-002   0.0000000000000000     
  0.25000000000000000        3.1250000000000000E-002   0.0000000000000000     
  0.12500000000000000        6.2500000000000000E-002   0.0000000000000000     
  0.15625000000000000        6.2500000000000000E-002   0.0000000000000000     
  0.18750000000000000        6.2500000000000000E-002   0.0000000000000000     
  0.21875000000000000        6.2500000000000000E-002   0.0000000000000000     
  0.25000000000000000        6.2500000000000000E-002   0.0000000000000000     
  0.12500000000000000        9.3750000000000000E-002   0.0000000000000000     
  0.15625000000000000        9.3750000000000000E-002   0.0000000000000000     
  0.18750000000000000        9.3750000000000000E-002   0.0000000000000000     
  0.21875000000000000        9.3750000000000000E-002   0.0000000000000000     
  0.25000000000000000        9.3750000000000000E-002   0.0000000000000000     
  0.12500000000000000       0.12500000000000000        0.0000000000000000     
  0.15625000000000000       0.12500000000000000        0.0000000000000000     
  0.18750000000000000       0.12500000000000000        0.0000000000000000     
  0.21875000000000000       0.12500000000000000        0.0000000000000000     
  0.25000000000000000       0.12500000000000000        0.0000000000000000     
  0.25000000000000000        0.0000000000000000        0.0000000000000000     
  0.28125000000000000        0.0000000000000000        0.0000000000000000     
  0.31250000000000000        0.0000000000000000        0.0000000000000000     
  0.34375000000000000        0.0000000000000000        0.0000000000000000     
  0.37500000000000000        0.0000000000000000        0.0000000000000000     
  0.25000000000000000        3.1250000000000000E-002   0.0000000000000000     
  0.28125000000000000        3.1250000000000000E-002   0.0000000000000000     
  0.31250000000000000        3.1250000000000000E-002   0.0000000000000000     
  0.34375000000000000        3.1250000000000000E-002   0.0000000000000000     
  0.37500000000000000        3.1250000000000000E-002   0.0000000000000000     
  0.25000000000000000        6.2500000000000000E-002   0.0000000000000000     
  0.28125000000000000        6.2500000000000000E-002   0.0000000000000000     
  0.31250000000000000        6.2500000000000000E-002   0.0000000000000000     
  0.34375000000000000        6.2500000000000000E-002   0.0000000000000000     
  0.37500000000000000        6.2500000000000000E-002   0.0000000000000000     
  0.25000000000000000        9.3750000000000000E-002   0.0000000000000000     
  0.28125000000000000        9.3750000000000000E-002   0.0000000000000000     
  0.31250000000000000        9.3750000000000000E-002   0.0000000000000000     
  0.34375000000000000        9.3750000000000000E-002   0.0000000000000000     
  0.37500000000000000        9.3750000000000000E-002   0.0000000000000000     
  0.25000000000000000       0.12500000000000000        0.0000000000000000     
  0.28125000000000000       0.12500000000000000        0.0000000000000000     
  0.31250000000000000       0.12500000000000000        0.0000000000000000     
  0.34375000000000000       0.12500000000000000        0.0000000000000000     
  0.37500000000000000       0.12500000000000000        0.0000000000000000     
  0.37500000000000000        0.0000000000000000        0.0000000000000000     
  0.40625000000000000        0.0000000000000000        0.0000000000000000     
  0.43750000000000000        0.0000000000000000        0.0000000000000000     
  0.46875000000000000        0.0000000000000000        0.0000000000000000     
  0.50000000000000000        0.0000000000000000        0.0000000000000000     
  0.37500000000000000        3.1250000000000000E-002   0.0000000000000000     
  0.40625000000000000        3.1250000000000000E-002   0.0000000000000000     
  0.43750000000000000        3.1250000000000000E-002   0.0000000000000000     
  0.46875000000000000        3.1250000000000000E-002   0.0000000000000000     
  0.50000000000000000        3.1250000000000000E-002   0.0000000000000000     
  0.37500000000000000        6.2500000000000000E-002   0.0000000000000000     
  0.40625000000000000        6.2500000000000000E-002   0.0000000000000000     
  0.43750000000000000        6.2500000000000000E-002   0.0000000000000000     
  0.46875000000000000        6.2500000000000000E-002   0.0000000000000000     
  0.50000000000000000        6.2500000000000000E-002   0.0000000000000000     
  0.37500000000000000        9.3750000000000000E-002   0.0000000000000000     
  0.40625000000000000        9.3750000000000000E-002   0.0000000000000000     
  0.43750000000000000        9.3750000000000000E-002   0.0000000000000000     
  0.46875000000000000        9.3750000000000000E-002   0.0000000000000000     
  0.50000000000000000        9.3750000000000000E-002   0.0000000000000000     
  0.37500000000000000       0.12500000000000000        0.0000000000000000     
  0.40625000000000000       0.12500000000000000        0.0000000000000000     
  0.43750000000000000       0.12500000000000000        0.0000000000000000     
  0.46875000000000000       0.12500000000000000        0.0000000000000000     
  0.50000000000000000       0.12500000000000000        0.0000000000000000     
  0.50000000000000000        0.0000000000000000        0.0000000000000000     
  0.53125000000000000        0.0000000000000000        0.0000000000000000     
  0.56250000000000000        0.0000000000000000        0.0000000000000000     
  0.59375000000000000        0.0000000000000000        0.0000000000000000     
  0.62500000000000000        0.0000000000000000        0.0000000000000000     
  0.50000000000000000        3.1250000000000000E-002   0.0000000000000000     
  0.53125000000000000        3.1250000000000000E-002   0.0000000000000000     
  0.56250000000000000        3.1250000000000000E-002   0.0000000000000000     
  0.59375000000000000        3.1250000000000000E-002   0.0000000000000000     
  0.62500000000000000        3.1250000000000000E-002   0.0000000000000000     
  0.50000000000000000        6.2500000000000000E-002   0.0000000000000000     
  0.53125000000000000        6.2500000000000000E-002   0.0000000000000000     
  0.56250000000000000        6.2500000000000000E-002   0.0000000000000000     
  0.59375000000000000        6.2500000000000000E-002   0.0000000000000000     
  0.62500000000000000        6.2500000000000000E-002   0.0000000000000000     
  0.50000000000000000        9.3750000000000000E-002   0.0000000000000000     
  0.53125000000000000        9.3750000000000000E-002   0.0000000000000000     
  0.56250000000000000        9.3750000000000000E-002   0.0000000000000000     
  0.59375000000000000        9.3750000000000000E-002   0.0000000000000000     
  0.62500000000000000        9.3750000000000000E-002   0.0000000000000000     
  0.50000000000000000       0.12500000000000000        0.0000000000000000     
  0.53125000000000000       0.12500000000000000        0.0000000000000000     
  0.56250000000000000       0.12500000000000000        0.0000000000000000     
  0.59375000000000000       0.12500000000000000        0.0000000000000000     
  0.62500000000000000       0.12500000000000000        0.0000000000000000     
  0.62500000000000000        0.0000000000000000        0.0000000000000000     
  0.65625000000000000        0.0000000000000000        0.0000000000000000     
  0.68750000000000000        0.0000000000000000        0.0000000000000000     
  0.71875000000000000        0.0000000000000000        0.0000000000000000     
  0.75000000000000000        0.0000000000000000        0.0000000000000000     
  0.62500000000000000        3.1250000000000000E-002   0.0000000000000000     
  0.65625000000000000        3.1250000000000000E-002   0.0000000000000000     
  0.68750000000000000        3.1250000000000000E-002   0.0000000000000000     
  0.71875000000000000        3.1250000000000000E-002   0.0000000000000000     
  0.75000000000000000        3.1250000000000000E-002   0.0000000000000000     
  0.62500000000000000        6.2500000000000000E-002   0.0000000000000000     
  0.65625000000000000        6.2500000000000000E-002   0.0000000000000000     
  0.68750000000000000        6.2500000000000000E-002   0.0000000000000000     
  0.71875000000000000        6.2500000000000000E-002   0.0000000000000000     
  0.75000000000000000        6.2500000000000000E-002   0.0000000000000000     
  0.62500000000000000        9.3750000000000000E-002   0.0000000000000000     
  0.65625000000000000        9.3750000000000000E-002   0.0000000000000000     
  0.68750000000000000        9.3750000000000000E-002   0.0000000000000000     
  0.71875000000000000        9.3750000000000000E-002   0.0000000000000000     
  0.75000000000000000        9.3750000000000000E-002   0.0000000000000000     
  0.62500000000000000       0.12500000000000000        0.0000000000000000     
  0.65625000000000000       0.12500000000000000        0.0000000000000000     
  0.68750000000000000       0.12500000000000000        0.0000000000000000     
  0.71875000000000000       0.12500000000000000        0.0000000000000000     
  0.75000000000000000       0.12500000000000000        0.0000000000000000     
  0.75000000000000000        0.0000000000000000        0.0000000000000000     
  0.78125000000000000        0.0000000000000000        0.0000000000000000     
  0.81250000000000000        0.0000000000000000        0.0000000000000000     
  0.84375000000000000        0.0000000000000000        0.0000000000000000     
  0.87500000000000000        0.0000000000000000        0.0000000000000000     
  0.75000000000000000        3.1250000000000000E-002   0.0000000000000000     
  0.78125000000000000        3.1250000000000000E-002   0.0000000000000000     
  0.81250000000000000        3.1250000000000000E-002   0.0000000000000000     
  0.84375000000000000        3.1250000000000000E-002   0.0000000000000000     
  0.87500000000000000        3.1250000000000000E-002   0.0000000000000000     
  0.75000000000000000        6.2500000000000000E-002   0.0000000000000000     
  0.78125000000000000        6.2500000000000000E-002   0.0000000000000000     
  0.81250000000000000        6.2500000000000000E-002   0.0000000000000000     
  0.84375000000000000        6.2500000000000000E-002   0.0000000000000000     
  0.87500000000000000        6.2500000000000000E-002   0.0000000000000000     
  0.75000000000000000        9.3750000000000000E-002   0.0000000000000000     
  0.78125000000000000        9.3750000000000000E-002   0.0000000000000000     
  0.81250000000000000        9.3750000000000000E-002   0.0000000000000000     
  0.84375000000000000        9.3750000000000000E-002   0.0000000000000000     
  0.87500000000000000        9.3750000000000000E-002   0.0000000000000000     
  0.75000000000000000       0.12500000000000000        0.0000000000000000     
  0.78125000000000000       0.12500000000000000        0.0000000000000000     
  0.81250000000000000       0.12500000000000000        0.0000000000000000     
  0.84375000000000000       0.12500000000000000        0.0000000000000000     
  0.87500000000000000       0.12500000000000000        0.0000000000000000     
  0.87500000000000000        0.0000000000000000        0.0000000000000000     
  0.90625000000000000        0.0000000000000000        0.0000000000000000     
  0.93750000000000000        0.0000000000000000        0.0000000000000000     
  0.96875000000000000        0.0000000000000000        0.0000000000000000     
   1.0000000000000000        0.0000000000000000        0.0000000000000000     
  0.87500000000000000        3.1250000000000000E-002   0.0000000000000000     
  0.90625000000000000        3.1250000000000000E-002   0.0000000000000000     
  0.93750000000000000        3.1250000000000000E-002   0.0000000000000000     
  0.96875000000000000        3.1250000000000000E-002   0.0000000000000000     
   1.0000000000000000        3.1250000000000000E-002   0.0000000000000000     
  0.87500000000000000        6.2500000000000000E-002   0.0000000000000000     
  0.90625000000000000        6.2500000000000000E-002   0.0000000000000000     
  0.93750000000000000        6.2500000000000000E-002   0.0000000000000000     
  0.96875000000000000        6.2500000000000000E-002   0.0000000000000000     
   1.0000000000000000        6.2500000000000000E-002   0.0000000000000000     
  0.87500000000000000        9.3750000000000000E-002   0.0000000000000000     
  0.90625000000000000        9.3750000000000000E-002   0.0000000000000000     
  0.93750000000000000        9.3750000000000000E-002   0.0000000000000000     
  0.96875000000000000        9.3750000000000000E-002   0.0000000000000000     
   1.0000000000000000        9.3750000000000000E-002   0.0000000000000000     
  0.87500000000000000       0.12500000000000000        0.0000000000000000     
  0.90625000000000000       0.12500000000000000        0.0000000000000000     
  0.93750000000000000       0.12500000000000000        0.0000000000000000     
  0.96875000000000000       0.12500000000000000        0.0000000000000000     
   1.0000000000000000       0.12500000000000000        0.0000000000000000     
   0.0000000000000000       0.12500000000000000        0.0000000000000000     
   3.1250000000000000E-002  0.12500000000000000        0.0000000000000000     
   6.2500000000000000E-002  0.12500000000000000        0.0000000000000000     
   9.3750000000000000E-002  0.12500000000000000        0.0000000000000000     
  0.12500000000000000       0.12500000000000000        0.0000000000000000     
   0.0000000000000000       0.15625000000000000        0.0000000000000000     
   3.1250000000000000E-002  0.15625000000000000        0.0000000000000000     
   6.2500000000000000E-002  0.15625000000000000        0.0000000000000000     
   9.3750000000000000E-002  0.15625000000000000        0.0000000000000000     
  0.12500000000000000       0.15625000000000000        0.0000000000000000     
   0.0000000000000000       0.18750000000000000        0.0000000000000000     
   3.1250000000000000E-002  0.18750000000000000        0.0000000000000000     
   6.2500000000000000E-002  0.18750000000000000        0.0000000000000000     
   9.3750000000000000E-002  0.18750000000000000        0.0000000000000000     
  0.12500000000000000       0.18750000000000000        0.0000000000000000     
   0.0000000000000000       0.21875000000000000        0.0000000000000000     
   3.1250000000000000E-002  0.21875000000000000        0.0000000000000000     
   6.2500000000000000E-002  0.21875000000000000        0.0000000000000000     
   9.3750000000000000E-002  0.21875000000000000        0.0000000000000000     
  0.12500000000000000       0.21875000000000000        0.0000000000000000     
   0.0000000000000000       0.25000000000000000        0.0000000000000000     
   3.1250000000000000E-002  0.25000000000000000        0.0000000000000000     
   6.2500000000000000E-002  0.25000000000000000        0.0000000000000000     
   9.3750000000000000E-002  0.25000000000000000        0.0000000000000000     
  0.12500000000000000       0.25000000000000000        0.0000000000000000     
  0.12500000000000000       0.12500000000000000        0.0000000000000000     
  0.15625000000000000       0.12500000000000000        0.0000000000000000     
  0.18750000000000000       0.12500000000000000        0.0000000000000000     
  0.21875000000000000       0.12500000000000000        0.0000000000000000     
  0.25000000000000000       0.12500000000000000        0.0000000000000000     
  0.12500000000000000       0.15625000000000000        0.0000000000000000     
  0.15625000000000000       0.15625000000000000        0.0000000000000000     
  0.18750000000000000       0.15625000000000000        0.0000000000000000     
  0.21875000000000000       0.15625000000000000        0.0000000000000000     
  0.25000000000000000       0.15625000000000000        0.0000000000000000     
  0.12500000000000000       0.18750000000000000        0.0000000000000000     
  0.15625000000000000       0.18750000000000000        0.0000000000000000     
  0.18750000000000000       0.18750000000000000        0.0000000000000000     
  0.21875000000000000       0.18750000000000000        0.0000000000000000     
  0.25000000000000000       0.18750000000000000        0.0000000000000000     
  0.12500000000000000       0.21875000000000000        0.0000000000000000     
  0.15625000000000000       0.21875000000000000        0.0000000000000000     
  0.18750000000000000       0.21875000000000000        0.0000000000000000     
  0.21875000000000000       0.21875000000000000        0.0000000000000000     
  0.25000000000000000       0.21875000000000000        0.0000000000000000     
  0.12500000000000000       0.25000000000000000        0.0000000000000000     
  0.15625000000000000       0.25000000000000000        0.0000000000000000     
  0.18750000000000000       0.25000000000000000        0.0000000000000000     
  0.21875000000000000       0.25000000000000000        0.0000000000000000     
  0.25000000000000000       0.25000000000000000        0.0000000000000000     
  0.25000000000000000       0.12500000000000000        0.0000000000000000     
  0.28125000000000000       0.12500000000000000        0.0000000000000000     
  0.31250000000000000       0.12500000000000000        0.0000000000000000     
  0.34375000000000000       0.12500000000000000        0.0000000000000000     
  0.37500000000000000       0.12500000000000000        0.0000000000000000     
  0.25000000000000000       0.15625000000000000        0.0000000000000000     
  0.28125000000000000       0.15625000000000000        0.0000000000000000     
  0.31250000000000000       0.15625000000000000        0.0000000000000000     
  0.34375000000000000       0.15625000000000000        0.0000000000000000     
  0.37500000000000000       0.15625000000000000        0.0000000000000000     
  0.25000000000000000       0.18750000000000000        0.0000000000000000     
  0.28125000000000000       0.18750000000000000        0.0000000000000000     
  0.31250000000000000       0.18750000000000000        0.0000000000000000     
  0.34375000000000000       0.18750000000000000        0.0000000000000000     
  0.37500000000000000       0.18750000000000000        0.0000000000000000     
  0.25000000000000000       0.21875000000000000        0.0000000000000000     
  0.28125000000000000       0.21875000000000000        0.0000000000000000     
  0.31250000000000000       0.21875000000000000        0.0000000000000000     
  0.34375000000000000       0.21875000000000000        0.0000000000000000     
  0.37500000000000000       0.21875000000000000        0.0000000000000000     
  0.25000000000000000       0.25000000000000000        0.0000000000000000     
  0.28125000000000000       0.25000000000000000        0.0000000000000000     
  0.31250000000000000       0.25000000000000000        0.0000000000000000     
  0.34375000000000000       0.25000000000000000        0.0000000000000000     
  0.37500000000000000       0.25000000000000000        0.0000000000000000     
  0.37500000000000000       0.12500000000000000        0.0000000000000000     
  0.40625000000000000       0.12500000000000000        0.0000000000000000     
  0.43750000000000000       0.12500000000000000        0.0000000000000000     
  0.46875000000000000       0.12500000000000000        0.0000000000000000     
  0.50000000000000000       0.12500000000000000        0.0000000000000000     
  0.37500000000000000       0.15625000000000000        0.0000000000000000     
  0.40625000000000000       0.15625000000000000        0.0000000000000000     
  0.43750000000000000       0.15625000000000000        0.0000000000000000     
  0.46875000000000000       0.15625000000000000        0.0000000000000000     
  0.50000000000000000       0.15625000000000000        0.0000000000000000     
  0.37500000000000000       0.18750000000000000        0.0000000000000000     
  0.40625000000000000       0.18750000000000000        0.0000000000000000     
  0.43750000000000000       0.18750000000000000        0.0000000000000000     
  0.46875000000000000       0.18750000000000000        0.0000000000000000     
  0.50000000000000000       0.18750000000000000        0.0000000000000000     
  0.37500000000000000       0.21875000000000000        0.0000000000000000     
  0.40625000000000000       0.21875000000000000        0.0000000000000000     
  0.43750000000000000       0.21875000000000000        0.0000000000000000     
  0.46875000000000000       0.21875000000000000        0.0000000000000000     
  0.50000000000000000       0.21875000000000000        0.0000000000000000     
  0.37500000000000000       0.25000000000000000        0.0000000000000000     
  0.40625000000000000       0.25000000000000000        0.0000000000000000     
  0.43750000000000000       0.25000000000000000        0.0000000000000000     
  0.46875000000000000       0.25000000000000000        0.0000000000000000     
  0.50000000000000000       0.25000000000000000        0.0000000000000000     
  0.50000000000000000       0.12500000000000000        0.0000000000000000     
  0.53125000000000000       0.12500000000000000        0.0000000000000000     
  0.56250000000000000       0.12500000000000000        0.0000000000000000     
  0.59375000000000000       0.12500000000000000        0.0000000000000000     
  0.62500000000000000       0.12500000000000000        0.0000000000000000     
  0.50000000000000000       0.15625000000000000        0.0000000000000000     
  0.53125000000000000       0.15625000000000000        0.0000000000000000     
  0.56250000000000000       0.15625000000000000        0.0000000000000000     
  0.59375000000000000       0.15625000000000000        0.0000000000000000     
  0.62500000000000000       0.15625000000000000        0.0000000000000000     
  0.50000000000000000       0.18750000000000000        0.0000000000000000     
  0.53125000000000000       0.18750000000000000        0.0000000000000000     
  0.56250000000000000       0.18750000000000000        0.0000000000000000     
  0.59375000000000000       0.18750000000000000        0.0000000000000000     
  0.62500000000000000       0.18750000000000000        0.0000000000000000     
  0.50000000000000000       0.21875000000000000        0.0000000000000000     
  0.53125000000000000       0.21875000000000000        0.0000000000000000     
  0.56250000000000000       0.21875000000000000        0.0000000000000000     
  0.59375000000000000       0.21875000000000000        0.0000000000000000     
  0.62500000000000000       0.21875000000000000        0.0000000000000000     
  0.50000000000000000       0.25000000000000000        0.0000000000000000     
  0.53125000000000000       0.25000000000000000        0.0000000000000000     
  0.56250000000000000       0.25000000000000000        0.0000000000000000     
  0.59375000000000000       0.25000000000000000        0.0000000000000000     
  0.62500000000000000       0.25000000000000000        0.0000000000000000     
  0.62500000000000000       0.12500000000000000        0.0000000000000000     
  0.65625000000000000       0.12500000000000000        0.0000000000000000     
  0.68750000000000000       0.12500000000000000        0.0000000000000000     
  0.71875000000000000       0.12500000000000000        0.0000000000000000     
  0.75000000000000000       0.12500000000000000        0.0000000000000000     
  0.62500000000000000       0.15625000000000000        0.0000000000000000     
  0.65625000000000000       0.15625000000000000        0.0000000000000000     
  0.68750000000000000       0.15625000000000000        0.0000000000000000     
  0.71875000000000000       0.15625000000000000        0.0000000000000000     
  0.75000000000000000       0.15625000000000000        0.0000000000000000     
  0.62500000000000000       0.18750000000000000        0.0000000000000000     
  0.65625000000000000       0.18750000000000000        0.0000000000000000     
  0.68750000000000000       0.18750000000000000        0.0000000000000000     
  0.71875000000000000       0.18750000000000000        0.0000000000000000     
  0.75000000000000000       0.18750000000000000        0.0000000000000000     
  0.62500000000000000       0.21875000000000000        0.0000000000000000     
  0.65625000000000000       0.21875000000000000        0.0000000000000000     
  0.68750000000000000       0.21875000000000000        0.0000000000000000     
  0.71875000000000000       0.21875000000000000        0.0000000000000000     
  0.75000000000000000       0.21875000000000000        0.0000000000000000     
  0.62500000000000000       0.25000000000000000        0.0000000000000000     
  0.65625000000000000       0.25000000000000000        0.0000000000000000     
  0.68750000000000000       0.25000000000000000        0.0000000000000000     
  0.71875000000000000       0.25000000000000000        0.0000000000000000     
  0.75000000000000000       0.25000000000000000        0.0000000000000000     
  0.75000000000000000       0.12500000000000000        0.0000000000000000     
  0.78125000000000000       0.12500000000000000        0.0000000000000000     
  0.81250000000000000       0.12500000000000000        0.0000000000000000     
  0.84375000000000000       0.12500000000000000        0.0000000000000000     
  0.87500000000000000       0.12500000000000000        0.0000000000000000     
  0.75000000000000000       0.15625000000000000        0.0000000000000000     
  0.78125000000000000       0.15625000000000000        0.0000000000000000     
  0.81250000000000000       0.15625000000000000        0.0000000000000000     
  0.84375000000000000       0.15625000000000000        0.0000000000000000     
  0.87500000000000000       0.15625000000000000        0.0000000000000000     
  0.75000000000000000       0.18750000000000000        0.0000000000000000     
  0.78125000000000000       0.18750000000000000        0.0000000000000000     
  0.81250000000000000       0.18750000000000000        0.0000000000000000     
  0.84375000000000000       0.18750000000000000        0.0000000000000000     
  0.87500000000000000       0.18750000000000000        0.0000000000000000     
  0.75000000000000000       0.21875000000000000        0.0000000000000000     
  0.78125000000000000       0.21875000000000000        0.0000000000000000     
  0.81250000000000000       0.21875000000000000        0.0000000000000000     
  0.84375000000000000       0.21875000000000000        0.0000000000000000     
  0.87500000000000000       0.21875000000000000        0.0000000000000000     
  0.75000000000000000       0.25000000000000000        0.0000000000000000     
  0.78125000000000000       0.25000000000000000        0.0000000000000000     
  0.81250000000000000       0.25000000000000000        0.0000000000000000     
  0.84375000000000000       0.25000000000000000        0.0000000000000000     
  0.87500000000000000       0.25000000000000000        0.0000000000000000     
  0.87500000000000000       0.12500000000000000        0.0000000000000000     
  0.90625000000000000       0.12500000000000000        0.0000000000000000     
  0.93750000000000000       0.12500000000000000        0.0000000000000000     
  0.96875000000000000       0.12500000000000000        0.0000000000000000     
   1.0000000000000000       0.12500000000000000        0.0000000000000000     
  0.87500000000000000       0.15625000000000000        0.0000000000000000     
  0.90625000000000000       0.15625000000000000        0.0000000000000000     
  0.93750000000000000       0.15625000000000000        0.0000000000000000     
  0.96875000000000000       0.15625000000000000        0.0000000000000000     
   1.0000000000000000       0.15625000000000000        0.0000000000000000     
  0.87500000000000000       0.18750000000000000        0.0000000000000000     
  0.90625000000000000       0.18750000000000000        0.0000000000000000     
  0.93750000000000000       0.18750000000000000        0.0000000000000000     
  0.96875000000000000       0.18750000000000000        0.0000000000000000     
   1.0000000000000000       0.18750000000000000        0.0000000000000000     
  0.87500000000000000       0.21875000000000000        0.0000000000000000     
  0.90625000000000000       0.21875000000000000        0.0000000000000000     
  0.93750000000000000       0.21875000000000000        0.0000000000000000     
  0.96875000000000000       0.21875000000000000        0.0000000000000000     
   1.0000000000000000       0.21875000000000000        0.0000000000000000     
  0.87500000000000000       0.25000000000000000        0.0000000000000000     
  0.90625000000000000       0.25000000000000000        0.0000000000000000     
  0.93750000000000000       0.25000000000000000        0.0000000000000000     
  0.96875000000000000       0.25000000000000000        0.0000000000000000     
   1.0000000000000000       0.25000000000000000        0.0000000000000000     
   0.0000000000000000       0.25000000000000000        0.0000000000000000     
   3.1250000000000000E-002  0.25000000000000000        0.0000000000000000     
   6.2500000000000000E-002  0.25000000000000000        0.0000000000000000     
   9.3750000000000000E-002  0.25000000000000000        0.0000000000000000     
  0.12500000000000000       0.25000000000000000        0.0000000000000000     
   0.0000000000000000       0.28125000000000000        0.0000000000000000     
   3.1250000000000000E-002  0.28125000000000000        0.0000000000000000     
   6.2500000000000000E-002  0.28125000000000000        0.0000000000000000     
   9.3750000000000000E-002  0.28125000000000000        0.0000000000000000     
  0.12500000000000000       0.28125000000000000        0.0000000000000000     
   0.0000000000000000       0.31250000000000000        0.0000000000000000     
   3.1250000000000000E-002  0.31250000000000000        0.0000000000000000     
   6.2500000000000000E-002  0.31250000000000000        0.0000000000000000     
   9.3750000000000000E-002  0.31250000000000000        0.0000000000000000     
  0.12500000000000000       0.31250000000000000        0.0000000000000000     
   0.0000000000000000       0.34375000000000000        0.0000000000000000     
   3.1250000000000000E-002  0.34375000000000000        0.0000000000000000     
   6.2500000000000000E-002  0.34375000000000000        0.0000000000000000     
   9.3750000000000000E-002  0.34375000000000000        0.0000000000000000     
  0.12500000000000000       0.34375000000000000        0.0000000000000000     
   0.0000000000000000       0.37500000000000000        0.0000000000000000     
   3.1250000000000000E-002  0.37500000000000000        0.0000000000000000     
   6.2500000000000000E-002  0.37500000000000000        0.0000000000000000     
   9.3750000000000000E-002  0.37500000000000000        0.0000000000000000     
  0.12500000000000000       0.37500000000000000        0.0000000000000000     
  0.12500000000000000       0.25000000000000000        0.0000000000000000     
  0.15625000000000000       0.25000000000000000        0.0000000000000000     
  0.18750000000000000       0.25000000000000000        0.0000000000000000     
  0.21875000000000000       0.25000000000000000        0.0000000000000000     
  0.25000000000000000       0.25000000000000000        0.0000000000000000     
  0.12500000000000000       0.28125000000000000        0.0000000000000000     
  0.15625000000000000       0.28125000000000000        0.0000000000000000     
  0.18750000000000000       0.28125000000000000        0.0000000000000000     
  0.21875000000000000       0.28125000000000000        0.0000000000000000     
  0.25000000000000000       0.28125000000000000        0.0000000000000000     
  0.12500000000000000       0.31250000000000000        0.0000000000000000     
  0.15625000000000000       0.31250000000000000        0.0000000000000000     
  0.18750000000000000       0.31250000000000000        0.0000000000000000     
  0.21875000000000000       0.31250000000000000        0.0000000000000000     
  0.25000000000000000       0.31250000000000000        0.0000000000000000     
  0.12500000000000000       0.34375000000000000        0.0000000000000000     
  0.15625000000000000       0.34375000000000000        0.0000000000000000     
  0.18750000000000000       0.34375000000000000        0.0000000000000000     
  0.21875000000000000       0.34375000000000000        0.0000000000000000     
  0.25000000000000000       0.34375000000000000        0.0000000000000000     
  0.12500000000000000       0.37500000000000000        0.0000000000000000     
  0.15625000000000000       0.37500000000000000        0.0000000000000000     
  0.18750000000000000       0.37500000000000000        0.0000000000000000     
  0.21875000000000000       0.37500000000000000        0.0000000000000000     
  0.25000000000000000       0.37500000000000000        0.0000000000000000     
  0.25000000000000000       0.25000000000000000        0.0000000000000000     
  0.28125000000000000       0.25000000000000000        0.0000000000000000     
  0.31250000000000000       0.25000000000000000        0.0000000000000000     
  0.34375000000000000       0.25000000000000000        0.0000000000000000     
  0.37500000000000000       0.25000000000000000        0.0000000000000000     
  0.25000000000000000       0.28125000000000000        0.0000000000000000     
  0.28125000000000000       0.28125000000000000        0.0000000000000000     
  0.31250000000000000       0.28125000000000000        0.0000000000000000     
  0.34375000000000000       0.28125000000000000        0.0000000000000000     
  0.37500000000000000       0.28125000000000000        0.0000000000000000     
  0.25000000000000000       0.31250000000000000        0.0000000000000000     
  0.28125000000000000       0.31250000000000000        0.0000000000000000     
  0.31250000000000000       0.31250000000000000        0.0000000000000000     
  0.34375000000000000       0.31250000000000000        0.0000000000000000     
  0.37500000000000000       0.31250000000000000        0.0000000000000000     
  0.25000000000000000       0.34375000000000000        0.0000000000000000     
  0.28125000000000000       0.34375000000000000        0.0000000000000000     
  0.31250000000000000       0.34375000000000000        0.0000000000000000     
  0.34375000000000000       0.34375000000000000        0.0000000000000000     
  0.37500000000000000       0.34375000000000000        0.0000000000000000     
  0.25000000000000000       0.37500000000000000        0.0000000000000000     
  0.28125000000000000       0.37500000000000000        0.0000000000000000     
  0.31250000000000000       0.37500000000000000        0.0000000000000000     
  0.34375000000000000       0.37500000000000000        0.0000000000000000     
  0.37500000000000000       0.37500000000000000        0.0000000000000000     
  0.37500000000000000       0.25000000000000000        0.0000000000000000     
  0.40625000000000000       0.25000000000000000        0.0000000000000000     
  0.43750000000000000       0.25000000000000000        0.0000000000000000     
  0.46875000000000000       0.25000000000000000        0.0000000000000000     
  0.50000000000000000       0.25000000000000000        0.0000000000000000     
  0.37500000000000000       0.28125000000000000        0.0000000000000000     
  0.40625000000000000       0.28125000000000000        0.0000000000000000     
  0.43750000000000000       0.28125000000000000        0.0000000000000000     
  0.46875000000000000       0.28125000000000000        0.0000000000000000     
  0.50000000000000000       0.28125000000000000        0.0000000000000000     
  0.37500000000000000       0.31250000000000000        0.0000000000000000     
  0.40625000000000000       0.31250000000000000        0.0000000000000000     
  0.43750000000000000       0.31250000000000000        0.0000000000000000     
  0.46875000000000000       0.31250000000000000        0.0000000000000000     
  0.50000000000000000       0.31250000000000000        0.0000000000000000     
  0.37500000000000000       0.34375000000000000        0.0000000000000000     
  0.40625000000000000       0.34375000000000000        0.0000000000000000     
  0.43750000000000000       0.34375000000000000        0.0000000000000000     
  0.46875000000000000       0.34375000000000000        0.0000000000000000     
  0.50000000000000000       0.34375000000000000        0.0000000000000000     
  0.37500000000000000       0.37500000000000000        0.0000000000000000     
  0.40625000000000000       0.37500000000000000        0.0000000000000000     
  0.43750000000000000       0.37500000000000000        0.0000000000000000     
  0.46875000000000000       0.37500000000000000        0.0000000000000000     
  0.50000000000000000       0.37500000000000000        0.0000000000000000     
  0.50000000000000000       0.25000000000000000        0.0000000000000000     
  0.53125000000000000       0.25000000000000000        0.0000000000000000     
  0.56250000000000000       0.25000000000000000        0.0000000000000000     
  0.59375000000000000       0.25000000000000000        0.0000000000000000     
  0.62500000000000000       0.25000000000000000        0.0000000000000000     
  0.50000000000000000       0.28125000000000000        0.0000000000000000     
  0.53125000000000000       0.28125000000000000        0.0000000000000000     
  0.56250000000000000       0.28125000000000000        0.0000000000000000     
  0.59375000000000000       0.28125000000000000        0.0000000000000000     
  0.62500000000000000       0.28125000000000000        0.0000000000000000     
  0.50000000000000000       0.31250000000000000        0.0000000000000000     
  0.53125000000000000       0.31250000000000000        0.0000000000000000     
  0.56250000000000000       0.31250000000000000        0.0000000000000000     
  0.59375000000000000       0.31250000000000000        0.0000000000000000     
  0.62500000000000000       0.31250000000000000        0.0000000000000000     
  0.50000000000000000       0.34375000000000000        0.0000000000000000     
  0.53125000000000000       0.34375000000000000        0.0000000000000000     
  0.56250000000000000       0.34375000000000000        0.0000000000000000     
  0.59375000000000000       0.34375000000000000        0.0000000000000000     
  0.62500000000000000       0.34375000000000000        0.0000000000000000     
  0.50000000000000000       0.37500000000000000        0.0000000000000000     
  0.53125000000000000       0.37500000000000000        0.0000000000000000     
  0.56250000000000000       0.37500000000000000        0.0000000000000000     
  0.59375000000000000       0.37500000000000000        0.0000000000000000     
  0.62500000000000000       0.37500000000000000        0.0000000000000000     
  0.62500000000000000       0.25000000000000000        0.0000000000000000     
  0.65625000000000000       0.25000000000000000        0.0000000000000000     
  0.68750000000000000       0.25000000000000000        0.0000000000000000     
  0.71875000000000000       0.25000000000000000        0.0000000000000000     
  0.75000000000000000       0.25000000000000000        0.0000000000000000     
  0.62500000000000000       0.28125000000000000        0.0000000000000000     
  0.65625000000000000       0.28125000000000000        0.0000000000000000     
  0.68750000000000000       0.28125000000000000        0.0000000000000000     
  0.71875000000000000       0.28125000000000000        0.0000000000000000     
  0.75000000000000000       0.28125000000000000        0.0000000000000000     
  0.62500000000000000       0.31250000000000000        0.0000000000000000     
  0.65625000000000000       0.31250000000000000        0.0000000000000000     
  0.68750000000000000       0.31250000000000000        0.0000000000000000     
  0.71875000000000000       0.31250000000000000        0.0000000000000000     
  0.75000000000000000       0.31250000000000000        0.0000000000000000     
  0.62500000000000000       0.34375000000000000        0.0000000000000000     
  0.65625000000000000       0.34375000000000000        0.0000000000000000     
  0.68750000000000000       0.34375000000000000        0.0000000000000000     
  0.71875000000000000       0.34375000000000000        0.0000000000000000     
  0.75000000000000000       0.34375000000000000        0.0000000000000000     
  0.62500000000000000       0.37500000000000000        0.0000000000000000     
  0.65625000000000000       0.37500000000000000        0.0000000000000000     
  0.68750000000000000       0.37500000000000000        0.0000000000000000     
  0.71875000000000000       0.37500000000000000        0.0000000000000000     
  0.75000000000000000       0.37500000000000000        0.0000000000000000     
  0.75000000000000000       0.25000000000000000        0.0000000000000000     
  0.78125000000000000       0.25000000000000000        0.0000000000000000     
  0.81250000000000000       0.25000000000000000        0.0000000000000000     
  0.84375000000000000       0.25000000000000000        0.0000000000000000     
  0.87500000000000000       0.25000000000000000        0.0000000000000000     
  0.75000000000000000       0.28125000000000000        0.0000000000000000     
  0.78125000000000000       0.28125000000000000        0.0000000000000000     
  0.81250000000000000       0.28125000000000000        0.0000000000000000     
  0.84375000000000000       0.28125000000000000        0.0000000000000000     
  0.87500000000000000       0.28125000000000000        0.0000000000000000     
  0.75000000000000000       0.31250000000000000        0.0000000000000000     
  0.78125000000000000       0.31250000000000000        0.0000000000000000     
  0.81250000000000000       0.31250000000000000        0.0000000000000000     
  0.84375000000000000       0.31250000000000000        0.0000000000000000     
  0.87500000000000000       0.31250000000000000        0.0000000000000000     
  0.75000000000000000       0.34375000000000000        0.0000000000000000     
  0.78125000000000000       0.34375000000000000        0.0000000000000000     
  0.81250000000000000       0.34375000000000000        0.0000000000000000     
  0.84375000000000000       0.34375000000000000        0.0000000000000000     
  0.87500000000000000       0.34375000000000000        0.0000000000000000     
  0.75000000000000000       0.37500000000000000        0.0000000000000000     
  0.78125000000000000       0.37500000000000000        0.0000000000000000     
  0.81250000000000000       0.37500000000000000        0.0000000000000000     
  0.84375000000000000       0.37500000000000000        0.0000000000000000     
  0.87500000000000000       0.37500000000000000        0.0000000000000000     
  0.87500000000000000       0.25000000000000000        0.0000000000000000     
  0.90625000000000000       0.25000000000000000        0.0000000000000000     
  0.93750000000000000       0.25000000000000000        0.0000000000000000     
  0.96875000000000000       0.25000000000000000        0.0000000000000000     
   1.0000000000000000       0.25000000000000000        0.0000000000000000     
  0.87500000000000000       0.28125000000000000        0.0000000000000000     
  0.90625000000000000       0.28125000000000000        0.0000000000000000     
  0.93750000000000000       0.28125000000000000        0.0000000000000000     
  0.96875000000000000       0.28125000000000000        0.0000000000000000     
   1.0000000000000000       0.28125000000000000        0.0000000000000000     
  0.87500000000000000       0.31250000000000000        0.0000000000000000     
  0.90625000000000000       0.31250000000000000        0.0000000000000000     
  0.93750000000000000       0.31250000000000000        0.0000000000000000     
  0.96875000000000000       0.31250000000000000        0.0000000000000000     
   1.0000000000000000       0.31250000000000000        0.0000000000000000     
  0.87500000000000000       0.34375000000000000        0.0000000000000000     
  0.90625000000000000       0.34375000000000000        0.0000000000000000     
  0.93750000000000000       0.34375000000000000        0.0000000000000000     
  0.96875000000000000       0.34375000000000000        0.0000000000000000     
   1.0000000000000000       0.34375000000000000        0.0000000000000000     
  0.87500000000000000       0.37500000000000000        0.0000000000000000     
  0.90625000000000000       0.37500000000000000        0.0000000000000000     
  0.93750000000000000       0.37500000000000000        0.0000000000000000     
  0.96875000000000000       0.37500000000000000        0.0000000000000000     
   1.0000000000000000       0.37500000000000000        0.0000000000000000     
   0.0000000000000000       0.37500000000000000        0.0000000000000000     
   3.1250000000000000E-002  0.37500000000000000        0.0000000000000000     
   6.2500000000000000E-002  0.37500000000000000        0.0000000000000000     
   9.3750000000000000E-002  0.37500000000000000        0.0000000000000000     
  0.12500000000000000       0.37500000000000000        0.0000000000000000     
   0.0000000000000000       0.40625000000000000        0.0000000000000000     
   3.1250000000000000E-002  0.40625000000000000        0.0000000000000000     
   6.2500000000000000E-002  0.40625000000000000        0.0000000000000000     
   9.3750000000000000E-002  0.40625000000000000        0.0000000000000000     
  0.12500000000000000       0.40625000000000000        0.0000000000000000     
   0.0000000000000000       0.43750000000000000        0.0000000000000000     
   3.1250000000000000E-002  0.43750000000000000        0.0000000000000000     
   6.2500000000000000E-002  0.43750000000000000        0.0000000000000000     
   9.3750000000000000E-002  0.43750000000000000        0.0000000000000000     
  0.12500000000000000       0.43750000000000000        0.0000000000000000     
   0.0000000000000000       0.46875000000000000        0.0000000000000000     
   3.1250000000000000E-002  0.46875000000000000        0.0000000000000000     
   6.2500000000000000E-002  0.46875000000000000        0.0000000000000000     
   9.3750000000000000E-002  0.46875000000000000        0.0000000000000000     
  0.12500000000000000       0.46875000000000000        0.0000000000000000     
   0.0000000000000000       0.50000000000000000        0.0000000000000000     
   3.1250000000000000E-002  0.50000000000000000        0.0000000000000000     
   6.2500000000000000E-002  0.50000000000000000        0.0000000000000000     
   9.3750000000000000E-002  0.50000000000000000        0.0000000000000000     
  0.12500000000000000       0.50000000000000000        0.0000000000000000     
  0.12500000000000000       0.37500000000000000        0.0000000000000000     
  0.15625000000000000       0.37500000000000000        0.0000000000000000     
  0.18750000000000000       0.37500000000000000        0.0000000000000000     
  0.21875000000000000       0.37500000000000000        0.0000000000000000     
  0.25000000000000000       0.37500000000000000        0.0000000000000000     
  0.12500000000000000       0.40625000000000000        0.0000000000000000     
  0.15625000000000000       0.40625000000000000        0.0000000000000000     
  0.18750000000000000       0.40625000000000000        0.0000000000000000     
  0.21875000000000000       0.40625000000000000        0.0000000000000000     
  0.25000000000000000       0.40625000000000000        0.0000000000000000     
  0.12500000000000000       0.43750000000000000        0.0000000000000000     
  0.15625000000000000       0.43750000000000000        0.0000000000000000     
  0.18750000000000000       0.43750000000000000        0.0000000000000000     
  0.21875000000000000       0.43750000000000000        0.0000000000000000     
  0.25000000000000000       0.43750000000000000        0.0000000000000000     
  0.12500000000000000       0.46875000000000000        0.0000000000000000     
  0.15625000000000000       0.46875000000000000        0.0000000000000000     
  0.18750000000000000       0.46875000000000000        0.0000000000000000     
  0.21875000000000000       0.46875000000000000        0.0000000000000000     
  0.25000000000000000       0.46875000000000000        0.0000000000000000     
  0.12500000000000000       0.50000000000000000        0.0000000000000000     
  0.15625000000000000       0.50000000000000000        0.0000000000000000     
  0.18750000000000000       0.50000000000000000        0.0000000000000000     
  0.21875000000000000       0.50000000000000000        0.0000000000000000     
  0.25000000000000000       0.50000000000000000        0.0000000000000000     
  0.25000000000000000       0.37500000000000000        0.0000000000000000     
  0.28125000000000000       0.37500000000000000        0.0000000000000000     
  0.31250000000000000       0.37500000000000000        0.0000000000000000     
  0.34375000000000000       0.37500000000000000        0.0000000000000000     
  0.37500000000000000       0.37500000000000000        0.0000000000000000     
  0.25000000000000000       0.40625000000000000        0.0000000000000000     
  0.28125000000000000       0.40625000000000000        0.0000000000000000     
  0.31250000000000000       0.40625000000000000        0.0000000000000000     
  0.34375000000000000       0.40625000000000000        0.0000000000000000     
  0.37500000000000000       0.40625000000000000        0.0000000000000000     
  0.25000000000000000       0.43750000000000000        0.0000000000000000     
  0.28125000000000000       0.43750000000000000        0.0000000000000000     
  0.31250000000000000       0.43750000000000000        0.0000000000000000     
  0.34375000000000000       0.43750000000000000        0.0000000000000000     
  0.37500000000000000       0.43750000000000000        0.0000000000000000     
  0.25000000000000000       0.46875000000000000        0.0000000000000000     
  0.28125000000000000       0.46875000000000000        0.0000000000000000     
  0.31250000000000000       0.46875000000000000        0.0000000000000000     
  0.34375000000000000       0.46875000000000000        0.0000000000000000     
  0.37500000000000000       0.46875000000000000        0.0000000000000000     
  0.25000000000000000       0.50000000000000000        0.0000000000000000     
  0.28125000000000000       0.50000000000000000        0.0000000000000000     
  0.31250000000000000       0.50000000000000000        0.0000000000000000     
  0.34375000000000000       0.50000000000000000        0.0000000000000000     
  0.37500000000000000       0.50000000000000000        0.0000000000000000     
  0.37500000000000000       0.37500000000000000        0.0000000000000000     
  0.40625000000000000       0.37500000000000000        0.0000000000000000     
  0.43750000000000000       0.37500000000000000        0.0000000000000000     
  0.46875000000000000       0.37500000000000000        0.0000000000000000     
  0.50000000000000000       0.37500000000000000        0.0000000000000000     
  0.37500000000000000       0.40625000000000000        0.0000000000000000     
  0.40625000000000000       0.40625000000000000        0.0000000000000000     
  0.43750000000000000       0.40625000000000000        0.0000000000000000     
  0.46875000000000000       0.40625000000000000        0.0000000000000000     
  0.50000000000000000       0.40625000000000000        0.0000000000000000     
  0.37500000000000000       0.43750000000000000        0.0000000000000000     
  0.40625000000000000       0.43750000000000000        0.0000000000000000     
  0.43750000000000000       0.43750000000000000        0.0000000000000000     
  0.46875000000000000       0.43750000000000000        0.0000000000000000     
  0.50000000000000000       0.43750000000000000        0.0000000000000000     
  0.37500000000000000       0.46875000000000000        0.0000000000000000     
  0.40625000000000000       0.46875000000000000        0.0000000000000000     
  0.43750000000000000       0.46875000000000000        0.0000000000000000     
  0.46875000000000000       0.46875000000000000        0.0000000000000000     
  0.50000000000000000       0.46875000000000000        0.0000000000000000     
  0.37500000000000000       0.50000000000000000        0.0000000000000000     
  0.40625000000000000       0.50000000000000000        0.0000000000000000     
  0.43750000000000000       0.50000000000000000        0.0000000000000000     
  0.46875000000000000       0.50000000000000000        0.0000000000000000     
  0.50000000000000000       0.50000000000000000        0.0000000000000000     
  0.50000000000000000       0.37500000000000000        0.0000000000000000     
  0.53125000000000000       0.37500000000000000        0.0000000000000000     
  0.56250000000000000       0.37500000000000000        0.0000000000000000     
  0.59375000000000000       0.37500000000000000        0.0000000000000000     
  0.62500000000000000       0.37500000000000000        0.0000000000000000     
  0.50000000000000000       0.40625000000000000        0.0000000000000000     
  0.53125000000000000       0.40625000000000000        0.0000000000000000     
  0.56250000000000000       0.40625000000000000        0.0000000000000000     
  0.59375000000000000       0.40625000000000000        0.0000000000000000     
  0.62500000000000000       0.40625000000000000        0.0000000000000000     
  0.50000000000000000       0.43750000000000000        0.0000000000000000     
  0.53125000000000000       0.43750000000000000        0.0000000000000000     
  0.56250000000000000       0.43750000000000000        0.0000000000000000     
  0.59375000000000000       0.43750000000000000        0.0000000000000000     
  0.62500000000000000       0.43750000000000000        0.0000000000000000     
  0.50000000000000000       0.46875000000000000        0.0000000000000000     
  0.53125000000000000       0.46875000000000000        0.0000000000000000     
  0.56250000000000000       0.46875000000000000        0.0000000000000000     
  0.59375000000000000       0.46875000000000000        0.0000000000000000     
  0.62500000000000000       0.46875000000000000        0.0000000000000000     
  0.50000000000000000       0.50000000000000000        0.0000000000000000     
  0.53125000000000000       0.50000000000000000        0.0000000000000000     
  0.56250000000000000       0.50000000000000000        0.0000000000000000     
  0.59375000000000000       0.50000000000000000        0.0000000000000000     
  0.62500000000000000       0.50000000000000000        0.0000000000000000     
  0.62500000000000000       0.37500000000000000        0.0000000000000000     
  0.65625000000000000       0.37500000000000000        0.0000000000000000     
  0.68750000000000000       0.37500000000000000        0.0000000000000000     
  0.71875000000000000       0.37500000000000000        0.0000000000000000     
  0.75000000000000000       0.37500000000000000        0.0000000000000000     
  0.62500000000000000       0.40625000000000000        0.0000000000000000     
  0.65625000000000000       0.40625000000000000        0.0000000000000000     
  0.68750000000000000       0.40625000000000000        0.0000000000000000     
  0.71875000000000000       0.40625000000000000        0.0000000000000000     
  0.75000000000000000       0.40625000000000000        0.0000000000000000     
  0.62500000000000000       0.43750000000000000        0.0000000000000000     
  0.65625000000000000       0.43750000000000000        0.0000000000000000     
  0.68750000000000000       0.43750000000000000        0.0000000000000000     
  0.71875000000000000       0.43750000000000000        0.0000000000000000     
  0.75000000000000000       0.43750000000000000        0.0000000000000000     
  0.62500000000000000       0.46875000000000000        0.0000000000000000     
  0.65625000000000000       0.46875000000000000        0.0000000000000000     
  0.68750000000000000       0.46875000000000000        0.0000000000000000     
  0.71875000000000000       0.46875000000000000        0.0000000000000000     
  0.75000000000000000       0.46875000000000000        0.0000000000000000     
  0.62500000000000000       0.50000000000000000        0.0000000000000000     
  0.65625000000000000       0.50000000000000000        0.0000000000000000     
  0.68750000000000000       0.50000000000000000        0.0000000000000000     
  0.71875000000000000       0.50000000000000000        0.0000000000000000     
  0.75000000000000000       0.50000000000000000        0.0000000000000000     
  0.75000000000000000       0.37500000000000000        0.0000000000000000     
  0.78125000000000000       0.37500000000000000        0.0000000000000000     
  0.81250000000000000       0.37500000000000000        0.0000000000000000     
  0.84375000000000000       0.37500000000000000        0.0000000000000000     
  0.87500000000000000       0.37500000000000000        0.0000000000000000     
  0.75000000000000000       0.40625000000000000        0.0000000000000000     
  0.78125000000000000       0.40625000000000000        0.0000000000000000     
  0.81250000000000000       0.40625000000000000        0.0000000000000000     
  0.84375000000000000       0.40625000000000000        0.0000000000000000     
  0.87500000000000000       0.40625000000000000        0.0000000000000000     
  0.75000000000000000       0.43750000000000000        0.0000000000000000     
  0.78125000000000000       0.43750000000000000        0.0000000000000000     
  0.81250000000000000       0.43750000000000000        0.0000000000000000     
  0.84375000000000000       0.43750000000000000        0.0000000000000000     
  0.87500000000000000       0.43750000000000000        0.0000000000000000     
  0.75000000000000000       0.46875000000000000        0.0000000000000000     
  0.78125000000000000       0.46875000000000000        0.0000000000000000     
  0.81250000000000000       0.46875000000000000        0.0000000000000000     
  0.84375000000000000       0.46875000000000000        0.0000000000000000     
  0.87500000000000000       0.46875000000000000        0.0000000000000000     
  0.75000000000000000       0.50000000000000000        0.0000000000000000     
  0.78125000000000000       0.50000000000000000        0.0000000000000000     
  0.81250000000000000       0.50000000000000000        0.0000000000000000     
  0.84375000000000000       0.50000000000000000        0.0000000000000000     
  0.87500000000000000       0.50000000000000000        0.0000000000000000     
  0.87500000000000000       0.37500000000000000        0.0000000000000000     
  0.90625000000000000       0.37500000000000000        0.0000000000000000     
  0.93750000000000000       0.37500000000000000        0.0000000000000000     
  0.96875000000000000       0.37500000000000000        0.0000000000000000     
   1.0000000000000000       0.37500000000000000        0.0000000000000000     
  0.87500000000000000       0.40625000000000000        0.0000000000000000     
  0.90625000000000000       0.40625000000000000        0.0000000000000000     
  0.93750000000000000       0.40625000000000000        0.0000000000000000     
  0.96875000000000000       0.40625000000000000        0.0000000000000000     
   1.0000000000000000       0.40625000000000000        0.0000000000000000     
  0.87500000000000000       0.43750000000000000        0.0000000000000000     
  0.90625000000000000       0.43750000000000000        0.0000000000000000     
  0.93750000000000000       0.43750000000000000        0.0000000000000000     
  0.96875000000000000       0.43750000000000000        0.0000000000000000     
   1.0000000000000000       0.43750000000000000        0.0000000000000000     
  0.87500000000000000       0.46875000000000000        0.0000000000000000     
  0.90625000000000000       0.46875000000000000        0.0000000000000000     
  0.93750000000000000       0.46875000000000000        0.0000000000000000     
  0.96875000000000000       0.46875000000000000        0.0000000000000000     
   1.0000000000000000       0.46875000000000000        0.0000000000000000     
  0.87500000000000000       0.50000000000000000        0.0000000000000000     
  0.90625000000000000       0.50000000000000000        0.0000000000000000     
  0.93750000000000000       0.50000000000000000        0.0000000000000000     
  0.96875000000000000       0.50000000000000000        0.0000000000000000     
   1.0000000000000000       0.50000000000000000        0.0000000000000000     
   0.0000000000000000       0.50000000000000000        0.0000000000000000     
   3.1250000000000000E-002  0.50000000000000000        0.0000000000000000     
   6.2500000000000000E-002  0.50000000000000000        0.0000000000000000     
   9.3750000000000000E-002  0.50000000000000000        0.0000000000000000     
  0.12500000000000000       0.50000000000000000        0.0000000000000000     
   0.0000000000000000       0.53125000000000000        0.0000000000000000     
   3.1250000000000000E-002  0.53125000000000000        0.0000000000000000     
   6.2500000000000000E-002  0.53125000000000000        0.0000000000000000     
   9.3750000000000000E-002  0.53125000000000000        0.0000000000000000     
  0.12500000000000000       0.53125000000000000        0.0000000000000000     
   0.0000000000000000       0.56250000000000000        0.0000000000000000     
   3.1250000000000000E-002  0.56250000000000000        0.0000000000000000     
   6.2500000000000000E-002  0.56250000000000000        0.0000000000000000     
   9.3750000000000000E-002  0.56250000000000000        0.0000000000000000     
  0.12500000000000000       0.56250000000000000        0.0000000000000000     
   0.0000000000000000       0.59375000000000000        0.0000000000000000     
   3.1250000000000000E-002  0.59375000000000000        0.0000000000000000     
   6.2500000000000000E-002  0.59375000000000000        0.0000000000000000     
   9.3750000000000000E-002  0.59375000000000000        0.0000000000000000     
  0.12500000000000000       0.59375000000000000        0.0000000000000000     
   0.0000000000000000       0.62500000000000000        0.0000000000000000     
   3.1250000000000000E-002  0.62500000000000000        0.0000000000000000     
   6.2500000000000000E-002  0.62500000000000000        0.0000000000000000     
   9.3750000000000000E-002  0.62500000000000000        0.0000000000000000     
  0.12500000000000000       0.62500000000000000        0.0000000000000000     
  0.12500000000000000       0.50000000000000000        0.0000000000000000     
  0.15625000000000000       0.50000000000000000        0.0000000000000000     
  0.18750000000000000       0.50000000000000000        0.0000000000000000     
  0.21875000000000000       0.50000000000000000        0.0000000000000000     
  0.25000000000000000       0.50000000000000000        0.0000000000000000     
  0.12500000000000000       0.53125000000000000        0.0000000000000000     
  0.15625000000000000       0.53125000000000000        0.0000000000000000     
  0.18750000000000000       0.53125000000000000        0.0000000000000000     
  0.21875000000000000       0.53125000000000000        0.0000000000000000     
  0.25000000000000000       0.53125000000000000        0.0000000000000000     
  0.12500000000000000       0.56250000000000000        0.0000000000000000     
  0.15625000000000000       0.56250000000000000        0.0000000000000000     
  0.18750000000000000       0.56250000000000000        0.0000000000000000     
  0.21875000000000000       0.56250000000000000        0.0000000000000000     
  0.25000000000000000       0.56250000000000000        0.0000000000000000     
  0.12500000000000000       0.59375000000000000        0.0000000000000000     
  0.15625000000000000       0.59375000000000000        0.0000000000000000     
  0.18750000000000000       0.59375000000000000        0.0000000000000000     
  0.21875000000000000       0.59375000000000000        0.0000000000000000     
  0.25000000000000000       0.59375000000000000        0.0000000000000000     
  0.12500000000000000       0.62500000000000000        0.0000000000000000     
  0.15625000000000000       0.62500000000000000        0.0000000000000000     
  0.18750000000000000       0.62500000000000000        0.0000000000000000     
  0.21875000000000000       0.62500000000000000        0.0000000000000000     
  0.25000000000000000       0.62500000000000000        0.0000000000000000     
  0.25000000000000000       0.50000000000000000        0.0000000000000000     
  0.28125000000000000       0.50000000000000000        0.0000000000000000     
  0.31250000000000000       0.50000000000000000        0.0000000000000000     
  0.34375000000000000       0.50000000000000000        0.0000000000000000     
  0.37500000000000000       0.50000000000000000        0.0000000000000000     
  0.25000000000000000       0.53125000000000000        0.0000000000000000     
  0.28125000000000000       0.53125000000000000        0.0000000000000000     
  0.31250000000000000       0.53125000000000000        0.0000000000000000     
  0.34375000000000000       0.53125000000000000        0.0000000000000000     
  0.37500000000000000       0.53125000000000000        0.0000000000000000     
  0.25000000000000000       0.56250000000000000        0.0000000000000000     
  0.28125000000000000       0.56250000000000000        0.0000000000000000     
  0.31250000000000000       0.56250000000000000        0.0000000000000000     
  0.34375000000000000       0.56250000000000000        0.0000000000000000     
  0.37500000000000000       0.56250000000000000        0.0000000000000000     
  0.25000000000000000       0.59375000000000000        0.0000000000000000     
  0.28125000000000000       0.59375000000000000        0.0000000000000000     
  0.31250000000000000       0.59375000000000000        0.0000000000000000     
  0.34375000000000000       0.59375000000000000        0.0000000000000000     
  0.37500000000000000       0.59375000000000000        0.0000000000000000     
  0.25000000000000000       0.62500000000000000        0.0000000000000000     
  0.28125000000000000       0.62500000000000000        0.0000000000000000     
  0.31250000000000000       0.62500000000000000        0.0000000000000000     
  0.34375000000000000       0.62500000000000000        0.0000000000000000     
  0.37500000000000000       0.62500000000000000        0.0000000000000000     
  0.37500000000000000       0.50000000000000000        0.0000000000000000     
  0.40625000000000000       0.50000000000000000        0.0000000000000000     
  0.43750000000000000       0.50000000000000000        0.0000000000000000     
  0.46875000000000000       0.50000000000000000        0.0000000000000000     
  0.50000000000000000       0.50000000000000000        0.0000000000000000     
  0.37500000000000000       0.53125000000000000        0.0000000000000000     
  0.40625000000000000       0.53125000000000000        0.0000000000000000     
  0.43750000000000000       0.53125000000000000        0.0000000000000000     
  0.46875000000000000       0.53125000000000000        0.0000000000000000     
  0.50000000000000000       0.53125000000000000        0.0000000000000000     
  0.37500000000000000       0.56250000000000000        0.0000000000000000     
  0.40625000000000000       0.56250000000000000        0.0000000000000000     
  0.43750000000000000       0.56250000000000000        0.0000000000000000     
  0.46875000000000000       0.56250000000000000        0.0000000000000000     
  0.50000000000000000       0.56250000000000000        0.0000000000000000     
  0.37500000000000000       0.59375000000000000        0.0000000000000000     
  0.40625000000000000       0.59375000000000000        0.0000000000000000     
  0.43750000000000000       0.59375000000000000        0.0000000000000000     
  0.46875000000000000       0.59375000000000000        0.0000000000000000     
  0.50000000000000000       0.59375000000000000        0.0000000000000000     
  0.37500000000000000       0.62500000000000000        0.0000000000000000     
  0.40625000000000000       0.62500000000000000        0.0000000000000000     
  0.43750000000000000       0.62500000000000000        0.0000000000000000     
  0.46875000000000000       0.62500000000000000        0.0000000000000000     
  0.50000000000000000       0.62500000000000000        0.0000000000000000     
  0.50000000000000000       0.50000000000000000        0.0000000000000000     
  0.53125000000000000       0.50000000000000000        0.0000000000000000     
  0.56250000000000000       0.50000000000000000        0.0000000000000000     
  0.59375000000000000       0.50000000000000000        0.0000000000000000     
  0.62500000000000000       0.50000000000000000        0.0000000000000000     
  0.50000000000000000       0.53125000000000000        0.0000000000000000     
  0.53125000000000000       0.53125000000000000        0.0000000000000000     
  0.56250000000000000       0.53125000000000000        0.0000000000000000     
  0.59375000000000000       0.53125000000000000        0.0000000000000000     
  0.62500000000000000       0.53125000000000000        0.0000000000000000     
  0.50000000000000000       0.56250000000000000        0.0000000000000000     
  0.53125000000000000       0.56250000000000000        0.0000000000000000     
  0.56250000000000000       0.56250000000000000        0.0000000000000000     
  0.59375000000000000       0.56250000000000000        0.0000000000000000     
  0.62500000000000000       0.56250000000000000        0.0000000000000000     
  0.50000000000000000       0.59375000000000000        0.0000000000000000     
  0.53125000000000000       0.59375000000000000        0.0000000000000000     
  0.56250000000000000       0.59375000000000000        0.0000000000000000     
  0.59375000000000000       0.59375000000000000        0.0000000000000000     
  0.62500000000000000       0.59375000000000000        0.0000000000000000     
  0.50000000000000000       0.62500000000000000        0.0000000000000000     
  0.53125000000000000       0.62500000000000000        0.0000000000000000     
  0.56250000000000000       0.62500000000000000        0.0000000000000000     
  0.59375000000000000       0.62500000000000000        0.0000000000000000     
  0.62500000000000000       0.62500000000000000        0.0000000000000000     
  0.62500000000000000       0.50000000000000000        0.0000000000000000     
  0.65625000000000000       0.50000000000000000        0.0000000000000000     
  0.68750000000000000       0.50000000000000000        0.0000000000000000     
  0.71875000000000000       0.50000000000000000        0.0000000000000000     
  0.75000000000000000       0.50000000000000000        0.0000000000000000     
  0.62500000000000000       0.53125000000000000        0.0000000000000000     
  0.65625000000000000       0.53125000000000000        0.0000000000000000     
  0.68750000000000000       0.53125000000000000        0.0000000000000000     
  0.71875000000000000       0.53125000000000000        0.0000000000000000     
  0.75000000000000000       0.53125000000000000        0.0000000000000000     
  0.62500000000000000       0.56250000000000000        0.0000000000000000     
  0.65625000000000000       0.56250000000000000        0.0000000000000000     
  0.68750000000000000       0.56250000000000000        0.0000000000000000     
  0.71875000000000000       0.56250000000000000        0.0000000000000000     
  0.75000000000000000       0.56250000000000000        0.0000000000000000     
  0.62500000000000000       0.59375000000000000        0.0000000000000000     
  0.65625000000000000       0.59375000000000000        0.0000000000000000     
  0.68750000000000000       0.59375000000000000        0.0000000000000000     
  0.71875000000000000       0.59375000000000000        0.0000000000000000     
  0.75000000000000000       0.59375000000000000        0.0000000000000000     
  0.62500000000000000       0.62500000000000000        0.0000000000000000     
  0.65625000000000000       0.62500000000000000        0.0000000000000000     
  0.68750000000000000       0.62500000000000000        0.0000000000000000     
  0.71875000000000000       0.62500000000000000        0.0000000000000000     
  0.75000000000000000       0.62500000000000000        0.0000000000000000     
  0.75000000000000000       0.50000000000000000        0.0000000000000000     
  0.78125000000000000       0.50000000000000000        0.0000000000000000     
  0.81250000000000000       0.50000000000000000        0.0000000000000000     
  0.84375000000000000       0.50000000000000000        0.0000000000000000     
  0.87500000000000000       0.50000000000000000        0.0000000000000000     
  0.75000000000000000       0.53125000000000000        0.0000000000000000     
  0.78125000000000000       0.53125000000000000        0.0000000000000000     
  0.81250000000000000       0.53125000000000000        0.0000000000000000     
  0.84375000000000000       0.53125000000000000        0.0000000000000000     
  0.87500000000000000       0.53125000000000000        0.0000000000000000     
  0.75000000000000000       0.56250000000000000        0.0000000000000000     
  0.78125000000000000       0.56250000000000000        0.0000000000000000     
  0.81250000000000000       0.56250000000000000        0.0000000000000000     
  0.84375000000000000       0.56250000000000000        0.0000000000000000     
  0.87500000000000000       0.56250000000000000        0.0000000000000000     
  0.75000000000000000       0.59375000000000000        0.0000000000000000     
  0.78125000000000000       0.59375000000000000        0.0000000000000000     
  0.81250000000000000       0.59375000000000000        0.0000000000000000     
  0.84375000000000000       0.59375000000000000        0.0000000000000000     
  0.87500000000000000       0.59375000000000000        0.0000000000000000     
  0.75000000000000000       0.62500000000000000        0.0000000000000000     
  0.78125000000000000       0.62500000000000000        0.0000000000000000     
  0.81250000000000000       0.62500000000000000        0.0000000000000000     
  0.84375000000000000       0.62500000000000000        0.0000000000000000     
  0.87500000000000000       0.62500000000000000        0.0000000000000000     
  0.87500000000000000       0.50000000000000000        0.0000000000000000     
  0.90625000000000000       0.50000000000000000        0.0000000000000000     
  0.93750000000000000       0.50000000000000000        0.0000000000000000     
  0.96875000000000000       0.50000000000000000        0.0000000000000000     
   1.0000000000000000       0.50000000000000000        0.0000000000000000     
  0.87500000000000000       0.53125000000000000        0.0000000000000000     
  0.90625000000000000       0.53125000000000000        0.0000000000000000     
  0.93750000000000000       0.53125000000000000        0.0000000000000000     
  0.96875000000000000       0.53125000000000000        0.0000000000000000     
   1.0000000000000000       0.53125000000000000        0.0000000000000000     
  0.87500000000000000       0.56250000000000000        0.0000000000000000     
  0.90625000000000000       0.56250000000000000        0.0000000000000000     
  0.93750000000000000       0.56250000000000000        0.0000000000000000     
  0.96875000000000000       0.56250000000000000        0.0000000000000000     
   1.0000000000000000       0.56250000000000000        0.0000000000000000     
  0.87500000000000000       0.59375000000000000        0.0000000000000000     
  0.90625000000000000       0.59375000000000000        0.0000000000000000     
  0.93750000000000000       0.59375000000000000        0.0000000000000000     
  0.96875000000000000       0.59375000000000000        0.0000000000000000     
   1.0000000000000000       0.59375000000000000        0.0000000000000000     
  0.87500000000000000       0.62500000000000000        0.0000000000000000     
  0.90625000000000000       0.62500000000000000        0.0000000000000000     
  0.93750000000000000       0.62500000000000000        0.0000000000000000     
  0.96875000000000000       0.62500000000000000        0.0000000000000000     
   1.0000000000000000       0.62500000000000000        0.0000000000000000     
   0.0000000000000000       0.62500000000000000        0.0000000000000000     
   3.1250000000000000E-002  0.62500000000000000        0.0000000000000000     
   6.2500000000000000E-002  0.62500000000000000        0.0000000000000000     
   9.3750000000000000E-002  0.62500000000000000        0.0000000000000000     
  0.12500000000000000       0.62500000000000000        0.0000000000000000     
   0.0000000000000000       0.65625000000000000        0.0000000000000000     
   3.1250000000000000E-002  0.65625000000000000        0.0000000000000000     
   6.2500000000000000E-002  0.65625000000000000        0.0000000000000000     
   9.3750000000000000E-002  0.65625000000000000        0.0000000000000000     
  0.12500000000000000       0.65625000000000000        0.0000000000000000     
   0.0000000000000000       0.68750000000000000        0.0000000000000000     
   3.1250000000000000E-002  0.68750000000000000        0.0000000000000000     
   6.2500000000000000E-002  0.68750000000000000        0.0000000000000000     
   9.3750000000000000E-002  0.68750000000000000        0.0000000000000000     
  0.12500000000000000       0.68750000000000000        0.0000000000000000     
   0.0000000000000000       0.71875000000000000        0.0000000000000000     
   3.1250000000000000E-002  0.71875000000000000        0.0000000000000000     
   6.2500000000000000E-002  0.71875000000000000        0.0000000000000000     
   9.3750000000000000E-002  0.71875000000000000        0.0000000000000000     
  0.12500000000000000       0.71875000000000000        0.0000000000000000     
   0.0000000000000000       0.75000000000000000        0.0000000000000000     
   3.1250000000000000E-002  0.75000000000000000        0.0000000000000000     
   6.2500000000000000E-002  0.75000000000000000        0.0000000000000000     
   9.3750000000000000E-002  0.75000000000000000        0.0000000000000000     
  0.12500000000000000       0.75000000000000000        0.0000000000000000     
  0.12500000000000000       0.62500000000000000        0.0000000000000000     
  0.15625000000000000       0.62500000000000000        0.0000000000000000     
  0.18750000000000000       0.62500000000000000        0.0000000000000000     
  0.21875000000000000       0.62500000000000000        0.0000000000000000     
  0.25000000000000000       0.62500000000000000        0.0000000000000000     
  0.12500000000000000       0.65625000000000000        0.0000000000000000     
  0.15625000000000000       0.65625000000000000        0.0000000000000000     
  0.18750000000000000       0.65625000000000000        0.0000000000000000     
  0.21875000000000000       0.65625000000000000        0.0000000000000000     
  0.25000000000000000       0.65625000000000000        0.0000000000000000     
  0.12500000000000000       0.68750000000000000        0.0000000000000000     
  0.15625000000000000       0.68750000000000000        0.0000000000000000     
  0.18750000000000000       0.68750000000000000        0.0000000000000000     
  0.21875000000000000       0.68750000000000000        0.0000000000000000     
  0.25000000000000000       0.68750000000000000        0.0000000000000000     
  0.12500000000000000       0.71875000000000000        0.0000000000000000     
  0.15625000000000000       0.71875000000000000        0.0000000000000000     
  0.18750000000000000       0.71875000000000000        0.0000000000000000     
  0.21875000000000000       0.71875000000000000        0.0000000000000000     
  0.25000000000000000       0.71875000000000000        0.0000000000000000     
  0.12500000000000000       0.75000000000000000        0.0000000000000000     
  0.15625000000000000       0.75000000000000000        0.0000000000000000     
  0.18750000000000000       0.75000000000000000        0.0000000000000000     
  0.21875000000000000       0.75000000000000000        0.0000000000000000     
  0.25000000000000000       0.75000000000000000        0.0000000000000000     
  0.25000000000000000       0.62500000000000000        0.0000000000000000     
  0.28125000000000000       0.62500000000000000        0.0000000000000000     
  0.31250000000000000       0.62500000000000000        0.0000000000000000     
  0.34375000000000000       0.62500000000000000        0.0000000000000000     
  0.37500000000000000       0.62500000000000000        0.0000000000000000     
  0.25000000000000000       0.65625000000000000        0.0000000000000000     
  0.28125000000000000       0.65625000000000000        0.0000000000000000     
  0.31250000000000000       0.65625000000000000        0.0000000000000000     
  0.34375000000000000       0.65625000000000000        0.0000000000000000     
  0.37500000000000000       0.65625000000000000        0.0000000000000000     
  0.25000000000000000       0.68750000000000000        0.0000000000000000     
  0.28125000000000000       0.68750000000000000        0.0000000000000000     
  0.31250000000000000       0.68750000000000000        0.0000000000000000     
  0.34375000000000000       0.68750000000000000        0.0000000000000000     
  0.37500000000000000       0.68750000000000000        0.0000000000000000     
  0.25000000000000000       0.71875000000000000        0.0000000000000000     
  0.28125000000000000       0.71875000000000000        0.0000000000000000     
  0.31250000000000000       0.71875000000000000        0.0000000000000000     
  0.34375000000000000       0.71875000000000000        0.0000000000000000     
  0.37500000000000000       0.71875000000000000        0.0000000000000000     
  0.25000000000000000       0.75000000000000000        0.0000000000000000     
  0.28125000000000000       0.75000000000000000        0.0000000000000000     
  0.31250000000000000       0.75000000000000000        0.0000000000000000     
  0.34375000000000000       0.75000000000000000        0.0000000000000000     
  0.37500000000000000       0.75000000000000000        0.0000000000000000     
  0.37500000000000000       0.62500000000000000        0.0000000000000000     
  0.40625000000000000       0.62500000000000000        0.0000000000000000     
  0.43750000000000000       0.62500000000000000        0.0000000000000000     
  0.46875000000000000       0.62500000000000000        0.0000000000000000     
  0.50000000000000000       0.62500000000000000        0.0000000000000000     
  0.37500000000000000       0.65625000000000000        0.0000000000000000     
  0.40625000000000000       0.65625000000000000        0.0000000000000000     
  0.43750000000000000       0.65625000000000000        0.0000000000000000     
  0.46875000000000000       0.65625000000000000        0.0000000000000000     
  0.50000000000000000       0.65625000000000000        0.0000000000000000     
  0.37500000000000000       0.68750000000000000        0.0000000000000000     
  0.40625000000000000       0.68750000000000000        0.0000000000000000     
  0.43750000000000000       0.68750000000000000        0.0000000000000000     
  0.46875000000000000       0.68750000000000000        0.0000000000000000     
  0.50000000000000000       0.68750000000000000        0.0000000000000000     
  0.37500000000000000       0.71875000000000000        0.0000000000000000     
  0.40625000000000000       0.71875000000000000        0.0000000000000000     
  0.43750000000000000       0.71875000000000000        0.0000000000000000     
  0.46875000000000000       0.71875000000000000        0.0000000000000000     
  0.50000000000000000       0.71875000000000000        0.0000000000000000     
  0.37500000000000000       0.75000000000000000        0.0000000000000000     
  0.40625000000000000       0.75000000000000000        0.0000000000000000     
  0.43750000000000000       0.75000000000000000        0.0000000000000000     
  0.46875000000000000       0.75000000000000000        0.0000000000000000     
  0.50000000000000000       0.75000000000000000        0.0000000000000000     
  0.50000000000000000       0.62500000000000000        0.0000000000000000     
  0.53125000000000000       0.62500000000000000        0.0000000000000000     
  0.56250000000000000       0.62500000000000000        0.0000000000000000     
  0.59375000000000000       0.62500000000000000        0.0000000000000000     
  0.62500000000000000       0.62500000000000000        0.0000000000000000     
  0.50000000000000000       0.65625000000000000        0.0000000000000000     
  0.53125000000000000       0.65625000000000000        0.0000000000000000     
  0.56250000000000000       0.65625000000000000        0.0000000000000000     
  0.59375000000000000       0.65625000000000000        0.0000000000000000     
  0.62500000000000000       0.65625000000000000        0.0000000000000000     
  0.50000000000000000       0.68750000000000000        0.0000000000000000     
  0.53125000000000000       0.68750000000000000        0.0000000000000000     
  0.56250000000000000       0.68750000000000000        0.0000000000000000     
  0.59375000000000000       0.68750000000000000        0.0000000000000000     
  0.62500000000000000       0.68750000000000000        0.0000000000000000     
  0.50000000000000000       0.71875000000000000        0.0000000000000000     
  0.53125000000000000       0.71875000000000000        0.0000000000000000     
  0.56250000000000000       0.71875000000000000        0.0000000000000000     
  0.59375000000000000       0.71875000000000000        0.0000000000000000     
  0.62500000000000000       0.71875000000000000        0.0000000000000000     
  0.50000000000000000       0.75000000000000000        0.0000000000000000     
  0.53125000000000000       0.75000000000000000        0.0000000000000000     
  0.56250000000000000       0.75000000000000000        0.0000000000000000     
  0.59375000000000000       0.75000000000000000        0.0000000000000000     
  0.62500000000000000       0.75000000000000000        0.0000000000000000     
  0.62500000000000000       0.62500000000000000        0.0000000000000000     
  0.65625000000000000       0.62500000000000000        0.0000000000000000     
  0.68750000000000000       0.62500000000000000        0.0000000000000000     
  0.71875000000000000       0.62500000000000000        0.0000000000000000     
  0.75000000000000000       0.62500000000000000        0.0000000000000000     
  0.62500000000000000       0.65625000000000000        0.0000000000000000     
  0.65625000000000000       0.65625000000000000        0.0000000000000000     
  0.68750000000000000       0.65625000000000000        0.0000000000000000     
  0.71875000000000000       0.65625000000000000        0.0000000000000000     
  0.75000000000000000       0.65625000000000000        0.0000000000000000     
  0.62500000000000000       0.68750000000000000        0.0000000000000000     
  0.65625000000000000       0.68750000000000000        0.0000000000000000     
  0.68750000000000000       0.68750000000000000        0.0000000000000000     
  0.71875000000000000       0.68750000000000000        0.0000000000000000     
  0.75000000000000000       0.68750000000000000        0.0000000000000000     
  0.62500000000000000       0.71875000000000000        0.0000000000000000     
  0.65625000000000000       0.71875000000000000        0.0000000000000000     
  0.68750000000000000       0.71875000000000000        0.0000000000000000     
  0.71875000000000000       0.71875000000000000        0.0000000000000000     
  0.75000000000000000       0.71875000000000000        0.0000000000000000     
  0.62500000000000000       0.75000000000000000        0.0000000000000000     
  0.65625000000000000       0.75000000000000000        0.0000000000000000     
  0.68750000000000000       0.75000000000000000        0.0000000000000000     
  0.71875000000000000       0.75000000000000000        0.0000000000000000     
  0.75000000000000000       0.75000000000000000        0.0000000000000000     
  0.75000000000000000       0.62500000000000000        0.0000000000000000     
  0.78125000000000000       0.62500000000000000        0.0000000000000000     
  0.81250000000000000       0.62500000000000000        0.0000000000000000     
  0.84375000000000000       0.62500000000000000        0.0000000000000000     
  0.87500000000000000       0.62500000000000000        0.0000000000000000     
  0.75000000000000000       0.65625000000000000        0.0000000000000000     
  0.78125000000000000       0.65625000000000000        0.0000000000000000     
  0.81250000000000000       0.65625000000000000        0.0000000000000000     
  0.84375000000000000       0.65625000000000000        0.0000000000000000     
  0.87500000000000000       0.65625000000000000        0.0000000000000000     
  0.75000000000000000       0.68750000000000000        0.0000000000000000     
  0.78125000000000000       0.68750000000000000        0.0000000000000000     
  0.81250000000000000       0.68750000000000000        0.0000000000000000     
  0.84375000000000000       0.68750000000000000        0.0000000000000000     
  0.87500000000000000       0.68750000000000000        0.0000000000000000     
  0.75000000000000000       0.71875000000000000        0.0000000000000000     
  0.78125000000000000       0.71875000000000000        0.0000000000000000     
  0.81250000000000000       0.71875000000000000        0.0000000000000000     
  0.84375000000000000       0.71875000000000000        0.0000000000000000     
  0.87500000000000000       0.71875000000000000        0.0000000000000000     
  0.75000000000000000       0.75000000000000000        0.0000000000000000     
  0.78125000000000000       0.75000000000000000        0.0000000000000000     
  0.81250000000000000       0.75000000000000000        0.0000000000000000     
  0.84375000000000000       0.75000000000000000        0.0000000000000000     
  0.87500000000000000       0.75000000000000000        0.0000000000000000     
  0.87500000000000000       0.62500000000000000        0.0000000000000000     
  0.90625000000000000       0.62500000000000000        0.0000000000000000     
  0.93750000000000000       0.62500000000000000        0.0000000000000000     
  0.96875000000000000       0.62500000000000000        0.0000000000000000     
   1.0000000000000000       0.62500000000000000        0.0000000000000000     
  0.87500000000000000       0.65625000000000000        0.0000000000000000     
  0.90625000000000000       0.65625000000000000        0.0000000000000000     
  0.93750000000000000       0.65625000000000000        0.0000000000000000     
  0.96875000000000000       0.65625000000000000        0.0000000000000000     
   1.0000000000000000       0.65625000000000000        0.0000000000000000     
  0.87500000000000000       0.68750000000000000        0.0000000000000000     
  0.90625000000000000       0.68750000000000000        0.0000000000000000     
  0.93750000000000000       0.68750000000000000        0.0000000000000000     
  0.96875000000000000       0.68750000000000000        0.0000000000000000     
   1.0000000000000000       0.68750000000000000        0.0000000000000000     
  0.87500000000000000       0.71875000000000000        0.0000000000000000     
  0.90625000000000000       0.71875000000000000        0.0000000000000000     
  0.93750000000000000       0.71875000000000000        0.0000000000000000     
  0.96875000000000000       0.71875000000000000        0.0000000000000000     
   1.0000000000000000       0.71875000000000000        0.0000000000000000     
  0.87500000000000000       0.75000000000000000        0.0000000000000000     
  0.90625000000000000       0.75000000000000000        0.0000000000000000     
  0.93750000000000000       0.75000000000000000        0.0000000000000000     
  0.96875000000000000       0.75000000000000000        0.0000000000000000     
   1.0000000000000000       0.75000000000000000        0.0000000000000000     
   0.0000000000000000       0.75000000000000000        0.0000000000000000     
   3.1250000000000000E-002  0.75000000000000000        0.0000000000000000     
   6.2500000000000000E-002  0.75000000000000000        0.0000000000000000     
   9.3750000000000000E-002  0.75000000000000000        0.0000000000000000     
  0.12500000000000000       0.75000000000000000        0.0000000000000000     
   0.0000000000000000       0.78125000000000000        0.0000000000000000     
   3.1250000000000000E-002  0.78125000000000000        0.0000000000000000     
   6.2500000000000000E-002  0.78125000000000000        0.0000000000000000     
   9.3750000000000000E-002  0.78125000000000000        0.0000000000000000     
  0.12500000000000000       0.78125000000000000        0.0000000000000000     
   0.0000000000000000       0.81250000000000000        0.0000000000000000     
   3.1250000000000000E-002  0.81250000000000000        0.0000000000000000     
   6.2500000000000000E-002  0.81250000000000000        0.0000000000000000     
   9.3750000000000000E-002  0.81250000000000000        0.0000000000000000     
  0.12500000000000000       0.81250000000000000        0.0000000000000000     
   0.0000000000000000       0.84375000000000000        0.0000000000000000     
   3.1250000000000000E-002  0.84375000000000000        0.0000000000000000     
   6.2500000000000000E-002  0.84375000000000000        0.0000000000000000     
   9.3750000000000000E-002  0.84375000000000000        0.0000000000000000     
  0.12500000000000000       0.84375000000000000        0.0000000000000000     
   0.0000000000000000       0.87500000000000000        0.0000000000000000     
   3.1250000000000000E-002  0.87500000000000000        0.0000000000000000     
   6.2500000000000000E-002  0.87500000000000000        0.0000000000000000     
   9.3750000000000000E-002  0.87500000000000000        0.0000000000000000     
  0.12500000000000000       0.87500000000000000        0.0000000000000000     
  0.12500000000000000       0.75000000000000000        0.0000000000000000     
  0.15625000000000000       0.75000000000000000        0.0000000000000000     
  0.18750000000000000       0.75000000000000000        0.0000000000000000     
  0.21875000000000000       0.75000000000000000        0.0000000000000000     
  0.25000000000000000       0.75000000000000000        0.0000000000000000     
  0.12500000000000000       0.78125000000000000        0.0000000000000000     
  0.15625000000000000       0.78125000000000000        0.0000000000000000     
  0.18750000000000000       0.78125000000000000        0.0000000000000000     
  0.21875000000000000       0.78125000000000000        0.0000000000000000     
  0.25000000000000000       0.78125000000000000        0.0000000000000000     
  0.12500000000000000       0.81250000000000000        0.0000000000000000     
  0.15625000000000000       0.81250000000000000        0.0000000000000000     
  0.18750000000000000       0.81250000000000000        0.0000000000000000     
  0.21875000000000000       0.81250000000000000        0.0000000000000000     
  0.25000000000000000       0.81250000000000000        0.0000000000000000     
  0.12500000000000000       0.84375000000000000        0.0000000000000000     
  0.15625000000000000       0.84375000000000000        0.0000000000000000     
  0.18750000000000000       0.84375000000000000        0.0000000000000000     
  0.21875000000000000       0.84375000000000000        0.0000000000000000     
  0.25000000000000000       0.84375000000000000        0.0000000000000000     
  0.12500000000000000       0.87500000000000000        0.0000000000000000     
  0.15625000000000000       0.87500000000000000        0.0000000000000000     
  0.18750000000000000       0.87500000000000000        0.0000000000000000     
  0.21875000000000000       0.87500000000000000        0.0000000000000000     
  0.25000000000000000       0.87500000000000000        0.0000000000000000     
  0.25000000000000000       0.75000000000000000        0.0000000000000000     
  0.28125000000000000       0.75000000000000000        0.0000000000000000     
  0.31250000000000000       0.75000000000000000        0.0000000000000000     
  0.34375000000000000       0.75000000000000000        0.0000000000000000     
  0.37500000000000000       0.75000000000000000        0.0000000000000000     
  0.25000000000000000       0.78125000000000000        0.0000000000000000     
  0.28125000000000000       0.78125000000000000        0.0000000000000000     
  0.31250000000000000       0.78125000000000000        0.0000000000000000     
  0.34375000000000000       0.78125000000000000        0.0000000000000000     
  0.37500000000000000       0.78125000000000000        0.0000000000000000     
  0.25000000000000000       0.81250000000000000        0.0000000000000000     
  0.28125000000000000       0.81250000000000000        0.0000000000000000     
  0.31250000000000000       0.81250000000000000        0.0000000000000000     
  0.34375000000000000       0.81250000000000000        0.0000000000000000     
  0.37500000000000000       0.81250000000000000        0.0000000000000000     
  0.25000000000000000       0.84375000000000000        0.0000000000000000     
  0.28125000000000000       0.84375000000000000        0.0000000000000000     
  0.31250000000000000       0.84375000000000000        0.0000000000000000     
  0.34375000000000000       0.84375000000000000        0.0000000000000000     
  0.37500000000000000       0.84375000000000000        0.0000000000000000     
  0.25000000000000000       0.87500000000000000        0.0000000000000000     
  0.28125000000000000       0.87500000000000000        0.0000000000000000     
  0.31250000000000000       0.87500000000000000        0.0000000000000000     
  0.34375000000000000       0.87500000000000000        0.0000000000000000     
  0.37500000000000000       0.87500000000000000        0.0000000000000000     
  0.37500000000000000       0.75000000000000000        0.0000000000000000     
  0.40625000000000000       0.75000000000000000        0.0000000000000000     
  0.43750000000000000       0.75000000000000000        0.0000000000000000     
  0.46875000000000000       0.75000000000000000        0.0000000000000000     
  0.50000000000000000       0.75000000000000000        0.0000000000000000     
  0.37500000000000000       0.78125000000000000        0.0000000000000000     
  0.40625000000000000       0.78125000000000000        0.0000000000000000     
  0.43750000000000000       0.78125000000000000        0.0000000000000000     
  0.46875000000000000       0.78125000000000000        0.0000000000000000     
  0.50000000000000000       0.78125000000000000        0.0000000000000000     
  0.37500000000000000       0.81250000000000000        0.0000000000000000     
  0.40625000000000000       0.81250000000000000        0.0000000000000000     
  0.43750000000000000       0.81250000000000000        0.0000000000000000     
  0.46875000000000000       0.81250000000000000        0.0000000000000000     
  0.50000000000000000       0.81250000000000000        0.0000000000000000     
  0.37500000000000000       0.84375000000000000        0.0000000000000000     
  0.40625000000000000       0.84375000000000000        0.0000000000000000     
  0.43750000000000000       0.84375000000000000        0.0000000000000000     
  0.46875000000000000       0.84375000000000000        0.0000000000000000     
  0.50000000000000000       0.84375000000000000        0.0000000000000000     
  0.37500000000000000       0.87500000000000000        0.0000000000000000     
  0.40625000000000000       0.87500000000000000        0.0000000000000000     
  0.43750000000000000       0.87500000000000000        0.0000000000000000     
  0.46875000000000000       0.87500000000000000        0.0000000000000000     
  0.50000000000000000       0.87500000000000000        0.0000000000000000     
  0.50000000000000000       0.75000000000000000        0.0000000000000000     
  0.53125000000000000       0.75000000000000000        0.0000000000000000     
  0.56250000000000000       0.75000000000000000        0.0000000000000000     
  0.59375000000000000       0.75000000000000000        0.0000000000000000     
  0.62500000000000000       0.75000000000000000        0.0000000000000000     
  0.50000000000000000       0.78125000000000000        0.0000000000000000     
  0.53125000000000000       0.78125000000000000        0.0000000000000000     
  0.56250000000000000       0.78125000000000000        0.0000000000000000     
  0.59375000000000000       0.78125000000000000        0.0000000000000000     
  0.62500000000000000       0.78125000000000000        0.0000000000000000     
  0.50000000000000000       0.81250000000000000        0.0000000000000000     
  0.53125000000000000       0.81250000000000000        0.0000000000000000     
  0.56250000000000000       0.81250000000000000        0.0000000000000000     
  0.59375000000000000       0.81250000000000000        0.0000000000000000     
  0.62500000000000000       0.81250000000000000        0.0000000000000000     
  0.50000000000000000       0.84375000000000000        0.0000000000000000     
  0.53125000000000000       0.84375000000000000        0.0000000000000000     
  0.56250000000000000       0.84375000000000000        0.0000000000000000     
  0.59375000000000000       0.84375000000000000        0.0000000000000000     
  0.62500000000000000       0.84375000000000000        0.0000000000000000     
  0.50000000000000000       0.87500000000000000        0.0000000000000000     
  0.53125000000000000       0.87500000000000000        0.0000000000000000     
  0.56250000000000000       0.87500000000000000        0.0000000000000000     
  0.59375000000000000       0.87500000000000000        0.0000000000000000     
  0.62500000000000000       0.87500000000000000        0.0000000000000000     
  0.62500000000000000       0.75000000000000000        0.0000000000000000     
  0.65625000000000000       0.75000000000000000        0.0000000000000000     
  0.68750000000000000       0.75000000000000000        0.0000000000000000     
  0.71875000000000000       0.75000000000000000        0.0000000000000000     
  0.75000000000000000       0.75000000000000000        0.0000000000000000     
  0.62500000000000000       0.78125000000000000        0.0000000000000000     
  0.65625000000000000       0.78125000000000000        0.0000000000000000     
  0.68750000000000000       0.78125000000000000        0.0000000000000000     
  0.71875000000000000       0.78125000000000000        0.0000000000000000     
  0.75000000000000000       0.78125000000000000        0.0000000000000000     
  0.62500000000000000       0.81250000000000000        0.0000000000000000     
  0.65625000000000000       0.81250000000000000        0.0000000000000000     
  0.68750000000000000       0.81250000000000000        0.0000000000000000     
  0.71875000000000000       0.81250000000000000        0.0000000000000000     
  0.75000000000000000       0.81250000000000000        0.0000000000000000     
  0.62500000000000000       0.84375000000000000        0.0000000000000000     
  0.65625000000000000       0.84375000000000000        0.0000000000000000     
  0.68750000000000000       0.84375000000000000        0.0000000000000000     
  0.71875000000000000       0.84375000000000000        0.0000000000000000     
  0.75000000000000000       0.84375000000000000        0.0000000000000000     
  0.62500000000000000       0.87500000000000000        0.0000000000000000     
  0.65625000000000000       0.87500000000000000        0.0000000000000000     
  0.68750000000000000       0.87500000000000000        0.0000000000000000     
  0.71875000000000000       0.87500000000000000        0.0000000000000000     
  0.75000000000000000       0.87500000000000000        0.0000000000000000     
  0.75000000000000000       0.75000000000000000        0.0000000000000000     
  0.78125000000000000       0.75000000000000000        0.0000000000000000     
  0.81250000000000000       0.75000000000000000        0.0000000000000000     
  0.84375000000000000       0.75000000000000000        0.0000000000000000     
  0.87500000000000000       0.75000000000000000        0.0000000000000000     
  0.75000000000000000       0.78125000000000000        0.0000000000000000     
  0.78125000000000000       0.78125000000000000        0.0000000000000000     
  0.81250000000000000       0.78125000000000000        0.0000000000000000     
  0.84375000000000000       0.78125000000000000        0.0000000000000000     
  0.87500000000000000       0.78125000000000000        0.0000000000000000     
  0.75000000000000000       0.81250000000000000        0.0000000000000000     
  0.78125000000000000       0.81250000000000000        0.0000000000000000     
  0.81250000000000000       0.81250000000000000        0.0000000000000000     
  0.84375000000000000       0.81250000000000000        0.0000000000000000     
  0.87500000000000000       0.81250000000000000        0.0000000000000000     
  0.75000000000000000       0.84375000000000000        0.0000000000000000     
  0.78125000000000000       0.84375000000000000        0.0000000000000000     
  0.81250000000000000       0.84375000000000000        0.0000000000000000     
  0.84375000000000000       0.84375000000000000        0.0000000000000000     
  0.87500000000000000       0.84375000000000000        0.0000000000000000     
  0.75000000000000000       0.87500000000000000        0.0000000000000000     
  0.78125000000000000       0.87500000000000000        0.0000000000000000     
  0.81250000000000000       0.87500000000000000        0.0000000000000000     
  0.84375000000000000       0.87500000000000000        0.0000000000000000     
  0.87500000000000000       0.87500000000000000        0.0000000000000000     
  0.87500000000000000       0.75000000000000000        0.0000000000000000     
  0.90625000000000000       0.75000000000000000        0.0000000000000000     
  0.93750000000000000       0.75000000000000000        0.0000000000000000     
  0.96875000000000000       0.75000000000000000        0.0000000000000000     
   1.0000000000000000       0.75000000000000000        0.0000000000000000     
  0.87500000000000000       0.78125000000000000        0.0000000000000000     
  0.90625000000000000       0.78125000000000000        0.0000000000000000     
  0.93750000000000000       0.78125000000000000        0.0000000000000000     
  0.96875000000000000       0.78125000000000000        0.0000000000000000     
   1.0000000000000000       0.78125000000000000        0.0000000000000000     
  0.87500000000000000       0.81250000000000000        0.0000000000000000     
  0.90625000000000000       0.81250000000000000        0.0000000000000000     
  0.93750000000000000       0.81250000000000000        0.0000000000000000     
  0.96875000000000000       0.81250000000000000        0.0000000000000000     
   1.0000000000000000       0.81250000000000000        0.0000000000000000     
  0.87500000000000000       0.84375000000000000        0.0000000000000000     
  0.90625000000000000       0.84375000000000000        0.0000000000000000     
  0.93750000000000000       0.84375000000000000        0.0000000000000000     
  0.96875000000000000       0.84375000000000000        0.0000000000000000     
   1.0000000000000000       0.84375000000000000        0.0000000000000000     
  0.87500000000000000       0.87500000000000000        0.0000000000000000     
  0.90625000000000000       0.87500000000000000        0.0000000000000000     
  0.93750000000000000       0.87500000000000000        0.0000000000000000     
  0.96875000000000000       0.87500000000000000        0.0000000000000000     
   1.0000000000000000       0.87500000000000000        0.0000000000000000     
   0.0000000000000000       0.87500000000000000        0.0000000000000000     
   3.1250000000000000E-002  0.87500000000000000        0.0000000000000000     
   6.2500000000000000E-002  0.87500000000000000        0.0000000000000000     
   9.3750000000000000E-002  0.87500000000000000        0.0000000000000000     
  0.12500000000000000       0.87500000000000000        0.0000000000000000     
   0.0000000000000000       0.90625000000000000        0.0000000000000000     
   3.1250000000000000E-002  0.90625000000000000        0.0000000000000000     
   6.2500000000000000E-002  0.90625000000000000        0.0000000000000000     
   9.3750000000000000E-002  0.90625000000000000        0.0000000000000000     
  0.12500000000000000       0.90625000000000000        0.0000000000000000     
   0.0000000000000000       0.93750000000000000        0.0000000000000000     
   3.1250000000000000E-002  0.93750000000000000        0.0000000000000000     
   6.2500000000000000E-002  0.93750000000000000        0.0000000000000000     
   9.3750000000000000E-002  0.93750000000000000        0.0000000000000000     
  0.12500000000000000       0.93750000000000000        0.0000000000000000     
   0.0000000000000000       0.96875000000000000        0.0000000000000000     
   3.1250000000000000E-002  0.96875000000000000        0.0000000000000000     
   6.2500000000000000E-002  0.96875000000000000        0.0000000000000000     
   9.3750000000000000E-002  0.96875000000000000        0.0000000000000000     
  0.12500000000000000       0.96875000000000000        0.0000000000000000     
   0.0000000000000000        1.0000000000000000        0.0000000000000000     
   3.1250000000000000E-002   1.0000000000000000        0.0000000000000000     
   6.2500000000000000E-002   1.0000000000000000        0.0000000000000000     
   9.3750000000000000E-002   1.0000000000000000        0.0000000000000000     
  0.12500000000000000        1.0000000000000000        0.0000000000000000     
  0.12500000000000000       0.87500000000000000        0.0000000000000000     
  0.15625000000000000       0.87500000000000000        0.0000000000000000     
  0.18750000000000000       0.87500000000000000        0.0000000000000000     
  0.21875000000000000       0.87500000000000000        0.0000000000000000     
  0.25000000000000000       0.87500000000000000        0.0000000000000000     
  0.12500000000000000       0.90625000000000000        0.0000000000000000     
  0.15625000000000000       0.90625000000000000        0.0000000000000000     
  0.18750000000000000       0.90625000000000000        0.0000000000000000     
  0.21875000000000000       0.90625000000000000        0.0000000000000000     
  0.25000000000000000       0.90625000000000000        0.0000000000000000     
  0.12500000000000000       0.93750000000000000        0.0000000000000000     
  0.15625000000000000       0.93750000000000000        0.0000000000000000     
  0.18750000000000000       0.93750000000000000        0.0000000000000000     
  0.21875000000000000       0.93750000000000000        0.0000000000000000     
  0.25000000000000000       0.93750000000000000        0.0000000000000000     
  0.12500000000000000       0.96875000000000000        0.0000000000000000     
  0.15625000000000000       0.96875000000000000        0.0000000000000000     
  0.18750000000000000       0.96875000000000000        0.0000000000000000     
  0.21875000000000000       0.96875000000000000        0.0000000000000000     
  0.25000000000000000       0.96875000000000000        0.0000000000000000     
  0.12500000000000000        1.0000000000000000        0.0000000000000000     
  0.15625000000000000        1.0000000000000000        0.0000000000000000     
  0.18750000000000000        1.0000000000000000        0.0000000000000000     
  0.21875000000000000        1.0000000000000000        0.0000000000000000     
  0.25000000000000000        1.0000000000000000        0.0000000000000000     
  0.25000000000000000       0.87500000000000000        0.0000000000000000     
  0.28125000000000000       0.87500000000000000        0.0000000000000000     
  0.31250000000000000       0.87500000000000000        0.0000000000000000     
  0.34375000000000000       0.87500000000000000        0.0000000000000000     
  0.37500000000000000       0.87500000000000000        0.0000000000000000     
  0.25000000000000000       0.90625000000000000        0.0000000000000000     
  0.28125000000000000       0.90625000000000000        0.0000000000000000     
  0.31250000000000000       0.90625000000000000        0.0000000000000000     
  0.34375000000000000       0.90625000000000000        0.0000000000000000     
  0.37500000000000000       0.90625000000000000        0.0000000000000000     
  0.25000000000000000       0.93750000000000000        0.0000000000000000     
  0.28125000000000000       0.93750000000000000        0.0000000000000000     
  0.31250000000000000       0.93750000000000000        0.0000000000000000     
  0.34375000000000000       0.93750000000000000        0.0000000000000000     
  0.37500000000000000       0.93750000000000000        0.0000000000000000     
  0.25000000000000000       0.96875000000000000        0.0000000000000000     
  0.28125000000000000       0.96875000000000000        0.0000000000000000     
  0.31250000000000000       0.96875000000000000        0.0000000000000000     
  0.34375000000000000       0.96875000000000000        0.0000000000000000     
  0.37500000000000000       0.96875000000000000        0.0000000000000000     
  0.25000000000000000        1.0000000000000000        0.0000000000000000     
  0.28125000000000000        1.0000000000000000        0.0000000000000000     
  0.31250000000000000        1.0000000000000000        0.0000000000000000     
  0.34375000000000000        1.0000000000000000        0.0000000000000000     
  0.37500000000000000        1.0000000000000000        0.0000000000000000     
  0.37500000000000000       0.87500000000000000        0.0000000000000000     
  0.40625000000000000       0.87500000000000000        0.0000000000000000     
  0.43750000000000000       0.87500000000000000        0.0000000000000000     
  0.46875000000000000       0.87500000000000000        0.0000000000000000     
  0.50000000000000000       0.87500000000000000        0.0000000000000000     
  0.37500000000000000       0.90625000000000000        0.0000000000000000     
  0.40625000000000000       0.90625000000000000        0.0000000000000000     
  0.43750000000000000       0.90625000000000000        0.0000000000000000     
  0.46875000000000000       0.90625000000000000        0.0000000000000000     
  0.50000000000000000       0.90625000000000000        0.0000000000000000     
  0.37500000000000000       0.93750000000000000        0.0000000000000000     
  0.40625000000000000       0.93750000000000000        0.0000000000000000     
  0.43750000000000000       0.93750000000000000        0.0000000000000000     
  0.46875000000000000       0.93750000000000000        0.0000000000000000     
  0.50000000000000000       0.93750000000000000        0.0000000000000000     
  0.37500000000000000       0.96875000000000000        0.0000000000000000     
  0.40625000000000000       0.96875000000000000        0.0000000000000000     
  0.43750000000000000       0.96875000000000000        0.0000000000000000     
  0.46875000000000000       0.96875000000000000        0.0000000000000000     
  0.50000000000000000       0.96875000000000000        0.0000000000000000     
  0.37500000000000000        1.0000000000000000        0.0000000000000000     
  0.40625000000000000        1.0000000000000000        0.0000000000000000     
  0.43750000000000000        1.0000000000000000        0.0000000000000000     
  0.46875000000000000        1.0000000000000000        0.0000000000000000     
  0.50000000000000000        1.0000000000000000        0.0000000000000000     
  0.50000000000000000       0.87500000000000000        0.0000000000000000     
  0.53125000000000000       0.87500000000000000        0.0000000000000000     
  0.56250000000000000       0.87500000000000000        0.0000000000000000     
  0.59375000000000000       0.87500000000000000        0.0000000000000000     
  0.62500000000000000       0.87500000000000000        0.0000000000000000     
  0.50000000000000000       0.90625000000000000        0.0000000000000000     
  0.53125000000000000       0.90625000000000000        0.0000000000000000     
  0.56250000000000000       0.90625000000000000        0.0000000000000000     
  0.59375000000000000       0.90625000000000000        0.0000000000000000     
  0.62500000000000000       0.90625000000000000        0.0000000000000000     
  0.50000000000000000       0.93750000000000000        0.0000000000000000     
  0.53125000000000000       0.93750000000000000        0.0000000000000000     
  0.56250000000000000       0.93750000000000000        0.0000000000000000     
  0.59375000000000000       0.93750000000000000        0.0000000000000000     
  0.62500000000000000       0.93750000000000000        0.0000000000000000     
  0.50000000000000000       0.96875000000000000        0.0000000000000000     
  0.53125000000000000       0.96875000000000000        0.0000000000000000     
  0.56250000000000000       0.96875000000000000        0.0000000000000000     
  0.59375000000000000       0.96875000000000000        0.0000000000000000     
  0.62500000000000000       0.96875000000000000        0.0000000000000000     
  0.50000000000000000        1.0000000000000000        0.0000000000000000     
  0.53125000000000000        1.0000000000000000        0.0000000000000000     
  0.56250000000000000        1.0000000000000000        0.0000000000000000     
  0.59375000000000000        1.0000000000000000        0.0000000000000000     
  0.62500000000000000        1.0000000000000000        0.0000000000000000     
  0.62500000000000000       0.87500000000000000        0.0000000000000000     
  0.65625000000000000       0.87500000000000000        0.0000000000000000     
  0.68750000000000000       0.87500000000000000        0.0000000000000000     
  0.71875000000000000       0.87500000000000000        0.0000000000000000     
  0.75000000000000000       0.87500000000000000        0.0000000000000000     
  0.62500000000000000       0.90625000000000000        0.0000000000000000     
  0.65625000000000000       0.90625000000000000        0.0000000000000000     
  0.68750000000000000       0.90625000000000000        0.0000000000000000     
  0.71875000000000000       0.90625000000000000        0.0000000000000000     
  0.75000000000000000       0.90625000000000000        0.0000000000000000     
  0.62500000000000000       0.93750000000000000        0.0000000000000000     
  0.65625000000000000       0.93750000000000000        0.0000000000000000     
  0.68750000000000000       0.93750000000000000        0.0000000000000000     
  0.71875000000000000       0.93750000000000000        0.0000000000000000     
  0.75000000000000000       0.93750000000000000        0.0000000000000000     
  0.62500000000000000       0.96875000000000000        0.0000000000000000     
  0.65625000000000000       0.96875000000000000        0.0000000000000000     
  0.68750000000000000       0.96875000000000000        0.0000000000000000     
  0.71875000000000000       0.96875000000000000        0.0000000000000000     
  0.75000000000000000       0.96875000000000000        0.0000000000000000     
  0.62500000000000000        1.0000000000000000        0.0000000000000000     
  0.65625000000000000        1.0000000000000000        0.0000000000000000     
  0.68750000000000000        1.0000000000000000        0.0000000000000000     
  0.71875000000000000        1.0000000000000000        0.0000000000000000     
  0.75000000000000000        1.0000000000000000        0.0000000000000000     
  0.75000000000000000       0.87500000000000000        0.0000000000000000     
  0.78125000000000000       0.87500000000000000        0.0000000000000000     
  0.81250000000000000       0.87500000000000000        0.0000000000000000     
  0.84375000000000000       0.87500000000000000        0.0000000000000000     
  0.87500000000000000       0.87500000000000000        0.0000000000000000     
  0.75000000000000000       0.90625000000000000        0.0000000000000000     
  0.78125000000000000       0.90625000000000000        0.0000000000000000     
  0.81250000000000000       0.90625000000000000        0.0000000000000000     
  0.84375000000000000       0.90625000000000000        0.0000000000000000     
  0.87500000000000000       0.90625000000000000        0.0000000000000000     
  0.75000000000000000       0.93750000000000000        0.0000000000000000     
  0.78125000000000000       0.93750000000000000        0.0000000000000000     
  0.81250000000000000       0.93750000000000000        0.0000000000000000     
  0.84375000000000000       0.93750000000000000        0.0000000000000000     
  0.87500000000000000       0.93750000000000000        0.0000000000000000     
  0.75000000000000000       0.96875000000000000        0.0000000000000000     
  0.78125000000000000       0.96875000000000000        0.0000000000000000     
  0.81250000000000000       0.96875000000000000        0.0000000000000000     
  0.84375000000000000       0.96875000000000000        0.0000000000000000     
  0.87500000000000000       0.96875000000000000        0.0000000000000000     
  0.75000000000000000        1.0000000000000000        0.0000000000000000     
  0.78125000000000000        1.0000000000000000        0.0000000000000000     
  0.81250000000000000        1.0000000000000000        0.0000000000000000     
  0.84375000000000000        1.0000000000000000        0.0000000000000000     
  0.87500000000000000        1.0000000000000000        0.0000000000000000     
  0.87500000000000000       0.87500000000000000        0.0000000000000000     
  0.90625000000000000       0.87500000000000000        0.0000000000000000     
  0.93750000000000000       0.87500000000000000        0.0000000000000000     
  0.96875000000000000       0.87500000000000000        0.0000000000000000     
   1.0000000000000000       0.87500000000000000        0.0000000000000000     
  0.87500000000000000       0.90625000000000000        0.0000000000000000     
  0.90625000000000000       0.90625000000000000        0.0000000000000000     
  0.93750000000000000       0.90625000000000000        0.0000000000000000     
  0.96875000000000000       0.90625000000000000        0.0000000000000000     
   1.0000000000000000       0.90625000000000000        0.0000000000000000     
  0.87500000000000000       0.93750000000000000        0.0000000000000000     
  0.90625000000000000       0.93750000000000000        0.0000000000000000     
  0.93750000000000000       0.93750000000000000        0.0000000000000000     
  0.96875000000000000       0.93750000000000000        0.0000000000000000     
   1.0000000000000000       0.93750000000000000        0.0000000000000000     
  0.87500000000000000       0.96875000000000000        0.0000000000000000     
  0.90625000000000000       0.96875000000000000        0.0000000000000000     
  0.93750000000000000       0.96875000000000000        0.0000000000000000     
  0.96875000000000000       0.96875000000000000        0.0000000000000000     
   1.0000000000000000       0.96875000000000000        0.0000000000000000     
  0.87500000000000000        1.0000000000000000        0.0000000000000000     
  0.90625000000000000        1.0000000000000000        0.0000000000000000     
  0.93750000000000000        1.0000000000000000        0.0000000000000000     
  0.96875000000000000        1.0000000000000000        0.0000000000000000     
   1.0000000000000000        1.0000000000000000        0.0000000000000000     
 </DataArray>
 </Points>
 <Cells>
 <DataArray  type="Int32"  Name="connectivity"  format="ascii">
           0           1           6           5
           1           2           7           6
           2           3           8           7
           3           4           9           8
           5           6          11          10
           6           7          12          11
           7           8          13          12
           8           9          14          13
          10          11          16          15
          11          12          17          16
          12          13          18          17
          13          14          19          18
          15          16          21          20
          16          17          22          21
          17          18          23          22
          18          19          24          23
          25          26          31          30
          26          27          32          31
          27          28          33          32
          28          29          34          33
          30          31          36          35
          31          32          37          36
          32          33          38          37
          33          34          39          38
          35          36          41          40
          36          37          42          41
          37          38          43          42
          38          39          44          43
          40          41          46          45
          41          42          47          46
          42          43          48          47
          43          44          49          48
          50          51          56          55
          51          52          57          56
          52          53          58          57
          53          54          59          58
          55          56          61          60
          56          57          62          61
          57          58          63          62
          58          59          64          63
          60          61          66          65
          61          62          67          66
          62          63          68          67
          63          64          69          68
          65          66          71          70
          66          67          72          71
          67          68          73          72
          68          69          74          73
          75          76          81          80
          76          77          82          81
          77          78          83          82
          78          79          84          83
          80          81          86          85
          81          82          87          86
          82          83          88          87
          83          84          89          88
          85          86          91          90
          86          87          92          91
          87          88          93          92
          88          89          94          93
          90          91          96          95
          91          92          97          96
          92          93          98          97
          93          94          99          98
         100         101         106         105
         101         102         107         106
         102         103         108         107
         103         104         109         108
         105         106         111         110
         106         107         112         111
         107         108         113         112
         108         109         114         113
         110         111         116         115
         111         112         117         116
         112         113         118         117
         113         114         119         118
         115         116         121         120
         116         117         122         121
         117         118         123         122
         118         119         124         123
         125         126         131         130
         126         127         132         131
         127         128         133         132
         128         129         134         133
         130         131         136         135
         131         132         137         136
         132         133         138         137
         133         134         139         138
         135         136         141         140
         136         137         142         141
         137         138         143         142
         138         139         144         143
         140         141         146         145
         141         142         147         146
         142         143         148         147
         143         144         149         148
         150         151         156         155
         151         152         157         156
         152         153         158         157
         153         154         159         158
         155         156         161         160
         156         157         162         161
         157         158         163         162
         158         159         164         163
         160         161         166         165
         161         162         167         166
         162         163         168         167
         163         164         169         168
         165         166         171         170
         166         167         172         171
         167         168         173         172
         168         169         174         173
         175         176         181         180
         176         177         182         181
         177         178         183         182
         178         179         184         183
         180         181         186         185
         181         182         187         186
         182         183         188         187
         183         184         189         188
         185         186         191         190
         186         187         192         191
         187         188         193         192
         188         189         194         193
         190         191         196         195
         191         192         197         196
         192         193         198         197
         193         194         199         198
         200         201         206         205
         201         202         207         206
         202         203         208         207
         203         204         209         208
         205         206         211         210
         206         207         212         211
         207         208         213         212
         208         209         214         213
         210         211         216         215
         211         212         217         216
         212         213         218         217
         213         214         219         218
         215         216         221         220
         216         217         222         221
         217         218         223         222
         218         219         224         223
         225         226         231         230
         226         227         232         231
         227         228         233         232
         228         229         234         233
         230         231         236         235
         231         232         237         236
         232         233         238         237
         233         234         239         238
         235         236         241         240
         236         237         242         241
         237         238         243         242
         238         239         244         243
         240         241         246         245
         241         242         247         246
         242         243         248         247
         243         244         249         248
         250         251         256         255
         251         252         257         256
         252         253         258         257
         253         254         259         258
         255         256         261         260
         256         257         262         261
         257         258         263         262
         258         259         264         263
         260         261         266         265
         261         262         267         266
         262         263         268         267
         263         264         269         268
         265         266         271         270
         266         267         272         271
         267         268         273         272
         268         269         274         273
         275         276         281         280
         276         277         282         281
         277         278         283         282
         278         279         284         283
         280         281         286         285
         281         282         287         286
         282         283         288         287
         283         284         289         288
         285         286         291         290
         286         287         292         291
         287         288         293         292
         288         289         294         293
         290         291         296         295
         291         292         297         296
         292         293         298         297
         293         294         299         298
         300         301         306         305
         301         302         307         306
         302         303         308         307
         303         304         309         308
         305         306         311         310
         306         307         312         311
         307         308         313         312
         308         309         314         313
         310         311         316         315
         311         312         317         316
         312         313         318         317
         313         314         319         318
         315         316         321         320
         316         317         322         321
         317         318         323         322
         318         319         324         323
         325         326         331         330
         326         327         332         331
         327         328         333         332
         328         329         334         333
         330         331         336         335
         331         332         337         336
         332         333         338         337
         333         334         339         338
         335         336         341         340
         336         337         342         341
         337         338         343         342
         338         339         344         343
         340         341         346         345
         341         342         347         346
         342         343         348         347
         343         344         349         348
         350         351         356         355
         351         352         357         356
         352         353         358         357
         353         354         359         358
         355         356         361         360
         356         357         362         361
         357         358         363         362
         358         359         364         363
         360         361         366         365
         361         362         367         366
         362         363         368         367
         363         364         369         368
         365         366         371         370
         366         367         372         371
         367         368         373         372
         368         369         374         373
         375         376         381         380
         376         377         382         381
         377         378         383         382
         378         379         384         383
         380         381         386         385
         381         382         387         386
         382         383         388         387
         383         384         389         388
         385         386         391         390
         386         387         392         391
         387         388         393         392
         388         389         394         393
         390         391         396         395
         391         392         397         396
         392         393         398         397
         393         394         399         398
         400         401         406         405
         401         402         407         406
         402         403         408         407
         403         404         409         408
         405         406         411         410
         406         407         412         411
         407         408         413         412
         408         409         414         413
         410         411         416         415
         411         412         417         416
         412         413         418         417
         413         414         419         418
         415         416         421         420
         416         417         422         421
         417         418         423         422
         418         419         424         423
         425         426         431         430
         426         427         432         431
         427         428         433         432
         428         429         434         433
         430         431         436         435
         431         432         437         436
         432         433         438         437
         433         434         439         438
         435         436         441         440
         436         437         442         441
         437         438         443         442
         438         439         444         443
         440         441         446         445
         441         442         447         446
         442         443         448         447
         443         444         449         448
         450         451         456         455
         451         452         457         456
         452         453         458         457
         453         454         459         458
         455         456         461         460
         456         457         462         461
         457         458         463         462
         458         459         464         463
         460         461         466         465
         461         462         467         466
         462         463         468         467
         463         464         469         468
         465         466         471         470
         466         467         472         471
         467         468         473         472
         468         469         474         473
         475         476         481         480
         476         477         482         481
         477         478         483         482
         478         479         484         483
         480         481         486         485
         481         482         487         486
         482         483         488         487
         483         484         489         488
         485         486         491         490
         486         487         492         491
         487         488         493         492
         488         489         494         493
         490         491         496         495
         491         492         497         496
         492         493         498         497
         493         494         499         498
         500         501         506         505
         501         502         507         506
         502         503         508         507
         503         504         509         508
         505         506         511         510
         506         507         512         511
         507         508         513         512
         508         509         514         513
         510         511         516         515
         511         512         517         516
         512         513         518         517
         513         514         519         518
         515         516         521         520
         516         517         522         521
         517         518         523         522
         518         519         524         523
         525         526         531         530
         526         527         532         531
         527         528         533         532
         528         529         534         533
         530         531         536         535
         531         532         537         536
         532         533         538         537
         533         534         539         538
         535         536         541         540
         536         537         542         541
         537         538         543         542
         538         539         544         543
         540         541         546         545
         541         542         547         546
         542         543         548         547
         543         544         549         548
         550         551         556         555
         551         552         557         556
         552         553         558         557
         553         554         559         558
         555         556         561         560
         556         557         562         561
         557         558         563         562
         558         559         564         563
         560         561         566         565
         561         562         567         566
         562         563         568         567
         563         564         569         568
         565         566         571         570
         566         567         572         571
         567         568         573         572
         568         569         574         573
         575         576         581         580
         576         577         582         581
         577         578         583         582
         578         579         584         583
         580         581         586         585
         581         582         587         586
         582         583         588         587
         583         584         589         588
         585         586         591         590
         586         587         592         591
         587         588         593         592
         588         589         594         593
         590         591         596         595
         591         592         597         596
         592         593         598         597
         593         594         599         598
         600         601         606         605
         601         602         607         606
         602         603         608         607
         603         604         609         608
         605         606         611         610
         606         607         612         611
         607         608         613         612
         608         609         614         613
         610         611         616         615
         611         612         617         616
         612         613         618         617
         613         614         619         618
         615         616         621         620
         616         617         622         621
         617         618         623         622
         618         619         624         623
         625         626         631         630
         626         627         632         631
         627         628         633         632
         628         629         634         633
         630         631         636         635
         631         632         637         636
         632         633         638         637
         633         634         639         638
         635         636         641         640
         636         637         642         641
         637         638         643         642
         638         639         644         643
         640         641         646         645
         641         642         647         646
         642         643         648         647
         643         644         649         648
         650         651         656         655
         651         652         657         656
         652         653         658         657
         653         654         659         658
         655         656         661         660
         656         657         662         661
         657         658         663         662
         658         659         664         663
         660         661         666         665
         661         662         667         666
         662         663         668         667
         663         664         669         668
         665         666         671         670
         666         667         672         671
         667         668         673         672
         668         669         674         673
         675         676         681         680
         676         677         682         681
         677         678         683         682
         678         679         684         683
         680         681         686         685
         681         682         687         686
         682         683         688         687
         683         684         689         688
         685         686         691         690
         686         687         692         691
         687         688         693         692
         688         689         694         693
         690         691         696         695
         691         692         697         696
         692         693         698         697
         693         694         699         698
         700         701         706         705
         701         702         707         706
         702         703         708         707
         703         704         709         708
         705         706         711         710
         706         707         712         711
         707         708         713         712
         708         709         714         713
         710         711         716         715
         711         712         717         716
         712         713         718         717
         713         714         719         718
         715         716         721         720
         716         717         722         721
         717         718         723         722
         718         719         724         723
         725         726         731         730
         726         727         732         731
         727         728         733         732
         728         729         734         733
         730         731         736         735
         731         732         737         736
         732         733         738         737
         733         734         739         738
         735         736         741         740
         736         737         742         741
         737         738         743         742
         738         739         744         743
         740         741         746         745
         741         742         747         746
         742         743         748         747
         743         744         749         748
         750         751         756         755
         751         752         757         756
         752         753         758         757
         753         754         759         758
         755         756         761         760
         756         757         762         761
         757         758         763         762
         758         759         764         763
         760         761         766         765
         761         762         767         766
         762         763         768         767
         763         764         769         768
         765         766         771         770
         766         767         772         771
         767         768         773         772
         768         769         774         773
         775         776         781         780
         776         777         782         781
         777         778         783         782
         778         779         784         783
         780         781         786         785
         781         782         787         786
         782         783         788         787
         783         784         789         788
         785         786         791         790
         786         787         792         791
         787         788         793         792
         788         789         794         793
         790         791         796         795
         791         792         797         796
         792         793         798         797
         793         794         799         798
         800         801         806         805
         801         802         807         806
         802         803         808         807
         803         804         809         808
         805         806         811         810
         806         807         812         811
         807         808         813         812
         808         809         814         813
         810         811         816         815
         811         812         817         816
         812         813         818         817
         813         814         819         818
         815         816         821         820
         816         817         822         821
         817         818         823         822
         818         819         824         823
         825         826         831         830
         826         827         832         831
         827         828         833         832
         828         829         834         833
         830         831         836         835
         831         832         837         836
         832         833         838         837
         833         834         839         838
         835         836         841         840
         836         837         842         841
         837         838         843         842
         838         839         844         843
         840         841         846         845
         841         842         847         846
         842         843         848         847
         843         844         849         848
         850         851         856         855
         851         852         857         856
         852         853         858         857
         853         854         859         858
         855         856         861         860
         856         857         862         861
         857         858         863         862
         858         859         864         863
         860         861         866         865
         861         862         867         866
         862         863         868         867
         863         864         869         868
         865         866         871         870
         866         867         872         871
         867         868         873         872
         868         869         874         873
         875         876         881         880
         876         877         882         881
         877         878         883         882
         878         879         884         883
         880         881         886         885
         881         882         887         886
         882         883         888         887
         883         884         889         888
         885         886         891         890
         886         887         892         891
         887         888         893         892
         888         889         894         893
         890         891         896         895
         891         892         897         896
         892         893         898         897
         893         894         899         898
         900         901         906         905
         901         902         907         906
         902         903         908         907
         903         904         909         908
         905         906         911         910
         906         907         912         911
         907         908         913         912
         908         909         914         913
         910         911         916         915
         911         912         917         916
         912         913         918         917
         913         914         919         918
         915         916         921         920
         916         917         922         921
         917         918         923         922
         918         919         924         923
         925         926         931         930
         926         927         932         931
         927         928         933         932
         928         929         934         933
         930         931         936         935
         931         932         937         936
         932         933         938         937
         933         934         939         938
         935         936         941         940
         936         937         942         941
         937         938         943         942
         938         939         944         943
         940         941         946         945
         941         942         947         946
         942         943         948         947
         943         944         949         948
         950         951         956         955
         951         952         957         956
         952         953         958         957
         953         954         959         958
         955         956         961         960
         956         957         962         961
         957         958         963         962
         958         959         964         963
         960         961         966         965
         961         962         967         966
         962         963         968         967
         963         964         969         968
         965         966         971         970
         966         967         972         971
         967         968         973         972
         968         969         974         973
         975         976         981         980
         976         977         982         981
         977         978         983         982
         978         979         984         983
         980         981         986         985
         981         982         987         986
         982         983         988         987
         983         984         989         988
         985         986         991         990
         986         987         992         991
         987         988         993         992
         988         989         994         993
         990         991         996         995
         991         992         997         996
         992         993         998         997
         993         994         999         998
        1000        1001        1006        1005
        1001        1002        1007        1006
        1002        1003        1008        1007
        1003        1004        1009        1008
        1005        1006        1011        1010
        1006        1007        1012        1011
        1007        1008        1013        1012
        1008        1009        1014        1013
        1010        1011        1016        1015
        1011        1012        1017        1016
        1012        1013        1018        1017
        1013        1014        1019        1018
        1015        1016        1021        1020
        1016        1017        1022        1021
        1017        1018        1023        1022
        1018        1019        1024        1023
        1025        1026        1031        1030
        1026        1027        1032        1031
        1027        1028        1033        1032
        1028        1029        1034        1033
        1030        1031        1036        1035
        1031        1032        1037        1036
        1032        1033        1038        1037
        1033        1034        1039        1038
        1035        1036        1041        1040
        1036        1037        1042        1041
        1037        1038        1043        1042
        1038        1039        1044        1043
        1040        1041        1046        1045
        1041        1042        1047        1046
        1042        1043        1048        1047
        1043        1044        1049        1048
        1050        1051        1056        1055
        1051        1052        1057        1056
        1052        1053        1058        1057
        1053        1054        1059        1058
        1055        1056        1061        1060
        1056        1057        1062        1061
        1057        1058        1063        1062
        1058        1059        1064        1063
        1060        1061        1066        1065
        1061        1062        1067        1066
        1062        1063        1068        1067
        1063        1064        1069        1068
        1065        1066        1071        1070
        1066        1067        1072        1071
        1067        1068        1073        1072
        1068        1069        1074        1073
        1075        1076        1081        1080
        1076        1077        1082        1081
        1077        1078        1083        1082
        1078        1079        1084        1083
        1080        1081        1086        1085
        1081        1082        1087        1086
        1082        1083        1088        1087
        1083        1084        1089        1088
        1085        1086        1091        1090
        1086        1087        1092        1091
        1087        1088        1093        1092
        1088        1089        1094        1093
        1090        1091        1096        1095
        1091        1092        1097        1096
        1092        1093        1098        1097
        1093        1094        1099        1098
        1100        1101        1106        1105
        1101        1102        1107        1106
        1102        1103        1108        1107
        1103        1104        1109        1108
        1105        1106        1111        1110
        1106        1107        1112        1111
        1107        1108        1113        1112
        1108        1109        1114        1113
        1110        1111        1116        1115
        1111        1112        1117        1116
        1112        1113        1118        1117
        1113        1114        1119        1118
        1115        1116        1121        1120
        1116        1117        1122        1121
        1117        1118        1123        1122
        1118        1119        1124        1123
        1125        1126        1131        1130
        1126        1127        1132        1131
        1127        1128        1133        1132
        1128        1129        1134        1133
        1130        1131        1136        1135
        1131        1132        1137        1136
        1132        1133        1138        1137
        1133        1134        1139        1138
        1135        1136        1141        1140
        1136        1137        1142        1141
        1137        1138        1143        1142
        1138        1139        1144        1143
        1140        1141        1146        1145
        1141        1142        1147        1146
        1142        1143        1148        1147
        1143        1144        1149        1148
        1150        1151        1156        1155
        1151        1152        1157        1156
        1152        1153        1158        1157
        1153        1154        1159        1158
        1155        1156        1161        1160
        1156        1157        1162        1161
        1157        1158        1163        1162
        1158        1159        1164        1163
        1160        1161        1166        1165
        1161        1162        1167        1166
        1162        1163        1168        1167
        1163        1164        1169        1168
        1165        1166        1171        1170
        1166        1167        1172        1171
        1167        1168        1173        1172
        1168        1169        1174        1173
        1175        1176        1181        1180
        1176        1177        1182        1181
        1177        1178        1183        1182
        1178        1179        1184        1183
        1180        1181        1186        1185
        1181        1182        1187        1186
        1182        1183        1188        1187
        1183        1184        1189        1188
        1185        1186        1191        1190
        1186        1187        1192        1191
        1187        1188        1193        1192
        1188        1189        1194        1193
        1190        1191        1196        1195
        1191        1192        1197        1196
        1192        1193        1198        1197
        1193        1194        1199        1198
        1200        1201        1206        1205
        1201        1202        1207        1206
        1202        1203        1208        1207
        1203        1204        1209        1208
        1205        1206        1211        1210
        1206        1207        1212        1211
        1207        1208        1213        1212
        1208        1209        1214        1213
        1210        1211        1216        1215
        1211        1212        1217        1216
        1212        1213        1218        1217
        1213        1214        1219        1218
        1215        1216        1221        1220
        1216        1217        1222        1221
        1217        1218        1223        1222
        1218        1219        1224        1223
        1225        1226        1231        1230
        1226        1227        1232        1231
        1227        1228        1233        1232
        1228        1229        1234        1233
        1230        1231        1236        1235
        1231        1232        1237        1236
        1232        1233        1238        1237
        1233        1234        1239        1238
        1235        1236        1241        1240
        1236        1237        1242        1241
        1237        1238        1243        1242
        1238        1239        1244        1243
        1240        1241        1246        1245
        1241        1242        1247        1246
        1242        1243        1248        1247
        1243        1244        1249        1248
        1250        1251        1256        1255
        1251        1252        1257        1256
        1252        1253        1258        1257
        1253        1254        1259        1258
        1255        1256        1261        1260
        1256        1257        1262        1261
        1257        1258        1263        1262
        1258        1259        1264        1263
        1260        1261        1266        1265
        1261        1262        1267        1266
        1262        1263        1268        1267
        1263        1264        1269        1268
        1265        1266        1271        1270
        1266        1267        1272        1271
        1267        1268        1273        1272
        1268        1269        1274        1273
        1275        1276        1281        1280
        1276        1277        1282        1281
        1277        1278        1283        1282
        1278        1279        1284        1283
        1280        1281        1286        1285
        1281        1282        1287        1286
        1282        1283        1288        1287
        1283        1284        1289        1288
        1285        1286        1291        1290
        1286        1287        1292        1291
        1287        1288        1293        1292
        1288        1289        1294        1293
        1290        1291        1296        1295
        1291        1292        1297        1296
        1292        1293        1298        1297
        1293        1294        1299        1298
        1300        1301        1306        1305
        1301        1302        1307        1306
        1302        1303        1308        1307
        1303        1304        1309        1308
        1305        1306        1311        1310
        1306        1307        1312        1311
        1307        1308        1313        1312
        1308        1309        1314        1313
        1310        1311        1316        1315
        1311        1312        1317        1316
        1312        1313        1318        1317
        1313        1314        1319        1318
        1315        1316        1321        1320
        1316        1317        1322        1321
        1317        1318        1323        1322
        1318        1319        1324        1323
        1325        1326        1331        1330
        1326        1327        1332        1331
        1327        1328        1333        1332
        1328        1329        1334        1333
        1330        1331        1336        1335
        1331        1332        1337        1336
        1332        1333        1338        1337
        1333        1334        1339        1338
        1335        1336        1341        1340
        1336        1337        1342        1341
        1337        1338        1343        1342
        1338        1339        1344        1343
        1340        1341        1346        1345
        1341        1342        1347        1346
        1342        1343        1348        1347
        1343        1344        1349        1348
        1350        1351        1356        1355
        1351        1352        1357        1356
        1352        1353        1358        1357
        1353        1354        1359        1358
        1355        1356        1361        1360
        1356        1357        1362        1361
        1357        1358        1363        1362
        1358        1359        1364        1363
        1360        1361        1366        1365
        1361        1362        1367        1366
        1362        1363        1368        1367
        1363        1364        1369        1368
        1365        1366        1371        1370
        1366        1367        1372        1371
        1367        1368        1373        1372
        1368        1369        1374        1373
        1375        1376        1381        1380
        1376        1377        1382        1381
        1377        1378        1383        1382
        1378        1379        1384        1383
        1380        1381        1386        1385
        1381        1382        1387        1386
        1382        1383        1388        1387
        1383        1384        1389        1388
        1385        1386        1391        1390
        1386        1387        1392        1391
        1387        1388        1393        1392
        1388        1389        1394        1393
        1390        1391        1396        1395
        1391        1392        1397        1396
        1392        1393        1398        1397
        1393        1394        1399        1398
        1400        1401        1406        1405
        1401        1402        1407        1406
        1402        1403        1408        1407
        1403        1404        1409        1408
        1405        1406        1411        1410
        1406        1407        1412        1411
        1407        1408        1413        1412
        1408        1409        1414        1413
        1410        1411        1416        1415
        1411        1412        1417        1416
        1412        1413        1418        1417
        1413        1414        1419        1418
        1415        1416        1421        1420
        1416        1417        1422        1421
        1417        1418        1423        1422
        1418        1419        1424        1423
        1425        1426        1431        1430
        1426        1427        1432        1431
        1427        1428        1433        1432
        1428        1429        1434        1433
        1430        1431        1436        1435
        1431        1432        1437        1436
        1432        1433        1438        1437
        1433        1434        1439        1438
        1435        1436        1441        1440
        1436        1437        1442        1441
        1437        1438        1443        1442
        1438        1439        1444        1443
        1440        1441        1446        1445
        1441        1442        1447        1446
        1442        1443        1448        1447
        1443        1444        1449        1448
        1450        1451        1456        1455
        1451        1452        1457        1456
        1452        1453        1458        1457
        1453        1454        1459        1458
        1455        1456        1461        1460
        1456        1457        1462        1461
        1457        1458        1463        1462
        1458        1459        1464        1463
        1460        1461        1466        1465
        1461        1462        1467        1466
        1462        1463        1468        1467
        1463        1464        1469        1468
        1465        1466        1471        1470
        1466        1467        1472        1471
        1467        1468        1473        1472
        1468        1469        1474        1473
        1475        1476        1481        1480
        1476        1477        1482        1481
        1477        1478        1483        1482
        1478        1479        1484        1483
        1480        1481        1486        1485
        1481        1482        1487        1486
        1482        1483        1488        1487
        1483        1484        1489        1488
        1485        1486        1491        1490
        1486        1487        1492        1491
        1487        1488        1493        1492
        1488        1489        1494        1493
        1490        1491        1496        1495
        1491        1492        1497        1496
        1492        1493        1498        1497
        1493        1494        1499        1498
        1500        1501        1506        1505
        1501        1502        1507        1506
        1502        1503        1508        1507
        1503        1504        1509        1508
        1505        1506        1511        1510
        1506        1507        1512        1511
        1507        1508        1513        1512
        1508        1509        1514        1513
        1510        1511        1516        1515
        1511        1512        1517        1516
        1512        1513        1518        1517
        1513        1514        1519        1518
        1515        1516        1521        1520
        1516        1517        1522        1521
        1517        1518        1523        1522
        1518        1519        1524        1523
        1525        1526        1531        1530
        1526        1527        1532        1531
        1527        1528        1533        1532
        1528        1529        1534        1533
        1530        1531        1536        1535
        1531        1532        1537        1536
        1532        1533        1538        1537
        1533        1534        1539        1538
        1535        1536        1541        1540
        1536        1537        1542        1541
        1537        1538        1543        1542
        1538        1539        1544        1543
        1540        1541        1546        1545
        1541        1542        1547        1546
        1542        1543        1548        1547
        1543        1544        1549        1548
        1550        1551        1556        1555
        1551        1552        1557        1556
        1552        1553        1558        1557
        1553        1554        1559        1558
        1555        1556        1561        1560
        1556        1557        1562        1561
        1557        1558        1563        1562
        1558        1559        1564        1563
        1560        1561        1566        1565
        1561        1562        1567        1566
        1562        1563        1568        1567
        1563        1564        1569        1568
        1565        1566        1571        1570
        1566        1567        1572        1571
        1567        1568        1573        1572
        1568        1569        1574        1573
        1575        1576        1581        1580
        1576        1577        1582        1581
        1577        1578        1583        1582
        1578        1579        1584        1583
        1580        1581        1586        1585
        1581        1582        1587        1586
        1582        1583        1588        1587
        1583        1584        1589        1588
        1585        1586        1591        1590
        1586        1587        1592        1591
        1587        1588        1593        1592
        1588        1589        1594        1593
        1590        1591        1596        1595
        1591        1592        1597        1596
        1592        1593        1598        1597
        1593        1594        1599        1598
 </DataArray>
 <DataArray  type="Int32"  Name="offsets"  format="ascii"> 
           4
           8
          12
          16
          20
          24
          28
          32
          36
          40
          44
          48
          52
          56
          60
          64
          68
          72
          76
          80
          84
          88
          92
          96
         100
         104
         108
         112
         116
         120
         124
         128
         132
         136
         140
         144
         148
         152
         156
         160
         164
         168
         172
         176
         180
         184
         188
         192
         196
         200
         204
         208
         212
         216
         220
         224
         228
         232
         236
         240
         244
         248
         252
         256
         260
         264
         268
         272
         276
         280
         284
         288
         292
         296
         300
         304
         308
         312
         316
         320
         324
         328
         332
         336
         340
         344
         348
         352
         356
         360
         364
         368
         372
         376
         380
         384
         388
         392
         396
         400
         404
         408
         412
         416
         420
         424
         428
         432
         436
         440
         444
         448
         452
         456
         460
         464
         468
         472
         476
         480
         484
         488
         492
         496
         500
         504
         508
         512
         516
         520
         524
         528
         532
         536
         540
         544
         548
         552
         556
         560
         564
         568
         572
         576
         580
         584
         588
         592
         596
         600
         604
         608
         612
         616
         620
         624
         628
         632
         636
         640
         644
         648
         652
         656
         660
         664
         668
         672
         676
         680
         684
         688
         692
         696
         700
         704
         708
         712
         716
         720
         724
         728
         732
         736
         740
         744
         748
         752
         756
         760
         764
         768
         772
         776
         780
         784
         788
         792
         796
         800
         804
         808
         812
         816
         820
         824
         828
         832
         836
         840
         844
         848
         852
         856
         860
         864
         868
         872
         876
         880
         884
         888
         892
         896
         900
         904
         908
         912
         916
         920
         924
         928
         932
         936
         940
         944
         948
         952
         956
         960
         964
         968
         972
         976
         980
         984
         988
         992
         996
        1000
        1004
        1008
        1012
        1016
        1020
        1024
        1028
        1032
        1036
        1040
        1044
        1048
        1052
        1056
        1060
        1064
        1068
        1072
        1076
        1080
        1084
        1088
        1092
        1096
        1100
        1104
        1108
        1112
        1116
        1120
        1124
        1128
        1132
        1136
        1140
        1144
        1148
        1152
        1156
        1160
        1164
        1168
        1172
        1176
        1180
        1184
        1188
        1192
        1196
        1200
        1204
        1208
        1212
        1216
        1220
        1224
        1228
        1232
        1236
        1240
        1244
        1248
        1252
        1256
        1260
        1264
        1268
        1272
        1276
        1280
        1284
        1288
        1292
        1296
        1300
        1304
        1308
        1312
        1316
        1320
        1324
        1328
        1332
        1336
        1340
        1344
        1348
        1352
        1356
        1360
        1364
        1368
        1372
        1376
        1380
        1384
        1388
        1392
        1396
        1400
        1404
        1408
        1412
        1416
        1420
        1424
        1428
        1432
        1436
        1440
        1444
        1448
        1452
        1456
        1460
        1464
        1468
        1472
        1476
        1480
        1484
        1488
        1492
        1496
        1500
        1504
        1508
        1512
        1516
        1520
        1524
        1528
        1532
        1536
        1540
        1544
        1548
        1552
        1556
        1560
        1564
        1568
        1572
        1576
        1580
        1584
        1588
        1592
        1596
        1600
        1604
        1608
        1612
        1616
        1620
        1624
        1628
        1632
        1636
        1640
        1644
        1648
        1652
        1656
        1660
        1664
        1668
        1672
        1676
        1680
        1684
        1688
        1692
        1696
        1700
        1704
        1708
        1712
        1716
        1720
        1724
        1728
        1732
        1736
        1740
        1744
        1748
        1752
        1756
        1760
        1764
        1768
        1772
        1776
        1780
        1784
        1788
        1792
        1796
        1800
        1804
        1808
        1812
        1816
        1820
        1824
        1828
        1832
        1836
        1840
        1844
        1848
        1852
        1856
        1860
        1864
        1868
        1872
        1876
        1880
        1884
        1888
        1892
        1896
        1900
        1904
        1908
        1912
        1916
        1920
        1924
        1928
        1932
        1936
        1940
        1944
        1948
        1952
        1956
        1960
        1964
        1968
        1972
        1976
        1980
        1984
        1988
        1992
        1996
        2000
        2004
        2008
        2012
        2016
        2020
        2024
        2028
        2032
        2036
        2040
        2044
        2048
        2052
        2056
        2060
        2064
        2068
        2072
        2076
        2080
        2084
        2088
        2092
        2096
        2100
        2104
        2108
        2112
        2116
        2120
        2124
        2128
        2132
        2136
        2140
        2144
        2148
        2152
        2156
        2160
        2164
        2168
        2172
        2176
        2180
        2184
        2188
        2192
        2196
        2200
        2204
        2208
        2212
        2216
        2220
        2224
        2228
        2232
        2236
        2240
        2244
        2248
        2252
        2256
        2260
        2264
        2268
        2272
        2276
        2280
        2284
        2288
        2292
        2296
        2300
        2304
        2308
        2312
        2316
        2320
        2324
        2328
        2332
        2336
        2340
        2344
        2348
        2352
        2356
        2360
        2364
        2368
        2372
        2376
        2380
        2384
        2388
        2392
        2396
        2400
        2404
        2408
        2412
        2416
        2420
        2424
        2428
        2432
        2436
        2440
        2444
        2448
        2452
        2456
        2460
        2464
        2468
        2472
        2476
        2480
        2484
        2488
        2492
        2496
        2500
        2504
        2508
        2512
        2516
        2520
        2524
        2528
        2532
        2536
        2540
        2544
        2548
        2552
        2556
        2560
        2564
        2568
        2572
        2576
        2580
        2584
        2588
        2592
        2596
        2600
        2604
        2608
        2612
        2616
        2620
        2624
        2628
        2632
        2636
        2640
        2644
        2648
        2652
        2656
        2660
        2664
        2668
        2672
        2676
        2680
        2684
        2688
        2692
        2696
        2700
        2704
        2708
        2712
        2716
        2720
        2724
        2728
        2732
        2736
        2740
        2744
        2748
        2752
        2756
        2760
        2764
        2768
        2772
        2776
        2780
        2784
        2788
        2792
        2796
        2800
        2804
        2808
        2812
        2816
        2820
        2824
        2828
        2832
        2836
        2840
        2844
        2848
        2852
        2856
        2860
        2864
        2868
        2872
        2876
        2880
        2884
        2888
        2892
        2896
        2900
        2904
        2908
        2912
        2916
        2920
        2924
        2928
        2932
        2936
        2940
        2944
        2948
        2952
        2956
        2960
        2964
        2968
        2972
        2976
        2980
        2984
        2988
        2992
        2996
        3000
        3004
        3008
        3012
        3016
        3020
        3024
        3028
        3032
        3036
        3040
        3044
        3048
        3052
        3056
        3060
        3064
        3068
        3072
        3076
        3080
        3084
        3088
        3092
        3096
        3100
        3104
        3108
        3112
        3116
        3120
        3124
        3128
        3132
        3136
        3140
        3144
        3148
        3152
        3156
        3160
        3164
        3168
        3172
        3176
        3180
        3184
        3188
        3192
        3196
        3200
        3204
        3208
        3212
        3216
        3220
        3224
        3228
        3232
        3236
        3240
        3244
        3248
        3252
        3256
        3260
        3264
        3268
        3272
        3276
        3280
        3284
        3288
        3292
        3296
        3300
        3304
        3308
        3312
        3316
        3320
        3324
        3328
        3332
        3336
        3340
        3344
        3348
        3352
        3356
        3360
        3364
        3368
        3372
        3376
        3380
        3384
        3388
        3392
        3396
        3400
        3404
        3408
        3412
        3416
        3420
        3424
        3428
        3432
        3436
        3440
        3444
        3448
        3452
        3456
        3460
        3464
        3468
        3472
        3476
        3480
        3484
        3488
        3492
        3496
        3500
        3504
        3508
        3512
        3516
        3520
        3524
        3528
        3532
        3536
        3540
        3544
        3548
        3552
        3556
        3560
        3564
        3568
        3572
        3576
        3580
        3584
        3588
        3592
        3596
        3600
        3604
        3608
        3612
        3616
        3620
        3624
        3628
        3632
        3636
        3640
        3644
        3648
        3652
        3656
        3660
        3664
        3668
        3672
        3676
        3680
        3684
        3688
        3692
        3696
        3700
        3704
        3708
        3712
        3716
        3720
        3724
        3728
        3732
        3736
        3740
        3744
        3748
        3752
        3756
        3760
        3764
        3768
        3772
        3776
        3780
        3784
        3788
        3792
        3796
        3800
        3804
        3808
        3812
        3816
        3820
        3824
        3828
        3832
        3836
        3840
        3844
        3848
        3852
        3856
        3860
        3864
        3868
        3872
        3876
        3880
        3884
        3888
        3892
        3896
        3900
        3904
        3908
        3912
        3916
        3920
        3924
        3928
        3932
        3936
        3940
        3944
        3948
        3952
        3956
        3960
        3964
        3968
        3972
        3976
        3980
        3984
        3988
        3992
        3996
        4000
        4004
        4008
        4012
        4016
        4020
        4024
        4028
        4032
        4036
        4040
        4044
        4048
        4052
        4056
        4060
        4064
        4068
        4072
        4076
        4080
        4084
        4088
        4092
        4096
 </DataArray>
 <DataArray  type="UInt8"  Name="types"  format="ascii">
 9
 9
 9
 9
 9
 9
 9
 9
 9
 9
 9
 9
 9
 9
 9
 9
 9
 9
 9
 9
 9
 9
 9
 9
 9
 9
 9
 9
 9
 9
 9
 9
 9
 9
 9
 9
 9
 9
 9
 9
 9
 9
 9
 9
 9
 9
 9
 9
 9
 9
 9
 9
 9
 9
 9
 9
 9
 9
 9
 9
 9
 9
 9
 9
 9
 9
 9
 9
 9
 9
 9
 9
 9
 9
 9
 9
 9
 9
 9
 9
 9
 9
 9
 9
 9
 9
 9
 9
 9
 9
 9
 9
 9
 9
 9
 9
 9
 9
 9
 9
 9
 9
 9
 9
 9
 9
 9
 9
 9
 9
 9
 9
 9
 9
 9
 9
 9
 9
 9
 9
 9
 9
 9
 9
 9
 9
 9
 9
 9
 9
 9
 9
 9
 9
 9
 9
 9
 9
 9
 9
 9
 9
 9
 9
 9
 9
 9
 9
 9
 9
 9
 9
 9
 9
 9
 9
 9
 9
 9
 9
 9
 9
 9
 9
 9
 9
 9
 9
 9
 9
 9
 9
 9
 9
 9
 9
 9
 9
 9
 9
 9
 9
 9
 9
 9
 9
 9
 9
 9
 9
 9
 9
 9
 9
 9
 9
 9
 9
 9
 9
 9
 9
 9
 9
 9
 9
 9
 9
 9
 9
 9
 9
 9
 9
 9
 9
 9
 9
 9
 9
 9
 9
 9
 9
 9
 9
 9
 9
 9
 9
 9
 9
 9
 9
 9
 9
 9
 9
 9
 9
 9
 9
 9
 9
 9
 9
 9
 9
 9
 9
 9
 9
 9
 9
 9
 9
 9
 9
 9
 9
 9
 9
 9
 9
 9
 9
 9
 9
 9
 9
 9
 9
 9
 9
 9
 9
 9
 9
 9
 9
 9
 9
 9
 9
 9
 9
 9
 9
 9
 9
 9
 9
 9
 9
 9
 9
 9
 9
 9
 9
 9
 9
 9
 9
 9
 9
 9
 9
 9
 9
 9
 9
 9
 9
 9
 9
 9
 9
 9
 9
 9
 9
 9
 9
 9
 9
 9
 9
 9
 9
 9
 9
 9
 9
 9
 9
 9
 9
 9
 9
 9
 9
 9
 9
 9
 9
 9
 9
 9
 9
 9
 9
 9
 9
 9
 9
 9
 9
 9
 9
 9
 9
 9
 9
 9
 9
 9
 9
 9
 9
 9
 9
 9
 9
 9
 9
 9
 9
 9
 9
 9
 9
 9
 9
 9
 9
 9
 9
 9
 9
 9
 9
 9
 9
 9
 9
 9
 9
 9
 9
 9
 9
 9
 9
 9
 9
 9
 9
 9
 9
 9
 9
 9
 9
 9
 9
 9
 9
 9
 9
 9
 9
 9
 9
 9
 9
 9
 9
 9
 9
 9
 9
 9
 9
 9
 9
 9
 9
 9
 9
 9
 9
 9
 9
 9
 9
 9
 9
 9
 9
 9
 9
 9
 9
 9
 9
 9
 9
 9
 9
 9
 9
 9
 9
 9
 9
 9
 9
 9
 9
 9
 9
 9
 9
 9
 9
 9
 9
 9
 9
 9
 9
 9
 9
 9
 9
 9
 9
 9
 9
 9
 9
 9
 9
 9
 9
 9
 9
 9
 9
 9
 9
 9
 9
 9
 9
 9
 9
 9
 9
 9
 9
 9
 9
 9
 9
 9
 9
 9
 9
 9
 9
 9
 9
 9
 9
 9
 9
 9
 9
 9
 9
 9
 9
 9
 9
 9
 9
 9
 9
 9
 9
 9
 9
 9
 9
 9
 9
 9
 9
 9
 9
 9
 9
 9
 9
 9
 9
 9
 9
 9
 9
 9
 9
 9
 9
 9
 9
 9
 9
 9
 9
 9
 9
 9
 9
 9
 9
 9
 9
 9
 9
 9
 9
 9
 9
 9
 9
 9
 9
 9
 9
 9
 9
 9
 9
 9
 9
 9
 9
 9
 9
 9
 9
 9
 9
 9
 9
 9
 9
 9
 9
 9
 9
 9
 9
 9
 9
 9
 9
 9
 9
 9
 9
 9
 9
 9
 9
 9
 9
 9
 9
 9
 9
 9
 9
 9
 9
 9
 9
 9
 9
 9
 9
 9
 9
 9
 9
 9
 9
 9
 9
 9
 9
 9
 9
 9
 9
 9
 9
 9
 9
 9
 9
 9
 9
 9
 9
 9
 9
 9
 9
 9
 9
 9
 9
 9
 9
 9
 9
 9
 9
 9
 9
 9
 9
 9
 9
 9
 9
 9
 9
 9
 9
 9
 9
 9
 9
 9
 9
 9
 9
 9
 9
 9
 9
 9
 9
 9
 9
 9
 9
 9
 9
 9
 9
 9
 9
 9
 9
 9
 9
 9
 9
 9
 9
 9
 9
 9
 9
 9
 9
 9
 9
 9
 9
 9
 9
 9
 9
 9
 9
 9
 9
 9
 9
 9
 9
 9
 9
 9
 9
 9
 9
 9
 9
 9
 9
 9
 9
 9
 9
 9
 9
 9
 9
 9
 9
 9
 9
 9
 9
 9
 9
 9
 9
 9
 9
 9
 9
 9
 9
 9
 9
 9
 9
 9
 9
 9
 9
 9
 9
 9
 9
 9
 9
 9
 9
 9
 9
 9
 9
 9
 9
 9
 9
 9
 9
 9
 9
 9
 9
 9
 9
 9
 9
 9
 9
 9
 9
 9
 9
 9
 9
 9
 9
 9
 9
 9
 9
 9
 9
 9
 9
 9
 9
 9
 9
 9
 9
 9
 9
 9
 9
 9
 9
 9
 9
 9
 9
 9
 9
 9
 9
 9
 9
 9
 9
 9
 9
 9
 9
 9
 9
 9
 9
 9
 9
 9
 9
 9
 9
 9
 9
 9
 9
 9
 9
 9
 9
 9
 9
 9
 9
 9
 9
 9
 9
 9
 9
 9
 9
 9
 9
 9
 9
 9
 9
 9
 9
 9
 9
 9
 9
 9
 9
 9
 9
 9
 9
 9
 9
 9
 9
 9
 9
 9
 9
 9
 9
 9
 9
 9
 9
 9
 9
 9
 9
 9
 9
 9
 9
 9
 9
 9
 9
 9
 9
 9
 9
 9
 9
 9
 9
 9
 9
 9
 9
 9
 9
 9
 9
 9
 9
 9
 9
 9
 9
 9
 9
 9
 9
 9
 9
 9
 9
 9
 9
 9
 9
 9
 9
 9
 9
 9
 9
 9
 9
 9
 9
 9
 9
 9
 9
 9
 9
 9
 9
 9
 9
 9
 9
 9
 9
 9
 9
 9
 9
 9
 9
 9
 9
 9
 9
 9
 9
 9
 9
 9
 9
 9
 9
 9
 9
 9
 9
 9
 9
 9
 9
 9
 9
 9
 9
 </DataArray>
 </Cells> 
 <PointData>
 <DataArray  type="Float64" Name="disp" NumberOfComponents="3" format="ascii">
   0.0000000000000000        0.0000000000000000        0.0000000000000000     
   6.0959500083218546E-003   3.7904473628188437E-003   0.0000000000000000     
   1.1665934309625493E-002   7.3239014031775979E-003   0.0000000000000000     
   1.6709952903910912E-002   1.0600362121076262E-002   0.0000000000000000     
   2.1228005791178117E-002   1.3619829516514838E-002   0.0000000000000000     
   0.0000000000000000        0.0000000000000000        0.0000000000000000     
   4.8911089310162276E-003   3.0221813952905048E-003   0.0000000000000000     
   9.5735206112912662E-003   6.0606184123490319E-003   0.0000000000000000     
   1.4047235040825116E-002   9.1153110511755821E-003   0.0000000000000000     
   1.8312252219617776E-002   1.2186259311770154E-002   0.0000000000000000     
   0.0000000000000000        0.0000000000000000        0.0000000000000000     
   3.9534921061709664E-003   2.4251776408829150E-003   0.0000000000000000     
   7.9104482979852966E-003   5.0630205931336113E-003   0.0000000000000000     
   1.1870868575442990E-002   7.9135288567520907E-003   0.0000000000000000     
   1.5834752938544045E-002   1.0976702431738353E-002   0.0000000000000000     
   0.0000000000000000        0.0000000000000000        0.0000000000000000     
   3.2830995337860733E-003   1.9994360995960738E-003   0.0000000000000000     
   6.6767173697075853E-003   4.3311079455313362E-003   0.0000000000000000     
   1.0180853507764535E-002   6.9950155378057880E-003   0.0000000000000000     
   1.3795507947956925E-002   9.9911588764194283E-003   0.0000000000000000     
   0.0000000000000000        0.0000000000000000        0.0000000000000000     
   2.8799312138615475E-003   1.7449567714299809E-003   0.0000000000000000     
   5.8723278264581321E-003   3.8648804695422057E-003   0.0000000000000000     
   8.9771898377897525E-003   6.3597710943366741E-003   0.0000000000000000     
   1.2194517247856411E-002   9.2296286458133873E-003   0.0000000000000000     
   2.1228005791178117E-002   1.3619829516514838E-002   0.0000000000000000     
   2.5433065152997106E-002   1.6612878490061687E-002   0.0000000000000000     
   2.9538103170937885E-002   1.9810083942285166E-002   0.0000000000000000     
   3.3543119845000455E-002   2.3211445873185285E-002   0.0000000000000000     
   3.7448115175184808E-002   2.6816964282762038E-002   0.0000000000000000     
   1.8312252219617776E-002   1.2186259311770154E-002   0.0000000000000000     
   2.2406853110611271E-002   1.5341790766284120E-002   0.0000000000000000     
   2.6369318676747616E-002   1.8650232986868857E-002   0.0000000000000000     
   3.0199648918026817E-002   2.2111585973524358E-002   0.0000000000000000     
   3.3897843834448868E-002   2.5725849726250624E-002   0.0000000000000000     
   1.5834752938544045E-002   1.0976702431738353E-002   0.0000000000000000     
   1.9730370522036217E-002   1.4211336722176161E-002   0.0000000000000000     
   2.3485990460667266E-002   1.7576227132149288E-002   0.0000000000000000     
   2.7101612754437177E-002   2.1071373661657723E-002   0.0000000000000000     
   3.0577237403345957E-002   2.4696776310701482E-002   0.0000000000000000     
   1.3795507947956925E-002   9.9911588764194283E-003   0.0000000000000000     
   1.7403617387271950E-002   1.3221516357737807E-002   0.0000000000000000     
   2.0888118522696817E-002   1.6588066378126459E-002   0.0000000000000000     
   2.4249011354231530E-002   2.0090808937585393E-002   0.0000000000000000     
   2.7486295881876083E-002   2.3729744036114608E-002   0.0000000000000000     
   1.2194517247856411E-002   9.2296286458133873E-003   0.0000000000000000     
   1.5426593706318468E-002   1.2372329672969052E-002   0.0000000000000000     
   1.8575702862836291E-002   1.5685750724800378E-002   0.0000000000000000     
   2.1641844717409878E-002   1.9169891801307362E-002   0.0000000000000000     
   2.4625019270039229E-002   2.2824752902490007E-002   0.0000000000000000     
   3.7448115175184808E-002   2.6816964282762038E-002   0.0000000000000000     
   4.1257308435258981E-002   3.0622180047594733E-002   0.0000000000000000     
   4.4974918898991023E-002   3.4622634044262683E-002   0.0000000000000000     
   4.8600946566380900E-002   3.8818326272765886E-002   0.0000000000000000     
   5.2135391437428652E-002   4.3209256733104343E-002   0.0000000000000000     
   3.3897843834448868E-002   2.5725849726250624E-002   0.0000000000000000     
   3.7486976727460153E-002   2.9522058710787030E-002   0.0000000000000000     
   4.0990120898507044E-002   3.3529247392872948E-002   0.0000000000000000     
   4.4407276347589529E-002   3.7747415772508376E-002   0.0000000000000000     
   4.7738443074707620E-002   4.2176563849693302E-002   0.0000000000000000     
   3.0577237403345957E-002   2.4696776310701482E-002   0.0000000000000000     
   3.3942210582495767E-002   2.8497201644433104E-002   0.0000000000000000     
   3.7225878466988729E-002   3.2517416228005164E-002   0.0000000000000000     
   4.0428241056824854E-002   3.6757420061417641E-002   0.0000000000000000     
   4.3549298352004162E-002   4.1217213144670535E-002   0.0000000000000000     
   2.7486295881876083E-002   2.3729744036114608E-002   0.0000000000000000     
   3.0623010000365818E-002   2.7547608848532964E-002   0.0000000000000000     
   3.3682191604436099E-002   3.1587140549659325E-002   0.0000000000000000     
   3.6663840694086923E-002   3.5848339139493680E-002   0.0000000000000000     
   3.9567957269318277E-002   4.0331204618036048E-002   0.0000000000000000     
   2.4625019270039229E-002   2.2824752902490007E-002   0.0000000000000000     
   2.7529374981070324E-002   2.6673280323086603E-002   0.0000000000000000     
   3.0359060310849149E-002   3.0738420357835441E-002   0.0000000000000000     
   3.3114075259375701E-002   3.5020173006736516E-002   0.0000000000000000     
   3.5794419826649979E-002   3.9518538269789835E-002   0.0000000000000000     
   5.2135391437428652E-002   4.3209256733104343E-002   0.0000000000000000     
   5.5576073877510512E-002   4.7799704667380843E-002   0.0000000000000000     
   5.8920814252002754E-002   5.2593949317698195E-002   0.0000000000000000     
   6.2169612560905377E-002   5.7591990684056397E-002   0.0000000000000000     
   6.5322468804218381E-002   6.2793828766455437E-002   0.0000000000000000     
   4.7738443074707620E-002   4.2176563849693302E-002   0.0000000000000000     
   5.0979925954577635E-002   4.6809885342922179E-002   0.0000000000000000     
   5.4128029861915852E-002   5.1640573970689427E-002   0.0000000000000000     
   5.7182754796722295E-002   5.6668629732995052E-002   0.0000000000000000     
   6.0144100758996955E-002   6.1894052629839047E-002   0.0000000000000000     
   4.3549298352004162E-002   4.1217213144670535E-002   0.0000000000000000     
   4.6585239492489612E-002   4.5883983434921005E-002   0.0000000000000000     
   4.9532253618244204E-002   5.0744918889326161E-002   0.0000000000000000     
   5.2390340729267931E-002   5.5800019507886038E-002   0.0000000000000000     
   5.5159500825560787E-002   6.1049285290600601E-002   0.0000000000000000     
   3.9567957269318277E-002   4.0331204618036048E-002   0.0000000000000000     
   4.2392014491246473E-002   4.5021998943377321E-002   0.0000000000000000     
   4.5133485520987809E-002   4.9906984073608440E-002   0.0000000000000000     
   4.7792370358542252E-002   5.4986160008729357E-002   0.0000000000000000     
   5.0368669003909843E-002   6.0259526748740126E-002   0.0000000000000000     
   3.5794419826649979E-002   3.9518538269789835E-002   0.0000000000000000     
   3.8400250950848216E-002   4.4223931868291141E-002   0.0000000000000000     
   4.0931725570146654E-002   4.9126769523536208E-002   0.0000000000000000     
   4.3388843684545292E-002   5.4227051235525014E-002   0.0000000000000000     
   4.5771605294044136E-002   5.9524777004257581E-002   0.0000000000000000     
   6.5322468804218381E-002   6.2793828766455437E-002   0.0000000000000000     
   6.8381316671005166E-002   6.8186762788093797E-002   0.0000000000000000     
   7.1348089850329185E-002   7.3758091972169926E-002   0.0000000000000000     
   7.4222788342190399E-002   7.9507816318683824E-002   0.0000000000000000     
   7.7005412146588847E-002   8.5435935827635492E-002   0.0000000000000000     
   6.0144100758996955E-002   6.1894052629839047E-002   0.0000000000000000     
   6.3015512906914373E-002   6.7308763565590984E-002   0.0000000000000000     
   6.5800436398649020E-002   7.2904683444620394E-002   0.0000000000000000     
   6.8498871234200912E-002   7.8681812266927345E-002   0.0000000000000000     
   7.1110817413570046E-002   8.4640150032511768E-002   0.0000000000000000     
   5.5159500825560787E-002   6.1049285290600601E-002   0.0000000000000000     
   5.7843491612888716E-002   6.6486995533513379E-002   0.0000000000000000     
   6.0446070797017630E-002   7.2107429532667897E-002   0.0000000000000000     
   6.2967238377947529E-002   7.7910587288064159E-002   0.0000000000000000     
   6.5406994355678441E-002   8.3896468799702140E-002   0.0000000000000000     
   5.0368669003909843E-002   6.0259526748740126E-002   0.0000000000000000     
   5.2865252788928216E-002   6.5721458691861023E-002   0.0000000000000000     
   5.5284993045435035E-002   7.1366330236312406E-002   0.0000000000000000     
   5.7627889773430287E-002   7.7194141382094253E-002   0.0000000000000000     
   5.9893942972913991E-002   8.3204892129206592E-002   0.0000000000000000     
   4.5771605294044136E-002   5.9524777004257581E-002   0.0000000000000000     
   4.8080796435032880E-002   6.5012153040633874E-002   0.0000000000000000     
   5.0317203143901222E-002   7.0681385555553894E-002   0.0000000000000000     
   5.2480825420649170E-002   7.6532474549017682E-002   0.0000000000000000     
   5.4571663265276731E-002   8.2565420021025168E-002   0.0000000000000000     
   7.7005412146588847E-002   8.5435935827635492E-002   0.0000000000000000     
   7.9691344631413322E-002   9.1533011862900526E-002   0.0000000000000000     
   8.2275969164552668E-002   9.7789605788354508E-002   0.0000000000000000     
   8.4759285746006885E-002  0.10420571760399742        0.0000000000000000     
   8.7141294375775974E-002  0.11078134730982930        0.0000000000000000     
   7.1110817413570046E-002   8.4640150032511768E-002   0.0000000000000000     
   7.3631111324457932E-002   9.0768072992716609E-002   0.0000000000000000     
   7.6054589354566049E-002   9.7053957398884783E-002   0.0000000000000000     
   7.8381251503894397E-002  0.10349780325101632        0.0000000000000000     
   8.0611097772442977E-002  0.11009961054911120        0.0000000000000000     
   6.5406994355678441E-002   8.3896468799702140E-002   0.0000000000000000     
   6.7760474692284439E-002   9.0052262756239038E-002   0.0000000000000000     
   7.0022815349839618E-002   9.6365157846332095E-002   0.0000000000000000     
   7.2194016328343977E-002  0.10283515406998128        0.0000000000000000     
   7.4274077627797544E-002  0.10946225142718666        0.0000000000000000     
   5.9893942972913991E-002   8.3204892129206592E-002   0.0000000000000000     
   6.2079434734892795E-002   8.9385581153467841E-002   0.0000000000000000     
   6.4180647150373332E-002   9.5723207130696444E-002   0.0000000000000000     
   6.6197580219355637E-002  0.10221777006089239        0.0000000000000000     
   6.8130233941839674E-002  0.10886926994405567        0.0000000000000000     
   5.4571663265276731E-002   8.2565420021025168E-002   0.0000000000000000     
   5.6587991452283042E-002   8.8768028184403019E-002   0.0000000000000000     
   5.8528084756167241E-002   9.5128105251977790E-002   0.0000000000000000     
   6.0391943176929336E-002  0.10164565122374958        0.0000000000000000     
   6.2179566714569340E-002  0.10832066609971827        0.0000000000000000     
   8.7141294375775974E-002  0.11078134730982930        0.0000000000000000     
   8.9428982798185008E-002  0.11750370270440948        0.0000000000000000     
   9.1629338757559117E-002  0.12435999158629729        0.0000000000000000     
   9.3742362253898245E-002  0.13135021395549273        0.0000000000000000     
   9.5768053287202420E-002  0.13847436981199585        0.0000000000000000     
   8.0611097772442977E-002  0.11009961054911120        0.0000000000000000     
   8.2753139819997171E-002  0.11684793480212766        0.0000000000000000     
   8.4816389306342388E-002  0.12373133151902402        0.0000000000000000     
   8.6800846231478615E-002  0.13074980069980024        0.0000000000000000     
   8.8706510595405838E-002  0.13790334234445628        0.0000000000000000     
   7.4274077627797544E-002  0.10946225142718666        0.0000000000000000     
   7.6272186637472886E-002  0.11623578591360906        0.0000000000000000     
   7.8197530746642652E-002  0.12314509352490942        0.0000000000000000     
   8.0050109955306800E-002  0.13019017426108773        0.0000000000000000     
   8.1829924263465359E-002  0.13737102812214402        0.0000000000000000     
   6.8130233941839674E-002  0.10886926994405567        0.0000000000000000     
   6.9986123250612181E-002  0.11566725603885361        0.0000000000000000     
   7.1772763078459909E-002  0.12260127760395348        0.0000000000000000     
   7.3490153425382815E-002  0.12967133463935529        0.0000000000000000     
   7.5138294291380969E-002  0.13687742714505902        0.0000000000000000     
   6.2179566714569340E-002  0.10832066609971827        0.0000000000000000     
   6.3894949659415015E-002  0.11514234517786136        0.0000000000000000     
   6.5542086301794131E-002  0.12209988375615624        0.0000000000000000     
   6.7120976641706687E-002  0.12919328183460288        0.0000000000000000     
   6.8631620679152683E-002  0.13642253941320132        0.0000000000000000     
   9.5768053287202420E-002  0.13847436981199585        0.0000000000000000     
   9.7697215377930274E-002  0.14572117861716172        0.0000000000000000     
   9.9520652046540398E-002  0.15307935983234547        0.0000000000000000     
  0.10123836329303279       0.16054891345754707        0.0000000000000000     
  0.10285034911740747       0.16812983949276658        0.0000000000000000     
   8.8706510595405838E-002  0.13790334234445628        0.0000000000000000     
   9.0520697785985177E-002  0.14517836260496603        0.0000000000000000     
   9.2230723191077668E-002  0.15256126763330333        0.0000000000000000     
   9.3836586810683353E-002  0.16005205742946813        0.0000000000000000     
   9.5338288644802205E-002  0.16765073199346048        0.0000000000000000     
   8.1829924263465359E-002  0.13737102812214402        0.0000000000000000     
   8.3523743275898177E-002  0.14467311907330321        0.0000000000000000     
   8.5118336597385144E-002  0.15208191107979041        0.0000000000000000     
   8.6613704227926261E-002  0.15959740414160550        0.0000000000000000     
   8.8009846167521513E-002  0.16721959825874849        0.0000000000000000     
   7.5138294291380969E-002  0.13687742714505902        0.0000000000000000     
   7.6706351847669302E-002  0.14420544802217325        0.0000000000000000     
   7.8183492265462812E-002  0.15164129017180664        0.0000000000000000     
   7.9569715544761485E-002  0.15918495359395909        0.0000000000000000     
   8.0865021685565364E-002  0.16683643828863062        0.0000000000000000     
   6.8631620679152683E-002  0.13642253941320132        0.0000000000000000     
   7.0068523501298552E-002  0.14377534945157613        0.0000000000000000     
   7.1426190195310685E-002  0.15123940490935206        0.0000000000000000     
   7.2704620761189082E-002  0.15881470578652895        0.0000000000000000     
   7.3903815198933756E-002  0.16650125208310693        0.0000000000000000     
   0.0000000000000000        0.0000000000000000        0.0000000000000000     
   2.8799312138615475E-003   1.7449567714299809E-003   0.0000000000000000     
   5.8723278264581321E-003   3.8648804695422057E-003   0.0000000000000000     
   8.9771898377897525E-003   6.3597710943366741E-003   0.0000000000000000     
   1.2194517247856411E-002   9.2296286458133873E-003   0.0000000000000000     
   0.0000000000000000        0.0000000000000000        0.0000000000000000     
   2.6101549815869905E-003   1.5890894955107159E-003   0.0000000000000000     
   5.2893290709283124E-003   3.5570354944986595E-003   0.0000000000000000     
   8.0375222680239642E-003   5.9038379969638321E-003   0.0000000000000000     
   1.0854734572873949E-002   8.6294970029062307E-003   0.0000000000000000     
   0.0000000000000000        0.0000000000000000        0.0000000000000000     
   2.3399386721520044E-003   1.4591841109643578E-003   0.0000000000000000     
   4.7197705058095035E-003   3.3002703497331384E-003   0.0000000000000000     
   7.1394955009724953E-003   5.5232587163063429E-003   0.0000000000000000     
   9.5991136576409810E-003   8.1281492106839714E-003   0.0000000000000000     
   0.0000000000000000        0.0000000000000000        0.0000000000000000     
   2.0692822855565883E-003   1.3552406177909067E-003   0.0000000000000000     
   4.1636521311017045E-003   3.0945850352456427E-003   0.0000000000000000     
   6.2831095366353449E-003   5.2180332523642072E-003   0.0000000000000000     
   8.4276545021575115E-003   7.7255852691466009E-003   0.0000000000000000     
   0.0000000000000000        0.0000000000000000        0.0000000000000000     
   1.7981858218007432E-003   1.2772590159903627E-003   0.0000000000000000     
   3.6209739468049135E-003   2.9399795510361712E-003   0.0000000000000000     
   5.4683643750125122E-003   4.9881616051374259E-003   0.0000000000000000     
   7.3403571064235371E-003   7.4218051782941261E-003   0.0000000000000000     
   1.2194517247856411E-002   9.2296286458133873E-003   0.0000000000000000     
   1.5426593706318468E-002   1.2372329672969052E-002   0.0000000000000000     
   1.8575702862836291E-002   1.5685750724800378E-002   0.0000000000000000     
   2.1641844717409878E-002   1.9169891801307362E-002   0.0000000000000000     
   2.4625019270039229E-002   2.2824752902490007E-002   0.0000000000000000     
   1.0854734572873949E-002   8.6294970029062307E-003   0.0000000000000000     
   1.3687642622505276E-002   1.1651688192114528E-002   0.0000000000000000     
   1.6482923053944953E-002   1.4888087244377393E-002   0.0000000000000000     
   1.9240575867192983E-002   1.8338694159694826E-002   0.0000000000000000     
   2.1960601062249365E-002   2.2003508938066820E-002   0.0000000000000000     
   9.5991136576409810E-003   8.1281492106839714E-003   0.0000000000000000     
   1.2075107279161876E-002   1.1047503439418861E-002   0.0000000000000000     
   1.4543958668882086E-002   1.4213883009063863E-002   0.0000000000000000     
   1.7005667826801612E-002   1.7627287919618970E-002   0.0000000000000000     
   1.9460234752920458E-002   2.1287718171084186E-002   0.0000000000000000     
   8.4276545021575115E-003   7.7255852691466009E-003   0.0000000000000000     
   1.0588987676288271E-002   1.0559775414882053E-002   0.0000000000000000     
   1.2758809707647686E-002   1.3663138018859787E-002   0.0000000000000000     
   1.4937120596235759E-002   1.7035673081079807E-002   0.0000000000000000     
   1.7123920342052488E-002   2.0677380601542110E-002   0.0000000000000000     
   7.3403571064235371E-003   7.4218051782941261E-003   0.0000000000000000     
   9.2292838138844629E-003   1.0188504118504096E-002   0.0000000000000000     
   1.1127476170241759E-002   1.3235852273765164E-002   0.0000000000000000     
   1.3034934175495429E-002   1.6563849644077332E-002   0.0000000000000000     
   1.4951657829645471E-002   2.0172496229440593E-002   0.0000000000000000     
   2.4625019270039229E-002   2.2824752902490007E-002   0.0000000000000000     
   2.7529374981070324E-002   2.6673280323086603E-002   0.0000000000000000     
   3.0359060310849149E-002   3.0738420357835441E-002   0.0000000000000000     
   3.3114075259375701E-002   3.5020173006736516E-002   0.0000000000000000     
   3.5794419826649979E-002   3.9518538269789835E-002   0.0000000000000000     
   2.1960601062249365E-002   2.2003508938066820E-002   0.0000000000000000     
   2.4626404384682804E-002   2.5880750662582819E-002   0.0000000000000000     
   2.7221391580061989E-002   2.9968638416332249E-002   0.0000000000000000     
   2.9745562648386920E-002   3.4267172199315118E-002   0.0000000000000000     
   3.2198917589657608E-002   3.8776352011531415E-002   0.0000000000000000     
   1.9460234752920458E-002   2.1287718171084186E-002   0.0000000000000000     
   2.1879197071276776E-002   2.5176554461510400E-002   0.0000000000000000     
   2.4234092405908732E-002   2.9275177488948492E-002   0.0000000000000000     
   2.6524920756816322E-002   3.3583587253398474E-002   0.0000000000000000     
   2.8751682123999554E-002   3.8101783754860334E-002   0.0000000000000000     
   1.7123920342052488E-002   2.0677380601542110E-002   0.0000000000000000     
   1.9287753040852236E-002   2.4560691719869351E-002   0.0000000000000000     
   2.1397162788389375E-002   2.8658037575684171E-002   0.0000000000000000     
   2.3452149584663896E-002   3.2969418168986575E-002   0.0000000000000000     
   2.5452713429675804E-002   3.7494833499776559E-002   0.0000000000000000     
   1.4951657829645471E-002   2.0172496229440593E-002   0.0000000000000000     
   1.6852072293409195E-002   2.4033162437659669E-002   0.0000000000000000     
   1.8710602727503925E-002   2.8117218676539289E-002   0.0000000000000000     
   2.0527249131929642E-002   3.2424664946079443E-002   0.0000000000000000     
   2.2302011506686360E-002   3.6955501246280130E-002   0.0000000000000000     
   3.5794419826649979E-002   3.9518538269789835E-002   0.0000000000000000     
   3.8400250950848216E-002   4.4223931868291141E-002   0.0000000000000000     
   4.0931725570146654E-002   4.9126769523536208E-002   0.0000000000000000     
   4.3388843684545292E-002   5.4227051235525014E-002   0.0000000000000000     
   4.5771605294044136E-002   5.9524777004257581E-002   0.0000000000000000     
   3.2198917589657608E-002   3.8776352011531415E-002   0.0000000000000000     
   3.4584021725174101E-002   4.3491679906493878E-002   0.0000000000000000     
   3.6903440376236468E-002   4.8408657937715253E-002   0.0000000000000000     
   3.9157173542844717E-002   5.3527286105195512E-002   0.0000000000000000     
   4.1345221224998827E-002   5.8847564408934676E-002   0.0000000000000000     
   2.8751682123999554E-002   3.8101783754860334E-002   0.0000000000000000     
   3.0917399668103428E-002   4.2827140754816979E-002   0.0000000000000000     
   3.3025096549772974E-002   4.7757032014751316E-002   0.0000000000000000     
   3.5074772769008195E-002   5.2891457534663365E-002   0.0000000000000000     
   3.7066428325809073E-002   5.8230417314553092E-002   0.0000000000000000     
   2.5452713429675804E-002   3.7494833499776559E-002   0.0000000000000000     
   2.7400384779636196E-002   4.2230314413260410E-002   0.0000000000000000     
   2.9296694090756172E-002   4.7171891754644410E-002   0.0000000000000000     
   3.1141641363035742E-002   5.2319565523928531E-002   0.0000000000000000     
   3.2935226596474888E-002   5.7673335721112801E-002   0.0000000000000000     
   2.2302011506686360E-002   3.6955501246280130E-002   0.0000000000000000     
   2.4032977059772392E-002   4.1701200881824205E-002   0.0000000000000000     
   2.5718232999186057E-002   4.6653237157394521E-002   0.0000000000000000     
   2.7357779324927348E-002   5.1811610072991059E-002   0.0000000000000000     
   2.8951616036996274E-002   5.7176319628613838E-002   0.0000000000000000     
   4.5771605294044136E-002   5.9524777004257581E-002   0.0000000000000000     
   4.8080796435032880E-002   6.5012153040633874E-002   0.0000000000000000     
   5.0317203143901222E-002   7.0681385555553894E-002   0.0000000000000000     
   5.2480825420649170E-002   7.6532474549017682E-002   0.0000000000000000     
   5.4571663265276731E-002   8.2565420021025168E-002   0.0000000000000000     
   4.1345221224998827E-002   5.8847564408934676E-002   0.0000000000000000     
   4.3466195787286298E-002   6.4358967491761288E-002   0.0000000000000000     
   4.5518709594294611E-002   7.0050969996503940E-002   0.0000000000000000     
   4.7502762646023787E-002   7.5923571923162625E-002   0.0000000000000000     
   4.9418354942473805E-002   8.1976773271737302E-002   0.0000000000000000     
   3.7066428325809073E-002   5.8230417314553092E-002   0.0000000000000000     
   3.8997524081772067E-002   6.3761790957172604E-002   0.0000000000000000     
   4.0865520898493608E-002   6.9473458065274024E-002   0.0000000000000000     
   4.2670418775973717E-002   7.5365418638857318E-002   0.0000000000000000     
   4.4412217714212367E-002   8.1437672677922485E-002   0.0000000000000000     
   3.2935226596474888E-002   5.7673335721112801E-002   0.0000000000000000     
   3.4674781318490201E-002   6.3220623436867809E-002   0.0000000000000000     
   3.6357637056498221E-002   6.8948849761864120E-002   0.0000000000000000     
   3.7983793810498975E-002   7.4858014696101732E-002   0.0000000000000000     
   3.9553251580492443E-002   8.0948118239580688E-002   0.0000000000000000     
   2.8951616036996274E-002   5.7176319628613838E-002   0.0000000000000000     
   3.0497967497440690E-002   6.2735464930846890E-002   0.0000000000000000     
   3.1995058068308449E-002   6.8477145086274269E-002   0.0000000000000000     
   3.3442887749599561E-002   7.4401360094895938E-002   0.0000000000000000     
   3.4841456541314021E-002   8.0508109956711926E-002   0.0000000000000000     
   5.4571663265276731E-002   8.2565420021025168E-002   0.0000000000000000     
   5.6587991452283042E-002   8.8768028184403019E-002   0.0000000000000000     
   5.8528084756167241E-002   9.5128105251977790E-002   0.0000000000000000     
   6.0391943176929336E-002  0.10164565122374958        0.0000000000000000     
   6.2179566714569340E-002  0.10832066609971827        0.0000000000000000     
   4.9418354942473805E-002   8.1976773271737302E-002   0.0000000000000000     
   5.1265532144474331E-002   8.8199367161920492E-002   0.0000000000000000     
   5.3044339912855031E-002   9.4580146713404659E-002   0.0000000000000000     
   5.4754778247615918E-002  0.10111911192618976        0.0000000000000000     
   5.6396847148756979E-002  0.10781626280027583        0.0000000000000000     
   4.4412217714212367E-002   8.1437672677922485E-002   0.0000000000000000     
   4.6091444111485858E-002   8.7679361398896288E-002   0.0000000000000000     
   4.7708624366070443E-002   9.4079626018205437E-002   0.0000000000000000     
   4.9263758477966157E-002  0.10063846653584992        0.0000000000000000     
   5.0756846447172960E-002  0.10735588295182975        0.0000000000000000     
   3.9553251580492443E-002   8.0948118239580688E-002   0.0000000000000000     
   4.1065727353317621E-002   8.7208010895330340E-002   0.0000000000000000     
   4.2520938115813485E-002   9.3626543166380125E-002   0.0000000000000000     
   4.3918883867980048E-002  0.10020371505273001        0.0000000000000000     
   4.5259564609817282E-002  0.10693952655438002        0.0000000000000000     
   3.4841456541314021E-002   8.0508109956711926E-002   0.0000000000000000     
   3.6188381869969623E-002   8.6785315651222716E-002   0.0000000000000000     
   3.7481281162084143E-002   9.3220898157928750E-002   0.0000000000000000     
   3.8720154417657582E-002   9.9814857476830068E-002   0.0000000000000000     
   3.9905001636689960E-002  0.10656719360792666        0.0000000000000000     
   6.2179566714569340E-002  0.10832066609971827        0.0000000000000000     
   6.3894949659415015E-002  0.11514234517786136        0.0000000000000000     
   6.5542086301794131E-002  0.12209988375615624        0.0000000000000000     
   6.7120976641706687E-002  0.12919328183460288        0.0000000000000000     
   6.8631620679152683E-002  0.13642253941320132        0.0000000000000000     
   5.6396847148756979E-002  0.10781626280027583        0.0000000000000000     
   5.7971258962555533E-002  0.11466031153131426        0.0000000000000000     
   5.9478726035288927E-002  0.12163997031495639        0.0000000000000000     
   6.0919248366957141E-002  0.12875523915120229        0.0000000000000000     
   6.2292825957560187E-002  0.13600611804005189        0.0000000000000000     
   5.0756846447172960E-002  0.10735588295182975        0.0000000000000000     
   5.2187644258707866E-002  0.11422041329989426        0.0000000000000000     
   5.3555907897587858E-002  0.12122059561379275        0.0000000000000000     
   5.4861637363812943E-002  0.12835642989352522        0.0000000000000000     
   5.6104832657383114E-002  0.13562791613909170        0.0000000000000000     
   4.5259564609817282E-002  0.10693952655438002        0.0000000000000000     
   4.6544105547871993E-002  0.11382265048360136        0.0000000000000000     
   4.7773631888690930E-002  0.12084175965266526        0.0000000000000000     
   4.8948143632274094E-002  0.12799685406157171        0.0000000000000000     
   5.0067640778621490E-002  0.13528793371032075        0.0000000000000000     
   3.9905001636689960E-002  0.10656719360792666        0.0000000000000000     
   4.1040642830047915E-002  0.11346702308243559        0.0000000000000000     
   4.2131898008598137E-002  0.12050346243157396        0.0000000000000000     
   4.3178767172340586E-002  0.12767651165534180        0.0000000000000000     
   4.4181250321275303E-002  0.13498617075373906        0.0000000000000000     
   6.8631620679152683E-002  0.13642253941320132        0.0000000000000000     
   7.0068523501298552E-002  0.14377534945157613        0.0000000000000000     
   7.1426190195310685E-002  0.15123940490935206        0.0000000000000000     
   7.2704620761189082E-002  0.15881470578652895        0.0000000000000000     
   7.3903815198933756E-002  0.16650125208310693        0.0000000000000000     
   6.2292825957560187E-002  0.13600611804005189        0.0000000000000000     
   6.3598919321740610E-002  0.14338210011286792        0.0000000000000000     
   6.4836988974140988E-002  0.15087267850101316        0.0000000000000000     
   6.6007034914761328E-002  0.15847785320448757        0.0000000000000000     
   6.7109057143601589E-002  0.16619762422329112        0.0000000000000000     
   5.6104832657383114E-002  0.13562791613909170        0.0000000000000000     
   5.7286200393950187E-002  0.14302497675740464        0.0000000000000000     
   5.8406447189165989E-002  0.15053753415537649        0.0000000000000000     
   5.9465573043030524E-002  0.15816558833300731        0.0000000000000000     
   6.0463577955543767E-002  0.16590913929029705        0.0000000000000000     
   5.0067640778621490E-002  0.13528793371032075        0.0000000000000000     
   5.1130366717927284E-002  0.14270397938518628        0.0000000000000000     
   5.2134564840385693E-002  0.15023397187244208        0.0000000000000000     
   5.3080235145996690E-002  0.15787791117208821        0.0000000000000000     
   5.3967377634760269E-002  0.16563579728412473        0.0000000000000000     
   4.4181250321275303E-002  0.13498617075373906        0.0000000000000000     
   4.5131418293671920E-002  0.14241910799621277        0.0000000000000000     
   4.6021341927800094E-002  0.14996199165220986        0.0000000000000000     
   4.6851021223659819E-002  0.15761482172173030        0.0000000000000000     
   4.7620456181251117E-002  0.16537759820477413        0.0000000000000000     
   0.0000000000000000        0.0000000000000000        0.0000000000000000     
   1.7981858218007432E-003   1.2772590159903627E-003   0.0000000000000000     
   3.6209739468049135E-003   2.9399795510361712E-003   0.0000000000000000     
   5.4683643750125122E-003   4.9881616051374259E-003   0.0000000000000000     
   7.3403571064235371E-003   7.4218051782941261E-003   0.0000000000000000     
   0.0000000000000000        0.0000000000000000        0.0000000000000000     
   1.5349255914660991E-003   1.2180900999415353E-003   0.0000000000000000     
   3.0990940167017591E-003   2.8218867085119544E-003   0.0000000000000000     
   4.6925052757069803E-003   4.8113898257112573E-003   0.0000000000000000     
   6.3151593684817623E-003   7.1865994515394431E-003   0.0000000000000000     
   0.0000000000000000        0.0000000000000000        0.0000000000000000     
   1.2877779051342865E-003   1.1705846640232343E-003   0.0000000000000000     
   2.6053704045748641E-003   2.7257393190802210E-003   0.0000000000000000     
   3.9527774983217348E-003   4.6654639651709622E-003   0.0000000000000000     
   5.3299991863748966E-003   6.9897586022954561E-003   0.0000000000000000     
   0.0000000000000000        0.0000000000000000        0.0000000000000000     
   1.0567427628053053E-003   1.1347427082354592E-003   0.0000000000000000     
   2.1398031104242301E-003   2.6515373827409724E-003   0.0000000000000000     
   3.2491810428567748E-003   4.5503840235165396E-003   0.0000000000000000     
   4.3848765601029382E-003   6.8312826305621608E-003   0.0000000000000000     
   0.0000000000000000        0.0000000000000000        0.0000000000000000     
   8.4182016447915638E-004   1.1105642325782105E-003   0.0000000000000000     
   1.7023921342498563E-003   2.5992808994942072E-003   0.0000000000000000     
   2.5817159093121001E-003   4.4661500007479905E-003   0.0000000000000000     
   3.4797914896658876E-003   6.7111715363395606E-003   0.0000000000000000     
   7.3403571064235371E-003   7.4218051782941261E-003   0.0000000000000000     
   9.2292838138844629E-003   1.0188504118504096E-002   0.0000000000000000     
   1.1127476170241759E-002   1.3235852273765164E-002   0.0000000000000000     
   1.3034934175495429E-002   1.6563849644077332E-002   0.0000000000000000     
   1.4951657829645471E-002   2.0172496229440593E-002   0.0000000000000000     
   6.3151593684817623E-003   7.1865994515394431E-003   0.0000000000000000     
   7.9543561710966430E-003   9.8980072333737113E-003   0.0000000000000000     
   9.5973955596221593E-003   1.2896104818591256E-002   0.0000000000000000     
   1.1244277534058308E-002   1.6180892207192078E-002   0.0000000000000000     
   1.2895002094405094E-002   1.9752369399176180E-002   0.0000000000000000     
   5.3299991863748966E-003   6.9897586022954561E-003   0.0000000000000000     
   6.7225652270710111E-003   9.6526024425796064E-003   0.0000000000000000     
   8.1160053787467431E-003   1.2607974698149317E-002   0.0000000000000000     
   9.5103196414020874E-003   1.5855875369004589E-002   0.0000000000000000     
   1.0905508015037046E-002   1.9396304455145421E-002   0.0000000000000000     
   4.3848765601029382E-003   6.8312826305621608E-003   0.0000000000000000     
   5.5339109818075679E-003   9.4522897461217815E-003   0.0000000000000000     
   6.6833056276155095E-003   1.2371461912439348E-002   0.0000000000000000     
   7.8330604975267622E-003   1.5588799129514861E-002   0.0000000000000000     
   8.9831755915413293E-003   1.9104301397348322E-002   0.0000000000000000     
   3.4797914896658876E-003   6.7111715363395606E-003   0.0000000000000000     
   4.3883934353063101E-003   9.2970691440002386E-003   0.0000000000000000     
   5.2992963062284603E-003   1.2186566461461351E-002   0.0000000000000000     
   6.2125001024323371E-003   1.5379663488722897E-002   0.0000000000000000     
   7.1280048239179428E-003   1.8876360225784875E-002   0.0000000000000000     
   1.4951657829645471E-002   2.0172496229440593E-002   0.0000000000000000     
   1.6852072293409195E-002   2.4033162437659669E-002   0.0000000000000000     
   1.8710602727503925E-002   2.8117218676539289E-002   0.0000000000000000     
   2.0527249131929642E-002   3.2424664946079443E-002   0.0000000000000000     
   2.2302011506686360E-002   3.6955501246280130E-002   0.0000000000000000     
   1.2895002094405094E-002   1.9752369399176180E-002   0.0000000000000000     
   1.4532894024787371E-002   2.3584252341418123E-002   0.0000000000000000     
   1.6141278109330012E-002   2.7650256980792470E-002   0.0000000000000000     
   1.7720154348032997E-002   3.1950383317299234E-002   0.0000000000000000     
   1.9269522740896342E-002   3.6484631350938400E-002   0.0000000000000000     
   1.0905508015037046E-002   1.9396304455145421E-002   0.0000000000000000     
   1.2290957430826484E-002   2.3204247157681466E-002   0.0000000000000000     
   1.3656054819945265E-002   2.7254688677722367E-002   0.0000000000000000     
   1.5000800182393390E-002   3.1547629015268121E-002   0.0000000000000000     
   1.6325193518170859E-002   3.6083068170318741E-002   0.0000000000000000     
   8.9831755915413293E-003   1.9104301397348322E-002   0.0000000000000000     
   1.0126262511526532E-002   2.2893146886449695E-002   0.0000000000000000     
   1.1254932859349694E-002   2.6930513767328960E-002   0.0000000000000000     
   1.2369186635010819E-002   3.1216402039986119E-002   0.0000000000000000     
   1.3469023838509904E-002   3.5750811704421161E-002   0.0000000000000000     
   7.1280048239179428E-003   1.8876360225784875E-002   0.0000000000000000     
   8.0388092668875148E-003   2.2650951527722823E-002   0.0000000000000000     
   8.9379122275432960E-003   2.6677732249612271E-002   0.0000000000000000     
   9.8253137058852847E-003   3.0956702391453220E-002   0.0000000000000000     
   1.0701013701913481E-002   3.5487861953245672E-002   0.0000000000000000     
   2.2302011506686360E-002   3.6955501246280130E-002   0.0000000000000000     
   2.4032977059772392E-002   4.1701200881824205E-002   0.0000000000000000     
   2.5718232999186057E-002   4.6653237157394521E-002   0.0000000000000000     
   2.7357779324927348E-002   5.1811610072991059E-002   0.0000000000000000     
   2.8951616036996274E-002   5.7176319628613838E-002   0.0000000000000000     
   1.9269522740896342E-002   3.6484631350938400E-002   0.0000000000000000     
   2.0783877378861004E-002   4.1239066258514395E-002   0.0000000000000000     
   2.2257712352867942E-002   4.6199753216831639E-002   0.0000000000000000     
   2.3691027662917148E-002   5.1366692225890145E-002   0.0000000000000000     
   2.5083823309008640E-002   5.6739883285689893E-002   0.0000000000000000     
   1.6325193518170859E-002   3.6083068170318741E-002   0.0000000000000000     
   1.7621786607250996E-002   4.0843176641337027E-002   0.0000000000000000     
   1.8883131229607136E-002   4.5810124926785774E-002   0.0000000000000000     
   2.0109227385239271E-002   5.0983913026665002E-002   0.0000000000000000     
   2.1300075074147405E-002   5.6364540940974692E-002   0.0000000000000000     
   1.3469023838509904E-002   3.5750811704421161E-002   0.0000000000000000     
   1.4546704744942371E-002   4.0513532030292100E-002   0.0000000000000000     
   1.5594489629403635E-002   4.5484352287256932E-002   0.0000000000000000     
   1.6612378491893703E-002   5.0663272475315622E-002   0.0000000000000000     
   1.7600371332412573E-002   5.6050292594468205E-002   0.0000000000000000     
   1.0701013701913481E-002   3.5487861953245672E-002   0.0000000000000000     
   1.1558631791935125E-002   4.0250132425379628E-002   0.0000000000000000     
   1.2391787552257448E-002   4.5222435298245073E-002   0.0000000000000000     
   1.3200480982880453E-002   5.0404770571842027E-002   0.0000000000000000     
   1.3984712083804141E-002   5.5797138246170476E-002   0.0000000000000000     
   2.8951616036996274E-002   5.7176319628613838E-002   0.0000000000000000     
   3.0497967497440690E-002   6.2735464930846890E-002   0.0000000000000000     
   3.1995058068308449E-002   6.8477145086274269E-002   0.0000000000000000     
   3.3442887749599561E-002   7.4401360094895938E-002   0.0000000000000000     
   3.4841456541314021E-002   8.0508109956711926E-002   0.0000000000000000     
   2.5083823309008640E-002   5.6739883285689893E-002   0.0000000000000000     
   2.6435554874424522E-002   6.2308418493644754E-002   0.0000000000000000     
   2.7745677942446902E-002   6.8061389947168566E-002   0.0000000000000000     
   2.9014192513075795E-002   7.3998797646261355E-002   0.0000000000000000     
   3.0241098586311198E-002   8.0120641590923081E-002   0.0000000000000000     
   2.1300075074147405E-002   5.6364540940974692E-002   0.0000000000000000     
   2.2456015705242673E-002   6.1941587179796274E-002   0.0000000000000000     
   2.3577390687436202E-002   6.7704630253211218E-002   0.0000000000000000     
   2.4664200020728003E-002   7.3653670161219445E-002   0.0000000000000000     
   2.5716443705118063E-002   7.9788706903821033E-002   0.0000000000000000     
   1.7600371332412573E-002   5.6050292594468205E-002   0.0000000000000000     
   1.8559349989895155E-002   6.1634970989301471E-002   0.0000000000000000     
   1.9490196303276353E-002   6.7406866004402127E-002   0.0000000000000000     
   2.0392910272556176E-002   7.3365977639770236E-002   0.0000000000000000     
   2.1267491897734626E-002   7.9512305895405755E-002   0.0000000000000000     
   1.3984712083804141E-002   5.5797138246170476E-002   0.0000000000000000     
   1.4745557728381957E-002   6.1388569922160297E-002   0.0000000000000000     
   1.5484094789967352E-002   6.7168097200741378E-002   0.0000000000000000     
   1.6200323268560329E-002   7.3135720081913713E-002   0.0000000000000000     
   1.6894243164160879E-002   7.9291438565677289E-002   0.0000000000000000     
   3.4841456541314021E-002   8.0508109956711926E-002   0.0000000000000000     
   3.6188381869969623E-002   8.6785315651222716E-002   0.0000000000000000     
   3.7481281162084143E-002   9.3220898157928750E-002   0.0000000000000000     
   3.8720154417657582E-002   9.9814857476830068E-002   0.0000000000000000     
   3.9905001636689960E-002  0.10656719360792666        0.0000000000000000     
   3.0241098586311198E-002   8.0120641590923081E-002   0.0000000000000000     
   3.1421880847139781E-002   8.6413691876250254E-002   0.0000000000000000     
   3.2552023980548239E-002   9.2864718597339316E-002   0.0000000000000000     
   3.3631527986536548E-002   9.9473721754190281E-002   0.0000000000000000     
   3.4660392865104736E-002  0.10624070134680315        0.0000000000000000     
   2.5716443705118063E-002   7.9788706903821033E-002   0.0000000000000000     
   2.6728697470526044E-002   8.6095555780089830E-002   0.0000000000000000     
   2.7695537046871589E-002   9.2560032089099784E-002   0.0000000000000000     
   2.8616962434154705E-002   9.9182135830850837E-002   0.0000000000000000     
   2.9492973632375380E-002  0.10596186700534305        0.0000000000000000     
   2.1267491897734626E-002   7.9512305895405755E-002   0.0000000000000000     
   2.2108831740128395E-002   8.5830907362741474E-002   0.0000000000000000     
   2.2911820361054193E-002   9.2306838633210139E-002   0.0000000000000000     
   2.3676457760512023E-002   9.8940099706811779E-002   0.0000000000000000     
   2.4402743938501881E-002  0.10573069058354634        0.0000000000000000     
   1.6894243164160879E-002   7.9291438565677289E-002   0.0000000000000000     
   1.7562283655946847E-002   8.5619746624205184E-002   0.0000000000000000     
   1.8200873923096061E-002   9.2105138229670425E-002   0.0000000000000000     
   1.8810013965608528E-002   9.8747613382073038E-002   0.0000000000000000     
   1.9389703783484244E-002  0.10554717208141302        0.0000000000000000     
   3.9905001636689960E-002  0.10656719360792666        0.0000000000000000     
   4.1040642830047915E-002  0.11346702308243559        0.0000000000000000     
   4.2131898008598137E-002  0.12050346243157396        0.0000000000000000     
   4.3178767172340586E-002  0.12767651165534180        0.0000000000000000     
   4.4181250321275303E-002  0.13498617075373906        0.0000000000000000     
   3.4660392865104736E-002  0.10624070134680315        0.0000000000000000     
   3.5646959582799669E-002  0.11315530740168532        0.0000000000000000     
   3.6599569106168239E-002  0.12020718994534420        0.0000000000000000     
   3.7518221435210435E-002  0.12739634897777979        0.0000000000000000     
   3.8402916569926261E-002  0.13472278449899211        0.0000000000000000     
   2.9492973632375380E-002  0.10596186700534305        0.0000000000000000     
   3.0332759283691273E-002  0.11288927974663901        0.0000000000000000     
   3.1145508030260016E-002  0.11995442818880137        0.0000000000000000     
   3.1931219872081612E-002  0.12715731233183009        0.0000000000000000     
   3.2689894809156073E-002  0.13449793217572523        0.0000000000000000     
   2.4402743938501881E-002  0.10573069058354634        0.0000000000000000     
   2.5098041932722710E-002  0.11266894011729663        0.0000000000000000     
   2.5769714780873466E-002  0.11974517716194542        0.0000000000000000     
   2.6417762482954136E-002  0.12695940171749273        0.0000000000000000     
   2.7042185038964720E-002  0.13431161378393852        0.0000000000000000     
   1.9389703783484244E-002  0.10554717208141302        0.0000000000000000     
   1.9942807529893997E-002  0.11249428851365820        0.0000000000000000     
   2.0472189358008579E-002  0.11957943686477640        0.0000000000000000     
   2.0977849267827989E-002  0.12680261713476765        0.0000000000000000     
   2.1459787259352228E-002  0.13416382932363188        0.0000000000000000     
   4.4181250321275303E-002  0.13498617075373906        0.0000000000000000     
   4.5131418293671920E-002  0.14241910799621277        0.0000000000000000     
   4.6021341927800094E-002  0.14996199165220986        0.0000000000000000     
   4.6851021223659819E-002  0.15761482172173030        0.0000000000000000     
   4.7620456181251117E-002  0.16537759820477413        0.0000000000000000     
   3.8402916569926261E-002  0.13472278449899211        0.0000000000000000     
   3.9239555393023928E-002  0.14217189332475949        0.0000000000000000     
   4.0014038787211680E-002  0.14972907227086041        0.0000000000000000     
   4.0726366752489480E-002  0.15739432133729486        0.0000000000000000     
   4.1376539288857359E-002  0.16516764052406280        0.0000000000000000     
   3.2689894809156073E-002  0.13449793217572523        0.0000000000000000     
   3.3404978287823232E-002  0.14196386610510167        0.0000000000000000     
   3.4059915754422951E-002  0.14954269250457433        0.0000000000000000     
   3.4654707208955235E-002  0.15723441137414321        0.0000000000000000     
   3.5189352651420078E-002  0.16503902271380830        0.0000000000000000     
   2.7042185038964720E-002  0.13431161378393852        0.0000000000000000     
   2.7627686978069790E-002  0.14179502633723928        0.0000000000000000     
   2.8158972829433911E-002  0.14940285235335152        0.0000000000000000     
   2.8636042593057069E-002  0.15713509183227536        0.0000000000000000     
   2.9058896268939271E-002  0.16499174477401068        0.0000000000000000     
   2.1459787259352228E-002  0.13416382932363188        0.0000000000000000     
   2.1907681463763637E-002  0.14166537402117235        0.0000000000000000     
   2.2311210012244558E-002  0.14930955181719219        0.0000000000000000     
   2.2670372904794987E-002  0.15709636271169136        0.0000000000000000     
   2.2985170141414931E-002  0.16502580670466988        0.0000000000000000     
   0.0000000000000000        0.0000000000000000        0.0000000000000000     
   8.4182016447915638E-004   1.1105642325782105E-003   0.0000000000000000     
   1.7023921342498563E-003   2.5992808994942072E-003   0.0000000000000000     
   2.5817159093121001E-003   4.4661500007479905E-003   0.0000000000000000     
   3.4797914896658876E-003   6.7111715363395606E-003   0.0000000000000000     
   0.0000000000000000        0.0000000000000000        0.0000000000000000     
   6.3408148722209122E-004   1.0944851141071138E-003   0.0000000000000000     
   1.2785529304062916E-003   2.5631035436729198E-003   0.0000000000000000     
   1.9334143295526018E-003   4.4058552886974186E-003   0.0000000000000000     
   2.5986656846610210E-003   6.6227403491806100E-003   0.0000000000000000     
   0.0000000000000000        0.0000000000000000        0.0000000000000000     
   4.2459810810036242E-004   1.0829412298777950E-003   0.0000000000000000     
   8.5370095324808582E-004   2.5371389896101043E-003   0.0000000000000000     
   1.2873085354431699E-003   4.3625932791969291E-003   0.0000000000000000     
   1.7254208546856153E-003   6.5593040986382679E-003   0.0000000000000000     
   0.0000000000000000        0.0000000000000000        0.0000000000000000     
   2.1337002711397025E-004   1.0759325798902540E-003   0.0000000000000000     
   4.2783620277523856E-004   2.5213872373057613E-003   0.0000000000000000     
   6.4339852698380533E-004   4.3363639722465213E-003   0.0000000000000000     
   8.6005699973966995E-004   6.5208627847125351E-003   0.0000000000000000     
   0.0000000000000000        0.0000000000000000        0.0000000000000000     
   3.9724426291438226E-007   1.0734591641444911E-003   0.0000000000000000     
   9.5867898775009843E-007   2.5158482867598899E-003   0.0000000000000000     
   1.6843041745070943E-006   4.3271673678461960E-003   0.0000000000000000     
   2.5741198231854783E-006   6.5074164074034107E-003   0.0000000000000000     
   3.4797914896658876E-003   6.7111715363395606E-003   0.0000000000000000     
   4.3883934353063101E-003   9.2970691440002386E-003   0.0000000000000000     
   5.2992963062284603E-003   1.2186566461461351E-002   0.0000000000000000     
   6.2125001024323371E-003   1.5379663488722897E-002   0.0000000000000000     
   7.1280048239179428E-003   1.8876360225784875E-002   0.0000000000000000     
   2.5986656846610210E-003   6.6227403491806100E-003   0.0000000000000000     
   3.2713899374281902E-003   9.1808215626725965E-003   0.0000000000000000     
   3.9486700295507486E-003   1.2047161766723482E-002   0.0000000000000000     
   4.6305059610286968E-003   1.5221760961333260E-002   0.0000000000000000     
   5.3168977318620346E-003   1.8704619146501938E-002   0.0000000000000000     
   1.7254208546856153E-003   6.5593040986382679E-003   0.0000000000000000     
   2.1682778380341557E-003   9.0974279285964740E-003   0.0000000000000000     
   2.6161194125475249E-003   1.1947121249733888E-002   0.0000000000000000     
   3.0689455782257243E-003   1.5108384062050518E-002   0.0000000000000000     
   3.5267563350687521E-003   1.8581216365546362E-002   0.0000000000000000     
   8.6005699973966995E-004   6.5208627847125351E-003   0.0000000000000000     
   1.0790571371242070E-003   9.0468882417718659E-003   0.0000000000000000     
   1.3016444552187904E-003   1.1886444910492577E-002   0.0000000000000000     
   1.5278189540234204E-003   1.5039532790874666E-002   0.0000000000000000     
   1.7575806335380962E-003   1.8506151882918136E-002   0.0000000000000000     
   2.5741198231854783E-006   6.5074164074034107E-003   0.0000000000000000     
   3.7278346983447581E-006   9.0292025021987774E-003   0.0000000000000000     
   5.2451575645449429E-006   1.1865132748999543E-002   0.0000000000000000     
   7.1260884217852636E-006   1.5015207147805708E-002   0.0000000000000000     
   9.3706272700668078E-006   1.8479425698617272E-002   0.0000000000000000     
   7.1280048239179428E-003   1.8876360225784875E-002   0.0000000000000000     
   8.0388092668875148E-003   2.2650951527722823E-002   0.0000000000000000     
   8.9379122275432960E-003   2.6677732249612271E-002   0.0000000000000000     
   9.8253137058852847E-003   3.0956702391453220E-002   0.0000000000000000     
   1.0701013701913481E-002   3.5487861953245672E-002   0.0000000000000000     
   5.3168977318620346E-003   1.8704619146501938E-002   0.0000000000000000     
   6.0005375576129075E-003   2.2468758014411255E-002   0.0000000000000000     
   6.6741176538434597E-003   2.6487199257242956E-002   0.0000000000000000     
   7.3376380205536938E-003   3.0759942874997032E-002   0.0000000000000000     
   7.9910986577436064E-003   3.5286988867673501E-002   0.0000000000000000     
   3.5267563350687521E-003   1.8581216365546362E-002   0.0000000000000000     
   3.9833872444061807E-003   2.2337663279425417E-002   0.0000000000000000     
   4.4326738675675801E-003   2.6349769922891685E-002   0.0000000000000000     
   4.8746162045529510E-003   3.0617536295945172E-002   0.0000000000000000     
   5.3092142553622934E-003   3.5140962398585864E-002   0.0000000000000000     
   1.7575806335380962E-003   1.8506151882918136E-002   0.0000000000000000     
   1.9873583272673363E-003   2.2257667322765302E-002   0.0000000000000000     
   2.2135808687156568E-003   2.6265444246558464E-002   0.0000000000000000     
   2.4362482578830589E-003   3.0529482654297627E-002   0.0000000000000000     
   2.6553604947695407E-003   3.5049782545982795E-002   0.0000000000000000     
   9.3706272700668078E-006   1.8479425698617272E-002   0.0000000000000000     
   1.2450806196373336E-005   2.2228770144430910E-002   0.0000000000000000     
   1.6838657287689124E-005   2.6234222228243290E-002   0.0000000000000000     
   2.2534180544015629E-005   3.0495781950054403E-002   0.0000000000000000     
   2.9537375965351135E-005   3.5013449309864261E-002   0.0000000000000000     
   1.0701013701913481E-002   3.5487861953245672E-002   0.0000000000000000     
   1.1558631791935125E-002   4.0250132425379628E-002   0.0000000000000000     
   1.2391787552257448E-002   4.5222435298245073E-002   0.0000000000000000     
   1.3200480982880453E-002   5.0404770571842027E-002   0.0000000000000000     
   1.3984712083804141E-002   5.5797138246170476E-002   0.0000000000000000     
   7.9910986577436064E-003   3.5286988867673501E-002   0.0000000000000000     
   8.6302792674959050E-003   4.0047197570804591E-002   0.0000000000000000     
   9.2509595518932911E-003   4.5019429319922595E-002   0.0000000000000000     
   9.8531395109357645E-003   5.0203684115027528E-002   0.0000000000000000     
   1.0436819144623327E-002   5.5599961956119354E-002   0.0000000000000000     
   5.3092142553622934E-003   3.5140962398585864E-002   0.0000000000000000     
   5.7343586908913547E-003   3.9898947210772015E-002   0.0000000000000000     
   6.1479401820358857E-003   4.4870389712461892E-002   0.0000000000000000     
   6.5499587287958846E-003   5.0055289903655445E-002   0.0000000000000000     
   6.9404143311713523E-003   5.5453647784352716E-002   0.0000000000000000     
   2.6553604947695407E-003   3.5049782545982795E-002   0.0000000000000000     
   2.8708700621214766E-003   3.9805381345281887E-002   0.0000000000000000     
   3.0827294426852329E-003   4.4775316475862879E-002   0.0000000000000000     
   3.2909386364608144E-003   4.9959587937725772E-002   0.0000000000000000     
   3.4954976434482172E-003   5.5358195730870557E-002   0.0000000000000000     
   2.9537375965351135E-005   3.5013449309864261E-002   0.0000000000000000     
   3.9813381186266992E-005   3.9766499974334228E-002   0.0000000000000000     
   5.5327333841334060E-005   4.4734209610125655E-002   0.0000000000000000     
   7.6079233930551784E-005   4.9916578217238536E-002   0.0000000000000000     
   1.0206908145392107E-004   5.5313605795672890E-002   0.0000000000000000     
   1.3984712083804141E-002   5.5797138246170476E-002   0.0000000000000000     
   1.4745557728381957E-002   6.1388569922160297E-002   0.0000000000000000     
   1.5484094789967352E-002   6.7168097200741378E-002   0.0000000000000000     
   1.6200323268560329E-002   7.3135720081913713E-002   0.0000000000000000     
   1.6894243164160879E-002   7.9291438565677289E-002   0.0000000000000000     
   1.0436819144623327E-002   5.5599961956119354E-002   0.0000000000000000     
   1.1002719997694399E-002   6.1196552374433673E-002   0.0000000000000000     
   1.1551563614887394E-002   6.6981744901206078E-002   0.0000000000000000     
   1.2083349996202320E-002   7.2955539536436562E-002   0.0000000000000000     
   1.2598079141639167E-002   7.9117936280125145E-002   0.0000000000000000     
   6.9404143311713523E-003   5.5453647784352716E-002   0.0000000000000000     
   7.3189178748237840E-003   6.1053086742182426E-002   0.0000000000000000     
   7.6850802454146751E-003   6.6841230164773363E-002   0.0000000000000000     
   8.0389014429440263E-003   7.2818078052125493E-002   0.0000000000000000     
   8.3803814674118342E-003   7.8983630404238850E-002   0.0000000000000000     
   3.4954976434482172E-003   5.5358195730870557E-002   0.0000000000000000     
   3.6941513597701201E-003   6.0958173025406584E-002   0.0000000000000000     
   3.8846446815491982E-003   6.6746552991443234E-002   0.0000000000000000     
   4.0669776087854503E-003   7.2723335628980521E-002   0.0000000000000000     
   4.2411501414788789E-003   7.8888520938018403E-002   0.0000000000000000     
   1.0206908145392107E-004   5.5313605795672890E-002   0.0000000000000000     
   1.2842045253340351E-004   6.0911811224106133E-002   0.0000000000000000     
   1.5025692329095962E-004   6.6697713381215704E-002   0.0000000000000000     
   1.6757849372659172E-004   7.2671312267001589E-002   0.0000000000000000     
   1.8038516384029802E-004   7.8832607881463804E-002   0.0000000000000000     
   1.6894243164160879E-002   7.9291438565677289E-002   0.0000000000000000     
   1.7562283655946847E-002   8.5619746624205184E-002   0.0000000000000000     
   1.8200873923096061E-002   9.2105138229670425E-002   0.0000000000000000     
   1.8810013965608528E-002   9.8747613382073038E-002   0.0000000000000000     
   1.9389703783484244E-002  0.10554717208141302        0.0000000000000000     
   1.2598079141639167E-002   7.9117936280125145E-002   0.0000000000000000     
   1.3094187196603310E-002   8.5453144093194211E-002   0.0000000000000000     
   1.3570110306500105E-002   9.1945371936566142E-002   0.0000000000000000     
   1.4025848471329551E-002   9.8594619810240952E-002   0.0000000000000000     
   1.4461401691091651E-002  0.10540088771421864        0.0000000000000000     
   8.3803814674118342E-003   7.8983630404238850E-002   0.0000000000000000     
   8.7096763407197072E-003   8.5322170298421804E-002   0.0000000000000000     
   9.0269420847692364E-003   9.1817980811982766E-002   0.0000000000000000     
   9.3321786995604339E-003   9.8471061944921751E-002   0.0000000000000000     
   9.6253861850932876E-003  0.10528141369723872        0.0000000000000000     
   4.2411501414788789E-003   7.8888520938018403E-002   0.0000000000000000     
   4.4087510882960326E-003   8.5226825239887991E-002   0.0000000000000000     
   4.5713692579034629E-003   9.1722964855920325E-002   0.0000000000000000     
   4.7290046503011725E-003   9.8376939786115433E-002   0.0000000000000000     
   4.8816572654891578E-003  0.10518875003047327        0.0000000000000000     
   1.8038516384029802E-004   7.8832607881463804E-002   0.0000000000000000     
   1.9141143933229065E-004   8.5167108917592743E-002   0.0000000000000000     
   2.0339182590278207E-004   9.1660324068378832E-002   0.0000000000000000     
   2.1632632355177072E-004   9.8312253333822000E-002   0.0000000000000000     
   2.3021493227925712E-004  0.10512289671392232        0.0000000000000000     
   1.9389703783484244E-002  0.10554717208141302        0.0000000000000000     
   1.9942807529893997E-002  0.11249428851365820        0.0000000000000000     
   2.0472189358008579E-002  0.11957943686477640        0.0000000000000000     
   2.0977849267827989E-002  0.12680261713476765        0.0000000000000000     
   2.1459787259352228E-002  0.13416382932363188        0.0000000000000000     
   1.4461401691091651E-002  0.10540088771421864        0.0000000000000000     
   1.4875251086736888E-002  0.11235443833293997        0.0000000000000000     
   1.5265877779215739E-002  0.11944553435084568        0.0000000000000000     
   1.5633281768528212E-002  0.12667417576793580        0.0000000000000000     
   1.5977463054674304E-002  0.13404036258421034        0.0000000000000000     
   9.6253861850932876E-003  0.10528141369723872        0.0000000000000000     
   9.9035676147831396E-003  0.11223850297235821        0.0000000000000000     
   1.0163726062045323E-002  0.11933179667370472        0.0000000000000000     
   1.0405861526879830E-002  0.12656129480127823        0.0000000000000000     
   1.0629974009286667E-002  0.13392699735507876        0.0000000000000000     
   4.8816572654891578E-003  0.10518875003047327        0.0000000000000000     
   5.0277571140327623E-003  0.11214648243191296        0.0000000000000000     
   5.1657342064973227E-003  0.11923822383335347        0.0000000000000000     
   5.2955885428828424E-003  0.12646397423479486        0.0000000000000000     
   5.4173201231893196E-003  0.13382373363623712        0.0000000000000000     
   2.3021493227925712E-004  0.10512289671392232        0.0000000000000000     
   2.4781958448574716E-004  0.11207837671160417        0.0000000000000000     
   2.7190221257174360E-004  0.11916481582979196        0.0000000000000000     
   3.0246281653724871E-004  0.12638221406848574        0.0000000000000000     
   3.3950139638226065E-004  0.13373057142768544        0.0000000000000000     
   2.1459787259352228E-002  0.13416382932363188        0.0000000000000000     
   2.1907681463763637E-002  0.14166537402117235        0.0000000000000000     
   2.2311210012244558E-002  0.14930955181719219        0.0000000000000000     
   2.2670372904794987E-002  0.15709636271169136        0.0000000000000000     
   2.2985170141414931E-002  0.16502580670466988        0.0000000000000000     
   1.5977463054674304E-002  0.13404036258421034        0.0000000000000000     
   1.6293635874121564E-002  0.14155351988773188        0.0000000000000000     
   1.6577014463337546E-002  0.14922307276656299        0.0000000000000000     
   1.6827598822322255E-002  0.15704902122070369        0.0000000000000000     
   1.7045388951075682E-002  0.16503136525015402        0.0000000000000000     
   1.0629974009286667E-002  0.13392699735507876        0.0000000000000000     
   1.0834224338360385E-002  0.14143807466774880        0.0000000000000000     
   1.1016773343195538E-002  0.14910369707193091        0.0000000000000000     
   1.1177621023792121E-002  0.15692386456762503        0.0000000000000000     
   1.1316767380150141E-002  0.16489857715483119        0.0000000000000000     
   5.4173201231893196E-003  0.13382373363623712        0.0000000000000000     
   5.5294468564800990E-003  0.14131903836122311        0.0000000000000000     
   5.6304866518185233E-003  0.14895142473329587        0.0000000000000000     
   5.7204395092045942E-003  0.15672089275245529        0.0000000000000000     
   5.7993054286383091E-003  0.16462744241870145        0.0000000000000000     
   3.3950139638226065E-004  0.13373057142768544        0.0000000000000000     
   3.7930342848070588E-004  0.14119641096815491        0.0000000000000000     
   4.1815438920650883E-004  0.14876625575065794        0.0000000000000000     
   4.5605427855966877E-004  0.15644010577519454        0.0000000000000000     
   4.9300309654018611E-004  0.16421796104176470        0.0000000000000000     
   0.0000000000000000        0.0000000000000000        0.0000000000000000     
   3.9724426291438226E-007   1.0734591641444911E-003   0.0000000000000000     
   9.5867898775009843E-007   2.5158482867598899E-003   0.0000000000000000     
   1.6843041745070943E-006   4.3271673678461960E-003   0.0000000000000000     
   2.5741198231854783E-006   6.5074164074034107E-003   0.0000000000000000     
   0.0000000000000000        0.0000000000000000        0.0000000000000000     
  -2.1260807858298488E-004   1.0755625263651196E-003   0.0000000000000000     
  -4.2599880294669245E-004   2.5206088762610573E-003   0.0000000000000000     
  -6.4017217309112243E-004   4.3351390496878138E-003   0.0000000000000000     
  -8.5512818901627510E-004   6.5191530466453878E-003   0.0000000000000000     
   0.0000000000000000        0.0000000000000000        0.0000000000000000     
  -4.2393377955390736E-004   1.0822842102767537E-003   0.0000000000000000     
  -8.5210342786040119E-004   2.5357557440978317E-003   0.0000000000000000     
  -1.2845089449194812E-003   4.3604146014632342E-003   0.0000000000000000     
  -1.7211503307311478E-003   6.5562607823729619E-003   0.0000000000000000     
   0.0000000000000000        0.0000000000000000        0.0000000000000000     
  -6.3357985864985304E-004   1.0936242158793928E-003   0.0000000000000000     
  -1.2773551957533762E-003   2.5612888902702127E-003   0.0000000000000000     
  -1.9313260113105698E-003   4.4029940231724591E-003   0.0000000000000000     
  -2.5954923053214327E-003   6.6187396145861313E-003   0.0000000000000000     
   0.0000000000000000        0.0000000000000000        0.0000000000000000     
  -8.4154631587082199E-004   1.1095825431730374E-003   0.0000000000000000     
  -1.7017541066256178E-003   2.5972083147781998E-003   0.0000000000000000     
  -2.5806233722643875E-003   4.4628773148154858E-003   0.0000000000000000     
  -3.4781541127871306E-003   6.7065895432848969E-003   0.0000000000000000     
   2.5741198231854783E-006   6.5074164074034107E-003   0.0000000000000000     
   3.7278346983447581E-006   9.0292025021987774E-003   0.0000000000000000     
   5.2451575645449429E-006   1.1865132748999543E-002   0.0000000000000000     
   7.1260884217852636E-006   1.5015207147805708E-002   0.0000000000000000     
   9.3706272700668078E-006   1.8479425698617272E-002   0.0000000000000000     
  -8.5512818901627510E-004   6.5191530466453878E-003   0.0000000000000000     
  -1.0719305213426798E-003   9.0446305642554719E-003   0.0000000000000000     
  -1.2916428406908671E-003   1.1883551299639762E-002   0.0000000000000000     
  -1.5142651470608358E-003   1.5035915252798251E-002   0.0000000000000000     
  -1.7397974404525878E-003   1.8501722423730944E-002   0.0000000000000000     
  -1.7211503307311478E-003   6.5562607823729619E-003   0.0000000000000000     
  -2.1621383830981154E-003   9.0934322823202143E-003   0.0000000000000000     
  -2.6075838998231003E-003   1.1942067096798192E-002   0.0000000000000000     
  -3.0574868809061006E-003   1.5102165225806898E-002   0.0000000000000000     
  -3.5118473263471184E-003   1.8573726669346327E-002   0.0000000000000000     
  -2.5954923053214327E-003   6.6187396145861313E-003   0.0000000000000000     
  -3.2668957505679625E-003   9.1756076563930030E-003   0.0000000000000000     
  -3.9425780198321545E-003   1.2040680140474836E-002   0.0000000000000000     
  -4.6225391131140070E-003   1.5213957066831641E-002   0.0000000000000000     
  -5.3067790304135243E-003   1.8695438435463414E-002   0.0000000000000000     
  -3.4781541127871306E-003   6.7065895432848969E-003   0.0000000000000000     
  -4.3862026237522205E-003   9.2911566864738344E-003   0.0000000000000000     
  -5.2966252007180300E-003   1.2179390430669701E-002   0.0000000000000000     
  -6.2094218436845577E-003   1.5371290775872492E-002   0.0000000000000000     
  -7.1245925526518053E-003   1.8866857722082211E-002   0.0000000000000000     
   9.3706272700668078E-006   1.8479425698617272E-002   0.0000000000000000     
   1.2450806196373336E-005   2.2228770144430910E-002   0.0000000000000000     
   1.6838657287689124E-005   2.6234222228243290E-002   0.0000000000000000     
   2.2534180544015629E-005   3.0495781950054403E-002   0.0000000000000000     
   2.9537375965351135E-005   3.5013449309864261E-002   0.0000000000000000     
  -1.7397974404525878E-003   1.8501722423730944E-002   0.0000000000000000     
  -1.9637942374482621E-003   2.2251922582201163E-002   0.0000000000000000     
  -2.1818100546299982E-003   2.6257465497972220E-002   0.0000000000000000     
  -2.3938448919977959E-003   3.0518351171044126E-002   0.0000000000000000     
  -2.5998987495516571E-003   3.5034579601416878E-002   0.0000000000000000     
  -3.5118473263471184E-003   1.8573726669346327E-002   0.0000000000000000     
  -3.9638357223081219E-003   2.2328075473854975E-002   0.0000000000000000     
  -4.4066225549510805E-003   2.6336535685771330E-002   0.0000000000000000     
  -4.8402078242759938E-003   3.0599107305095404E-002   0.0000000000000000     
  -5.2645915302828635E-003   3.5115790331827192E-002   0.0000000000000000     
  -5.3067790304135243E-003   1.8695438435463414E-002   0.0000000000000000     
  -5.9876736483832063E-003   2.2457228819392345E-002   0.0000000000000000     
  -6.6575988436755572E-003   2.6471432791640621E-002   0.0000000000000000     
  -7.3165546162905788E-003   3.0738050352208252E-002   0.0000000000000000     
  -7.9645409662282667E-003   3.5257081501095223E-002   0.0000000000000000     
  -7.1245925526518053E-003   1.8866857722082211E-002   0.0000000000000000     
  -8.0353080156735143E-003   2.2639382618813271E-002   0.0000000000000000     
  -8.9347389208034294E-003   2.6662156815580085E-002   0.0000000000000000     
  -9.8228852680415490E-003   3.0935180312382651E-002   0.0000000000000000     
  -1.0699747057387870E-002   3.5458453109220966E-002   0.0000000000000000     
   2.9537375965351135E-005   3.5013449309864261E-002   0.0000000000000000     
   3.9813381186266992E-005   3.9766499974334228E-002   0.0000000000000000     
   5.5327333841334060E-005   4.4734209610125655E-002   0.0000000000000000     
   7.6079233930551784E-005   4.9916578217238536E-002   0.0000000000000000     
   1.0206908145392107E-004   5.5313605795672890E-002   0.0000000000000000     
  -2.5998987495516571E-003   3.5034579601416878E-002   0.0000000000000000     
  -2.7963572140678478E-003   3.9785843705508146E-002   0.0000000000000000     
  -2.9796058723226384E-003   4.4751836399735637E-002   0.0000000000000000     
  -3.1496447243160269E-003   4.9932557684099349E-002   0.0000000000000000     
  -3.3064737700480131E-003   5.5328007558599283E-002   0.0000000000000000     
  -5.2645915302828635E-003   3.5115790331827192E-002   0.0000000000000000     
  -5.6751875857944493E-003   3.9866953146382805E-002   0.0000000000000000     
  -6.0674099036335102E-003   4.4832964129178351E-002   0.0000000000000000     
  -6.4412584838000470E-003   5.0013823280213872E-002   0.0000000000000000     
  -6.7967333262940596E-003   5.5409530599489318E-002   0.0000000000000000     
  -7.9645409662282667E-003   3.5257081501095223E-002   0.0000000000000000     
  -8.5966777339935331E-003   4.0009828296958198E-002   0.0000000000000000     
  -9.2080847600912816E-003   4.4977592798453828E-002   0.0000000000000000     
  -9.7987620445215088E-003   5.0160375005582077E-002   0.0000000000000000     
  -1.0368709587284218E-002   5.5558174918342994E-002   0.0000000000000000     
  -1.0699747057387870E-002   3.5458453109220966E-002   0.0000000000000000     
  -1.1560827658665101E-002   4.0214469157234325E-002   0.0000000000000000     
  -1.2401630441695949E-002   4.5185722407561996E-002   0.0000000000000000     
  -1.3222155406480415E-002   5.0372212860203998E-002   0.0000000000000000     
  -1.4022402553018494E-002   5.5773940515160311E-002   0.0000000000000000     
   1.0206908145392107E-004   5.5313605795672890E-002   0.0000000000000000     
   1.2842045253340351E-004   6.0911811224106133E-002   0.0000000000000000     
   1.5025692329095962E-004   6.6697713381215704E-002   0.0000000000000000     
   1.6757849372659172E-004   7.2671312267001589E-002   0.0000000000000000     
   1.8038516384029802E-004   7.8832607881463804E-002   0.0000000000000000     
  -3.3064737700480131E-003   5.5328007558599283E-002   0.0000000000000000     
  -3.4568358968503307E-003   6.0924173387085313E-002   0.0000000000000000     
  -3.6074739920547148E-003   6.6707042533407326E-002   0.0000000000000000     
  -3.7583880556611641E-003   7.2676614997565323E-002   0.0000000000000000     
  -3.9095780876696792E-003   7.8832890779559336E-002   0.0000000000000000     
  -6.7967333262940596E-003   5.5409530599489318E-002   0.0000000000000000     
  -7.1401787383450453E-003   6.1005431563148374E-002   0.0000000000000000     
  -7.4779390271825031E-003   6.6786871647334711E-002   0.0000000000000000     
  -7.8100141928064276E-003   7.2753850852048343E-002   0.0000000000000000     
  -8.1364042352168268E-003   7.8906369177289257E-002   0.0000000000000000     
  -1.0368709587284218E-002   5.5558174918342994E-002   0.0000000000000000     
  -1.0921608071950742E-002   6.1155585752295336E-002   0.0000000000000000     
  -1.1461138182092401E-002   6.6937200722997858E-002   0.0000000000000000     
  -1.1987299917709204E-002   7.2903019830450583E-002   0.0000000000000000     
  -1.2500093278801142E-002   7.9053043074653523E-002   0.0000000000000000     
  -1.4022402553018494E-002   5.5773940515160311E-002   0.0000000000000000     
  -1.4801123897667415E-002   6.1374635954526163E-002   0.0000000000000000     
  -1.5557071456784416E-002   6.7158029760396767E-002   0.0000000000000000     
  -1.6290245230369486E-002   7.3124121932772096E-002   0.0000000000000000     
  -1.7000645218422632E-002   7.9272912471652177E-002   0.0000000000000000     
   1.8038516384029802E-004   7.8832607881463804E-002   0.0000000000000000     
   1.9141143933229065E-004   8.5167108917592743E-002   0.0000000000000000     
   2.0339182590278207E-004   9.1660324068378832E-002   0.0000000000000000     
   2.1632632355177072E-004   9.8312253333822000E-002   0.0000000000000000     
   2.3021493227925712E-004  0.10512289671392232        0.0000000000000000     
  -3.9095780876696792E-003   7.8832890779559336E-002   0.0000000000000000     
  -4.0575625711020301E-003   8.5162324522589400E-002   0.0000000000000000     
  -4.1988599889799857E-003   9.1651370869855600E-002   0.0000000000000000     
  -4.3334703413035469E-003   9.8300029821357965E-002   0.0000000000000000     
  -4.4613936280727146E-003  0.10510830137709645        0.0000000000000000     
  -8.1364042352168268E-003   7.8906369177289257E-002   0.0000000000000000     
  -8.4533909079374404E-003   8.5231775245931188E-002   0.0000000000000000     
  -8.7572559644920177E-003   9.1717417680848040E-002   0.0000000000000000     
  -9.0479994048805606E-003   9.8363296482039744E-002   0.0000000000000000     
  -9.3256212291030639E-003  0.10516941164950630        0.0000000000000000     
  -1.2500093278801142E-002   7.9053043074653523E-002   0.0000000000000000     
  -1.2996073571173942E-002   8.5375461087618190E-002   0.0000000000000000     
  -1.3471796100633321E-002   9.1858464501356138E-002   0.0000000000000000     
  -1.3927260867179266E-002   9.8502053315867394E-002   0.0000000000000000     
  -1.4362467870811788E-002  0.10530622753115192        0.0000000000000000     
  -1.7000645218422632E-002   7.9272912471652177E-002   0.0000000000000000     
  -1.7685610560811534E-002   8.5593382047650338E-002   0.0000000000000000     
  -1.8342480397403878E-002   9.2074511331379894E-002   0.0000000000000000     
  -1.8971254728199664E-002   9.8716300322840858E-002   0.0000000000000000     
  -1.9571933553198893E-002  0.10551874902203325        0.0000000000000000     
   2.3021493227925712E-004  0.10512289671392232        0.0000000000000000     
   2.4781958448574716E-004  0.11207837671160417        0.0000000000000000     
   2.7190221257174360E-004  0.11916481582979196        0.0000000000000000     
   3.0246281653724871E-004  0.12638221406848574        0.0000000000000000     
   3.3950139638226065E-004  0.13373057142768544        0.0000000000000000     
  -4.4613936280727146E-003  0.10510830137709645        0.0000000000000000     
  -4.5758348518387540E-003  0.11206071811164466        0.0000000000000000     
  -4.6699990151529286E-003  0.11914181259957617        0.0000000000000000     
  -4.7438861180152401E-003  0.12635158484089101        0.0000000000000000     
  -4.7974961604256858E-003  0.13369003483558911        0.0000000000000000     
  -9.3256212291030639E-003  0.10516941164950630        0.0000000000000000     
  -9.5827960729215934E-003  0.11212003893224726        0.0000000000000000     
  -9.8121985720982102E-003  0.11919945407926212        0.0000000000000000     
  -1.0013828726632911E-002  0.12640765709055088        0.0000000000000000     
  -1.0187686536525698E-002  0.13374464796611352        0.0000000000000000     
  -1.4362467870811788E-002  0.10530622753115192        0.0000000000000000     
  -1.4773064078762773E-002  0.11225633917341198        0.0000000000000000     
  -1.5154696458264099E-002  0.11933774026884980        0.0000000000000000     
  -1.5507365009315767E-002  0.12655043081746536        0.0000000000000000     
  -1.5831069731917773E-002  0.13389441081925874        0.0000000000000000     
  -1.9571933553198893E-002  0.10551874902203325        0.0000000000000000     
  -2.0146638869362288E-002  0.11246961883513877        0.0000000000000000     
  -2.0697492673650595E-002  0.11955667116833918        0.0000000000000000     
  -2.1224494966063805E-002  0.12677990602163450        0.0000000000000000     
  -2.1727645746601923E-002  0.13413932339502463        0.0000000000000000     
   3.3950139638226065E-004  0.13373057142768544        0.0000000000000000     
   3.7930342848070588E-004  0.14119641096815491        0.0000000000000000     
   4.1815438920650883E-004  0.14876625575065794        0.0000000000000000     
   4.5605427855966877E-004  0.15644010577519454        0.0000000000000000     
   4.9300309654018611E-004  0.16421796104176470        0.0000000000000000     
  -4.7974961604256858E-003  0.13369003483558911        0.0000000000000000     
  -4.8366617308464657E-003  0.14112959417587848        0.0000000000000000     
  -4.8672154177397762E-003  0.14864269445396697        0.0000000000000000     
  -4.8891572211056146E-003  0.15622933566985461        0.0000000000000000     
  -4.9024871409439836E-003  0.16388951782354144        0.0000000000000000     
  -1.0187686536525698E-002  0.13374464796611352        0.0000000000000000     
  -1.0338904406710087E-002  0.14117798967172815        0.0000000000000000     
  -1.0472614742119595E-002  0.14867524517317285        0.0000000000000000     
  -1.0588817542754217E-002  0.15623641447044745        0.0000000000000000     
  -1.0687512808613958E-002  0.16386149756355212        0.0000000000000000     
  -1.5831069731917773E-002  0.13389441081925874        0.0000000000000000     
  -1.6127424599110162E-002  0.14134159745570402        0.0000000000000000     
  -1.6398043583932948E-002  0.14886390790827547        0.0000000000000000     
  -1.6642926686386141E-002  0.15646134217697302        0.0000000000000000     
  -1.6862073906469731E-002  0.16413390026179672        0.0000000000000000     
  -2.1727645746601923E-002  0.13413932339502463        0.0000000000000000     
  -2.2202222308046683E-002  0.14162041752780605        0.0000000000000000     
  -2.2643501943179836E-002  0.14920868265927492        0.0000000000000000     
  -2.3051484652001381E-002  0.15690411878943133        0.0000000000000000     
  -2.3426170434511309E-002  0.16470672591827523        0.0000000000000000     
   0.0000000000000000        0.0000000000000000        0.0000000000000000     
  -8.4154631587082199E-004   1.1095825431730374E-003   0.0000000000000000     
  -1.7017541066256178E-003   2.5972083147781998E-003   0.0000000000000000     
  -2.5806233722643875E-003   4.4628773148154858E-003   0.0000000000000000     
  -3.4781541127871306E-003   6.7065895432848969E-003   0.0000000000000000     
   0.0000000000000000        0.0000000000000000        0.0000000000000000     
  -1.0566992942204927E-003   1.1337084469582909E-003   0.0000000000000000     
  -2.1397326672211196E-003   2.6493580239294770E-003   0.0000000000000000     
  -3.2491001190018804E-003   4.5469487309135583E-003   0.0000000000000000     
  -4.3848016495627758E-003   6.8264805679105348E-003   0.0000000000000000     
   0.0000000000000000        0.0000000000000000        0.0000000000000000     
  -1.2879049367025440E-003   1.1695511820357556E-003   0.0000000000000000     
  -2.6057233842838759E-003   2.7235820240317276E-003   0.0000000000000000     
  -3.9534553427439953E-003   4.6620925259879152E-003   0.0000000000000000     
  -5.3311008120829036E-003   6.9850826879043187E-003   0.0000000000000000     
   0.0000000000000000        0.0000000000000000        0.0000000000000000     
  -1.5351632433169755E-003   1.2171107484054320E-003   0.0000000000000000     
  -3.0997262578138863E-003   2.8198803150849511E-003   0.0000000000000000     
  -4.6936890434907319E-003   4.8083087000385574E-003   0.0000000000000000     
  -6.3170516003475128E-003   7.1823959032662511E-003   0.0000000000000000     
   0.0000000000000000        0.0000000000000000        0.0000000000000000     
  -1.7984742140637880E-003   1.2763871460673203E-003   0.0000000000000000     
  -3.6217412878111516E-003   2.9382528970891488E-003   0.0000000000000000     
  -5.4698012212420896E-003   4.9855972530654857E-003   0.0000000000000000     
  -7.3426540143566050E-003   7.4184202139963304E-003   0.0000000000000000     
  -3.4781541127871306E-003   6.7065895432848969E-003   0.0000000000000000     
  -4.3862026237522205E-003   9.2911566864738344E-003   0.0000000000000000     
  -5.2966252007180300E-003   1.2179390430669701E-002   0.0000000000000000     
  -6.2094218436845577E-003   1.5371290775872492E-002   0.0000000000000000     
  -7.1245925526518053E-003   1.8866857722082211E-002   0.0000000000000000     
  -4.3848016495627758E-003   6.8264805679105348E-003   0.0000000000000000     
  -5.5340436482808359E-003   9.4461601145451653E-003   0.0000000000000000     
  -6.6840325045330919E-003   1.2364193950442215E-002   0.0000000000000000     
  -7.8347682183195454E-003   1.5580582075601680E-002   0.0000000000000000     
  -8.9862507896401912E-003   1.9095324490023560E-002   0.0000000000000000     
  -5.3311008120829036E-003   6.9850826879043187E-003   0.0000000000000000     
  -6.7244034697837539E-003   9.6466986825894524E-003   0.0000000000000000     
  -8.1191069933297059E-003   1.2601086682851830E-002   0.0000000000000000     
  -9.5152113827207570E-003   1.5848246688691454E-002   0.0000000000000000     
  -1.0912716637956911E-002   1.9388178700108318E-002   0.0000000000000000     
  -6.3170516003475128E-003   7.1823959032662511E-003   0.0000000000000000     
  -7.9572820882609762E-003   9.8927723906066939E-003   0.0000000000000000     
  -9.6018486671078720E-003   1.2890068627898543E-002   0.0000000000000000     
  -1.1250751336888201E-002   1.6174284615141803E-002   0.0000000000000000     
  -1.2903990097601962E-002   1.9745420352336472E-002   0.0000000000000000     
  -7.3426540143566050E-003   7.4184202139963304E-003   0.0000000000000000     
  -9.2326795037125011E-003   1.0184381238596886E-002   0.0000000000000000     
  -1.1132257525867592E-002   1.3231139785582352E-002   0.0000000000000000     
  -1.3041388080821873E-002   1.6558695854952732E-002   0.0000000000000000     
  -1.4960071168575345E-002   2.0167049446708024E-002   0.0000000000000000     
  -7.1245925526518053E-003   1.8866857722082211E-002   0.0000000000000000     
  -8.0353080156735143E-003   2.2639382618813271E-002   0.0000000000000000     
  -8.9347389208034294E-003   2.6662156815580085E-002   0.0000000000000000     
  -9.8228852680415490E-003   3.0935180312382651E-002   0.0000000000000000     
  -1.0699747057387870E-002   3.5458453109220966E-002   0.0000000000000000     
  -8.9862507896401912E-003   1.9095324490023560E-002   0.0000000000000000     
  -1.0131709247074737E-002   2.2882634698154547E-002   0.0000000000000000     
  -1.1264372619202882E-002   2.6916726204441323E-002   0.0000000000000000     
  -1.2384240906024626E-002   3.1197599008883890E-002   0.0000000000000000     
  -1.3491314107539967E-002   3.5725253111482252E-002   0.0000000000000000     
  -1.0912716637956911E-002   1.9388178700108318E-002   0.0000000000000000     
  -1.2301847765482559E-002   2.3195082883452966E-002   0.0000000000000000     
  -1.3672829771742102E-002   2.7243159405075944E-002   0.0000000000000000     
  -1.5025662656735536E-002   3.1532408264977253E-002   0.0000000000000000     
  -1.6360346420462864E-002   3.6062829463156885E-002   0.0000000000000000     
  -1.2903990097601962E-002   1.9745420352336472E-002   0.0000000000000000     
  -1.4545723570896981E-002   2.3576727174708524E-002   0.0000000000000000     
  -1.6160110378421088E-002   2.7641456417483945E-002   0.0000000000000000     
  -1.7747150520174278E-002   3.1939608080662735E-002   0.0000000000000000     
  -1.9306843996156557E-002   3.6471182164244886E-002   0.0000000000000000     
  -1.4960071168575345E-002   2.0167049446708024E-002   0.0000000000000000     
  -1.6863336663318004E-002   2.4027567571921222E-002   0.0000000000000000     
  -1.8726214439239837E-002   2.8111617241665325E-002   0.0000000000000000     
  -2.0548704496340855E-002   3.2419198455940330E-002   0.0000000000000000     
  -2.2330806834621044E-002   3.6950311214746248E-002   0.0000000000000000     
  -1.0699747057387870E-002   3.5458453109220966E-002   0.0000000000000000     
  -1.1560827658665101E-002   4.0214469157234325E-002   0.0000000000000000     
  -1.2401630441695949E-002   4.5185722407561996E-002   0.0000000000000000     
  -1.3222155406480415E-002   5.0372212860203998E-002   0.0000000000000000     
  -1.4022402553018494E-002   5.5773940515160311E-002   0.0000000000000000     
  -1.3491314107539967E-002   3.5725253111482252E-002   0.0000000000000000     
  -1.4581856015848941E-002   4.0483777675205904E-002   0.0000000000000000     
  -1.5652130423051573E-002   4.5457261863024380E-002   0.0000000000000000     
  -1.6702137329147864E-002   5.0645705674937667E-002   0.0000000000000000     
  -1.7731876734137814E-002   5.6049109110945780E-002   0.0000000000000000     
  -1.6360346420462864E-002   3.6062829463156885E-002   0.0000000000000000     
  -1.7673981461584835E-002   4.0820655798867671E-002   0.0000000000000000     
  -1.8963668178762202E-002   4.5792120071362429E-002   0.0000000000000000     
  -2.0229406571994967E-002   5.0977222280641159E-002   0.0000000000000000     
  -2.1471196641283122E-002   5.6375962426703882E-002   0.0000000000000000     
  -1.9306843996156557E-002   3.6471182164244886E-002   0.0000000000000000     
  -2.0837203995872789E-002   4.1225103528219620E-002   0.0000000000000000     
  -2.2336243708827839E-002   4.6190297032576148E-002   0.0000000000000000     
  -2.3803963135021717E-002   5.1366762677314486E-002   0.0000000000000000     
  -2.5240362274454413E-002   5.6754500462434604E-002   0.0000000000000000     
  -2.2330806834621044E-002   3.6950311214746248E-002   0.0000000000000000     
  -2.4071523618712794E-002   4.1697120863261751E-002   0.0000000000000000     
  -2.5769857013248493E-002   4.6651792746665553E-002   0.0000000000000000     
  -2.7425807018228113E-002   5.1814326864957620E-002   0.0000000000000000     
  -2.9039373633651690E-002   5.7184723218137973E-002   0.0000000000000000     
  -1.4022402553018494E-002   5.5773940515160311E-002   0.0000000000000000     
  -1.4801123897667415E-002   6.1374635954526163E-002   0.0000000000000000     
  -1.5557071456784416E-002   6.7158029760396767E-002   0.0000000000000000     
  -1.6290245230369486E-002   7.3124121932772096E-002   0.0000000000000000     
  -1.7000645218422632E-002   7.9272912471652177E-002   0.0000000000000000     
  -1.7731876734137814E-002   5.6049109110945780E-002   0.0000000000000000     
  -1.8735437110139943E-002   6.1650754113037880E-002   0.0000000000000000     
  -1.9706906929272759E-002   6.7433922623203135E-002   0.0000000000000000     
  -2.0646286191536269E-002   7.3398614641441567E-002   0.0000000000000000     
  -2.1553574896930463E-002   7.9544830167753211E-002   0.0000000000000000     
  -2.1471196641283122E-002   5.6375962426703882E-002   0.0000000000000000     
  -2.2681258604013183E-002   6.1972112171027431E-002   0.0000000000000000     
  -2.3851812677571655E-002   6.7749443175088742E-002   0.0000000000000000     
  -2.4982858861958529E-002   7.3707955438887779E-002   0.0000000000000000     
  -2.6074397157173825E-002   7.9847648962424536E-002   0.0000000000000000     
  -2.5240362274454413E-002   5.6754500462434604E-002   0.0000000000000000     
  -2.6638588379287138E-002   6.2338710128494845E-002   0.0000000000000000     
  -2.7991788701681095E-002   6.8104591416053545E-002   0.0000000000000000     
  -2.9299963241636282E-002   7.4052144325110647E-002   0.0000000000000000     
  -3.0563111999152699E-002   8.0181368855666235E-002   0.0000000000000000     
  -2.9039373633651690E-002   5.7184723218137973E-002   0.0000000000000000     
  -3.0607426435961805E-002   6.2750547985440122E-002   0.0000000000000000     
  -3.2126835001601087E-002   6.8499367346097545E-002   0.0000000000000000     
  -3.3597599330569515E-002   7.4431181300110241E-002   0.0000000000000000     
  -3.5019719422867107E-002   8.0545989847478253E-002   0.0000000000000000     
  -1.7000645218422632E-002   7.9272912471652177E-002   0.0000000000000000     
  -1.7685610560811534E-002   8.5593382047650338E-002   0.0000000000000000     
  -1.8342480397403878E-002   9.2074511331379894E-002   0.0000000000000000     
  -1.8971254728199664E-002   9.8716300322840858E-002   0.0000000000000000     
  -1.9571933553198893E-002  0.10551874902203325        0.0000000000000000     
  -2.1553574896930463E-002   7.9544830167753211E-002   0.0000000000000000     
  -2.2426823537635057E-002   8.5861978056108693E-002   0.0000000000000000     
  -2.3264082605829725E-002   9.2339467160478736E-002   0.0000000000000000     
  -2.4065352101514469E-002   9.8977297480863410E-002   0.0000000000000000     
  -2.4830632024689308E-002  0.10577546901726265        0.0000000000000000     
  -2.6074397157173825E-002   7.9847648962424536E-002   0.0000000000000000     
  -2.7124534162429333E-002   8.6157689043074248E-002   0.0000000000000000     
  -2.8131376476936854E-002   9.2627240978212164E-002   0.0000000000000000     
  -2.9094924100696414E-002   9.9256304767838213E-002   0.0000000000000000     
  -3.0015177033707988E-002  0.10604488041195247        0.0000000000000000     
  -3.0563111999152699E-002   8.0181368855666235E-002   0.0000000000000000     
  -3.1778742435194372E-002   8.6480515008547101E-002   0.0000000000000000     
  -3.2944362010725300E-002   9.2937832784580107E-002   0.0000000000000000     
  -3.4059970725745473E-002   9.9553322183765308E-002   0.0000000000000000     
  -3.5125568580254930E-002  0.10632698320610268        0.0000000000000000     
  -3.5019719422867107E-002   8.0545989847478253E-002   0.0000000000000000     
  -3.6389448355930165E-002   8.6830455952527169E-002   0.0000000000000000     
  -3.7703039207195026E-002   9.3271242579582650E-002   0.0000000000000000     
  -3.8960491976661682E-002   9.9868349728644681E-002   0.0000000000000000     
  -4.0161806664330127E-002  0.10662177739971326        0.0000000000000000     
  -1.9571933553198893E-002  0.10551874902203325        0.0000000000000000     
  -2.0146638869362288E-002  0.11246961883513877        0.0000000000000000     
  -2.0697492673650595E-002  0.11955667116833918        0.0000000000000000     
  -2.1224494966063805E-002  0.12677990602163450        0.0000000000000000     
  -2.1727645746601923E-002  0.13413932339502463        0.0000000000000000     
  -2.4830632024689308E-002  0.10577546901726265        0.0000000000000000     
  -2.5568520398537086E-002  0.11272431050942452        0.0000000000000000     
  -2.6287615246240667E-002  0.11981415069709705        0.0000000000000000     
  -2.6987916567800051E-002  0.12704498958028027        0.0000000000000000     
  -2.7669424363215230E-002  0.13441682715897416        0.0000000000000000     
  -3.0015177033707988E-002  0.10604488041195247        0.0000000000000000     
  -3.0903708620104102E-002  0.11298484678826604        0.0000000000000000     
  -3.1772092204017277E-002  0.12006808277449016        0.0000000000000000     
  -3.2620327785447517E-002  0.12729458837062482        0.0000000000000000     
  -3.3448415364394808E-002  0.13466436357667005        0.0000000000000000     
  -3.5125568580254930E-002  0.10632698320610268        0.0000000000000000     
  -3.6152203534063343E-002  0.11325122767166333        0.0000000000000000     
  -3.7150923546980436E-002  0.12031846740051849        0.0000000000000000     
  -3.8121728619006208E-002  0.12752870239266814        0.0000000000000000     
  -3.9064618750140667E-002  0.13488193264811230        0.0000000000000000     
  -4.0161806664330127E-002  0.10662177739971326        0.0000000000000000     
  -4.1314005140414806E-002  0.11352345315961640        0.0000000000000000     
  -4.2424109275130129E-002  0.12056530457518207        0.0000000000000000     
  -4.3492119068476130E-002  0.12774733164641025        0.0000000000000000     
  -4.4518034520452783E-002  0.13506953437330096        0.0000000000000000     
  -2.1727645746601923E-002  0.13413932339502463        0.0000000000000000     
  -2.2202222308046683E-002  0.14162041752780605        0.0000000000000000     
  -2.2643501943179836E-002  0.14920868265927492        0.0000000000000000     
  -2.3051484652001381E-002  0.15690411878943133        0.0000000000000000     
  -2.3426170434511309E-002  0.16470672591827523        0.0000000000000000     
  -2.7669424363215230E-002  0.13441682715897416        0.0000000000000000     
  -2.8320868419390681E-002  0.14192790361581037        0.0000000000000000     
  -2.8930978523230875E-002  0.14957645913342052        0.0000000000000000     
  -2.9499754674735802E-002  0.15736249371180469        0.0000000000000000     
  -3.0027196873905457E-002  0.16528600735096283        0.0000000000000000     
  -3.3448415364394808E-002  0.13466436357667005        0.0000000000000000     
  -3.4240933819013199E-002  0.14217750944749319        0.0000000000000000     
  -3.4982462027456675E-002  0.14983412703796167        0.0000000000000000     
  -3.5672999989725271E-002  0.15763421634807548        0.0000000000000000     
  -3.6312547705818959E-002  0.16557777737783461        0.0000000000000000     
  -3.9064618750140667E-002  0.13488193264811230        0.0000000000000000     
  -3.9962418506914198E-002  0.14236923502285448        0.0000000000000000     
  -4.0797952455857246E-002  0.14998168637289830        0.0000000000000000     
  -4.1571220596969771E-002  0.15771928669824370        0.0000000000000000     
  -4.2282222930251787E-002  0.16558203599889065        0.0000000000000000     
  -4.4518034520452783E-002  0.13506953437330096        0.0000000000000000     
  -4.5485322483093726E-002  0.14250308034189429        0.0000000000000000     
  -4.6377449808432565E-002  0.15001913713823042        0.0000000000000000     
  -4.7194416496469320E-002  0.15761770476230930        0.0000000000000000     
  -4.7936222547203977E-002  0.16529878321413091        0.0000000000000000     
   0.0000000000000000        0.0000000000000000        0.0000000000000000     
  -1.7984742140637880E-003   1.2763871460673203E-003   0.0000000000000000     
  -3.6217412878111516E-003   2.9382528970891488E-003   0.0000000000000000     
  -5.4698012212420896E-003   4.9855972530654857E-003   0.0000000000000000     
  -7.3426540143566050E-003   7.4184202139963304E-003   0.0000000000000000     
   0.0000000000000000        0.0000000000000000        0.0000000000000000     
  -2.0695893213986925E-003   1.3545059037291976E-003   0.0000000000000000     
  -4.1644622576310630E-003   3.0931896137837487E-003   0.0000000000000000     
  -6.2846188086971106E-003   5.2160511301636552E-003   0.0000000000000000     
  -8.4300589745968345E-003   7.7230904528689161E-003   0.0000000000000000     
   0.0000000000000000        0.0000000000000000        0.0000000000000000     
  -2.3402600377774021E-003   1.4585925500988403E-003   0.0000000000000000     
  -4.7205829506290131E-003   3.2991803089081821E-003   0.0000000000000000     
  -7.1409687385548329E-003   5.5217632764280235E-003   0.0000000000000000     
  -9.6014174015548598E-003   8.1263414526583661E-003   0.0000000000000000     
   0.0000000000000000        0.0000000000000000        0.0000000000000000     
  -2.6104863631999167E-003   1.5886470851762496E-003   0.0000000000000000     
  -5.2901033668050022E-003   3.5562249824624462E-003   0.0000000000000000     
  -8.0388510108152563E-003   5.9027336918585915E-003   0.0000000000000000     
  -1.0856729295230677E-002   8.6281732133646830E-003   0.0000000000000000     
   0.0000000000000000        0.0000000000000000        0.0000000000000000     
  -2.8802682976662363E-003   1.7446695089614250E-003   0.0000000000000000     
  -5.8730235061590303E-003   3.8643236344465441E-003   0.0000000000000000     
  -8.9782656254783818E-003   6.3589623764553575E-003   0.0000000000000000     
  -1.2195994655624293E-002   9.2285857349878649E-003   0.0000000000000000     
  -7.3426540143566050E-003   7.4184202139963304E-003   0.0000000000000000     
  -9.2326795037125011E-003   1.0184381238596886E-002   0.0000000000000000     
  -1.1132257525867592E-002   1.3231139785582352E-002   0.0000000000000000     
  -1.3041388080821873E-002   1.6558695854952732E-002   0.0000000000000000     
  -1.4960071168575345E-002   2.0167049446708024E-002   0.0000000000000000     
  -8.4300589745968345E-003   7.7230904528689161E-003   0.0000000000000000     
  -1.0592414633168125E-002   1.0556830755815672E-002   0.0000000000000000     
  -1.2763317662248863E-002   1.3659795212920054E-002   0.0000000000000000     
  -1.4942768061839053E-002   1.7031983824182067E-002   0.0000000000000000     
  -1.7130765831938698E-002   2.0673396589601711E-002   0.0000000000000000     
  -9.6014174015548598E-003   8.1263414526583661E-003   0.0000000000000000     
  -1.2078306393657633E-002   1.1045426471518682E-002   0.0000000000000000     
  -1.4548013168891689E-002   1.4211529966928435E-002   0.0000000000000000     
  -1.7010537727257028E-002   1.7624651938887629E-002   0.0000000000000000     
  -1.9465880068753653E-002   2.1284792387396268E-002   0.0000000000000000     
  -1.0856729295230677E-002   8.6281732133646830E-003   0.0000000000000000     
  -1.3690354785181031E-002   1.1650168385705921E-002   0.0000000000000000     
  -1.6486344045796072E-002   1.4886344047607504E-002   0.0000000000000000     
  -1.9244697077075802E-002   1.8336700199069425E-002   0.0000000000000000     
  -2.1965413879020221E-002   2.2001236840091688E-002   0.0000000000000000     
  -1.2195994655624293E-002   9.2285857349878649E-003   0.0000000000000000     
  -1.5428559807738319E-002   1.2371056498377390E-002   0.0000000000000000     
  -1.8578310292962009E-002   1.5684237454957249E-002   0.0000000000000000     
  -2.1645246111295369E-002   1.9168128604727448E-002   0.0000000000000000     
  -2.4629367262738396E-002   2.2822729947687984E-002   0.0000000000000000     
  -1.4960071168575345E-002   2.0167049446708024E-002   0.0000000000000000     
  -1.6863336663318004E-002   2.4027567571921222E-002   0.0000000000000000     
  -1.8726214439239837E-002   2.8111617241665325E-002   0.0000000000000000     
  -2.0548704496340855E-002   3.2419198455940330E-002   0.0000000000000000     
  -2.2330806834621044E-002   3.6950311214746248E-002   0.0000000000000000     
  -1.7130765831938698E-002   2.0673396589601711E-002   0.0000000000000000     
  -1.9296118307101207E-002   2.4556865007990699E-002   0.0000000000000000     
  -2.1407632821880004E-002   2.8655220578160726E-002   0.0000000000000000     
  -2.3465309376275088E-002   3.2968463300111793E-002   0.0000000000000000     
  -2.5469147970286456E-002   3.7496593173843913E-002   0.0000000000000000     
  -1.9465880068753653E-002   2.1284792387396268E-002   0.0000000000000000     
  -2.1885499766602187E-002   2.5173880415816568E-002   0.0000000000000000     
  -2.4240856394023239E-002   2.9273845127510766E-002   0.0000000000000000     
  -2.6531949951016823E-002   3.3584686522478854E-002   0.0000000000000000     
  -2.8758780437582926E-002   3.8106404600720845E-002   0.0000000000000000     
  -2.1965413879020221E-002   2.2001236840091688E-002   0.0000000000000000     
  -2.4631481041820936E-002   2.5878613795398853E-002   0.0000000000000000     
  -2.7225885155669545E-002   2.9967490889715460E-002   0.0000000000000000     
  -2.9748626220566052E-002   3.4267868123041514E-002   0.0000000000000000     
  -3.2199704236510453E-002   3.8779745495377008E-002   0.0000000000000000     
  -2.4629367262738396E-002   2.2822729947687984E-002   0.0000000000000000     
  -2.7534062132757459E-002   2.6671065146737540E-002   0.0000000000000000     
  -3.0362719106818915E-002   3.0736157864774797E-002   0.0000000000000000     
  -3.3115338184922787E-002   3.5018008101799759E-002   0.0000000000000000     
  -3.5791919367069040E-002   3.9516615857812437E-002   0.0000000000000000     
  -2.2330806834621044E-002   3.6950311214746248E-002   0.0000000000000000     
  -2.4071523618712794E-002   4.1697120863261751E-002   0.0000000000000000     
  -2.5769857013248493E-002   4.6651792746665553E-002   0.0000000000000000     
  -2.7425807018228113E-002   5.1814326864957620E-002   0.0000000000000000     
  -2.9039373633651690E-002   5.7184723218137973E-002   0.0000000000000000     
  -2.5469147970286456E-002   3.7496593173843913E-002   0.0000000000000000     
  -2.7418989593484166E-002   4.2234274707897819E-002   0.0000000000000000     
  -2.9314675235438244E-002   4.7176172410814260E-002   0.0000000000000000     
  -3.1156204896148711E-002   5.2322286282593215E-002   0.0000000000000000     
  -3.2943578575615556E-002   5.7672616323234692E-002   0.0000000000000000     
  -2.8758780437582926E-002   3.8106404600720845E-002   0.0000000000000000     
  -3.0921651183566184E-002   4.2834131966031572E-002   0.0000000000000000     
  -3.3020865518811220E-002   4.7763001222205927E-002   0.0000000000000000     
  -3.5056423443318017E-002   5.2893012369243896E-002   0.0000000000000000     
  -3.7028324957086592E-002   5.8224165407145492E-002   0.0000000000000000     
  -3.2199704236510453E-002   3.8779745495377008E-002   0.0000000000000000     
  -3.4579508388958867E-002   4.3496692637663002E-002   0.0000000000000000     
  -3.6888427863367400E-002   4.8412279180840560E-002   0.0000000000000000     
  -3.9126462659736058E-002   5.3526505124909682E-002   0.0000000000000000     
  -4.1293612778064821E-002   5.8839370469870346E-002   0.0000000000000000     
  -3.5791919367069040E-002   3.9516615857812437E-002   0.0000000000000000     
  -3.8392561209662210E-002   4.4221956722792125E-002   0.0000000000000000     
  -4.0917362269106805E-002   4.9124006286718161E-002   0.0000000000000000     
  -4.3366322545402798E-002   5.4222764549590546E-002   0.0000000000000000     
  -4.5739442038550224E-002   5.9518231511409281E-002   0.0000000000000000     
  -2.9039373633651690E-002   5.7184723218137973E-002   0.0000000000000000     
  -3.0607426435961805E-002   6.2750547985440122E-002   0.0000000000000000     
  -3.2126835001601087E-002   6.8499367346097545E-002   0.0000000000000000     
  -3.3597599330569515E-002   7.4431181300110241E-002   0.0000000000000000     
  -3.5019719422867107E-002   8.0545989847478253E-002   0.0000000000000000     
  -3.2943578575615556E-002   5.7672616323234692E-002   0.0000000000000000     
  -3.4677953369276440E-002   6.3217201788428337E-002   0.0000000000000000     
  -3.6360486372569056E-002   6.8946081933863812E-002   0.0000000000000000     
  -3.7991177585493405E-002   7.4859256759541096E-002   0.0000000000000000     
  -3.9570027008049465E-002   8.0956726265460160E-002   0.0000000000000000     
  -3.7028324957086592E-002   5.8224165407145492E-002   0.0000000000000000     
  -3.8940349774470293E-002   6.3748247584024670E-002   0.0000000000000000     
  -4.0796277609822462E-002   6.9457046147995388E-002   0.0000000000000000     
  -4.2596108463143108E-002   7.5350561099057675E-002   0.0000000000000000     
  -4.4339842334432229E-002   8.1428792437211517E-002   0.0000000000000000     
  -4.1293612778064821E-002   5.8839370469870346E-002   0.0000000000000000     
  -4.3394615651543351E-002   6.4343685372229079E-002   0.0000000000000000     
  -4.5434208713361283E-002   7.0032259988492288E-002   0.0000000000000000     
  -4.7412391963518631E-002   7.5905094318660063E-002   0.0000000000000000     
  -4.9329165402015381E-002   8.1962188362732336E-002   0.0000000000000000     
  -4.5739442038550224E-002   5.9518231511409281E-002   0.0000000000000000     
  -4.8040751000495617E-002   6.5003515153041536E-002   0.0000000000000000     
  -5.0274279683185527E-002   7.0671723455354524E-002   0.0000000000000000     
  -5.2440028086619968E-002   7.6522856418348204E-002   0.0000000000000000     
  -5.4537996210798946E-002   8.2556914042022617E-002   0.0000000000000000     
  -3.5019719422867107E-002   8.0545989847478253E-002   0.0000000000000000     
  -3.6389448355930165E-002   8.6830455952527169E-002   0.0000000000000000     
  -3.7703039207195026E-002   9.3271242579582650E-002   0.0000000000000000     
  -3.8960491976661682E-002   9.9868349728644681E-002   0.0000000000000000     
  -4.0161806664330127E-002  0.10662177739971326        0.0000000000000000     
  -3.9570027008049465E-002   8.0956726265460160E-002   0.0000000000000000     
  -4.1091917845019824E-002   8.7223685319496660E-002   0.0000000000000000     
  -4.2551733301187042E-002   9.3645328789526180E-002   0.0000000000000000     
  -4.3949473376551140E-002  0.10022165667554869        0.0000000000000000     
  -4.5285138071112077E-002  0.10695266897756428        0.0000000000000000     
  -4.4339842334432229E-002   8.1428792437211517E-002   0.0000000000000000     
  -4.6021416822846439E-002   8.7676376553937757E-002   0.0000000000000000     
  -4.7634769527542350E-002   9.4077949840717170E-002   0.0000000000000000     
  -4.9179900448519970E-002  0.10063351229754983        0.0000000000000000     
  -5.0656809585779276E-002  0.10734306392443570        0.0000000000000000     
  -4.9329165402015381E-002   8.1962188362732336E-002   0.0000000000000000     
  -5.1177945289410005E-002   8.8188529655850445E-002   0.0000000000000000     
  -5.2952147886260938E-002   9.4569105733155676E-002   0.0000000000000000     
  -5.4651773192568170E-002  0.10110391659464803        0.0000000000000000     
  -5.6276821208331738E-002  0.10779296224032749        0.0000000000000000     
  -5.4537996210798946E-002   8.2556914042022617E-002   0.0000000000000000     
  -5.6561503244710515E-002   8.8760144625234738E-002   0.0000000000000000     
  -5.8503868377342803E-002   9.5118796466841654E-002   0.0000000000000000     
  -6.0365091608695770E-002  0.10163286956684328        0.0000000000000000     
  -6.2145172938769443E-002  0.10830236392523968        0.0000000000000000     
  -4.0161806664330127E-002  0.10662177739971326        0.0000000000000000     
  -4.1314005140414806E-002  0.11352345315961640        0.0000000000000000     
  -4.2424109275130129E-002  0.12056530457518207        0.0000000000000000     
  -4.3492119068476130E-002  0.12774733164641025        0.0000000000000000     
  -4.4518034520452783E-002  0.13506953437330096        0.0000000000000000     
  -4.5285138071112077E-002  0.10695266897756428        0.0000000000000000     
  -4.6561252933954481E-002  0.11382939933528123        0.0000000000000000     
  -4.7780343514162917E-002  0.12084288138840797        0.0000000000000000     
  -4.8942409811737406E-002  0.12799311513694442        0.0000000000000000     
  -5.0047451826677934E-002  0.13528010058089068        0.0000000000000000     
  -5.0656809585779276E-002  0.10734306392443570        0.0000000000000000     
  -5.2066086409478386E-002  0.11419694228181383        0.0000000000000000     
  -5.3408320389775346E-002  0.12118548493012325        0.0000000000000000     
  -5.4683511526670191E-002  0.12830869186936403        0.0000000000000000     
  -5.5891659820162885E-002  0.13556656309953610        0.0000000000000000     
  -5.6276821208331738E-002  0.10779296224032749        0.0000000000000000     
  -5.7828505566986516E-002  0.11462608199921412        0.0000000000000000     
  -5.9308039901967424E-002  0.12159311520032798        0.0000000000000000     
  -6.0715424213274471E-002  0.12869406184366902        0.0000000000000000     
  -6.2050658500907643E-002  0.13592892192923728        0.0000000000000000     
  -6.2145172938769443E-002  0.10830236392523968        0.0000000000000000     
  -6.3848510406478876E-002  0.11511681848748219        0.0000000000000000     
  -6.5479502050739130E-002  0.12206577219902208        0.0000000000000000     
  -6.7038147871550241E-002  0.12914922505985943        0.0000000000000000     
  -6.8524447868912181E-002  0.13636717706999416        0.0000000000000000     
  -4.4518034520452783E-002  0.13506953437330096        0.0000000000000000     
  -4.5485322483093726E-002  0.14250308034189429        0.0000000000000000     
  -4.6377449808432565E-002  0.15001913713823042        0.0000000000000000     
  -4.7194416496469320E-002  0.15761770476230930        0.0000000000000000     
  -4.7936222547203977E-002  0.16529878321413091        0.0000000000000000     
  -5.0047451826677934E-002  0.13528010058089068        0.0000000000000000     
  -5.1080647670375331E-002  0.14265540241131239        0.0000000000000000     
  -5.2027175454220385E-002  0.15007058531927520        0.0000000000000000     
  -5.2887035178213124E-002  0.15752564930477919        0.0000000000000000     
  -5.3660226842353539E-002  0.16502059436782437        0.0000000000000000     
  -5.5891659820162885E-002  0.13556656309953610        0.0000000000000000     
  -5.7019395991582594E-002  0.14290255823780837        0.0000000000000000     
  -5.8053350762258427E-002  0.15026013690134982        0.0000000000000000     
  -5.8993524132190410E-002  0.15763929909016033        0.0000000000000000     
  -5.9839916101378531E-002  0.16504004480424000        0.0000000000000000     
  -6.2050658500907643E-002  0.13592892192923728        0.0000000000000000     
  -6.3301567446715529E-002  0.14324454782138246        0.0000000000000000     
  -6.4455975732546689E-002  0.15058779188445426        0.0000000000000000     
  -6.5513883358401179E-002  0.15795865411845272        0.0000000000000000     
  -6.6475290324278957E-002  0.16535713452337783        0.0000000000000000     
  -6.8524447868912181E-002  0.13636717706999416        0.0000000000000000     
  -6.9927162035774121E-002  0.14368137116203444        0.0000000000000000     
  -7.1235050365085192E-002  0.15105355026858852        0.0000000000000000     
  -7.2448112856845423E-002  0.15848371438965630        0.0000000000000000     
  -7.3566349511054785E-002  0.16597186352523785        0.0000000000000000     
   0.0000000000000000        0.0000000000000000        0.0000000000000000     
  -2.8802682976662363E-003   1.7446695089614250E-003   0.0000000000000000     
  -5.8730235061590303E-003   3.8643236344465441E-003   0.0000000000000000     
  -8.9782656254783818E-003   6.3589623764553575E-003   0.0000000000000000     
  -1.2195994655624293E-002   9.2285857349878649E-003   0.0000000000000000     
   0.0000000000000000        0.0000000000000000        0.0000000000000000     
  -3.2834056184434636E-003   1.9992422456987071E-003   0.0000000000000000     
  -6.6772865459681979E-003   4.3307104765655993E-003   0.0000000000000000     
  -1.0181642782574203E-002   6.9944046926006791E-003   0.0000000000000000     
  -1.3796474328261475E-002   9.9903248938039459E-003   0.0000000000000000     
   0.0000000000000000        0.0000000000000000        0.0000000000000000     
  -3.9536981027987039E-003   2.4249477196324355E-003   0.0000000000000000     
  -7.9108356635096046E-003   5.0626197205247405E-003   0.0000000000000000     
  -1.1871412682132706E-002   7.9130160026769144E-003   0.0000000000000000     
  -1.5835429158668007E-002   1.0976136566088958E-002   0.0000000000000000     
   0.0000000000000000        0.0000000000000000        0.0000000000000000     
  -4.8911457507319536E-003   3.0217859307626119E-003   0.0000000000000000     
  -9.5736708587832557E-003   6.0600513663239645E-003   0.0000000000000000     
  -1.4047575324153894E-002   9.1147963066840598E-003   0.0000000000000000     
  -1.8312859146843882E-002   1.2186020751842894E-002   0.0000000000000000     
   0.0000000000000000        0.0000000000000000        0.0000000000000000     
  -6.0957485622432179E-003   3.7897568790892346E-003   0.0000000000000000     
  -1.1665792131789140E-002   7.3230054139632739E-003   0.0000000000000000     
  -1.6710130708637770E-002   1.0599745604622119E-002   0.0000000000000000     
  -2.1228764292789103E-002   1.3619977451065768E-002   0.0000000000000000     
  -1.2195994655624293E-002   9.2285857349878649E-003   0.0000000000000000     
  -1.5428559807738319E-002   1.2371056498377390E-002   0.0000000000000000     
  -1.8578310292962009E-002   1.5684237454957249E-002   0.0000000000000000     
  -2.1645246111295369E-002   1.9168128604727448E-002   0.0000000000000000     
  -2.4629367262738396E-002   2.2822729947687984E-002   0.0000000000000000     
  -1.3796474328261475E-002   9.9903248938039459E-003   0.0000000000000000     
  -1.7404872783722842E-002   1.3220431356529649E-002   0.0000000000000000     
  -2.0889929749651114E-002   1.6586684357132037E-002   0.0000000000000000     
  -2.4251645226046295E-002   2.0089083895611121E-002   0.0000000000000000     
  -2.7490019212908390E-002   2.3727629971966882E-002   0.0000000000000000     
  -1.5835429158668007E-002   1.0976136566088958E-002   0.0000000000000000     
  -1.9731245035527950E-002   1.4210633507159259E-002   0.0000000000000000     
  -2.3487220255125011E-002   1.7575158922286227E-002   0.0000000000000000     
  -2.7103354817459163E-002   2.1069712811469844E-002   0.0000000000000000     
  -3.0579648722530418E-002   2.4694295174710130E-002   0.0000000000000000     
  -1.8312859146843882E-002   1.2186020751842894E-002   0.0000000000000000     
  -2.2407676563153660E-002   1.5341662950266229E-002   0.0000000000000000     
  -2.6370181809383691E-002   1.8649661150419810E-002   0.0000000000000000     
  -3.0200374885533968E-002   2.2110015352303638E-002   0.0000000000000000     
  -3.3898255791604492E-002   2.5722725555917720E-002   0.0000000000000000     
  -2.1228764292789103E-002   1.3619977451065768E-002   0.0000000000000000     
  -2.5434167366599963E-002   1.6613519685850550E-002   0.0000000000000000     
  -2.9538814412427162E-002   1.9810191041532796E-002   0.0000000000000000     
  -3.3542705430270714E-002   2.3209991518112497E-002   0.0000000000000000     
  -3.7445840420130598E-002   2.6812921115589663E-002   0.0000000000000000     
  -2.4629367262738396E-002   2.2822729947687984E-002   0.0000000000000000     
  -2.7534062132757459E-002   2.6671065146737540E-002   0.0000000000000000     
  -3.0362719106818915E-002   3.0736157864774797E-002   0.0000000000000000     
  -3.3115338184922787E-002   3.5018008101799759E-002   0.0000000000000000     
  -3.5791919367069040E-002   3.9516615857812437E-002   0.0000000000000000     
  -2.7490019212908390E-002   2.3727629971966882E-002   0.0000000000000000     
  -3.0627208795242906E-002   2.7544831822847345E-002   0.0000000000000000     
  -3.3685371058055379E-002   3.1583198684900518E-002   0.0000000000000000     
  -3.6664506001345784E-002   3.5842730558126402E-002   0.0000000000000000     
  -3.9564613625114133E-002   4.0323427442524984E-002   0.0000000000000000     
  -3.0579648722530418E-002   2.4694295174710130E-002   0.0000000000000000     
  -3.3944886785108451E-002   2.8493511176742984E-002   0.0000000000000000     
  -3.7227853819962929E-002   3.2511965982304346E-002   0.0000000000000000     
  -4.0428549827093846E-002   3.6749659591394201E-002   0.0000000000000000     
  -4.3546974806501201E-002   4.1206592004012554E-002   0.0000000000000000     
  -3.3898255791604492E-002   2.5722725555917720E-002   0.0000000000000000     
  -3.7487096102354088E-002   2.9517103208424461E-002   0.0000000000000000     
  -4.0990167392541570E-002   3.3522459756986277E-002   0.0000000000000000     
  -4.4407469662166958E-002   3.7738795201603170E-002   0.0000000000000000     
  -4.7739002911230219E-002   4.2166109542275135E-002   0.0000000000000000     
  -3.7445840420130598E-002   2.6812921115589663E-002   0.0000000000000000     
  -4.1253836746979813E-002   3.0615607917891776E-002   0.0000000000000000     
  -4.4972311775791307E-002   3.4614680008946325E-002   0.0000000000000000     
  -4.8601265506565114E-002   3.8810137388753309E-002   0.0000000000000000     
  -5.2140697939301206E-002   4.3201980057312725E-002   0.0000000000000000     
  -3.5791919367069040E-002   3.9516615857812437E-002   0.0000000000000000     
  -3.8392561209662210E-002   4.4221956722792125E-002   0.0000000000000000     
  -4.0917362269106805E-002   4.9124006286718161E-002   0.0000000000000000     
  -4.3366322545402798E-002   5.4222764549590546E-002   0.0000000000000000     
  -4.5739442038550224E-002   5.9518231511409281E-002   0.0000000000000000     
  -3.9564613625114133E-002   4.0323427442524984E-002   0.0000000000000000     
  -4.2385150310820123E-002   4.5012660249559751E-002   0.0000000000000000     
  -4.5125572439923441E-002   4.9897799890694164E-002   0.0000000000000000     
  -4.7785880012424078E-002   5.4978846365928216E-002   0.0000000000000000     
  -5.0366073028322057E-002   6.0255799675261915E-002   0.0000000000000000     
  -4.3546974806501201E-002   4.1206592004012554E-002   0.0000000000000000     
  -4.6581616357576530E-002   4.5871539246106721E-002   0.0000000000000000     
  -4.9530962079711374E-002   5.0733277343623984E-002   0.0000000000000000     
  -5.2395011972905713E-002   5.5791806296564370E-002   0.0000000000000000     
  -5.5173766037159580E-002   6.1047126104927865E-002   0.0000000000000000     
  -4.7739002911230219E-002   4.2166109542275135E-002   0.0000000000000000     
  -5.0981959349931411E-002   4.6798593712433015E-002   0.0000000000000000     
  -5.4133531188470578E-002   5.1630438645507641E-002   0.0000000000000000     
  -5.7193718426847694E-002   5.6661644341499014E-002   0.0000000000000000     
  -6.0162521065062771E-002   6.1892210800407153E-002   0.0000000000000000     
  -5.2140697939301206E-002   4.3201980057312725E-002   0.0000000000000000     
  -5.5586179287884799E-002   4.7793823648538639E-002   0.0000000000000000     
  -5.8933279766201059E-002   5.2589283796345115E-002   0.0000000000000000     
  -6.2181999374250015E-002   5.7588360500732162E-002   0.0000000000000000     
  -6.5332338112031652E-002   6.2791053761699758E-002   0.0000000000000000     
  -4.5739442038550224E-002   5.9518231511409281E-002   0.0000000000000000     
  -4.8040751000495617E-002   6.5003515153041536E-002   0.0000000000000000     
  -5.0274279683185527E-002   7.0671723455354524E-002   0.0000000000000000     
  -5.2440028086619968E-002   7.6522856418348204E-002   0.0000000000000000     
  -5.4537996210798946E-002   8.2556914042022617E-002   0.0000000000000000     
  -5.0366073028322057E-002   6.0255799675261915E-002   0.0000000000000000     
  -5.2869053485632526E-002   6.5721388503285405E-002   0.0000000000000000     
  -5.5297723382370642E-002   7.1368341534588819E-002   0.0000000000000000     
  -5.7652082718536432E-002   7.7196658769172213E-002   0.0000000000000000     
  -5.9932131494129862E-002   8.3206340207035517E-002   0.0000000000000000     
  -5.5173766037159580E-002   6.1047126104927865E-002   0.0000000000000000     
  -5.7869820771259503E-002   6.6490956999783926E-002   0.0000000000000000     
  -6.0485772673992071E-002   7.2115019212201995E-002   0.0000000000000000     
  -6.3021621745357262E-002   7.7919312742182112E-002   0.0000000000000000     
  -6.5477367985355098E-002   8.3903837589724223E-002   0.0000000000000000     
  -6.0162521065062771E-002   6.1892210800407153E-002   0.0000000000000000     
  -6.3043052857376561E-002   6.7312220642537127E-002   0.0000000000000000     
  -6.5838427558049806E-002   7.2911756488194035E-002   0.0000000000000000     
  -6.8548645167082492E-002   7.8690818337377899E-002   0.0000000000000000     
  -7.1173705684474661E-002   8.4649406190088705E-002   0.0000000000000000     
  -6.5332338112031652E-002   6.2791053761699758E-002   0.0000000000000000     
  -6.8388749743983693E-002   6.8185179431544993E-002   0.0000000000000000     
  -7.1355688034543854E-002   7.3758553362564955E-002   0.0000000000000000     
  -7.4233152983712136E-002   7.9511175554759631E-002   0.0000000000000000     
  -7.7021144591488566E-002   8.5443046008129020E-002   0.0000000000000000     
  -5.4537996210798946E-002   8.2556914042022617E-002   0.0000000000000000     
  -5.6561503244710515E-002   8.8760144625234738E-002   0.0000000000000000     
  -5.8503868377342803E-002   9.5118796466841654E-002   0.0000000000000000     
  -6.0365091608695770E-002  0.10163286956684328        0.0000000000000000     
  -6.2145172938769443E-002  0.10830236392523968        0.0000000000000000     
  -5.9932131494129862E-002   8.3206340207035517E-002   0.0000000000000000     
  -6.2131305514288748E-002   8.9385023726475957E-002   0.0000000000000000     
  -6.4243040584150882E-002   9.5720347205790701E-002   0.0000000000000000     
  -6.6267336703716276E-002  0.10221231064497981        0.0000000000000000     
  -6.8204193872984931E-002  0.10886091404404324        0.0000000000000000     
  -6.5477367985355098E-002   8.3903837589724223E-002   0.0000000000000000     
  -6.7846566923685445E-002   9.0056969223959366E-002   0.0000000000000000     
  -7.0122774090048162E-002   9.6367083114018551E-002   0.0000000000000000     
  -7.2305989484443264E-002  0.10283417925990178        0.0000000000000000     
  -7.4396213106870751E-002  0.10945825766160910        0.0000000000000000     
  -7.1173705684474661E-002   8.4649406190088705E-002   0.0000000000000000     
  -7.3707287472900604E-002   9.0775981117684965E-002   0.0000000000000000     
  -7.6143068895034610E-002   9.7059004191525133E-002   0.0000000000000000     
  -7.8481049950876722E-002  0.10349847541160924        0.0000000000000000     
  -8.0721230640426883E-002  0.11009439477793725        0.0000000000000000     
  -7.7021144591488566E-002   8.5443046008129020E-002   0.0000000000000000     
  -7.9713467161934226E-002   9.1542059407652768E-002   0.0000000000000000     
  -8.2303924999110240E-002   9.7796110438310463E-002   0.0000000000000000     
  -8.4792518103016620E-002  0.10420519910010212        0.0000000000000000     
  -8.7179246473653341E-002  0.11076932539302775        0.0000000000000000     
  -6.2145172938769443E-002  0.10830236392523968        0.0000000000000000     
  -6.3848510406478876E-002  0.11511681848748219        0.0000000000000000     
  -6.5479502050739130E-002  0.12206577219902208        0.0000000000000000     
  -6.7038147871550241E-002  0.12914922505985943        0.0000000000000000     
  -6.8524447868912181E-002  0.13636717706999416        0.0000000000000000     
  -6.8204193872984931E-002  0.10886091404404324        0.0000000000000000     
  -7.0061468183678810E-002  0.11565572182131774        0.0000000000000000     
  -7.1847015727519864E-002  0.12258629839514013        0.0000000000000000     
  -7.3560836504508148E-002  0.12965264376551031        0.0000000000000000     
  -7.5202930514643634E-002  0.13685475793242835        0.0000000000000000     
  -7.4396213106870751E-002  0.10945825766160910        0.0000000000000000     
  -7.6402746154309628E-002  0.11622936207542062        0.0000000000000000     
  -7.8334889823738985E-002  0.12313753625761649        0.0000000000000000     
  -8.0192644115158834E-002  0.13018278020819679        0.0000000000000000     
  -8.1976009028569136E-002  0.13736509392716148        0.0000000000000000     
  -8.0721230640426883E-002  0.11009439477793725        0.0000000000000000     
  -8.2872344318371385E-002  0.11683773924979075        0.0000000000000000     
  -8.4943124339396520E-002  0.12371948578645132        0.0000000000000000     
  -8.6933570703502258E-002  0.13073963438791888        0.0000000000000000     
  -8.8843683410688642E-002  0.13789818505419349        0.0000000000000000     
  -8.7179246473653341E-002  0.11076932539302775        0.0000000000000000     
  -8.9470262675864068E-002  0.11748085334442825        0.0000000000000000     
  -9.1671719274492455E-002  0.12433214698164449        0.0000000000000000     
  -9.3783616269538475E-002  0.13132320630467656        0.0000000000000000     
  -9.5805953661002169E-002  0.13845403131352441        0.0000000000000000     
  -6.8524447868912181E-002  0.13636717706999416        0.0000000000000000     
  -6.9927162035774121E-002  0.14368137116203444        0.0000000000000000     
  -7.1235050365085192E-002  0.15105355026858852        0.0000000000000000     
  -7.2448112856845423E-002  0.15848371438965630        0.0000000000000000     
  -7.3566349511054785E-002  0.16597186352523785        0.0000000000000000     
  -7.5202930514643634E-002  0.13685475793242835        0.0000000000000000     
  -7.6762517658567883E-002  0.14417029765122763        0.0000000000000000     
  -7.8228817836922412E-002  0.15157691967724149        0.0000000000000000     
  -7.9601831049707236E-002  0.15907462401046990        0.0000000000000000     
  -8.0881557296922368E-002  0.16666341065091289        0.0000000000000000     
  -8.1976009028569136E-002  0.13736509392716148        0.0000000000000000     
  -8.3673972214906314E-002  0.14466859668042500        0.0000000000000000     
  -8.5275521325106851E-002  0.15207740773390194        0.0000000000000000     
  -8.6780656359170746E-002  0.15959152708759214        0.0000000000000000     
  -8.8189377317097972E-002  0.16721095474149580        0.0000000000000000     
  -8.8843683410688642E-002  0.13789818505419349        0.0000000000000000     
  -9.0661525704789442E-002  0.14517626824962665        0.0000000000000000     
  -9.2375160829638564E-002  0.15255501443856986        0.0000000000000000     
  -9.3984588785235954E-002  0.16003442362102321        0.0000000000000000     
  -9.5489809571581638E-002  0.16761449579698659        0.0000000000000000     
  -9.5805953661002169E-002  0.13845403131352441        0.0000000000000000     
  -9.7725178128217266E-002  0.14569331235883248        0.0000000000000000     
  -9.9527736350517482E-002  0.15300973979124535        0.0000000000000000     
 -0.10121362832790284       0.16040331361076290        0.0000000000000000     
 -0.10278285406037335       0.16787403381738528        0.0000000000000000     
 </DataArray>
 <DataArray  type="Float64" Name="stress" NumberOfComponents="3" format="ascii">
   13416649554.632362        4024994866.3897090        2893989433.1437945     
   11766431013.808104        1890446921.8921025        1715813537.0237443     
   10313488403.982040        413485414.05514717        810736975.96087611     
   9057821725.1541710       -405889657.12115526        178759749.95518953     
   7999430977.3245001       -567678291.63680696       -180118140.99331516     
   10539866492.596371        3161959947.7789111        2225762646.9463339     
   9667452864.7495251        1589576926.3663661        1446705419.1500838     
   8943678452.8833675        512657958.22278357        863129960.95195568     
   8368543256.9979010       -68796956.651834965        475036272.35194963     
   7942047277.0931215       -154787818.25748968        282424353.35006565     
   8337779474.3193693        2501333842.2958107        1712377835.2238946     
   8021406286.7097673        1424586402.1462762        1275696441.5643539     
   7805035600.0633469        681180631.87401533        956879252.04387534     
   7688667414.3801088        271116531.47903061        755926266.66245842     
   7672301729.6600504        194394100.96131897        672837485.42010570     
   6810388499.8013620        2043116549.9404087        1353834997.9764769     
   6828291279.6888313        1395475349.2318325        1202786604.2665541     
   6897559845.5219774        919053435.00884271        1091984849.2366338     
   7018194197.3007956        613850807.27143884        1021429732.8867164     
   7190194335.0252914        479867466.01962137        991121255.21680057     
   5957693569.0423479        1787308070.7127042        1150134135.2040803     
   6088107843.6867170        1502243767.6230357        1227975907.2566848     
   6221251189.2592573        1226276367.6272650        1268446752.5302317     
   6357123605.7599640        959405870.72539186        1271546671.0247216     
   6495725093.1888428        701632276.91741729        1237275662.7401543     
   7999430977.3245001       -567678291.63680696       -180118140.99331516     
   7917631270.2512684       -200207381.06036043       -78239672.422938734     
   7794346115.3876400        28978703.548096657       -9030603.0892971866     
   7629575512.7336187        119879962.18857479        27509067.007609315     
   7423319462.2891998        72496394.861067295        31379337.867779020     
   7942047277.0931215       -154787818.25748968        282424353.35006565     
   7739714032.6303482        16434112.619000912        281087647.06626940     
   7513992542.6371326        109695225.06069422        264990460.41954848     
   7264882807.1134758        124995519.06758308        234132793.40990385     
   6992384826.0593834        62334994.639681339        188514646.03733739     
   7672301729.6600504        194394100.96131897        672837485.42010570     
   7400603287.4471979        184717554.02969551        589399006.91874897     
   7123613801.9638548        157404196.19645739        509108966.92828292     
   6841333273.2100306        112454027.46160626        431967365.44870633     
   6553761701.1857233        49867047.825141907        357974202.48001641     
   7190194335.0252914        479867466.01962137        991121255.21680057     
   6900299034.7018175        304642943.17172050        846694407.13450325     
   6623209893.3678131        172105616.95539141        723324916.43690526     
   6358926911.0232811        82255487.370635033        621012783.12400699     
   6107450087.6682186        35092554.417450905        539758007.19580817     
   6495725093.1888428        701632276.91741729        1237275662.7401543     
   6238801274.3942080        376210280.04507565        1052973847.7135291     
   6012780816.8490000        153799487.33749342        907638308.94541347     
   5817663720.5532227        34399898.794668913        801269046.43581116     
   5653449985.5068703        18011514.416604996        733866060.18471909     
   7423319462.2891998        72496394.861067295        31379337.867779020     
   7220203928.5297089       -18425487.747507572        14562750.671455994     
   7029246059.9541044       -68821819.743137836        2213411.1646212083     
   6850445856.5623808       -78692601.125826359       -5668680.6527365427     
   6683803318.3545408       -48037831.895571232       -9083524.7806047704     
   6992384826.0593834        62334994.639681339        188514646.03733739     
   6809441979.5442734        2853326.8281207085        180295315.88643792     
   6634269125.5406961       -30728365.945013046        175870755.58857325     
   6466866264.0486431       -38410083.679727793        175240965.14374933     
   6307233395.0681162       -20191826.376017094        178405944.55195895     
   6553761701.1857233        49867047.825141907        357974202.48001641     
   6389070176.6680098        21249185.236500740        353233177.92345196     
   6227760971.9894676        3905722.1117620468        351614445.38348037     
   6069834087.1500978       -2163341.5490667820        353118004.86010015     
   5915289522.1498985        3041994.2540059090        357743856.35331088     
   6107450087.6682186        35092554.417450905        539758007.19580817     
   5959088519.9009094        36762087.477631092        533376336.78250271     
   5809721599.3004141        35080444.427192688        529444480.54934472     
   5659349325.8667393        30047625.266147614        527962438.49632865     
   5507971699.5998764        21663629.994484425        528930210.62346065     
   5653449985.5068703        18011514.416604996        733866060.18471909     
   5519497009.2429743        49392033.551505566        720724792.46358907     
   5380151007.4735384        62795801.001274109        709360861.08616090     
   5235411980.1985655        58222816.765916586        699774266.05242932     
   5085279927.4180527        35673080.845423937        691965007.36239886     
   6683803318.3545408       -48037831.895571232       -9083524.7806047704     
   6511496434.2452650       -8364892.4862546921       -3346974.3200441008     
   6334098351.2924242        14337384.111188889        3584894.8011650667     
   6151609069.4960318        20068997.896786451        11712082.583037144     
   5964028588.8560781        8829948.8705124855        21034589.025555797     
   6307233395.0681162       -20191826.376017094        178405944.55195895     
   6134368792.0565577        1218254.4555194378        174711040.97546622     
   5958455961.6348801        12467577.253314018        173606310.02374864     
   5779494903.8030825        13556142.017377615        175091751.69679990     
   5597485618.5611610        4483948.7477056980        179167365.99462730     
   5915289522.1498985        3041994.2540059090        357743856.35331088     
   5745852497.2763958        7384805.6198608875        347000965.41211730     
   5575410216.4262123        8376763.7301096916        340243101.05980754     
   5403962679.5993443        6017868.5847394466        337470263.29639059     
   5231509886.7957935        308120.18376588821        338682452.12186313     
   5507971699.5998764        21663629.994484425        528930210.62346065     
   5345947549.9047680        10134761.006764174        513522798.98989886     
   5184961115.6664162        2064943.5415596962        503495267.90934771     
   5025012396.8848200       -2545822.4011313915        498847617.38180274     
   4866101393.5599747       -3697536.8213138580        499579847.40726686     
   5085279927.4180527        35673080.845423937        691965007.36239886     
   4934653949.9416780        9468120.6162252426        674276541.70881808     
   4787108659.3554983       -6467883.3123238087        663362810.57236445     
   4642644055.6595068       -12134930.940245152        659223813.95303833     
   4501260138.8537092       -7533022.2675242424        661859551.85083866     
   5964028588.8560781        8829948.8705124855        21034589.025555797     
   5783158317.8706455       -4792954.6524326801        14353184.295769099     
   5604480179.3157835       -11108750.073461533        11984779.266792687     
   5427994173.1914968       -10117437.392576933        13929373.938623680     
   5253700299.4977884       -1819016.6097717285        20186968.311274566     
   5597485618.5611610        4483948.7477056980        179167365.99462730     
   5429174994.2272615       -3024066.1290051937        174574433.23011586     
   5262234298.4818668       -5965652.3773863316        173918639.27069861     
   5096663531.3249846       -4340809.9973828793        177199984.11636186     
   4932462692.7566004        1850461.0109479427        184418467.76712149     
   5231509886.7957935        308120.18376588821        338682452.12186313     
   5074685020.8399353       -1407172.5287797451        335218753.50688720     
   4918407879.6305103       -1296716.0865399837        335316332.80127239     
   4762678463.1675310        639489.51051187515        338975190.00502002     
   4607496771.4509830        4401444.2623393536        346195325.11813986     
   4866101393.5599747       -3697536.8213138580        499579847.40726686     
   4719688397.7086620        57726.148276805878        496286145.12607485     
   4573000922.7617207        2898058.7990880013        496177859.85852313     
   4426038968.7191429        4823461.1311252117        499254991.60461247     
   4278802535.5809407        5833933.1443994045        505517540.36434370     
   4501260138.8537092       -7533022.2675242424        661859551.85083866     
   4364185124.8334484        1370629.9021406174        657776608.08768344     
   4226013427.8754854        6618672.2794666290        656503220.44244778     
   4086745047.9798269        8211104.8644716740        658039388.91512668     
   3946379985.1464672        6147927.6571371555        662385113.50573087     
   5253700299.4977884       -1819016.6097717285        20186968.311274566     
   5060418573.0900040        2279452.8157663345        16100925.055887962     
   4865931354.5529280        2359615.1436803341        14894885.857296830     
   4670238643.8865738       -1578529.6260092258        16568850.715477474     
   4473340441.0909319       -9534981.4933183193        21122819.630454876     
   4932462692.7566004        1850461.0109479427        184418467.76712149     
   4746775077.6237926        2513380.8921086788        178315357.75168452     
   4560322598.8533545        626755.31449556351        175966686.86276928     
   4373105256.4452763       -3809415.7219152451        177372455.10036904     
   4185123050.3995752       -10795132.217067480        182532662.46448603     
   4607496771.4509830        4401444.2623393536        346195325.11813986     
   4431901653.5066843        2378330.3732054234        338589214.91624379     
   4255982300.4163990       -725567.33590269089        335611978.91060370     
   4079738712.1801348       -4910248.8649268150        337263617.10120857     
   3903170888.7978759       -10175714.213932514        343544129.48806781     
   4278802535.5809407        5833933.1443994045        505517540.36434370     
   4115798300.7386723        1874301.2590060234        496922496.54958028     
   3952910459.2420707       -1697352.8074998856        493830762.00079948     
   3790139011.0911283       -4881029.0551350117        496242336.71800667     
   3627483956.2858534       -7676727.4838914871        504157220.70120066     
   3946379985.1464672        6147927.6571371555        662385113.50573087     
   3798465019.3197584        1001293.5495557785        653315202.65168583     
   3651107075.3303561       -2288601.1003293991        650623036.13336372     
   3504306153.1782770       -3721756.2924826145        654308613.95075238     
   3358062252.8635011       -3298172.0269427299        664371936.10386789     
   4473340441.0909319       -9534981.4933183193        21122819.630454876     
   4305756064.6524124       -9221806.1979973316        11840685.942924397     
   4139031342.4896612       -6043116.6501216888        9792538.0182755776     
   3973166274.6026673        1087.1502807140350        14978375.856534677     
   3808160860.9914508        8910805.2032775879        27398199.457692087     
   4185123050.3995752       -10795132.217067480        182532662.46448603     
   4035076743.7284737       -6677096.0498666763        175356852.62794605     
   3885612652.0246835       -618343.32496619225        173559835.10993701     
   3736730775.2882042        7381125.9576342106        177141609.91045451     
   3588431113.5190392        17321311.797949076        186102177.02951321     
   3903170888.7978759       -10175714.213932514        343544129.48806781     
   3765362099.1960139       -3842982.9842929840        338150964.30932587     
   3627858085.2530088        3505667.1082010269        336281398.00474823     
   3490658846.9688497        11870236.063520432        337935430.57433438     
   3353764384.3435478        21250723.881686926        343113062.01808065     
   3627483956.2858534       -7676727.4838914871        504157220.70120066     
   3496612131.0550423       -719467.00126600266        500223020.98705041     
   3365767642.1746283        6328914.6493394375        497957226.70270056     
   3234950489.6446123        13468417.467928648        497359837.84815949     
   3104160673.4649854        20699041.454508066        498430854.42341691     
   3358062252.8635011       -3298172.0269427299        664371936.10386789     
   3228826839.3055563        2693451.8991999626        661573022.66111779     
   3099341322.7895451        7851399.2984637022        658587321.20380437     
   2969605703.3154778        12175670.170868635        655414831.73192739     
   2839619980.8833508        15666264.516407847        652055554.24548376     
   3808160860.9914508        8910805.2032775879        27398199.457692087     
   3603309792.9079981        2716613.1451785564        26729263.237393972     
   3395522006.5250006       -13266639.911393166        25969797.300819855     
   3184797501.8424578       -39038953.966444135        25119801.647960775     
   2971136278.8603749       -74600329.019984007        24179276.278830823     
   3588431113.5190392        17321311.797949076        186102177.02951321     
   3386157080.4546251        9709962.0322272778        178875022.82398087     
   3182404640.6312070       -2829410.2634967566        174047769.35883245     
   2977173794.0487733       -20296805.089307308        171620416.63406283     
   2770464540.7073092       -42692222.445172429        171592964.64968225     
   3353764384.3435478        21250723.881686926        343113062.01808065     
   3161182901.8886538        14356871.085523009        331029053.29126859     
   2968581324.2152801        7396034.2277454138        323835375.76149368     
   2775959651.3234115        368213.30831968784        321532029.42876631     
   2583317883.2130561       -6726591.6727172136        324119014.29308087     
   3104160673.4649854        20699041.454508066        498430854.42341691     
   2928387257.2100825        16657340.305038810        483191354.63925493     
   2754052057.2772164        17409693.562353492        475332616.50880355     
   2581155073.6663885        22956101.226471663        474854640.03206438     
   2409696306.3775907        33296563.297367811        481757425.20903313     
   2839619980.8833508        15666264.516407847        652055554.24548376     
   2687770146.4188933        16611369.690749168        635361926.86793756     
   2538816839.8170023        27211567.740306735        628539491.60076022     
   2392760061.0776815        47466858.665099263        631588248.44395816     
   2249599810.2009268        77377242.465106487        644508197.39752483     
   5957693569.0423479        1787308070.7127042        1150134135.2040803     
   6088107843.6867170        1502243767.6230357        1227975907.2566848     
   6221251189.2592573        1226276367.6272650        1268446752.5302317     
   6357123605.7599640        959405870.72539186        1271546671.0247216     
   6495725093.1888428        701632276.91741729        1237275662.7401543     
   5434328814.5086432        1630298644.3525929        1033595995.4009367     
   5489509210.8539352        1372511009.2091823        1113985090.2605968     
   5546884484.0378942        1122039630.1946642        1167578282.1431956     
   5606454634.0605221        878884507.30903804        1194375571.0487320     
   5668219660.9218178        643045640.55230451        1194376956.9772062     
   4894928368.6665640        1468478510.5999691        936541327.06127739     
   4905089240.4327669        1247031849.5188136        1018854518.2902414     
   4916910794.9481344        1031120797.6015437        1084946830.3441386     
   4930393032.2126694        820745354.84816170        1134818263.2229700     
   4945535952.2263680        615905521.25866497        1168468816.9267347     
   4339492231.5161152        1301847669.4548345        858970130.18510199     
   4334847932.4232159        1125806288.5519290        942584191.34561777     
   4331330121.9899769        953519869.84790421        1020552397.1330625     
   4328938800.2164040        784988413.34276104        1092874747.5474367     
   4327673967.1024952        620211919.03649867        1159551242.5887394     
   3768020403.0572934        1130406120.9171879        800882404.77241087     
   3778785286.8252754        1008834326.3085289        885174109.42672658     
   3790142465.1634216        889236846.93374527        974394982.50996649     
   3802091938.0717287        771613682.79283738        1068545024.0221313     
   3814633705.5502005        655964833.88580525        1167624233.9632211     
   6495725093.1888428        701632276.91741729        1237275662.7401543     
   6238801274.3942080        376210280.04507565        1052973847.7135291     
   6012780816.8490000        153799487.33749342        907638308.94541347     
   5817663720.5532227        34399898.794668913        801269046.43581116     
   5653449985.5068703        18011514.416604996        733866060.18471909     
   5668219660.9218178        643045640.55230451        1194376956.9772062     
   5518143941.2809982        383609998.17611670        1073392177.5930704     
   5392217596.4484453        204672271.82748008        980404347.18501675     
   5290440626.4241562        106232461.50639009        915413465.75304461     
   5212813031.2081299        88290567.212850332        878419533.29715061     
   4945535952.2263680        615905521.25866497        1168468816.9267347     
   4870967396.6467085        413053952.85083389        1102921422.3370669     
   4813794229.4341497        268187012.33334303        1054401649.4410496     
   4774016450.5886917        181304699.70619178        1022909498.2386833     
   4751634060.1103382        152407014.96938133        1008444968.7299677     
   4327673967.1024952        620211919.03649867        1159551242.5887394     
   4297271640.4913349        464542144.06922615        1141561581.9455159     
   4277510715.8061137        344343708.85508490        1129630215.7135127     
   4268391193.0468330        259616613.39407468        1123757143.8927286     
   4269913072.2134886        210360857.68619490        1123942366.4831669     
   3814633705.5502005        655964833.88580525        1167624233.9632211     
   3797056672.8148813        538074571.83129418        1189312656.4184182     
   3783367055.5643406        433142361.39270520        1206090046.0024056     
   3773564853.7985754        341168202.57003736        1217956402.7151835     
   3767650067.5175867        262152095.36329174        1224911726.5567513     
   5653449985.5068703        18011514.416604996        733866060.18471909     
   5519497009.2429743        49392033.551505566        720724792.46358907     
   5380151007.4735384        62795801.001274109        709360861.08616090     
   5235411980.1985655        58222816.765916586        699774266.05242932     
   5085279927.4180527        35673080.845423937        691965007.36239886     
   5212813031.2081299        88290567.212850332        878419533.29715061     
   5076155877.9847984        85989936.282281160        854751348.35884547     
   4937338447.1610041        76488380.016830921        834998264.04623187     
   4796360738.7367449        59785898.416498184        819160280.35930800     
   4653222752.7120199        35882491.481281519        807237397.29807222     
   4751634060.1103382        152407014.96938133        1008444968.7299677     
   4618380627.8761158        118257603.35790682        978021405.79707396     
   4486199665.9465046        87683092.761796713        953650707.77186179     
   4355091174.3215036        60683483.181055546        935332874.65432835     
   4225055153.0011115        37258774.615675688        923067906.44447792     
   4269913072.2134886        210360857.68619490        1123942366.4831669     
   4146171258.9169240        146195034.77837825        1090534964.7782710     
   4026734663.8300428        96379939.236173630        1065318192.2630458     
   3911603286.9528470        60915571.059586287        1048292048.9374969     
   3800777128.2853336        39801930.248611212        1039456534.8016143     
   3767650067.5175867        262152095.36329174        1224911726.5567513     
   3659527771.1072230        169802230.54369760        1192292025.3024402     
   3558943440.8116174        102578919.43996239        1170000717.5197914     
   3465897076.6307716        60482162.052094460        1158037803.2088072     
   3380388678.5646830        43511958.380082130        1156403282.3694842     
   5085279927.4180527        35673080.845423937        691965007.36239886     
   4934653949.9416780        9468120.6162252426        674276541.70881808     
   4787108659.3554983       -6467883.3123238087        663362810.57236445     
   4642644055.6595068       -12134930.940245152        659223813.95303833     
   4501260138.8537092       -7533022.2675242424        661859551.85083866     
   4653222752.7120199        35882491.481281519        807237397.29807222     
   4520951686.1924715        15366036.922540188        793644791.42364907     
   4390924552.1249838        2329357.2040040493        786083881.22878420     
   4263141350.5095558       -3227547.6743304729        784554666.71347344     
   4137602081.3461933       -1304677.7124555111        789057147.87772298     
   4225055153.0011115        37258774.615675688        923067906.44447792     
   4109016029.3310437        21793935.295181990        912594946.83805990     
   3994384083.6749096        11019689.354462862        907410644.07362998     
   3881159316.0327048        4936036.7935113907        907514998.15118635     
   3769341726.4044342        3542977.6123352051        912908009.07073152     
   3800777128.2853336        39801930.248611212        1039456534.8016143     
   3698846979.3574066        28751815.734166622        1031127007.9520506     
   3597487254.0052795        19603113.139055014        1027343099.1069062     
   3496697952.2289562        12355822.463285446        1028104808.2661752     
   3396479074.0284319        7009943.7068560123        1033412135.4298644     
   3380388678.5646830        43511958.380082130        1156403282.3694842     
   3290444536.2715511        36239678.239482641        1149240974.7656207     
   3200234063.1160913        28079628.557779908        1145881246.3286083     
   3109757259.0983043        19031809.334989071        1146324097.0584404     
   3019014124.2181864        9096220.5711008310        1150569526.9551222     
   4501260138.8537092       -7533022.2675242424        661859551.85083866     
   4364185124.8334484        1370629.9021406174        657776608.08768344     
   4226013427.8754854        6618672.2794666290        656503220.44244778     
   4086745047.9798269        8211104.8644716740        658039388.91512668     
   3946379985.1464672        6147927.6571371555        662385113.50573087     
   4137602081.3461933       -1304677.7124555111        789057147.87772298     
   4007081928.0078168        1776978.2795202732        782818424.97543156     
   3876067106.7993155        3209741.3710887432        780155884.05921590     
   3744557617.7206922        2993611.5622489452        781069525.12907255     
   3612553460.7719498        1128588.8530054092        785559348.18500495     
   3769341726.4044342        3542977.6123352051        912908009.07073152     
   3647566793.3712449        1459745.3136177063        905215857.94147789     
   3525899207.5355086       -265662.99358201027        901866514.66645277     
   3404338968.8972268       -1633247.3092663288        902859979.24566042     
   3282886077.4564023       -2643007.6334354877        908196251.67909515     
   3396479074.0284319        7009943.7068560123        1033412135.4298644     
   3285639720.9237280        418931.00443196297        1024968906.9858227     
   3175509730.0840611       -3807540.8145458698        1021635112.2641648     
   3066089101.5094256       -5669471.7500821352        1023410751.2648942     
   2957377835.1998191       -5166861.8021836281        1030295823.9880086     
   3019014124.2181864        9096220.5711008310        1150569526.9551222     
   2921300710.6652784       -1345464.6480340958        1142077572.1084640     
   2824898674.4449768       -7415892.0918025970        1139461676.8523469     
   2729808015.5572882       -9115061.7602044344        1142721841.1867709     
   2636028734.0022058       -6442973.6532477140        1151858065.1117375     
   3946379985.1464672        6147927.6571371555        662385113.50573087     
   3798465019.3197584        1001293.5495557785        653315202.65168583     
   3651107075.3303561       -2288601.1003293991        650623036.13336372     
   3504306153.1782770       -3721756.2924826145        654308613.95075238     
   3358062252.8635011       -3298172.0269427299        664371936.10386789     
   3612553460.7719498        1128588.8530054092        785559348.18500495     
   3480669821.2528019       -919167.71061539650        777905021.85975313     
   3349136527.1312933       -1799106.2821054459        775489615.07906675     
   3217953578.4074345       -1511226.8614345789        778313127.84295559     
   3087120975.0812168       -55529.448618650436        786375560.15140676     
   3282886077.4564023       -2643007.6334354877        908196251.67909515     
   3163779979.1272478       -2568022.1883643866        901716387.36968505     
   3044817549.7560658       -2014140.2167214155        899336617.81369340     
   2925998789.3428574       -981361.71849358082        901056943.01112461     
   2807323697.8876238        530313.30630600452        906877362.96197128     
   2957377835.1998191       -5166861.8021836281        1030295823.9880086     
   2847795492.9430890       -3945269.8836989403        1024749299.1814895     
   2738150143.2046680       -2933702.9041898251        1022164044.3372386     
   2628441785.9845438       -2132160.8636803627        1022540059.4552627     
   2518670421.2827215       -1540643.7621653080        1025877344.5355577     
   2636028734.0022058       -6442973.6532477140        1151858065.1117375     
   2532716362.7003336       -5050910.7966041565        1147003757.2951612     
   2429134307.4770985       -4557794.3445081711        1143971894.6497073     
   2325282568.3324933       -4963624.2969825268        1142762477.1753771     
   2221161145.2665167       -6268400.6540176868        1143375504.8721635     
   3358062252.8635011       -3298172.0269427299        664371936.10386789     
   3228826839.3055563        2693451.8991999626        661573022.66111779     
   3099341322.7895451        7851399.2984637022        658587321.20380437     
   2969605703.3154778        12175670.170868635        655414831.73192739     
   2839619980.8833508        15666264.516407847        652055554.24548376     
   3087120975.0812168       -55529.448618650436        786375560.15140676     
   2959436648.5891681        2776391.7283284664        781440780.54403234     
   2831686640.9064322        5389375.6029838324        778615095.02095330     
   2703870952.0330172        7783422.1753641367        777898503.58217931     
   2575989581.9689045        9958531.4454413652        779291006.22770071     
   2807323697.8876238        530313.30630600452        906877362.96197128     
   2687750121.6010928        2170430.6759542227        900021875.91856909     
   2568295285.8912392        4206349.9678832293        897571365.05833185     
   2448959190.7580781        6638071.1821060181        899525830.38125670     
   2329741836.2015967        9465594.3186028004        905885271.88734663     
   2518670421.2827215       -1540643.7621653080        1025877344.5355577     
   2413767258.3413148        875568.74206578732        1017316308.7847277     
   2309167257.7439642        4302322.3931564093        1015456131.3159289     
   2204870419.4906716        8739617.1911094189        1020296812.1291625     
   2100876743.5814323        14187453.135907412        1031838351.2244194     
   2221161145.2665167       -6268400.6540176868        1143375504.8721635     
   2137488058.8098459       -1108194.0733231306        1133324079.1425157     
   2054302556.4646049        5677292.8788057566        1132269393.7937610     
   1971604638.2307956        14088060.202372313        1140211448.8258903     
   1889394304.1084142        24124107.897365808        1157150244.2389243     
   2839619980.8833508        15666264.516407847        652055554.24548376     
   2687770146.4188933        16611369.690749168        635361926.86793756     
   2538816839.8170023        27211567.740306735        628539491.60076022     
   2392760061.0776815        47466858.665099263        631588248.44395816     
   2249599810.2009268        77377242.465106487        644508197.39752483     
   2575989581.9689045        9958531.4454413652        779291006.22770071     
   2446471604.3913994        13583694.912750959        769564561.33400226     
   2318299112.2581563        21693809.860929132        766526800.79074681     
   2191472105.5691714        34288876.289966226        770177724.59793973     
   2065990584.3244462        51368894.199876547        780517332.75556862     
   2329741836.2015967        9465594.3186028004        905885271.88734663     
   2213462836.1969657        13042952.284664035        901316459.98947358     
   2096978279.2182806        15935120.337229133        900253824.68211067     
   1980288165.2655540        18142098.476304173        902697365.96526802     
   1863392494.3387718        19663886.701888680        908647083.83893538     
   2100876743.5814323        14187453.135907412        1031838351.2244194     
   1988743841.8355908        14989141.806501389        1030617622.8343468     
   1874854340.6973872        9935499.1692305803        1029720563.2748561     
   1759208240.1668324       -973474.77588737011        1029147172.5459665     
   1641805540.2439158       -17737780.028856993        1028897450.6476479     
   1889394304.1084142        24124107.897365808        1157150244.2389243     
   1772314621.3072710        19422263.478245258        1157468049.8686292     
   1651927296.6954665        3694946.3569147587        1154927016.5689900     
   1528232330.2729971       -23057843.466623604        1149527144.3400049     
   1401229722.0398743       -60836105.992351830        1141268433.1816816     
   3768020403.0572934        1130406120.9171879        800882404.77241087     
   3778785286.8252754        1008834326.3085289        885174109.42672658     
   3790142465.1634216        889236846.93374527        974394982.50996649     
   3802091938.0717287        771613682.79283738        1068545024.0221313     
   3814633705.5502005        655964833.88580525        1167624233.9632211     
   3207674741.9737701        962302422.59213114        757097978.30923808     
   3235613233.7001710        868276592.22160780        853469092.37372208     
   3263269571.5032225        773310248.77325487        951764744.69157135     
   3290643755.3829246        677403392.24707210        1051984935.2627860     
   3317735785.3392792        580556022.64306116        1154129664.0873663     
   2685617106.9492197        805685132.08476591        722436678.28161800     
   2722144548.9895821        736629868.65904152        829867011.84717333     
   2757515388.6130853        663719263.84378290        936217253.49053502     
   2791729625.8197279        586953317.63898945        1041487403.2117026     
   2824787260.6095095        506332030.04466146        1145677461.0106769     
   2201847497.9836392        660554249.39509177        696898504.68954980     
   2238379232.6935101        613894155.62083030        814367867.84708011     
   2272879916.4930091        560463892.14532912        927752508.90685725     
   2305349549.3821359        500263458.96858799        1037052427.8688817     
   2335788131.3608909        433292856.09060723        1142267624.7331522     
   1756365915.0770311        526909774.52310932        680483457.53303432     
   1784317284.8119543        500069453.10697395        806971660.37344265     
   1809363155.1429942        463544133.67789400        926370510.94053876     
   1831503526.0701504        417333816.23586875        1038680009.2343224     
   1850738397.5934238        361438500.78089905        1143900155.2547934     
   3814633705.5502005        655964833.88580525        1167624233.9632211     
   3797056672.8148813        538074571.83129418        1189312656.4184182     
   3783367055.5643406        433142361.39270520        1206090046.0024056     
   3773564853.7985754        341168202.57003736        1217956402.7151835     
   3767650067.5175867        262152095.36329174        1224911726.5567513     
   3317735785.3392792        580556022.64306116        1154129664.0873663     
   3292974792.1192603        473426828.74826705        1182567426.5495491     
   3271973369.9624557        378829538.39752316        1207906775.0116987     
   3254731518.8688655        296764151.59082842        1230147709.4738140     
   3241249238.8384914        227230668.32818377        1249290229.9358959     
   2824787260.6095095        506332030.04466146        1145677461.0106769     
   2798021217.9652929        411517577.62773645        1180715411.6546903     
   2774886901.9627280        328808880.68298829        1214467567.1698465     
   2755384312.6018176        258205939.21041751        1246933927.5561442     
   2739513449.8825593        199708753.21002400        1278114492.8135853     
   2335788131.3608909        433292856.09060723        1142267624.7331522     
   2312195950.3529782        352346818.46970129        1183756611.7338414     
   2292107651.5651569        283080388.24910021        1225772422.4768486     
   2275523234.9974279        225493565.42880499        1268315056.9621742     
   2262442700.6497908        179586350.00881422        1311384515.1898189     
   1850738397.5934238        361438500.78089905        1143900155.2547934     
   1835498989.2823191        295914551.27416301        1191691026.7870023     
   1823635618.7697442        241644061.09585977        1241821340.9327054     
   1815148286.0556993        198627030.24598950        1294291097.6919034     
   1810036991.1401842        166863458.72455150        1349100297.0645957     
   3767650067.5175867        262152095.36329174        1224911726.5567513     
   3659527771.1072230        169802230.54369760        1192292025.3024402     
   3558943440.8116174        102578919.43996239        1170000717.5197914     
   3465897076.6307716        60482162.052094460        1158037803.2088072     
   3380388678.5646830        43511958.380082130        1156403282.3694842     
   3241249238.8384914        227230668.32818377        1249290229.9358959     
   3162304806.2573576        152932773.09812856        1232039157.7970138     
   3089407989.7324467        98793598.055488706        1222738363.6882901     
   3022558789.2637625        64813143.200266242        1221387847.6097252     
   2961757204.8513017        50991408.532458901        1227987609.5613172     
   2739513449.8825593        199708753.21002400        1278114492.8135853     
   2682952265.5835004        141424442.90536392        1274493308.0551763     
   2630948347.2821317        98331019.259671926        1276444285.8854208     
   2583501694.9784532        70428482.272951126        1283967426.3043206     
   2540612308.6724687        57716831.945201397        1297062729.3118739     
   2262442700.6497908        179586350.00881422        1311384515.1898189     
   2221470149.0856504        135277239.96539867        1319654476.0769265     
   2183564513.4606686        101191183.05250990        1331118484.1111827     
   2148725793.7748442        77328179.270146132        1345776539.2925909     
   2116953990.0281761        63688228.618303657        1363628641.6211486     
   1810036991.1401842        166863458.72455150        1349100297.0645957     
   1777858456.7638109        134491164.27823913        1367522661.8622634     
   1747256488.2680604        107374089.43400568        1386760958.3655772     
   1718231085.6529334        85512234.191848695        1406815186.5745370     
   1690782248.9184303        68905598.551772535        1427685346.4891419     
   3380388678.5646830        43511958.380082130        1156403282.3694842     
   3290444536.2715511        36239678.239482641        1149240974.7656207     
   3200234063.1160913        28079628.557779908        1145881246.3286083     
   3109757259.0983043        19031809.334989071        1146324097.0584404     
   3019014124.2181864        9096220.5711008310        1150569526.9551222     
   2961757204.8513017        50991408.532458901        1227987609.5613172     
   2880825325.5301371        40544326.791346669        1219913137.2449894     
   2800052692.6138301        30628066.399759889        1215701242.2634442     
   2719439306.1023793        21242627.357699156        1215351924.6166787     
   2638985165.9957838        12388009.665149927        1218865184.3046978     
   2540612308.6724687        57716831.945201397        1297062729.3118739     
   2468864115.6602268        44146375.604670525        1288572599.0947938     
   2397700746.3200259        32525331.504277229        1284005044.3804314     
   2327122200.6518679        22853699.644026160        1283360065.1687863     
   2257128478.6557527        15131480.023911238        1286637661.4598575     
   2116953990.0281761        63688228.618303657        1363628641.6211486     
   2054560906.6618147        47045824.679438829        1355219360.3150322     
   1993178224.2346804        33771423.871330023        1350792652.6795700     
   1932805942.7467728        23865026.193979859        1350348518.7147605     
   1873444062.1980920        17326631.647383451        1353886958.4206014     
   1690782248.9184303        68905598.551772535        1427685346.4891419     
   1637915698.5349052        49242674.015658975        1419853420.9057086     
   1586485126.3577924        34366343.500920117        1416064067.1608622     
   1536490532.3870921        24276607.007559717        1416317285.2546027     
   1487931916.6228027        18973464.535567045        1420613075.1869285     
   3019014124.2181864        9096220.5711008310        1150569526.9551222     
   2921300710.6652784       -1345464.6480340958        1142077572.1084640     
   2824898674.4449768       -7415892.0918025970        1139461676.8523469     
   2729808015.5572882       -9115061.7602044344        1142721841.1867709     
   2636028734.0022058       -6442973.6532477140        1151858065.1117375     
   2638985165.9957838        12388009.665149927        1218865184.3046978     
   2556861160.2177548        4935707.0567384958        1210912567.1190135     
   2475832814.4868846        1135604.6055263281        1208385884.9517593     
   2395900128.8031783        987702.31152355671        1211285137.8029382     
   2317063103.1666331        4492000.1747238636        1219610325.6725452     
   2257128478.6557527        15131480.023911238        1286637661.4598575     
   2189307810.4465694        10282738.964407444        1278972711.7687905     
   2122367084.9991019        8367140.4439501762        1276283572.5240450     
   2056306302.3133457        9384684.4625363350        1278570243.7256174     
   1991125462.3893030        13335371.020164847        1285832725.3735089     
   1873444062.1980920        17326631.647383451        1353886958.4206014     
   1818640661.3517256        14695631.074980497        1346258006.0577972     
   1764501485.9816234        14278715.423461199        1343154739.5692029     
   1711026536.0877888        16075884.692829490        1344577158.9548156     
   1658215811.6702189        20087138.883081198        1350525264.2146351     
   1487931916.6228027        18973464.535567045        1420613075.1869285     
   1444859712.9332211        18174383.388457119        1412768449.9860318     
   1402236017.4344571        18870329.544073999        1408999386.0872314     
   1360060830.1265087        21061303.002409279        1409305883.4905274     
   1318334151.0093770        24747303.763466835        1413687942.1959198     
   2636028734.0022058       -6442973.6532477140        1151858065.1117375     
   2532716362.7003336       -5050910.7966041565        1147003757.2951612     
   2429134307.4770985       -4557794.3445081711        1143971894.6497073     
   2325282568.3324933       -4963624.2969825268        1142762477.1753771     
   2221161145.2665167       -6268400.6540176868        1143375504.8721635     
   2317063103.1666331        4492000.1747238636        1219610325.6725452     
   2219601687.4519687        3711029.9480314255        1212698808.7283642     
   2121903105.4924753        2139505.5719178915        1208967050.8532250     
   2023967357.2881625       -222572.95360410213        1208415052.0471208     
   1925794442.8390207       -3375205.6285473108        1211042812.3100524     
   1991125462.3893030        13335371.020164847        1285832725.3735089     
   1903393041.9701722        11544779.622633696        1276901936.5910261     
   1815455972.9827626        9072026.3308334351        1272508220.7754967     
   1727314255.4270642        5917111.1447407007        1272651577.9269176     
   1638967889.3030872        2080034.0643868446        1277332008.0452929     
   1658215811.6702189        20087138.883081198        1350525264.2146351     
   1584090426.2549510        18450338.227207124        1339613140.8831475     
   1509792909.9479468        16239767.932213247        1334595404.4165273     
   1435323262.7491984        13455427.998070240        1335472054.8147728     
   1360681484.6587048        10097318.424780250        1342243092.0778878     
   1318334151.0093770        24747303.763466835        1413687942.1959198     
   1261693840.3063037        24427705.761759520        1400832421.6047251     
   1204913916.3880322        23642730.376060009        1395228601.7763157     
   1147994379.2545600        22392377.606355488        1396876482.7106845     
   1090935228.9058897        20676647.452660680        1405776064.4078386     
   2221161145.2665167       -6268400.6540176868        1143375504.8721635     
   2137488058.8098459       -1108194.0733231306        1133324079.1425157     
   2054302556.4646049        5677292.8788057566        1132269393.7937610     
   1971604638.2307956        14088060.202372313        1140211448.8258903     
   1889394304.1084142        24124107.897365808        1157150244.2389243     
   1925794442.8390207       -3375205.6285473108        1211042812.3100524     
   1862878143.6390595        4229840.7270076275        1203177250.0373223     
   1800318149.8855128        13022571.903948665        1201717513.0177300     
   1738114461.5783877        23002987.902289987        1206663601.2512872     
   1676267078.7176712        34171088.722001553        1218015514.7379889     
   1638967889.3030872        2080034.0643868446        1277332008.0452929     
   1589405762.7091281        9909135.7995933294        1271499150.7869577     
   1540068662.8965714        18488326.806142449        1269481203.6540229     
   1490956589.8654160        27817607.084028065        1271278166.6464889     
   1442069543.6156619        37896976.633252263        1276890039.7643514     
   1360681484.6587048        10097318.424780250        1342243092.0778878     
   1317070916.0200448        15929691.144424260        1338289781.3914363     
   1273554095.4977734        22074557.585369706        1335560465.7026372     
   1230131023.0918880        28531917.747594416        1334055145.0114880     
   1186801698.8023915        35301771.631123960        1333773819.3179960     
   1090935228.9058897        20676647.452660680        1405776064.4078386     
   1045873603.5718235        22291506.761535525        1403549141.8507521     
   1000774447.6891291        23781264.241655469        1399955299.1635742     
   955637761.25780892        25145919.893018603        1394994536.3462946     
   910463544.27786016        26385473.715620577        1388666853.3989279     
   1889394304.1084142        24124107.897365808        1157150244.2389243     
   1772314621.3072710        19422263.478245258        1157468049.8686292     
   1651927296.6954665        3694946.3569147587        1154927016.5689900     
   1528232330.2729971       -23057843.466623604        1149527144.3400049     
   1401229722.0398743       -60836105.992351830        1141268433.1816816     
   1676267078.7176712        34171088.722001553        1218015514.7379889     
   1555568861.4879117        29638442.979705691        1211020713.6072507     
   1435803022.6020870        28213725.050522089        1204062217.5353374     
   1316969562.0601931        29896934.934441566        1197140026.5222616     
   1199068479.8622406        34688072.631500900        1190254140.5680153     
   1442069543.6156619        37896976.633252263        1276890039.7643514     
   1326024631.9235039        36015081.557656527        1267529322.0535223     
   1215152118.7298694        51374514.810474217        1261100053.3897026     
   1109452004.0347617        83975276.391728282        1257602233.7728841     
   1008924287.8381927        133817366.30141601        1257035863.2030845     
   1186801698.8023915        35301771.631123960        1333773819.3179960     
   1083681932.6140425        38552179.212082148        1326993875.2074451     
   989974585.07882118        73177315.636792511        1326040524.1320658     
   905679656.19671416        139177180.90523195        1330913766.0918880     
   830797145.96773481        236551775.01741809        1341613601.0868685     
   910463544.27786016        26385473.715620577        1388666853.3989279     
   828540763.55953884        37249735.943011642        1389414373.0690119     
   760270421.64892507        93622127.529427230        1398883629.7624500     
   705652518.54603684        195502648.47493112        1417074623.4792464     
   664687054.25086522        342891298.77948999        1443987354.2193987     
   1756365915.0770311        526909774.52310932        680483457.53303432     
   1784317284.8119543        500069453.10697395        806971660.37344265     
   1809363155.1429942        463544133.67789400        926370510.94053876     
   1831503526.0701504        417333816.23586875        1038680009.2343224     
   1850738397.5934238        361438500.78089905        1143900155.2547934     
   1326881426.0909779        398064427.82729340        670093629.32512069     
   1340060866.3871653        375500177.32375079        792325472.23167753     
   1351057866.5831523        345661126.48620731        909296859.17115128     
   1359872426.6789391        308547275.31466287        1021007790.1435422     
   1366504546.6745253        264158623.80911785        1127458265.1488504     
   891103098.88706553        267330929.66611966        662631112.57885861     
   894736027.76231515        250610375.48050925        781450164.73919415     
   896909575.84104800        229025218.63984203        896837657.23867595     
   897623743.12326348        202575459.14411792        1008793590.0773047     
   896878529.60896194        171261096.99333680        1117317963.2550802     
   449030933.46529287        134709280.03958786        658095907.29424810     
   448342768.93740386        125400047.57724936        774345737.89599252     
   446918282.91668093        113636410.13879800        888992905.14311326     
   444757475.40312415        99418367.724233598        1002037409.0356104     
   441860346.39673364        82745920.333556697        1113479249.5734830     
   664929.82566052896        199478.94769815868        656488013.47128904     
   881089.91243142146       -130806.38602891017        771012191.70207310     
   1083987.8100515751       -505299.01692484866        885762602.88446295     
   1273623.5185211124       -923998.94498946378        1000739247.0184582     
   1449997.0378399910       -1386906.1702232887        1115942124.1040592     
   1850738397.5934238        361438500.78089905        1143900155.2547934     
   1835498989.2823191        295914551.27416301        1191691026.7870023     
   1823635618.7697442        241644061.09585977        1241821340.9327054     
   1815148286.0556993        198627030.24598950        1294291097.6919034     
   1810036991.1401842        166863458.72455150        1349100297.0645957     
   1366504546.6745253        264158623.80911785        1127458265.1488504     
   1360997253.9097283        216643609.38530102        1183128302.8691869     
   1358012265.5812929        177536276.41602150        1239789232.6079001     
   1357549581.6892180        146836624.90127921        1297441054.3649888     
   1359609202.2335052        124544654.84107608        1356083768.1404541     
   896878529.60896194        171261096.99333680        1117317963.2550802     
   897250350.69013512        140599117.14233908        1179871144.9076810     
   899290742.84550071        115499040.87198287        1242066667.9835403     
   902999706.07505846        95960868.182267725        1303904532.4826567     
   908377240.37880862        81984599.073193848        1365384738.4050317     
   441860346.39673364        82745920.333556697        1113479249.5734830     
   444258279.62353837        67781074.545275718        1181919552.9024851     
   447471050.56236714        55532354.463741511        1248653647.0596261     
   451498659.21321917        45999760.088951632        1313681532.0449069     
   456341105.57609504        39183291.420908138        1377003207.8583281     
   1449997.0378399910       -1386906.1702232887        1115942124.1040592     
   2021040.7099384721       -1810518.4058886685        1189273526.8535984     
   2553188.7318920484       -2363782.8087032991        1259550169.8361588     
   3046441.1037002574       -3046699.3786689360        1326772053.0517402     
   3500797.8253635890       -3859268.1157850316        1390939176.5003433     
   1810036991.1401842        166863458.72455150        1349100297.0645957     
   1777858456.7638109        134491164.27823913        1367522661.8622634     
   1747256488.2680604        107374089.43400568        1386760958.3655772     
   1718231085.6529334        85512234.191848695        1406815186.5745370     
   1690782248.9184303        68905598.551772535        1427685346.4891419     
   1359609202.2335052        124544654.84107608        1356083768.1404541     
   1332641878.6730936        99035845.236417532        1376181447.9728053     
   1306772850.9094796        77188021.621083856        1397887938.6867926     
   1282002118.9426606        59001183.995065570        1421203240.2824140     
   1258329682.7726386        44475332.358374238        1446127352.7596724     
   908377240.37880862        81984599.073193848        1365384738.4050317     
   888886496.70861518        64018885.032466978        1386599751.5076022     
   870015778.75139105        48119923.368304789        1410216454.6677961     
   851765086.50713694        34287714.080709785        1436234847.8856165     
   834134419.97585249        22522257.169679701        1464654931.1610603     
   456341105.57609504        39183291.420908138        1377003207.8583281     
   446592310.87037468        29440283.666388452        1398777572.4666522     
   436985271.79379630        20169794.675676361        1423746506.3085916     
   427519988.34636146        11371824.448775902        1451910009.3841441     
   418196460.52807009        3046372.9856860042        1483268081.6933117     
   3500797.8253635890       -3859268.1157850316        1390939176.5003433     
   5759321.1583722094       -4699958.8618188556        1412714910.8499565     
   7681330.0366951842       -6662364.4568043128        1438478093.6091750     
   9266824.4603364710       -9746484.9007291552        1468228724.7779968     
   10515804.429291673       -13952320.193607271        1501966804.3564212     
   1690782248.9184303        68905598.551772535        1427685346.4891419     
   1637915698.5349052        49242674.015658975        1419853420.9057086     
   1586485126.3577924        34366343.500920117        1416064067.1608622     
   1536490532.3870921        24276607.007559717        1416317285.2546027     
   1487931916.6228027        18973464.535567045        1420613075.1869285     
   1258329682.7726386        44475332.358374238        1446127352.7596724     
   1217939688.5458295        28244100.540445447        1443015637.3681266     
   1178633741.7546208        15626360.174515486        1444666771.9389663     
   1140411842.3990095        6622111.2605785131        1451080756.4721873     
   1103273990.4789979        1231353.7986419201        1462257590.9677916     
   834134419.97585249        22522257.169679701        1464654931.1610603     
   808278919.40231967        10340099.318903655        1465852840.0621240     
   783155535.49357307        598330.35074812174        1472533877.0493665     
   758764268.24961090       -6703049.7347923219        1484698042.1227872     
   735105117.67043436       -11564040.937714010        1502345335.2823870     
   418196460.52807009        3046372.9856860042        1483268081.6933117     
   408933391.10437357       -4469329.6489692032        1488365028.9876983     
   400050507.57464981       -10717745.970382839        1499665382.4920614     
   391547809.93889660       -15698875.978561267        1517169142.2063975     
   383425298.19711697       -19412719.673493698        1540876308.1307101     
   10515804.429291673       -13952320.193607271        1501966804.3564212     
   19903103.651990853       -16184186.363176377        1510552204.1448505     
   29318657.997851625       -18321868.788873129        1526061288.2670524     
   38762467.466866978       -20365367.470721133        1548494056.7230234     
   48234532.059042118       -22314682.408703890        1577850509.5127654     
   1487931916.6228027        18973464.535567045        1420613075.1869285     
   1444859712.9332211        18174383.388457119        1412768449.9860318     
   1402236017.4344571        18870329.544073999        1408999386.0872314     
   1360060830.1265087        21061303.002409279        1409305883.4905274     
   1318334151.0093770        24747303.763466835        1413687942.1959198     
   1103273990.4789979        1231353.7986419201        1462257590.9677916     
   1069819269.9119539       -1118071.8051702976        1460360526.1028507     
   1036557244.1855114       -2825181.2736428380        1462143735.6739280     
   1003487913.2996700       -3889974.6067802906        1467607219.6810222     
   970611277.25442946       -4312451.8045790195        1476750978.1241319     
   735105117.67043436       -11564040.937714010        1502345335.2823870     
   710138489.17998850       -15802628.312005430        1506097381.8448164     
   685108742.17992723       -20251610.718347996        1513134415.9771831     
   660015876.67025065       -24910988.156740725        1523456437.6794891     
   634859892.65095913       -29780760.627183288        1537063446.9517300     
   383425298.19711697       -19412719.673493698        1540876308.1307101     
   365817370.73732525       -25879286.132052392        1549979017.2119265     
   347890511.41770339       -33408958.790046692        1561971426.9969993     
   329644720.23825085       -42001737.647475317        1576853537.4859304     
   311079997.19896781       -51657622.704339772        1594625348.6787205     
   48234532.059042118       -22314682.408703890        1577850509.5127654     
   36855914.583965212       -31348045.265305966        1592005432.2041814     
   24902551.898839988       -42297225.488736838        1608654768.7333763     
   12374444.003668826       -55162223.078986108        1627798519.1003494     
  -728409.10154940933       -69943038.036060691        1649436683.3051007     
   1318334151.0093770        24747303.763466835        1413687942.1959198     
   1261693840.3063037        24427705.761759520        1400832421.6047251     
   1204913916.3880322        23642730.376060009        1395228601.7763157     
   1147994379.2545600        22392377.606355488        1396876482.7106845     
   1090935228.9058897        20676647.452660680        1405776064.4078386     
   970611277.25442946       -4312451.8045790195        1476750978.1241319     
   931261468.61635554       -6294832.1671391726        1467628925.9866521     
   891970865.32213652       -8079861.3835152984        1464939278.2965884     
   852739467.37176538       -9667539.4537321329        1468682035.0539360     
   813567274.76525319       -11057866.377750039        1478857196.2587001     
   634859892.65095913       -29780760.627183288        1537063446.9517300     
   610459739.46254551       -34128177.335201353        1531906818.2535284     
   586317610.17703927       -37615514.366861135        1532363297.6873720     
   562433504.79443765       -40242771.722173095        1538432885.2532592     
   538807423.31474710       -42009949.401114911        1550115580.9511971     
   311079997.19896781       -51657622.704339772        1594625348.6787205     
   299288652.84487689       -59072329.742416948        1593666098.4053578     
   287954150.95274514       -64964228.573962703        1597500659.9486716     
   277076491.52257597       -69333319.198967516        1606129033.3086643     
   266655674.55436638       -72179601.617440462        1619551218.4853356     
  -728409.10154940933       -69943038.036060691        1649436683.3051007     
  -2251791.2366524190       -81127289.388790697        1652906766.4421368     
  -3119512.3507457599       -90126004.004820764        1660351365.0804851     
  -3331572.4438254684       -96939181.884139076        1671770479.2201424     
  -2887971.5158883221       -101566823.02673489        1687164108.8611073     
   1090935228.9058897        20676647.452660680        1405776064.4078386     
   1045873603.5718235        22291506.761535525        1403549141.8507521     
   1000774447.6891291        23781264.241655469        1399955299.1635742     
   955637761.25780892        25145919.893018603        1394994536.3462946     
   910463544.27786016        26385473.715620577        1388666853.3989279     
   813567274.76525319       -11057866.377750039        1478857196.2587001     
   767726163.41179609       -15236270.624432206        1478919404.8675196     
   721306680.75937665       -21342579.200990349        1481085835.9504976     
   674308826.80799460       -29376792.107421398        1485356489.5076287     
   626732601.55765176       -39338909.343719184        1491731365.5389102     
   538807423.31474710       -42009949.401114911        1550115580.9511971     
   502104376.23974931       -49006352.114006549        1551835939.8505378     
   464282117.11545372       -59733461.657893538        1559131663.8282826     
   425340645.94186538       -74191278.032755733        1572002752.8844306     
   385279962.71897948       -92379801.238609701        1590449207.0189769     
   266655674.55436638       -72179601.617440462        1619551218.4853356     
   249008242.05568010       -79018737.707193837        1622298746.7998047     
   229700756.75736687       -91391383.129036143        1634092782.7969263     
   208733218.65942007       -109297537.88299166        1654933326.4766963     
   186105627.76184776       -132737201.96902891        1684820377.8391216     
  -2887971.5158883221       -101566823.02673489        1687164108.8611073     
   8437760.8595959246       -105273427.40397066        1690307825.7153199     
   17562599.685108922       -116316343.61444257        1705969192.8564279     
   24486544.960664198       -134695571.65810722        1734148210.2844381     
   29209596.686253160       -160411111.53499362        1774844877.9993417     
   910463544.27786016        26385473.715620577        1388666853.3989279     
   828540763.55953884        37249735.943011642        1389414373.0690119     
   760270421.64892507        93622127.529427230        1398883629.7624500     
   705652518.54603684        195502648.47493112        1417074623.4792464     
   664687054.25086522        342891298.77948999        1443987354.2193987     
   626732601.55765176       -39338909.343719184        1491731365.5389102     
   560557295.08871007       -50040190.760014355        1517262667.1813111     
   498151938.06308866       -48174974.031907052        1551162337.4484227     
   439516530.48077500       -33743259.159443587        1593430376.3402464     
   384651072.34177887       -6745046.1425868273        1644066783.8567722     
   385279962.71897948       -92379801.238609701        1590449207.0189769     
   333842506.50329840       -124949513.49738689        1629234719.7085569     
   276292510.36652404       -177894358.82647690        1676035232.6241977     
   212629974.30865809       -251214337.22586989        1730850745.7658958     
   142854898.32969797       -344909448.69557542        1793681259.1336718     
   186105627.76184776       -132737201.96902891        1684820377.8391216     
   148396397.80329210       -187478232.26914531        1725330530.6507359     
   94692138.559239700       -295536026.85425073        1773502315.2897685     
   24992850.029688478       -456910585.72435117        1829335731.7562242     
  -60701467.785361201       -671601908.87944746        1892830780.0500886     
   29209596.686253160       -160411111.53499362        1774844877.9993417     
   4218968.9886885434       -237626347.07529625        1805550100.0078595     
  -46649177.358772695       -401099978.11525637        1843563585.4451447     
  -123394842.35614146       -650832004.65490556        1888885334.3112032     
  -226018026.00341019       -986822426.69422317        1941515346.6060281     
   664929.82566052896        199478.94769815868        656488013.47128904     
   881089.91243142146       -130806.38602891017        771012191.70207310     
   1083987.8100515751       -505299.01692484866        885762602.88446295     
   1273623.5185211124       -923998.94498946378        1000739247.0184582     
   1449997.0378399910       -1386906.1702232887        1115942124.1040592     
  -447754033.98883229       -134326210.19664970        657836761.55055535     
  -446612348.94805843       -125511660.39744556        774010283.97941005     
  -444756245.07086241       -114315714.47683445        888559169.15983129     
  -442185722.35724437       -100738372.43481678        1001483417.0918188     
  -438900780.80720425       -84779634.271392226        1112783027.7753725     
  -889985079.93518591       -266995523.98055577        662171481.97262120     
  -893206070.51194990       -250622599.21988276        780843309.79604805     
  -894984961.22671902       -229442674.91922706        896039630.17100191     
  -895321752.07949364       -203455751.07858902        1007760443.0974829     
  -894216443.07027292       -172661827.69796824        1116005748.5754910     
  -1326028208.0134006       -397808462.40402019        669492174.73748636     
  -1338900074.7792430       -375463622.85334039        791511269.15198684     
  -1349602160.6575184       -345886180.34410232        908203985.91797531     
  -1358134465.6482263       -309076134.87630635        1019570325.0354511     
  -1364496989.7513661       -265033486.44995180        1125610286.5044143     
  -1755883418.2234762       -526765025.46704286        679798839.84515095     
  -1783694361.7499387       -500034731.29781872        806014162.04722667     
  -1808607843.3632607       -463646230.75146055        925052236.40075040     
  -1830623863.0634429       -417599523.82796860        1036913062.9057231     
  -1849742420.8504848       -361894610.52734280        1141596641.5621436     
   1449997.0378399910       -1386906.1702232887        1115942124.1040592     
   2021040.7099384721       -1810518.4058886685        1189273526.8535984     
   2553188.7318920484       -2363782.8087032991        1259550169.8361588     
   3046441.1037002574       -3046699.3786689360        1326772053.0517402     
   3500797.8253635890       -3859268.1157850316        1390939176.5003433     
  -438900780.80720425       -84779634.271392226        1112783027.7753725     
  -440171306.51937890       -70390803.039235115        1180996443.7653832     
  -442290273.10265887       -58830108.044095799        1247429771.5034342     
  -445257680.55704474       -50097549.285976052        1312083010.9895256     
  -449073528.88253582       -44193126.764873222        1374956162.2236581     
  -894216443.07027292       -172661827.69796824        1116005748.5754910     
  -893686619.55238008       -142367977.41368711        1178156708.3815191     
  -894814782.12655330       -117600747.43629131        1239802251.4506075     
  -897600930.79279232       -98360137.765782714        1300942377.7827549     
  -902045065.55109680       -84646148.402159691        1361577087.3779619     
  -1364496989.7513661       -265033486.44995180        1125610286.5044143     
  -1358524898.3890657       -217742041.52924490        1180754320.7020068     
  -1355020338.3397908       -178675700.98529044        1236667609.6776783     
  -1353983309.6035423       -147834464.81809026        1293350153.4314280     
  -1355413812.1803200       -125218333.02764487        1350801951.9632580     
  -1849742420.8504848       -361894610.52734280        1141596641.5621436     
  -1834686143.0294347       -296512995.38590580        1188789280.7268460     
  -1822906941.7423716       -242054968.69109166        1238025846.1846466     
  -1814404816.9892950       -198520530.44289905        1289306337.9355454     
  -1809179768.7702048       -165909680.64132899        1342630755.9795425     
   3500797.8253635890       -3859268.1157850316        1390939176.5003433     
   5759321.1583722094       -4699958.8618188556        1412714910.8499565     
   7681330.0366951842       -6662364.4568043128        1438478093.6091750     
   9266824.4603364710       -9746484.9007291552        1468228724.7779968     
   10515804.429291673       -13952320.193607271        1501966804.3564212     
  -449073528.88253582       -44193126.764873222        1374956162.2236581     
  -434870521.68811315       -35128040.259332046        1395491647.6566579     
  -421299288.57085258       -28168867.344330996        1418941800.5923183     
  -408359829.53075242       -23315608.019863918        1445306621.0306368     
  -396052144.56781250       -20568262.285931468        1474586108.9716141     
  -902045065.55109680       -84646148.402159691        1361577087.3779619     
  -878962662.80081666       -66594811.136711389        1380527854.3347933     
  -856807293.75017464       -51633586.203390062        1401320507.8873386     
  -835578958.39917052       -39762473.602193266        1423955048.0355978     
  -815277656.74780381       -30981473.333123922        1448431474.7795720     
  -1355413812.1803200       -125218333.02764487        1350801951.9632580     
  -1326517102.1797385       -99100271.493955493        1367823530.8843615     
  -1298842685.5012720       -77056521.033982515        1385614215.4942360     
  -1272390562.1449192       -59087081.647723019        1404174005.7928793     
  -1247160732.1106815       -45191953.335180283        1423502901.7802932     
  -1809179768.7702048       -165909680.64132899        1342630755.9795425     
  -1777533839.8248780       -132644421.33106577        1357378677.3053644     
  -1747405463.8241425       -104437671.83610612        1371822923.4130116     
  -1718794640.7679992       -81289432.156453609        1385963494.3024833     
  -1691701370.6564462       -63199702.292104661        1399800389.9737799     
   10515804.429291673       -13952320.193607271        1501966804.3564212     
   19903103.651990853       -16184186.363176377        1510552204.1448505     
   29318657.997851625       -18321868.788873129        1526061288.2670524     
   38762467.466866978       -20365367.470721133        1548494056.7230234     
   48234532.059042118       -22314682.408703890        1577850509.5127654     
  -396052144.56781250       -20568262.285931468        1474586108.9716141     
  -368778378.36280221       -14198468.342201635        1477755999.2632813     
  -341444734.45172435       -7629082.0449129790        1485776027.4891174     
  -314051212.83457631       -860103.39405587316        1498646193.6491222     
  -286597813.51135802        6108467.6103678048        1516366497.7432950     
  -815277656.74780381       -30981473.333123922        1448431474.7795720     
  -776041841.84506202       -17787344.761472762        1446222748.5878730     
  -736714526.65333986       -4288215.2265528738        1446790613.9307408     
  -697295711.17263973        9515915.2716275454        1450135070.8081737     
  -657785395.40295768        23625046.733080506        1456256119.2201726     
  -1247160732.1106815       -45191953.335180283        1423502901.7802932     
  -1201887286.7947865       -26950815.620981157        1415952452.1186242     
  -1156490718.6070001       -8299268.3338113427        1409105047.5919182     
  -1110971027.5473249        10762688.526321471        1402960688.2001762     
  -1065328213.6157576        30235054.959429324        1397519373.9433997     
  -1691701370.6564462       -63199702.292104661        1399800389.9737799     
  -1646314713.2119753       -41688880.920727551        1386945109.8555360     
  -1600773310.3127038       -19662241.366682708        1372719328.4726529     
  -1555077161.9586327        2880216.3700299263        1357123045.8251326     
  -1509226268.1497560        25938492.289425373        1340156261.9129729     
   48234532.059042118       -22314682.408703890        1577850509.5127654     
   36855914.583965212       -31348045.265305966        1592005432.2041814     
   24902551.898839988       -42297225.488736838        1608654768.7333763     
   12374444.003668826       -55162223.078986108        1627798519.1003494     
  -728409.10154940933       -69943038.036060691        1649436683.3051007     
  -286597813.51135802        6108467.6103678048        1516366497.7432950     
  -287909401.62886316        3502704.9919027090        1517699366.3740065     
  -289903837.16057241       -1379215.6739089489        1522798397.5408857     
  -292581120.10648632       -8537294.3870688826        1531663591.2439322     
  -295941250.46660328       -17971531.147572771        1544294947.4831474     
  -657785395.40295768        23625046.733080506        1456256119.2201726     
  -645396386.45320761        28536954.665656954        1444640814.5519979     
  -633798327.12181866        30812363.870365232        1438063421.1183777     
  -622991217.40878952        30451274.347207248        1436523938.9193158     
  -612975057.31411958        27453686.096183091        1440022367.9548113     
  -1065328213.6157576        30235054.959429324        1397519373.9433997     
  -1035605039.8890672        43754703.755958140        1372829776.7381523     
  -1006780917.9848949        54277513.144093812        1354449839.4658511     
  -978855847.90324187        61803483.123835206        1342379562.1264982     
  -951829829.64410341        66332613.695190370        1336618944.7200899     
  -1509226268.1497560        25938492.289425373        1340156261.9129729     
  -1458535361.9364443        49155952.262801647        1302266252.9324720     
  -1408851609.7498052        69016232.147271514        1271957652.5833087     
  -1360175011.5898407        85519331.942824900        1249230460.8654802     
  -1312505567.4565494        98665251.649469018        1234084677.7789857     
  -728409.10154940933       -69943038.036060691        1649436683.3051007     
  -2251791.2366524190       -81127289.388790697        1652906766.4421368     
  -3119512.3507457599       -90126004.004820764        1660351365.0804851     
  -3331572.4438254684       -96939181.884139076        1671770479.2201424     
  -2887971.5158883221       -101566823.02673489        1687164108.8611073     
  -295941250.46660328       -17971531.147572771        1544294947.4831474     
  -284710684.28177941       -23333530.079616129        1541050243.5790293     
  -272998350.55200028       -27089637.195142530        1542298156.9380016     
  -260804249.27726460       -29239852.494146354        1548038687.5600674     
  -248128380.45757315       -29784175.976631820        1558271835.4452217     
  -612975057.31411958        27453686.096183091        1440022367.9548113     
  -587510252.06141996        28358026.809214324        1429860001.2874687     
  -561737572.73982227        30288614.418572575        1424708353.6449986     
  -535657019.34932715        33245448.924256086        1424567425.0274017     
  -509268591.88993394        37228530.326266795        1429437215.4346759     
  -951829829.64410341        66332613.695190370        1336618944.7200899     
  -910650494.57558036        73947381.277682245        1319336039.5674565     
  -869337178.91421580        82008750.836310983        1307581955.2014785     
  -827889882.66001117        90516722.371077120        1301356691.6221538     
  -786308605.81296945        99471295.881962180        1300660248.8294840     
  -1312505567.4565494        98665251.649469018        1234084677.7789857     
  -1254131411.8242564        113434533.32580209        1209478358.4189937     
  -1195797169.0751784        128070772.05808455        1190918961.6074371     
  -1137502839.2093194        142573967.84630311        1178406487.3443162     
  -1079248422.2266793        156944120.69045854        1171940935.6296318     
  -2887971.5158883221       -101566823.02673489        1687164108.8611073     
   8437760.8595959246       -105273427.40397066        1690307825.7153199     
   17562599.685108922       -116316343.61444257        1705969192.8564279     
   24486544.960664198       -134695571.65810722        1734148210.2844381     
   29209596.686253160       -160411111.53499362        1774844877.9993417     
  -248128380.45757315       -29784175.976631820        1558271835.4452217     
  -206881815.44152814       -22068812.815078519        1551838362.4882684     
  -166322417.23298976       -16644005.678545974        1553267425.6897407     
  -126450185.83195519       -13509754.567027308        1562559025.0496373     
  -87265121.238432765       -12666059.480548125        1579713160.5679679     
  -509268591.88993394        37228530.326266795        1429437215.4346759     
  -451401520.31467772        52375763.202205151        1415192567.1994300     
  -392707888.80446756        70278195.861323118        1404155340.9941332     
  -333187697.35930824        90935828.303605750        1396325536.8187950     
  -272840945.97919732        114348660.52906044        1391703154.6734083     
  -786308605.81296945        99471295.881962180        1300660248.8294840     
  -725121353.75984848        118060300.64789116        1280370439.8488057     
  -661593815.02932155        144450261.00517625        1258632938.7696083     
  -595725989.62138271        178641176.95383239        1235447745.5918915     
  -527517877.53603250        220633048.49386114        1210814860.3156607     
  -1079248422.2266793        156944120.69045854        1171940935.6296318     
  -1028041315.7770494        174984799.52195483        1147371980.4363916     
  -972980195.90754604        205872189.75303072        1116700219.0161612     
  -914065062.61817980        249606291.38364708        1079925651.3689423     
  -851295915.90894651        306187104.41382158        1037048277.4947305     
   29209596.686253160       -160411111.53499362        1774844877.9993417     
   4218968.9886885434       -237626347.07529625        1805550100.0078595     
  -46649177.358772695       -401099978.11525637        1843563585.4451447     
  -123394842.35614146       -650832004.65490556        1888885334.3112032     
  -226018026.00341019       -986822426.69422317        1941515346.6060281     
  -87265121.238432765       -12666059.480548125        1579713160.5679679     
  -79380022.409263372       -41498451.292459562        1563489889.1767588     
  -84183205.455501571       -112625116.02239516        1554082103.1323297     
  -101674670.37714496       -226046053.67034879        1551489802.4346807     
  -131854417.17419881       -381761264.23633832        1555712987.0838118     
  -272840945.97919732        114348660.52906044        1391703154.6734083     
  -233488058.00041735        133476731.23240653        1343938832.7860584     
  -193634215.12254816        154274651.59938404        1302497218.1634905     
  -153279417.34559458        176742421.62997741        1267378310.8057091     
  -112423664.66955535        200880041.32418948        1238582110.7127135     
  -527517877.53603250        220633048.49386114        1210814860.3156607     
  -458105137.78476834        287299200.49931848        1146896930.8357408     
  -375002206.35991943        399599324.75006253        1088808930.5386157     
  -278209083.26149344        557533421.24606383        1036550859.4242848     
  -167725768.48948503        761101489.98733532        990122717.49273920     
  -851295915.90894651        306187104.41382158        1037048277.4947305     
  -753231261.76232147        419968956.50825977        972364183.32582283     
  -628287179.16761374        623348903.42964149        913017240.25771320     
  -476463668.12483811        916326945.17792082        859007448.29040647     
  -297760728.63398498        1298903081.7531166        810334807.42389584     
  -1755883418.2234762       -526765025.46704286        679798839.84515095     
  -1783694361.7499387       -500034731.29781872        806014162.04722667     
  -1808607843.3632607       -463646230.75146055        925052236.40075040     
  -1830623863.0634429       -417599523.82796860        1036913062.9057231     
  -1849742420.8504848       -361894610.52734280        1141596641.5621436     
  -2201738383.8180408       -660521515.14541233        696175666.67213023     
  -2238321310.4833097       -613926499.83678365        813415164.22070932     
  -2272867212.6649632       -560541402.91610241        926500063.86351109     
  -2305376090.3630004       -500366224.38336825        1035430365.6005352     
  -2335847943.5774217       -433400964.23858100        1140206069.4317820     
  -2685780778.0497231       -805734233.41491687        721706844.59493971     
  -2722499545.1601582       -736683654.15879178        828966673.82224417     
  -2758041725.2165027       -663711118.05569506        935094555.08654499     
  -2792407318.2187538       -586816625.10562646        1040090488.3878427     
  -2825596324.1669145       -506000175.30858648        1143954473.7261372     
  -3208010600.9185228       -962403180.27555692        756392373.61357903     
  -3236229065.7804837       -868306194.26384294        852668690.85183024     
  -3264131381.0178776       -773155376.17023873        950835710.06985235     
  -3291717546.6307039       -676950725.99474382        1050893431.2676450     
  -3318987562.6189632       -579692243.73735821        1152841854.4452085     
  -3768427852.4244394       -1130528355.7273319        800232253.72804868     
  -3779509872.3442864       -1008794120.1519376        884521215.30946863     
  -3791136180.0690904       -888874177.25973344        973723528.81343305     
  -3803306775.5988512       -770768527.05072021        1067839194.2399424     
  -3816021658.9335694       -654477169.52489734        1166868211.5889964     
  -1849742420.8504848       -361894610.52734280        1141596641.5621436     
  -1834686143.0294347       -296512995.38590580        1188789280.7268460     
  -1822906941.7423716       -242054968.69109166        1238025846.1846466     
  -1814404816.9892950       -198520530.44289905        1289306337.9355454     
  -1809179768.7702048       -165909680.64132899        1342630755.9795425     
  -2335847943.5774217       -433400964.23858100        1140206069.4317820     
  -2313039039.4397855       -352591395.56094152        1181358475.0154390     
  -2293678095.1744022       -283275026.45747370        1222870216.0411711     
  -2277765110.7812700       -225451856.92817897        1264741292.5089779     
  -2265300086.2603884       -179121886.97305536        1306971704.4188590     
  -2825596324.1669145       -506000175.30858648        1143954473.7261372     
  -2799847910.4299026       -411206588.10990560        1178867281.8341057     
  -2777718339.9034081       -328475811.61294854        1212454834.5331266     
  -2759207612.5874295       -257807845.81771314        1244717131.8231978     
  -2744315728.4819689       -199202690.72420037        1275654173.7043209     
  -3318987562.6189632       -579692243.73735821        1152841854.4452085     
  -3295112755.9997849       -472358573.03279972        1181315701.1828473     
  -3275027675.9293895       -377657324.15751481        1206779701.6605139     
  -3258732322.4077749       -295588497.11150241        1229233855.8782082     
  -3246226695.4349432       -226152091.89476430        1248678163.8359301     
  -3816021658.9335694       -654477169.52489734        1166868211.5889964     
  -3798833576.1494350       -536047350.32962430        1188703733.0616617     
  -3785606103.2523479       -430819564.09117651        1205844817.4233315     
  -3776339240.2423067       -338793810.80954933        1218291464.6740060     
  -3771032987.1193132       -259970090.48474598        1226043674.8136849     
  -1809179768.7702048       -165909680.64132899        1342630755.9795425     
  -1777533839.8248780       -132644421.33106577        1357378677.3053644     
  -1747405463.8241425       -104437671.83610612        1371822923.4130116     
  -1718794640.7679992       -81289432.156453609        1385963494.3024833     
  -1691701370.6564462       -63199702.292104661        1399800389.9737799     
  -2265300086.2603884       -179121886.97305536        1306971704.4188590     
  -2227423384.7955499       -134754761.38455749        1312564417.7016802     
  -2192419392.1066866       -99963331.715979934        1320691738.9996319     
  -2160288108.1938000       -74747597.967321277        1331353668.3127134     
  -2131029533.0568886       -59107560.138584256        1344550205.6409249     
  -2744315728.4819689       -199202690.72420037        1275654173.7043209     
  -2692098873.8310323       -141300884.65749395        1270510663.8075273     
  -2644109883.7874527       -97491960.615318894        1270740045.1591687     
  -2600348758.3512373       -67775918.597683072        1276342317.7592452     
  -2560815497.5223813       -52152758.604579210        1287317481.6077576     
  -3246226695.4349432       -226152091.89476430        1248678163.8359301     
  -3171560306.9313211       -152282791.14987028        1231217415.6229057     
  -3102476938.8664436       -97023558.534126639        1221967841.8916206     
  -3038976591.2403116       -60374394.047533751        1220929442.6420770     
  -2981059264.0529251       -42335297.690090299        1228102217.8742740     
  -3771032987.1193132       -259970090.48474598        1226043674.8136849     
  -3665807684.0964208       -167700480.86169326        1194684673.1478136     
  -3567520557.3436556       -98558125.472400188        1174375129.1969893     
  -3476171606.8610229       -52543024.316877127        1165115042.9612091     
  -3391760832.6485171       -29655177.395114899        1166904414.4404764     
  -1691701370.6564462       -63199702.292104661        1399800389.9737799     
  -1646314713.2119753       -41688880.920727551        1386945109.8555360     
  -1600773310.3127038       -19662241.366682708        1372719328.4726529     
  -1555077161.9586327        2880216.3700299263        1357123045.8251326     
  -1509226268.1497560        25938492.289425373        1340156261.9129729     
  -2131029533.0568886       -59107560.138584256        1344550205.6409249     
  -2087694406.7041044       -44369146.043216109        1336192596.4144235     
  -2044865421.5301547       -31317869.210630536        1329190250.8303428     
  -2002542577.5350423       -19953729.640831947        1323543168.8886809     
  -1960725874.7187641       -10276727.333817720        1319251350.5894401     
  -2560815497.5223813       -52152758.604579210        1287317481.6077576     
  -2511744002.5268307       -41850381.864881873        1282686508.8670883     
  -2463839535.3437510       -35438097.833423495        1282136564.6758978     
  -2417102095.9731436       -32915906.510206342        1285667649.0341864     
  -2371531684.4150081       -34283807.895226717        1293279761.9419529     
  -2981059264.0529251       -42335297.690090299        1228102217.8742740     
  -2918463500.6801524       -34132588.385726094        1226426847.2135277     
  -2857695651.7534885       -32022927.235058069        1231558270.0093200     
  -2798755717.2729344       -36006314.238081455        1243496486.2616475     
  -2741643697.2384868       -46082749.394806623        1262241495.9705157     
  -3391760832.6485171       -29655177.395114899        1166904414.4404764     
  -3307852901.1640730       -21215765.605750799        1167413611.4537444     
  -3226433770.7593713       -21072357.415536761        1177455366.8306074     
  -3147503441.4344158       -29224952.824474931        1197029680.5710678     
  -3071061913.1892066       -45673551.832560658        1226136552.6751227     
  -1509226268.1497560        25938492.289425373        1340156261.9129729     
  -1458535361.9364443        49155952.262801647        1302266252.9324720     
  -1408851609.7498052        69016232.147271514        1271957652.5833087     
  -1360175011.5898407        85519331.942824900        1249230460.8654802     
  -1312505567.4565494        98665251.649469018        1234084677.7789857     
  -1960725874.7187641       -10276727.333817720        1319251350.5894401     
  -1894456963.7111864        5240078.7278620005        1294035251.4135163     
  -1828668191.9881151        19156420.507857323        1274997898.1968517     
  -1763359559.5495455        31472298.006178617        1262139290.9394472     
  -1698531066.3954782        42187711.222824931        1255459429.6413052     
  -2371531684.4150081       -34283807.895226717        1293279761.9419529     
  -2293692376.2476702       -27669938.035607100        1281352423.1031373     
  -2215806192.6226645       -20899816.650424838        1274201167.5515087     
  -2137873133.5399904       -13973443.739686251        1271825995.2870634     
  -2059893198.9996467       -6890819.3033808470        1274226906.3098040     
  -2741643697.2384868       -46082749.394806623        1262241495.9705157     
  -2656241599.5458922       -49574098.027598262        1264217768.0013411     
  -2570265611.6534538       -51152479.327582479        1269567460.6472785     
  -2483715733.5611777       -50817893.294773817        1278290573.9083233     
  -2396591965.2690611       -48570339.929163814        1290387107.7844782     
  -3071061913.1892066       -45673551.832560658        1226136552.6751227     
  -2982104633.6058497       -60472401.248103499        1242631286.1081247     
  -2892046449.0804811       -71601567.523605466        1261096777.4841623     
  -2800887359.6131067       -79061050.659088373        1281533026.8032317     
  -2708627365.2037158       -82850850.654518843        1303940034.0653355     
  -1312505567.4565494        98665251.649469018        1234084677.7789857     
  -1254131411.8242564        113434533.32580209        1209478358.4189937     
  -1195797169.0751784        128070772.05808455        1190918961.6074371     
  -1137502839.2093194        142573967.84630311        1178406487.3443162     
  -1079248422.2266793        156944120.69045854        1171940935.6296318     
  -1698531066.3954782        42187711.222824931        1255459429.6413052     
  -1625897786.6606486        53965379.608789444        1239032636.7167122     
  -1553627783.5566490        64532125.891984642        1228217850.5434124     
  -1481721057.0834749        73887950.072427630        1223015071.1214054     
  -1410177607.2411344        82032852.150095165        1223424298.4506927     
  -2059893198.9996467       -6890819.3033808470        1274226906.3098040     
  -1974243411.7255535        1522450.8232113123        1265602382.1150649     
  -1889280264.8298934        7646919.6883497238        1262154948.8744786     
  -1805003758.3126712        11482587.292026639        1263884606.5880413     
  -1721413892.1738901        13029453.634244919        1270791355.2557564     
  -2396591965.2690611       -48570339.929163814        1290387107.7844782     
  -2299168287.0189619       -43894253.030910373        1289187594.6140532     
  -2202754612.8949146       -42584846.552825212        1292730256.6006336     
  -2107350942.8969088       -44642120.494879961        1301015093.7442222     
  -2012957277.0249519       -50066074.857097030        1314042106.0448172     
  -2708627365.2037158       -82850850.654518843        1303940034.0653355     
  -2600672412.5408831       -82284731.953590870        1309788274.2136741     
  -2494050827.7517028       -86163172.831512690        1319943773.7218776     
  -2388762610.8361802       -94486173.288293481        1334406532.5899465     
  -2284807761.7943177       -107253733.32393348        1353176550.8178797     
  -1079248422.2266793        156944120.69045854        1171940935.6296318     
  -1028041315.7770494        174984799.52195483        1147371980.4363916     
  -972980195.90754604        205872189.75303072        1116700219.0161612     
  -914065062.61817980        249606291.38364708        1079925651.3689423     
  -851295915.90894651        306187104.41382158        1037048277.4947305     
  -1410177607.2411344        82032852.150095165        1223424298.4506927     
  -1373976090.3172004        82426007.907009006        1211672096.8957267     
  -1335531626.2867725        90295654.018903077        1198552445.7190428     
  -1294844215.1498508        105641790.48577708        1184065344.9206357     
  -1251913856.9064343        128464417.30763799        1168210794.5005140     
  -1721413892.1738901        13029453.634244919        1270791355.2557564     
  -1686688374.4748812       -166036.59320092201        1269976329.9734588     
  -1651330975.9827473       -11255257.510235131        1272529211.6747177     
  -1615341696.6974990       -20238209.116882563        1278450000.3595269     
  -1578720536.6191225       -27114891.413110554        1287738696.0278933     
  -2012957277.0249519       -50066074.857097030        1314042106.0448172     
  -1966178168.2500885       -72791333.978664398        1322284679.6695912     
  -1920378244.9954758       -98780544.834404767        1338630516.8831890     
  -1875557507.2611170       -128033707.42432499        1363079617.6856105     
  -1831715955.0470128       -160550821.74842066        1395631982.0768583     
  -2284807761.7943177       -107253733.32393348        1353176550.8178797     
  -2212445471.6428256       -135449884.24939370        1368597145.9841192     
  -2142673433.3249571       -172280207.95360380        1396856361.3444574     
  -2075491646.8407187       -217744704.43657905        1437954196.8988905     
  -2010900112.1901023       -271843373.69829053        1491890652.6474199     
  -851295915.90894651        306187104.41382158        1037048277.4947305     
  -753231261.76232147        419968956.50825977        972364183.32582283     
  -628287179.16761374        623348903.42964149        913017240.25771320     
  -476463668.12483811        916326945.17792082        859007448.29040647     
  -297760728.63398498        1298903081.7531166        810334807.42389584     
  -1251913856.9064343        128464417.30763799        1168210794.5005140     
  -1154559912.9067242        188440269.02764529        1152339863.4387257     
  -1045717389.0873878        286711386.81306827        1143001850.4803059     
  -925386285.44844031        423277770.66386014        1140196755.6252549     
  -793566601.98987675        598139420.58004963        1143924578.8735614     
  -1578720536.6191225       -27114891.413110554        1287738696.0278933     
  -1478660825.6161323       -19920096.922472537        1302724938.0066876     
  -1382503383.4219742       -25732865.127949119        1325439865.0914171     
  -1290248210.0366600       -44553196.029577613        1355883477.2820837     
  -1201895305.4601851       -76381089.627328992        1394055774.5786836     
  -1831715955.0470128       -160550821.74842066        1395631982.0768583     
  -1725533999.8905406       -205112141.34208626        1423519407.0297050     
  -1638645162.1713653       -313983852.39341426        1460331284.0910559     
  -1571049441.8894866       -487165954.90238833        1506067613.2609153     
  -1522746839.0449102       -724658448.86904275        1560728394.5392699     
  -2010900112.1901023       -271843373.69829053        1491890652.6474199     
  -1895179435.7299607       -367135864.23121703        1514723270.5077848     
  -1814142725.3355658       -578041574.98330903        1547676107.4792225     
  -1767789981.0069337       -904560505.95460510        1590749163.5617278     
  -1756121202.7440538       -1346692657.1450753        1643942438.7553105     
  -3768427852.4244394       -1130528355.7273319        800232253.72804868     
  -3779509872.3442864       -1008794120.1519376        884521215.30946863     
  -3791136180.0690904       -888874177.25973344        973723528.81343305     
  -3803306775.5988512       -770768527.05072021        1067839194.2399424     
  -3816021658.9335694       -654477169.52489734        1166868211.5889964     
  -4339933216.3133621       -1301979964.8940086        858400246.57219934     
  -4335613858.2030144       -1125766969.5906448        942056784.02589583     
  -4332396937.5852737       -953228765.92931008        1020075161.9507432     
  -4330282454.4601431       -784365353.91000593        1092455380.3467414     
  -4329270408.8276215       -619176733.53273189        1159197439.2138908     
  -4895427376.3311787       -1468628212.8993535        936070113.77988183     
  -4905853815.7660446       -1246980610.5406435        1018443052.4702613     
  -4917940842.3811731       -1030868298.7828021        1084626320.1803977     
  -4931688456.1765623       -820291277.62582982        1134619916.9102914     
  -4947096657.1522102       -615249547.06972671        1168423842.6599422     
  -5434910332.4778881       -1630473099.7433665        1033241855.3510962     
  -5490229745.0333815       -1372435043.0019333        1113680020.6425645     
  -5547767894.4567871       -1121792775.8202085        1167377003.5023966     
  -5607524780.7481070       -878546298.19819188        1194332803.9305916     
  -5669500403.9073391       -642695610.13588309        1194547421.9271505     
  -5958382084.7534914       -1787514625.4260476        1149915471.2858422     
  -6088741646.0050240       -1502130266.9745150        1227767688.5428064     
  -6221878093.8121195       -1226002197.0415297        1268327211.9167399     
  -6357791428.1747789       -959130415.62709177        1271594041.4076431     
  -6496481649.0930033       -701514922.73120165        1237568177.0155158     
  -3816021658.9335694       -654477169.52489734        1166868211.5889964     
  -3798833576.1494350       -536047350.32962430        1188703733.0616617     
  -3785606103.2523479       -430819564.09117651        1205844817.4233315     
  -3776339240.2423067       -338793810.80954933        1218291464.6740060     
  -3771032987.1193132       -259970090.48474598        1226043674.8136849     
  -4329270408.8276215       -619176733.53273189        1159197439.2138908     
  -4298843201.1697483       -463049536.74600005        1141321059.7314482     
  -4279106504.7213435       -342557377.32416296        1129623664.7417717     
  -4270060319.4824033       -257700255.26721787        1124105254.2448609     
  -4271704645.4529357       -208478170.57516646        1124765828.2407165     
  -4947096657.1522102       -615249547.06972671        1168423842.6599422     
  -4872363405.7527084       -412104897.03117037        1102984010.6795676     
  -4815050566.8850956       -267028288.76557851        1054596584.7957203     
  -4775158140.5493717       -180019722.27294779        1023261565.0084008     
  -4752686126.7455349       -151079197.55327988        1008978951.3176078     
  -5669500403.9073391       -642695610.13588309        1194547421.9271505     
  -5519394189.8983183       -383213431.18513632        1073692585.9060189     
  -5393438289.7436066       -204232298.41542077        980763577.58517683     
  -5291632703.4432049       -105752211.82673788        915760396.96462309     
  -5213977430.9971142       -87773171.419089556        878683044.04435813     
  -6496481649.0930033       -701514922.73120165        1237568177.0155158     
  -6239935553.6065741       -376375139.20789409        1053446785.4108030     
  -6014269673.2968769       -154169406.27369118        908124643.11014163     
  -5819484008.1639080       -34897723.928589106        801601750.11352944     
  -5655578558.2076712       -18560092.172588348        733878106.42096829     
  -3771032987.1193132       -259970090.48474598        1226043674.8136849     
  -3665807684.0964208       -167700480.86169326        1194684673.1478136     
  -3567520557.3436556       -98558125.472400188        1174375129.1969893     
  -3476171606.8610229       -52543024.316877127        1165115042.9612091     
  -3391760832.6485171       -29655177.395114899        1166904414.4404764     
  -4271704645.4529357       -208478170.57516646        1124765828.2407165     
  -4149070561.8701043       -144260838.42149758        1092797865.3322434     
  -4030441533.2785044       -93393689.571930170        1069645416.8631499     
  -3915817559.6781340       -55876724.026462555        1055308482.8334364     
  -3805198641.0689936       -31709941.785093784        1049787063.2431006     
  -4752686126.7455349       -151079197.55327988        1008978951.3176078     
  -4619025957.6761026       -116828951.39100027        979824001.99191570     
  -4486437722.3189983       -86151817.603153467        957250623.82993615     
  -4354921420.6742258       -59047796.189743996        941258816.83166945     
  -4224477052.7417817       -35516887.150765657        931848580.99711609     
  -5213977430.9971142       -87773171.419089556        878683044.04435813     
  -5075673871.5144091       -85404819.770194292        855763083.12682974     
  -4935509124.4651337       -76832509.566068411        837190750.09734619     
  -4793483189.8492908       -62056240.806715250        822966044.95591056     
  -4649596067.6668777       -41076013.492132187        813088967.70252061     
  -5655578558.2076712       -18560092.172588348        733878106.42096829     
  -5519014303.3850279       -49988443.559080839        720615108.73698533     
  -5377655739.7169151       -65435765.460679770        709465795.66538239     
  -5231502867.2033348       -64902057.877384424        700430167.20615935     
  -5080555685.8442841       -48387320.809188366        693508223.35931599     
  -3391760832.6485171       -29655177.395114899        1166904414.4404764     
  -3307852901.1640730       -21215765.605750799        1167413611.4537444     
  -3226433770.7593713       -21072357.415536761        1177455366.8306074     
  -3147503441.4344158       -29224952.824474931        1197029680.5710678     
  -3071061913.1892066       -45673551.832560658        1226136552.6751227     
  -3805198641.0689936       -31709941.785093784        1049787063.2431006     
  -3696974699.9428663       -17561751.323834658        1044720617.3970264     
  -3590877636.9256420       -10503154.558927059        1047508825.5259058     
  -3486907452.0173230       -10534151.490369320        1058151687.6297410     
  -3385064145.2179089       -17654742.118155479        1076649203.7085276     
  -4224477052.7417817       -35516887.150765657        931848580.99711609     
  -4096731114.5129466       -17098121.779305935        921628735.75767994     
  -3970750131.4221764       -4562540.2013967037        917585640.10455549     
  -3846534103.4694700        2089857.5829679966        919719294.03774333     
  -3724083030.6548285        2859071.5737802982        928029697.55724311     
  -4649596067.6668777       -41076013.492132187        813088967.70252061     
  -4507122144.8743143       -19824876.972163200        798137966.53570282     
  -4366051254.2489748       -3250514.3429443836        787685810.56655538     
  -4226383395.7908597        8647074.3955292702        781732499.79507887     
  -4088118569.4999704        15867889.243247986        780278034.22126973     
  -5080555685.8442841       -48387320.809188366        693508223.35931599     
  -4928147791.0269690       -25742016.902406931        674248309.73109770     
  -4776781005.4060364       -6567076.9835720062        657809336.91190612     
  -4626455328.9814882        9137498.9473187923        644191304.90174437     
  -4477170761.7533264        21371710.890258074        633394213.70060825     
  -3071061913.1892066       -45673551.832560658        1226136552.6751227     
  -2982104633.6058497       -60472401.248103499        1242631286.1081247     
  -2892046449.0804811       -71601567.523605466        1261096777.4841623     
  -2800887359.6131067       -79061050.659088373        1281533026.8032317     
  -2708627365.2037158       -82850850.654518843        1303940034.0653355     
  -3385064145.2179089       -17654742.118155479        1076649203.7085276     
  -3288894506.2450762       -28876737.232353687        1085738685.0906942     
  -3192179947.9359326       -38282334.558839917        1097579949.3752694     
  -3094920470.2904730       -45871534.097609401        1112172996.5622487     
  -2997116073.3086977       -51644335.848665714        1129517826.6516340     
  -3724083030.6548285        2859071.5737802982        928029697.55724311     
  -3618469532.4086003       -4116619.2738943100        929065277.01526368     
  -3512867100.4317594       -11129197.686179876        933633664.33506298     
  -3407275734.7242975       -18178663.663070917        941734859.51663792     
  -3301695435.2862191       -25265017.204569459        953368862.55999351     
  -4088118569.4999704        15867889.243247986        780278034.22126973     
  -3970829712.0964260        13807952.627277136        772611061.88182962     
  -3854107906.5679622        9857843.0943672657        769257922.36354220     
  -3737953152.9145770        4017560.6445355415        770218615.66640258     
  -3622365451.1362739       -3712894.7222371101        775493141.79041445     
  -4477170761.7533264        21371710.890258074        633394213.70060825     
  -4345975045.3085461        24896978.471153975        616376039.69039679     
  -4215902366.3445463        24678787.782796383        604452723.46070623     
  -4086952724.8613172        20717138.825198412        597624265.01154053     
  -3959126120.8588634        13012031.598340988        595890664.34289622     
  -2708627365.2037158       -82850850.654518843        1303940034.0653355     
  -2600672412.5408831       -82284731.953590870        1309788274.2136741     
  -2494050827.7517028       -86163172.831512690        1319943773.7218776     
  -2388762610.8361802       -94486173.288293481        1334406532.5899465     
  -2284807761.7943177       -107253733.32393348        1353176550.8178797     
  -2997116073.3086977       -51644335.848665714        1129517826.6516340     
  -2877816382.6437678       -51261137.438971639        1128603344.1783681     
  -2759254526.4431920       -53337387.243793845        1132150536.2602124     
  -2641430504.7069750       -57873085.263150692        1140159402.8971663     
  -2524344317.4351101       -64868231.497009873        1152629944.0892322     
  -3301695435.2862191       -25265017.204569459        953368862.55999351     
  -3170609820.3470592       -24932383.204478741        946386446.44264090     
  -3039666506.4629564       -25074086.054567695        944020120.07564211     
  -2908865493.6339073       -25690125.754839301        946269883.45900095     
  -2778206781.8599124       -26780502.305295944        953135736.59271657     
  -3622365451.1362739       -3712894.7222371101        775493141.79041445     
  -3479052725.6507564       -3298469.2501053810        763137581.00648928     
  -3335286767.8109946       -1373269.2638204098        755552525.16816938     
  -3191067577.6169834        2062705.2366209030        752737974.27545154     
  -3046395155.0687304        7009454.2512165308        754693928.32833564     
  -3959126120.8588634        13012031.598340988        595890664.34289622     
  -3803145098.5548592        13640604.424145937        578856747.86992073     
  -3646115310.4873047        17765063.128447771        566747751.53779435     
  -3488036756.6561999        25385407.711246967        559563675.34651709     
  -3328909437.0615525        36501638.172528028        557304519.29608762     
  -2284807761.7943177       -107253733.32393348        1353176550.8178797     
  -2212445471.6428256       -135449884.24939370        1368597145.9841192     
  -2142673433.3249571       -172280207.95360380        1396856361.3444574     
  -2075491646.8407187       -217744704.43657905        1437954196.8988905     
  -2010900112.1901023       -271843373.69829053        1491890652.6474199     
  -2524344317.4351101       -64868231.497009873        1152629944.0892322     
  -2419156437.5120378       -79197373.944096565        1158694575.4264941     
  -2315712813.6797228       -99340703.360368848        1173970961.3604805     
  -2214013445.9381638       -125298219.74582887        1198459101.8911910     
  -2114058334.2873566       -157069923.10047442        1232158997.0186260     
  -2778206781.8599124       -26780502.305295944        953135736.59271657     
  -2650555785.3006105       -30351378.214612603        950831399.13435042     
  -2523803049.0891962       -36916455.283552766        954111950.67533636     
  -2397948573.2256637       -46475733.512098193        962977391.21567392     
  -2272992357.7100191       -59029212.900270820        977427720.75536489     
  -3046395155.0687304        7009454.2512165308        754693928.32833564     
  -2906643515.0085440        11088102.939065695        745007617.10768783     
  -2766944139.5533752        14992536.276853085        737279329.28901994     
  -2627297028.7032232        18722754.264599562        731509064.87233353     
  -2487702182.4580793        22278756.902305245        727696823.85762966     
  -3328909437.0615525        36501638.172528028        557304519.29608762     
  -3187419626.6358328        45121069.516935706        541223229.34650981     
  -3045136085.0722609        56386271.320855618        523473097.20153821     
  -2902058812.3708291        70297243.584311008        504054122.86117738     
  -2758187808.5315480        86853986.307265282        482966306.32542408     
  -2010900112.1901023       -271843373.69829053        1491890652.6474199     
  -1895179435.7299607       -367135864.23121703        1514723270.5077848     
  -1814142725.3355658       -578041574.98330903        1547676107.4792225     
  -1767789981.0069337       -904560505.95460510        1590749163.5617278     
  -1756121202.7440538       -1346692657.1450753        1643942438.7553105     
  -2114058334.2873566       -157069923.10047442        1232158997.0186260     
  -1962071481.7774682       -205122664.45571244        1202367223.3460932     
  -1829367116.2042921       -317450362.26666403        1179450808.4828255     
  -1715945237.5678241       -494053016.53332102        1163409752.4288242     
  -1621805845.8680723       -734930627.25567937        1154244055.1840949     
  -2272992357.7100191       -59029212.900270820        977427720.75536489     
  -2094010358.5841072       -62623513.907950759        912979947.86714470     
  -1918909367.2658691       -79154507.607867360        852162673.48638988     
  -1747689383.7552996       -108622194.00000912        794975897.61309719     
  -1580350408.0524011       -151026573.08438987        741419620.24726808     
  -2487702182.4580793        22278756.902305245        727696823.85762966     
  -2290996066.1498795        60361587.412072420        646561444.07094383     
  -2082769478.5203097        136845988.99307013        565811702.48991787     
  -1863022419.5693607        251731961.64532208        485447599.11455303     
  -1631754889.2970529        405019505.36881256        405469133.94484138     
  -2758187808.5315480        86853986.307265282        482966306.32542408     
  -2553028604.4747791        163832639.50435770        403111711.95748830     
  -2320947449.9676080        330551127.53614354        320397895.49340683     
  -2061944345.0100102        587009450.40268028        234824856.93317968     
  -1776019289.6019979        933207608.10392046        146392596.27680433     
  -5958382084.7534914       -1787514625.4260476        1149915471.2858422     
  -6088741646.0050240       -1502130266.9745150        1227767688.5428064     
  -6221878093.8121195       -1226002197.0415297        1268327211.9167399     
  -6357791428.1747789       -959130415.62709177        1271594041.4076431     
  -6496481649.0930033       -701514922.73120165        1237568177.0155158     
  -6811079660.1026716       -2043323898.0308015        1353695448.4538686     
  -6828873581.8200207       -1395594992.3018360        1202688247.9137721     
  -6898020225.0274582       -919041824.87316942        1091944722.2959006     
  -7018519589.7249899       -613664395.74480319        1021464871.6002541     
  -7190371675.9126072       -479462704.91673541        991248695.82683229     
  -8338240085.4701090       -2501472025.6410327        1712186273.7249241     
  -8021878742.4954023       -1424921685.0872722        1275647847.9641535     
  -7805445955.9453135       -681466532.61556411        956929465.93086386     
  -7688941725.8198347       -271106568.22590494        756031127.62505412     
  -7672366052.1189775       -193841791.91829920        672952833.04672575     
  -10539863360.855804       -3161959008.2567415        2225387947.0990086     
  -9667757128.0311737       -1590110345.3308249        1446646488.6939509     
  -8944155286.5656757       -513276320.26871014        863281442.82162917     
  -8369057836.4593220        68543066.929600716        475292809.48204404     
  -7942464777.7121124        155347816.26410627        282680588.67519379     
  -13415949486.259760       -4024784845.8779278        2893300468.5761223     
  -11766508738.427322       -1891160973.0324917        1715684170.1031640     
  -10314148216.888552       -414471187.83261251        811000652.96819794     
  -9058867921.6434498        405284509.72171354        179249917.17122242     
  -8000667852.6920137        568106119.63048315       -179568037.28776059     
  -6496481649.0930033       -701514922.73120165        1237568177.0155158     
  -6239935553.6065741       -376375139.20789409        1053446785.4108030     
  -6014269673.2968769       -154169406.27369118        908124643.11014163     
  -5819484008.1639080       -34897723.928589106        801601750.11352944     
  -5655578558.2076712       -18560092.172588348        733878106.42096829     
  -7190371675.9126072       -479462704.91673541        991248695.82683229     
  -6901009918.6866732       -304309047.17540407        846895102.35265934     
  -6624523254.9887609       -172072367.86081195        723597259.16989529     
  -6360911684.8188715       -82752666.972957373        621355166.27854049     
  -6110175208.1770029       -36349944.511840582        540168823.67859375     
  -7672366052.1189775       -193841791.91829920        672952833.04672575     
  -7400884344.6182299       -183882973.39835167        589373012.95991838     
  -7124272608.9967918       -156824061.14277554        509105444.15187913     
  -6842530845.2546673       -112665055.15157676        432150126.62260878     
  -6555659053.3918571       -51405955.424751282        358507060.37210393     
  -7942464777.7121124        155347816.26410627        282680588.67519379     
  -7739558831.4012375       -15096917.876732826        280880517.23258156     
  -7513517735.3209686       -108424486.11958599        264649198.05609301     
  -7264341489.4713001       -124634888.46444464        233986631.14573479     
  -6992030093.8522367       -63728124.911318779        188892816.50150165     
  -8000667852.6920137        568106119.63048315       -179568037.28776059     
  -7917033379.0357056        202049119.38944530       -78582384.829352692     
  -7792258633.9612875       -26873642.791232586       -9771479.1174579859     
  -7626343617.4687672       -118662166.91156721        26864679.847917221     
  -7419288329.5581408       -73316452.971541405        31326092.066782512     
  -5655578558.2076712       -18560092.172588348        733878106.42096829     
  -5519014303.3850279       -49988443.559080839        720615108.73698533     
  -5377655739.7169151       -65435765.460679770        709465795.66538239     
  -5231502867.2033348       -64902057.877384424        700430167.20615935     
  -5080555685.8442841       -48387320.809188366        693508223.35931599     
  -6110175208.1770029       -36349944.511840582        540168823.67859375     
  -5958981664.5049839       -38146310.546266079        533443960.83051372     
  -5807002835.1760979       -37325057.724467993        529020562.01909435     
  -5654238720.1903458       -33886186.046443462        526898627.24433637     
  -5500689319.5477266       -27829695.512199640        527078156.50623876     
  -6555659053.3918571       -51405955.424751282        358507060.37210393     
  -6389299708.2296610       -23409382.314865112        353643138.63988996     
  -6226164100.5992002       -6158600.9774253368        351268460.36862165     
  -6066252230.5004749        346388.58755993843        351383025.55829483     
  -5909564097.9334850       -3894413.6199057102        353986834.20890677     
  -6992030093.8522367       -63728124.911318779        188892816.50150165     
  -6809968434.5590591       -5777658.8648767471        181212642.16512048     
  -6635139535.9862204        28063604.780433655        176209490.71396151     
  -6467543398.1337175        37795666.024624825        173883362.14803103     
  -6307180021.0015497        23418524.867696285        174234256.46732166     
  -7419288329.5581408       -73316452.971541405        31326092.066782512     
  -7220987843.4931793        14748859.803688526        16152471.406199805     
  -7033929141.3371563        65341559.549121380        3843653.0551219541     
  -6858112223.0900707        78461646.264763832       -5600362.9864539644     
  -6693537088.7519255        54109119.950608253       -12179576.718525268     
  -5080555685.8442841       -48387320.809188366        693508223.35931599     
  -4928147791.0269690       -25742016.902406931        674248309.73109770     
  -4776781005.4060364       -6567076.9835720062        657809336.91190612     
  -4626455328.9814882        9137498.9473187923        644191304.90174437     
  -4477170761.7533264        21371710.890258074        633394213.70060825     
  -5500689319.5477266       -27829695.512199640        527078156.50623876     
  -5344440324.7278404       -19732875.036346912        511501772.40179259     
  -5188165328.7372818       -11549383.991599083        499416482.12820625     
  -5031864331.5760565       -3279222.3779504299        490822285.68547589     
  -4875537333.2441607        5077609.8045928478        485719183.07360643     
  -5909564097.9334850       -3894413.6199057102        353986834.20890677     
  -5747559280.1915054       -9771659.6991274357        343338941.72312868     
  -5584461350.9118032       -12005200.652604103        336852296.09004045     
  -5420270310.0943775       -10595036.480337381        334526897.30963999     
  -5254986157.7392302       -5541167.1823418140        336362745.38192999     
  -6307180021.0015497        23418524.867696285        174234256.46732166     
  -6137504657.4179621        4141629.1092607975        169759817.69510412     
  -5965669071.9296017       -7934526.9665937424        170116778.79740733     
  -5791673264.5364647       -12809943.359866142        175305139.77423289     
  -5615517235.2385511       -10484620.070545435        185324900.62557751     
  -6693537088.7519255        54109119.950608253       -12179576.718525268     
  -6514276456.4072180        22006991.388802528       -9235599.6822845582     
  -6331788491.7906809        662637.06643033028       -790069.74968922953     
  -6146073194.9023151       -9923943.0165116787        13157013.079257675     
  -5957130565.7421236       -9752748.8600351810        32605648.804551192     
  -4477170761.7533264        21371710.890258074        633394213.70060825     
  -4345975045.3085461        24896978.471153975        616376039.69039679     
  -4215902366.3445463        24678787.782796383        604452723.46070623     
  -4086952724.8613172        20717138.825198412        597624265.01154053     
  -3959126120.8588634        13012031.598340988        595890664.34289622     
  -4875537333.2441607        5077609.8045928478        485719183.07360643     
  -4731869327.4998121        8383374.6227471828        473897386.54634637     
  -4589053720.4567776        8847810.4365544319        466625455.41424859     
  -4447090512.1150398        6470917.2460272312        463903389.67731214     
  -4305979702.4746056        1252695.0511503220        465731189.33553082     
  -5254986157.7392302       -5541167.1823418140        336362745.38192999     
  -5100402983.7963686       -2922041.4572572708        330053071.58034545     
  -4946401569.7753277       -2242115.4715862274        327748270.78855753     
  -4792981915.6761179       -3501389.2253499031        329448343.00656641     
  -4640144021.4987392       -6699862.7185463905        335153288.23437399     
  -5615517235.2385511       -10484620.070545435        185324900.62557751     
  -5451576014.1982031       -9019269.7688398361        184843094.79238248     
  -5287945914.3002005       -8590989.9416260719        187821169.58363077     
  -5124626935.5445538       -9199780.5889329910        194259124.99930426     
  -4961619077.9312639       -10845641.710762978        204156961.03941804     
  -5957130565.7421236       -9752748.8600351810        32605648.804551192     
  -5785388418.7053185       -9908310.3120040894        38267456.182473369     
  -5613686754.0313911       -10198812.973566294        46844151.799469732     
  -5442025571.7203436       -10624256.844730377        58335735.655533560     
  -5270404871.7721767       -11184641.925496101        72742207.750672221     
  -3959126120.8588634        13012031.598340988        595890664.34289622     
  -3803145098.5548592        13640604.424145937        578856747.86992073     
  -3646115310.4873047        17765063.128447771        566747751.53779435     
  -3488036756.6561999        25385407.711246967        559563675.34651709     
  -3328909437.0615525        36501638.172528028        557304519.29608762     
  -4305979702.4746056        1252695.0511503220        465731189.33553082     
  -4137348617.5686893        3747029.5050139427        453763687.30349189     
  -3968223502.7071199        7888130.4777054787        446171522.14098310     
  -3798604357.8899164        13675997.969194889        442954693.84800762     
  -3628491183.1170578        21110631.979514122        444113202.42456263     
  -4640144021.4987392       -6699862.7185463905        335153288.23437399     
  -4460433111.9089489       -2810838.0120341778        327605008.86737984     
  -4280782908.1714258        875833.85361003876        323882483.09860283     
  -4101193410.2861567        4360152.8783929348        323985710.92804039     
  -3921664618.2531447        7642119.0623228550        327914692.35570222     
  -4961619077.9312639       -10845641.710762978        204156961.03941804     
  -4772398581.5756578       -6032998.1270396709        200380712.56158784     
  -4583793526.8802137       -3271826.7438437939        199880634.41065729     
  -4395803913.8449230       -2562127.5611674786        202656726.58662546     
  -4208429742.4697948       -3903900.5790324211        208708989.08949947     
  -5270404871.7721767       -11184641.925496101        72742207.750672221     
  -5073245026.5687933       -5919450.8399467468        72090798.386115208     
  -4877255358.8334761       -4554851.3146131039        74165976.077148139     
  -4682435868.5662203       -7090843.3494868279        78967740.823749542     
  -4488786555.7670240       -13527426.944561720        86496092.625950500     
  -3328909437.0615525        36501638.172528028        557304519.29608762     
  -3187419626.6358328        45121069.516935706        541223229.34650981     
  -3045136085.0722609        56386271.320855618        523473097.20153821     
  -2902058812.3708291        70297243.584311008        504054122.86117738     
  -2758187808.5315480        86853986.307265282        482966306.32542408     
  -3628491183.1170578        21110631.979514122        444113202.42456263     
  -3490875194.5354710        20779286.060256004        432424099.66748267     
  -3352445647.3857031        23159802.034932613        421489540.13268834     
  -3213202541.6677504        28252179.903568149        411309523.82018822     
  -3073145877.3816133        36056419.666144371        401884050.72997600     
  -3921664618.2531447        7642119.0623228550        327914692.35570222     
  -3780998493.1794524        437183.38027715683        320640908.79316252     
  -3639498982.1072516       -3989798.9734146595        316545053.87059820     
  -3497166085.0365405       -5638827.9987359047        315627127.58800417     
  -3353999801.9673133       -4509903.6956803799        317887129.94538224     
  -4208429742.4697948       -3903900.5790324211        208708989.08949947     
  -4057789522.5677714       -15905238.523017883        205873656.72355333     
  -3906296089.2369037       -25062531.704203844        208639638.41525763     
  -3753949442.4771986       -31375780.122586489        217006934.16462144     
  -3600749582.2886562       -34844983.778184652        230975543.97163743     
  -4488786555.7670240       -13527426.944561720        86496092.625950500     
  -4321248282.7004213       -28247979.649582624        88122343.458646014     
  -4152836968.7746658       -40058396.157417297        97773293.766675010     
  -3983552613.9897356       -48958676.468002081        115448943.55003959     
  -3813395218.3456402       -54948820.581381321        141149292.80874503     
  -2758187808.5315480        86853986.307265282        482966306.32542408     
  -2553028604.4747791        163832639.50435770        403111711.95748830     
  -2320947449.9676080        330551127.53614354        320397895.49340683     
  -2061944345.0100102        587009450.40268028        234824856.93317968     
  -1776019289.6019979        933207608.10392046        146392596.27680433     
  -3073145877.3816133        36056419.666144371        401884050.72997600     
  -2879704263.8364229        83825218.503988266        360129808.86679286     
  -2671285610.4214602        181517483.57442117        318961993.55837137     
  -2447889917.1367311        329133214.87740111        278380604.80470765     
  -2209517183.9822254        526672412.41298115        238385642.60579926     
  -3353999801.9673133       -4509903.6956803799        317887129.94538224     
  -3162431068.5025444        17002453.912282228        300297511.57620084     
  -2967830205.7486463        48621909.150671840        286739968.41268492     
  -2770197213.7056274        90348462.019470930        277214500.45483148     
  -2569532092.3734698        142182112.51872349        271721107.70263994     
  -3600749582.2886562       -34844983.778184652        230975543.97163743     
  -3401209018.4731498       -36635654.270758867        223614820.08571553     
  -3210581235.9491653       -68135595.735080481        223731820.05634937     
  -3028866234.7166948       -129344808.17109764        231326543.88355350     
  -2856064014.7757363       -220263291.57883763        246398991.56733018     
  -3813395218.3456402       -54948820.581381321        141149292.80874503     
  -3596038113.7482457       -77089106.045174122        130081734.39531448     
  -3399538701.0230017       -168755031.08279145        129937548.48935996     
  -3223896980.1699424       -329946595.69435644        140716735.09087473     
  -3069112951.1890116       -560663799.87969446        162419294.19986358     
 </DataArray>
 <DataArray  type="Float64" Name="VM" NumberOfComponents="1" format="ascii">
   12935634807.854584     
   11340675612.898422     
   10210113591.738607     
   9272606004.6425076     
   8303709144.0628672     
   10130261535.133812     
   9321915543.2692337     
   8826218584.6783714     
   8443338081.1933851     
   8035464948.3945770     
   7982254138.7743044     
   7734818882.4670954     
   7668950540.8903437     
   7669345441.6527538     
   7666073541.6346788     
   6491525776.3207684     
   6586675029.0732422     
   6757148637.0095301     
   6960868805.5937834     
   7171177800.9099903     
   5657629767.8750305     
   5890649019.8733902     
   6116013266.1082964     
   6331264586.5721006     
   6536182000.8135557     
   8303709144.0628672     
   8020754358.9697924     
   7779912964.9158096     
   7570497390.0107975     
   7387537996.9301386     
   8035464948.3945770     
   7746823791.1353931     
   7473856280.5608387     
   7214604824.8181562     
   6969079871.2543821     
   7666073541.6346788     
   7380935023.6545267     
   7101192772.8106651     
   6826927478.6013021     
   6558345751.7215099     
   7171177800.9099903     
   6910534056.1821384     
   6657795041.4747019     
   6409105352.7874289     
   6161320325.6426029     
   6536182000.8135557     
   6327980413.4901419     
   6141974171.7353697     
   5964257181.7115889     
   5785816462.7159433     
   7387537996.9301386     
   7229478284.6548166     
   7063909457.0279102     
   6890136193.4514904     
   6707969691.5861139     
   6969079871.2543821     
   6815174088.2798309     
   6656660039.3934317     
   6493254628.7328053     
   6324906435.2364569     
   6558345751.7215099     
   6407747478.5252342     
   6255525256.1053848     
   6101647205.9536285     
   5946142203.8262653     
   6161320325.6426029     
   6012195094.6017666     
   5864402992.3948565     
   5717982218.7173290     
   5572988462.0971537     
   5785816462.7159433     
   5634980062.6060410     
   5488323585.3530455     
   5345760950.1986980     
   5207339399.4599295     
   6707969691.5861139     
   6515685486.4951468     
   6326944889.7378769     
   6141632665.4840021     
   5959729882.3851252     
   6324906435.2364569     
   6141219795.9774094     
   5959822382.4081240     
   5780689303.4398842     
   5603844158.4574871     
   5946142203.8262653     
   5773532061.2246952     
   5602308583.1624193     
   5432493631.4578562     
   5264142975.5391645     
   5572988462.0971537     
   5414443185.9783821     
   5256771046.6993742     
   5100009381.8821821     
   4944258195.6315966     
   5207339399.4599295     
   5066371869.1270618     
   4926211959.0568228     
   4786894333.4633379     
   4648599990.9697847     
   5959729882.3851252     
   5785609696.4135437     
   5610081207.8861732     
   5433113525.4409828     
   5254726372.9846992     
   5603844158.4574871     
   5439098927.7029953     
   5273829836.1757603     
   5108064324.7018814     
   4941871591.1587038     
   5264142975.5391645     
   5108491542.1612883     
   4953223865.2852821     
   4798413634.5113420     
   4644170522.3662205     
   4944258195.6315966     
   4797299859.1810055     
   4651630941.7884026     
   4507356434.9176559     
   4364615318.2367868     
   4648599990.9697847     
   4509782943.5855675     
   4373128415.3146973     
   4238754926.7890911     
   4106817848.5665584     
   5254726372.9846992     
   5059356091.9129810     
   4864820383.3817654     
   4671116266.2803936     
   4478264994.0147829     
   4941871591.1587038     
   4755558705.4819298     
   4570183499.2335453     
   4385784540.4214668     
   4202440357.3564625     
   4644170522.3662205     
   4469356258.5533333     
   4295856151.0844212     
   4123780406.9623294     
   3953306437.7212977     
   4364615318.2367868     
   4203912561.1937819     
   4045221863.8725581     
   3888759017.5696993     
   3734845311.4682274     
   4106817848.5665584     
   3962952988.5061731     
   3822155811.3628221     
   3684776374.0856619     
   3551315058.8873048     
   4478264994.0147829     
   4310423155.9668770     
   4142090933.8152280     
   3973250430.2450266     
   3804009299.4131927     
   4202440357.3564625     
   4049824883.0865808     
   3897532264.8644886     
   3745633129.0409665     
   3594284853.9057865     
   3953306437.7212977     
   3812541796.8917956     
   3672588194.9392166     
   3533554330.9262629     
   3395599643.3683257     
   3734845311.4682274     
   3602704792.4989362     
   3471457103.1499000     
   3341199908.7081628     
   3212053663.3851547     
   3551315058.8873048     
   3424860568.8493991     
   3298917381.8520451     
   3173524089.3192220     
   3048725990.8683853     
   3804009299.4131927     
   3602249769.9970412     
   3402472065.9275689     
   3204790686.4630218     
   3009421481.4180589     
   3594284853.9057865     
   3395476906.3505831     
   3198060272.8345566     
   3002126509.4428234     
   2807829432.5286231     
   3395599643.3683257     
   3205719804.6474838     
   3017479428.6795173     
   2831091399.7812581     
   2646906281.6057682     
   3212053663.3851547     
   3037658951.8381577     
   2866178975.2564569     
   2698165307.6164360     
   2534517901.8378615     
   3048725990.8683853     
   2896686225.3923421     
   2749987619.3622379     
   2609729517.7161283     
   2477658403.2674875     
   5657629767.8750305     
   5890649019.8733902     
   6116013266.1082964     
   6331264586.5721006     
   6536182000.8135557     
   5151231549.8183241     
   5311023852.6452789     
   5467430230.9753056     
   5617556803.1230221     
   5759939828.1336002     
   4643273061.3263206     
   4755247624.5820494     
   4868328435.7285051     
   4979883400.4889088     
   5087989848.2319622     
   4134021212.7283187     
   4224161716.5613499     
   4320207520.4261198     
   4420506394.7858114     
   4523607748.9674015     
   3625002111.3826122     
   3719596247.5468760     
   3825431281.1564016     
   3942449749.0086093     
   4070564292.7034883     
   6536182000.8135557     
   6327980413.4901419     
   6141974171.7353697     
   5964257181.7115889     
   5785816462.7159433     
   5759939828.1336002     
   5651262363.4813213     
   5558582730.5697165     
   5472839872.2458963     
   5388491007.0191355     
   5087989848.2319622     
   5053144723.9633369     
   5028800113.3044043     
   5009748932.8729181     
   4992790356.1990900     
   4523607748.9674015     
   4538233985.8570147     
   4557513563.5426292     
   4578963774.9167538     
   4600861450.6543360     
   4070564292.7034883     
   4111867916.4251523     
   4150506190.7071271     
   4185572900.6387572     
   4216330111.1442852     
   5785816462.7159433     
   5634980062.6060410     
   5488323585.3530455     
   5345760950.1986980     
   5207339399.4599295     
   5388491007.0191355     
   5246908999.4775400     
   5108539781.3420553     
   4973426047.3646116     
   4841662623.5784674     
   4992790356.1990900     
   4864858011.3748417     
   4740111910.4235287     
   4618523820.3329134     
   4500135771.7546721     
   4600861450.6543360     
   4491520786.2460089     
   4386398665.8370771     
   4285186354.5138001     
   4187794451.6921115     
   4216330111.1442852     
   4130891083.9589300     
   4051941918.8943944     
   3978646798.8578229     
   3910708277.4895005     
   5207339399.4599295     
   5066371869.1270618     
   4926211959.0568228     
   4786894333.4633379     
   4648599990.9697847     
   4841662623.5784674     
   4717985514.8467617     
   4596061294.3698177     
   4476016326.8944044     
   4358094132.8536730     
   4500135771.7546721     
   4392428108.2822618     
   4287352446.5150714     
   4185094368.2680926     
   4085926823.7243910     
   4187794451.6921115     
   4094583714.6667919     
   4004756972.0229421     
   3918525634.3050165     
   3836161106.8194847     
   3910708277.4895005     
   3830320921.7426624     
   3753872218.4620285     
   3681568269.0313444     
   3613654398.8253255     
   4648599990.9697847     
   4509782943.5855675     
   4373128415.3146973     
   4238754926.7890911     
   4106817848.5665584     
   4358094132.8536730     
   4229421035.7106047     
   4103339488.2946405     
   3980040172.2113814     
   3859763873.8197479     
   4085926823.7243910     
   3969592973.1944075     
   3856551778.9917903     
   3747072862.4461269     
   3641495018.6291242     
   3836161106.8194847     
   3734398997.9285274     
   3636919346.6398077     
   3544069175.9985113     
   3456286905.6177554     
   3613654398.8253255     
   3528590894.5895882     
   3449083269.3807135     
   3375538012.4926558     
   3308474553.1084285     
   4106817848.5665584     
   3962952988.5061731     
   3822155811.3628221     
   3684776374.0856619     
   3551315058.8873048     
   3859763873.8197479     
   3732783309.7923284     
   3609279234.9720602     
   3489613810.9247041     
   3374262424.4130454     
   3641495018.6291242     
   3529435130.1593542     
   3421033427.7765555     
   3316632657.5538282     
   3216653154.9422803     
   3456286905.6177554     
   3357308957.3486576     
   3261896033.4411769     
   3170343758.7587285     
   3082994715.6288099     
   3308474553.1084285     
   3220919599.7041950     
   3136526875.2404346     
   3055523478.3798757     
   2978160823.3084249     
   3551315058.8873048     
   3424860568.8493991     
   3298917381.8520451     
   3173524089.3192220     
   3048725990.8683853     
   3374262424.4130454     
   3252999463.6371922     
   3133997711.1260004     
   3017500883.7459354     
   2903799552.7701049     
   3216653154.9422803     
   3106169664.2357974     
   3000376357.4318347     
   2899763606.7663212     
   2804927558.2806888     
   3082994715.6288099     
   2988136064.7161455     
   2900998210.2878933     
   2822282228.7563772     
   2752843881.2211113     
   2978160823.3084249     
   2902498163.0209608     
   2838068055.6045494     
   2785658572.4377079     
   2746234316.3234978     
   3048725990.8683853     
   2896686225.3923421     
   2749987619.3622379     
   2609729517.7161283     
   2477658403.2674875     
   2903799552.7701049     
   2780083550.2117081     
   2662213113.9585052     
   2551098544.3539443     
   2447948146.1542611     
   2804927558.2806888     
   2703300175.4923353     
   2606823177.1475849     
   2516054723.9446383     
   2431644564.1613560     
   2752843881.2211113     
   2666839933.8616405     
   2584090403.7058010     
   2504787183.1853161     
   2429166922.6684813     
   2746234316.3234978     
   2669503856.3517456     
   2593133799.9131866     
   2517042198.2979336     
   2441284914.8226881     
   3625002111.3826122     
   3719596247.5468760     
   3825431281.1564016     
   3942449749.0086093     
   4070564292.7034883     
   3138159026.2467637     
   3255598022.0695243     
   3382452604.3562922     
   3518257430.9102201     
   3662557902.5607362     
   2695116002.3344059     
   2830816013.0000820     
   2973837005.1277542     
   3123098072.1211743     
   3277689042.3354416     
   2299353643.3035421     
   2450033625.7265558     
   2605457717.5936365     
   2763702434.7704797     
   2923336204.1725898     
   1956062876.7417977     
   2120185096.6276011     
   2285702405.2613335     
   2449651568.8860974     
   2610069920.5165806     
   4070564292.7034883     
   4111867916.4251523     
   4150506190.7071271     
   4185572900.6387572     
   4216330111.1442852     
   3662557902.5607362     
   3701922539.1326857     
   3739908785.3678432     
   3775612366.9023309     
   3808280111.8064222     
   3277689042.3354416     
   3321009061.8770089     
   3364595006.4705253     
   3407622203.5205865     
   3449411932.9152889     
   2923336204.1725898     
   2976498388.0391717     
   3031929313.7827749     
   3088949132.7534328     
   3147027556.9429221     
   2610069920.5165806     
   2678405049.9333606     
   2751314001.3124151     
   2828293977.0634665     
   2908996927.6387420     
   4216330111.1442852     
   4130891083.9589300     
   4051941918.8943944     
   3978646798.8578229     
   3910708277.4895005     
   3808280111.8064222     
   3754157899.7691236     
   3705975646.0313845     
   3663267075.3459263     
   3625940209.1505246     
   3449411932.9152889     
   3422250470.0534678     
   3400115352.1191092     
   3382780828.1318650     
   3370240527.5173144     
   3147027556.9429221     
   3142797959.3329015     
   3142111617.9746208     
   3144867026.1062212     
   3151059274.8182354     
   2908996927.6387420     
   2924058310.6196752     
   2940432319.1296577     
   2958054687.5334673     
   2976885046.0886912     
   3910708277.4895005     
   3830320921.7426624     
   3753872218.4620285     
   3681568269.0313444     
   3613654398.8253255     
   3625940209.1505246     
   3556481612.8432941     
   3491312287.8648067     
   3430637587.2421489     
   3374700195.2643275     
   3370240527.5173144     
   3312024388.6361542     
   3258534581.1352291     
   3209965085.0368547     
   3166546012.9328675     
   3151059274.8182354     
   3104292811.6259913     
   3062761800.6582236     
   3026632659.1323223     
   2996107821.7774491     
   2976885046.0886912     
   2941511267.7357101     
   2911924919.3310428     
   2888244395.9038982     
   2870626183.5331492     
   3613654398.8253255     
   3528590894.5895882     
   3449083269.3807135     
   3375538012.4926558     
   3308474553.1084285     
   3374700195.2643275     
   3305128011.4063544     
   3241531611.5369234     
   3184274960.1512733     
   3133806215.0871363     
   3166546012.9328675     
   3110944540.6858416     
   3061609573.6617374     
   3018842741.8221478     
   2983002419.5818210     
   2996107821.7774491     
   2952655686.1749892     
   2915590596.1647863     
   2885139023.5331340     
   2861560732.8450189     
   2870626183.5331492     
   2837152541.4985075     
   2809982044.8114209     
   2789263990.1247449     
   2775163588.1141849     
   3308474553.1084285     
   3220919599.7041950     
   3136526875.2404346     
   3055523478.3798757     
   2978160823.3084249     
   3133806215.0871363     
   3054557843.0309100     
   2980392848.8056173     
   2911648194.2950449     
   2848696133.3334775     
   2983002419.5818210     
   2914189384.3677936     
   2852599576.3399444     
   2798634480.4518890     
   2752733575.1937923     
   2861560732.8450189     
   2804308469.3141088     
   2756565681.2377005     
   2718727249.2637644     
   2691220239.7796273     
   2775163588.1141849     
   2729220070.6135993     
   2695158181.5169468     
   2673289717.4820404     
   2663949951.4972177     
   2978160823.3084249     
   2902498163.0209608     
   2838068055.6045494     
   2785658572.4377079     
   2746234316.3234978     
   2848696133.3334775     
   2793807380.0427589     
   2747770950.9545870     
   2711033074.8299727     
   2684109627.7640810     
   2752733575.1937923     
   2713059067.4214602     
   2679258776.4553823     
   2651545786.6133385     
   2630151173.3381634     
   2691220239.7796273     
   2662143429.0639844     
   2635427754.5924358     
   2611139176.0932035     
   2589344721.7611504     
   2663949951.4972177     
   2642136443.9003196     
   2618766862.6775727     
   2593814705.5535426     
   2567256110.3154988     
   2746234316.3234978     
   2669503856.3517456     
   2593133799.9131866     
   2517042198.2979336     
   2441284914.8226881     
   2684109627.7640810     
   2602745048.4994278     
   2524106664.4213858     
   2448542838.1200728     
   2376444795.2099252     
   2630151173.3381634     
   2555733411.7817664     
   2487554259.8873229     
   2426820799.4805226     
   2375129722.6159635     
   2589344721.7611504     
   2533142857.4076300     
   2487591471.8583527     
   2455111065.5730681     
   2439146421.2543244     
   2567256110.3154988     
   2539374197.5768952     
   2527098001.9138565     
   2534267407.3070631     
   2566469628.3007135     
   1956062876.7417977     
   2120185096.6276011     
   2285702405.2613335     
   2449651568.8860974     
   2610069920.5165806     
   1654678738.6442924     
   1821238418.6813490     
   1989545959.1083364     
   2156905243.2872062     
   2321557001.9049282     
   1394471625.0325539     
   1571979983.2420437     
   1750553562.9124012     
   1928191427.5059371     
   2103644302.7288940     
   1207707499.8389311     
   1399767184.6518748     
   1591473578.8578951     
   1782053048.8317626     
   1971048814.6467524     
   1137070747.4816420     
   1335432629.5031264     
   1534186476.3126483     
   1733332274.6337233     
   1932870018.9251246     
   2610069920.5165806     
   2678405049.9333606     
   2751314001.3124151     
   2828293977.0634665     
   2908996927.6387420     
   2321557001.9049282     
   2409102398.0597405     
   2499170267.4739413     
   2591374872.7462769     
   2685443362.5899887     
   2103644302.7288940     
   2207931487.1955094     
   2312225221.1870399     
   2416291665.1590486     
   2519965117.4315634     
   1971048814.6467524     
   2088695496.7423303     
   2203604513.8448730     
   2315701986.4617395     
   2424936100.5589900     
   1932870018.9251246     
   2059884847.9316127     
   2181609046.6507487     
   2298042664.3228598     
   2409185762.4981079     
   2908996927.6387420     
   2924058310.6196752     
   2940432319.1296577     
   2958054687.5334673     
   2976885046.0886912     
   2685443362.5899887     
   2708392381.8045249     
   2734047938.6550722     
   2762395134.7249708     
   2793431577.1245317     
   2519965117.4315634     
   2550546747.6356606     
   2585248389.7579460     
   2624078113.7424936     
   2667047636.4060168     
   2424936100.5589900     
   2461076941.0611176     
   2502740775.2005286     
   2549935097.7271452     
   2602667128.9461861     
   2409185762.4981079     
   2446910825.0975204     
   2491548161.9129829     
   2543100067.1931586     
   2601569682.5989480     
   2976885046.0886912     
   2941511267.7357101     
   2911924919.3310428     
   2888244395.9038982     
   2870626183.5331492     
   2793431577.1245317     
   2774285059.6508260     
   2762641882.4751730     
   2758611457.5905557     
   2762326606.4513984     
   2667047636.4060168     
   2662937793.3129973     
   2667945355.9286609     
   2682133294.4365177     
   2705575459.3203607     
   2602667128.9461861     
   2610510587.9765372     
   2628960193.0687561     
   2658027392.7995420     
   2697727660.7707973     
   2601569682.5989480     
   2616540475.7623239     
   2643543382.2484360     
   2682574923.4811602     
   2733630835.4470735     
   2870626183.5331492     
   2837152541.4985075     
   2809982044.8114209     
   2789263990.1247449     
   2775163588.1141849     
   2762326606.4513984     
   2746574093.9796271     
   2736965523.2665157     
   2733590957.0236535     
   2736543607.7833519     
   2705575459.3203607     
   2705689638.9405785     
   2711528342.8978291     
   2723130866.3000345     
   2740535113.3237758     
   2697727660.7707973     
   2711321456.4092193     
   2730023963.7201786     
   2753847612.8225327     
   2782804149.7225666     
   2733630835.4470735     
   2758068220.2881269     
   2786893072.2462115     
   2820117489.7361808     
   2857755365.4400916     
   2775163588.1141849     
   2729220070.6135993     
   2695158181.5169468     
   2673289717.4820404     
   2663949951.4972177     
   2736543607.7833519     
   2708311960.5518804     
   2690915379.0080099     
   2684507908.9560633     
   2689250104.7633862     
   2740535113.3237758     
   2726696756.8235793     
   2722434523.3103232     
   2727803519.0276418     
   2742861369.2239642     
   2782804149.7225666     
   2780298152.2620163     
   2786013233.8048511     
   2799953667.3034334     
   2822126980.1183763     
   2857755365.4400916     
   2864036724.9004765     
   2877177652.7260981     
   2897159807.4714580     
   2923969737.9615002     
   2663949951.4972177     
   2642136443.9003196     
   2618766862.6775727     
   2593814705.5535426     
   2567256110.3154988     
   2689250104.7633862     
   2676367072.6942205     
   2667766694.9560866     
   2663496972.5558753     
   2663603514.3085299     
   2742861369.2239642     
   2739288426.5228486     
   2745821149.3489251     
   2762526659.0888796     
   2789471778.6793790     
   2822126980.1183763     
   2825506158.9193316     
   2844799669.7127891     
   2880059457.8033876     
   2931350665.9075909     
   2923969737.9615002     
   2929754870.1818662     
   2957511355.0086169     
   3007299579.8187423     
   3079203385.9418726     
   2567256110.3154988     
   2539374197.5768952     
   2527098001.9138565     
   2534267407.3070631     
   2566469628.3007135     
   2663603514.3085299     
   2692774944.0703478     
   2737295824.2679000     
   2797535558.4923120     
   2873928183.1104164     
   2789471778.6793790     
   2851665123.1439209     
   2929917598.8686228     
   3024775819.7307305     
   3136960221.6325116     
   2931350665.9075909     
   3002546751.1393847     
   3091961265.8783998     
   3203157673.6223588     
   3341016560.3122149     
   3079203385.9418726     
   3136482123.2757025     
   3215668893.8559394     
   3325982966.1795225     
   3479986855.7694306     
   1137070747.4816420     
   1335432629.5031264     
   1534186476.3126483     
   1733332274.6337233     
   1932870018.9251246     
   1206909158.8661726     
   1398726731.2723429     
   1590171614.4732938     
   1780460184.0206788     
   1969129207.2428558     
   1393252035.4172003     
   1570324796.9665978     
   1748415092.2737713     
   1925507791.4366953     
   2100343924.4428017     
   1653407528.3418479     
   1819447261.4501805     
   1987148194.1673076     
   2153801586.8982697     
   2317639519.1637845     
   1955006236.5358953     
   2118647603.0736251     
   2283558816.6483312     
   2446767569.0324254     
   2606306120.8789067     
   1932870018.9251246     
   2059884847.9316127     
   2181609046.6507487     
   2298042664.3228598     
   2409185762.4981079     
   1969129207.2428558     
   2086139840.2442255     
   2200296522.5713449     
   2311524027.8060822     
   2419770122.8666425     
   2100343924.4428017     
   2203604262.7943892     
   2306647222.9234853     
   2409237889.3299561     
   2511209295.3113828     
   2317639519.1637845     
   2404108110.9047847     
   2492776814.1397228     
   2583258464.0078974     
   2675275932.5600023     
   2606306120.8789067     
   2673881967.8339262     
   2745625726.6557617     
   2821030154.6308789     
   2899736032.9700866     
   2409185762.4981079     
   2446910825.0975204     
   2491548161.9129829     
   2543100067.1931586     
   2601569682.5989480     
   2419770122.8666425     
   2453010602.6454062     
   2491306194.0015054     
   2534662481.7952218     
   2583088621.8939500     
   2511209295.3113828     
   2536936607.1554646     
   2565860914.0136700     
   2597978541.1409187     
   2633294555.8172626     
   2675275932.5600023     
   2692737253.4543738     
   2711572605.1385708     
   2731739573.3219376     
   2753211235.7915492     
   2899736032.9700866     
   2910132603.0720062     
   2920193918.8193979     
   2929816985.9547505     
   2938920907.7772603     
   2601569682.5989480     
   2616540475.7623239     
   2643543382.2484360     
   2682574923.4811602     
   2733630835.4470735     
   2583088621.8939500     
   2585005102.6635418     
   2595501687.7799845     
   2614608962.8783226     
   2642352807.6284351     
   2633294555.8172626     
   2619815703.7732444     
   2611363003.0685768     
   2607992032.0302901     
   2609755857.2103810     
   2753211235.7915492     
   2725368157.5046325     
   2699013289.8388619     
   2674177550.6780524     
   2650892268.6529717     
   2938920907.7772603     
   2900742541.6520629     
   2860849885.5814815     
   2819237683.9350104     
   2775903493.7851400     
   2733630835.4470735     
   2758068220.2881269     
   2786893072.2462115     
   2820117489.7361808     
   2857755365.4400916     
   2642352807.6284351     
   2644644901.3550067     
   2653373546.2198739     
   2668549946.3773484     
   2690190762.1439867     
   2609755857.2103810     
   2587804040.1194253     
   2574151851.6555076     
   2568816711.0208287     
   2571830828.6526847     
   2650892268.6529717     
   2602631293.9349875     
   2564137775.6758647     
   2535433653.0112467     
   2516578631.9499812     
   2775903493.7851400     
   2699838807.2007627     
   2634480696.1239433     
   2579814161.8473992     
   2535902080.9917941     
   2857755365.4400916     
   2864036724.9004765     
   2877177652.7260981     
   2897159807.4714580     
   2923969737.9615002     
   2690190762.1439867     
   2683182603.1337218     
   2684011426.2534761     
   2692678830.1214705     
   2709187669.8383632     
   2571830828.6526847     
   2548751061.8508492     
   2534336684.8889065     
   2528639734.2598414     
   2531713262.1965942     
   2516578631.9499812     
   2474678870.8247156     
   2441941344.6395760     
   2418495509.6074591     
   2404483758.9218302     
   2535902080.9917941     
   2473153553.9380426     
   2419575082.1663923     
   2375361843.3798079     
   2340753506.5325394     
   2923969737.9615002     
   2929754870.1818662     
   2957511355.0086169     
   3007299579.8187423     
   3079203385.9418726     
   2709187669.8383632     
   2695056287.3287892     
   2695012242.1371036     
   2709102429.2710071     
   2737362112.3713713     
   2531713262.1965942     
   2497690745.2725353     
   2470164767.2970161     
   2449236019.6799507     
   2435000987.0350289     
   2404483758.9218302     
   2354441047.6829848     
   2303608099.6813183     
   2252158234.4511313     
   2200354473.3854361     
   2340753506.5325394     
   2284024433.9808326     
   2220459754.4454708     
   2150509908.6530299     
   2074974337.2891164     
   3079203385.9418726     
   3136482123.2757025     
   3215668893.8559394     
   3325982966.1795225     
   3479986855.7694306     
   2737362112.3713713     
   2708916953.7100401     
   2693659896.0126486     
   2694404056.5875912     
   2715422441.4900556     
   2435000987.0350289     
   2349896315.2837300     
   2276107365.3144927     
   2213722382.5257139     
   2162829738.2636151     
   2200354473.3854361     
   2090486091.2199032     
   2001667196.4186888     
   1940790489.5551512     
   1917313936.4403963     
   2074974337.2891164     
   1973965886.2764323     
   1917225130.7840195     
   1927939465.7660706     
   2032855256.9527149     
   1955006236.5358953     
   2118647603.0736251     
   2283558816.6483312     
   2446767569.0324254     
   2606306120.8789067     
   2298614079.4212327     
   2449031636.5173960     
   2604093500.5829940     
   2761872747.3266048     
   2920936990.5158620     
   2694658203.7284880     
   2830307917.0386267     
   2973208558.1128969     
   3122278977.9341002     
   3276610145.1122122     
   3137919782.4212770     
   3255491999.4376307     
   3382441104.4567771     
   3518304580.4626455     
   3662630641.3887339     
   3624905968.1698437     
   3719777742.9198036     
   3825882946.1425180     
   3943171188.8431559     
   4071560742.8043604     
   2606306120.8789067     
   2673881967.8339262     
   2745625726.6557617     
   2821030154.6308789     
   2899736032.9700866     
   2920936990.5158620     
   2974178233.8598228     
   3029471392.4451637     
   3086134747.0168500     
   3143633155.0687556     
   3276610145.1122122     
   3320558308.1322265     
   3364720259.6749172     
   3408270584.7281399     
   3450529838.2918944     
   3662630641.3887339     
   3702828148.1115503     
   3741730199.9181461     
   3778427283.4569993     
   3812162514.8211637     
   4071560742.8043604     
   4113535987.8359876     
   4153033959.1292996     
   4189131320.4789810     
   4221074238.7049084     
   2899736032.9700866     
   2910132603.0720062     
   2920193918.8193979     
   2929816985.9547505     
   2938920907.7772603     
   3143633155.0687556     
   3138135421.8674212     
   3135317196.0752425     
   3135038012.0805125     
   3137238655.9857221     
   3450529838.2918944     
   3424844284.7194481     
   3404024543.1529593     
   3387818671.4666576     
   3376166646.5781183     
   3812162514.8211637     
   3761209878.0502119     
   3716635520.7474451     
   3677982263.5615435     
   3645134806.0797324     
   4221074238.7049084     
   4139242215.8476114     
   4064822176.2679253     
   3997043961.5402870     
   3935649303.9373970     
   2938920907.7772603     
   2900742541.6520629     
   2860849885.5814815     
   2819237683.9350104     
   2775903493.7851400     
   3137238655.9857221     
   3102263577.2960525     
   3068982688.4464593     
   3037419347.5245652     
   3007602716.4207869     
   3376166646.5781183     
   3337865483.0786819     
   3303947614.5420847     
   3274557802.8127332     
   3249884675.0197239     
   3645134806.0797324     
   3596018348.0765252     
   3553328783.4491901     
   3517443343.6569214     
   3488861144.4738336     
   3935649303.9373970     
   3867909760.2274580     
   3808087942.5747490     
   3756898526.7934117     
   3715302622.9263482     
   2775903493.7851400     
   2699838807.2007627     
   2634480696.1239433     
   2579814161.8473992     
   2535902080.9917941     
   3007602716.4207869     
   2936409958.6259756     
   2873375016.0586400     
   2818671883.8038130     
   2772540326.6763649     
   3249884675.0197239     
   3181810194.3674932     
   3120046440.1369352     
   3064873150.5809050     
   3016616606.2575240     
   3488861144.4738336     
   3423614455.4700336     
   3363452250.8021874     
   3308668837.5121813     
   3259586707.4366355     
   3715302622.9263482     
   3653582826.3176332     
   3596259116.8530159     
   3543551925.6679993     
   3495696385.9846711     
   2535902080.9917941     
   2473153553.9380426     
   2419575082.1663923     
   2375361843.3798079     
   2340753506.5325394     
   2772540326.6763649     
   2709207207.0393682     
   2654004493.9693465     
   2607246755.5311699     
   2569301890.8012943     
   3016616606.2575240     
   2950575066.6525402     
   2891883627.2947402     
   2840969803.9334512     
   2798320325.3207059     
   3259586707.4366355     
   3189544670.5214992     
   3126274449.8195157     
   3070303750.9640360     
   3022224794.8555603     
   3495696385.9846711     
   3420951346.0296054     
   3352547238.8320870     
   3291098873.1023655     
   3237291467.0041161     
   2340753506.5325394     
   2284024433.9808326     
   2220459754.4454708     
   2150509908.6530299     
   2074974337.2891164     
   2569301890.8012943     
   2532252656.9863472     
   2494388627.9051795     
   2455728733.7608619     
   2416354108.3495903     
   2798320325.3207059     
   2771850876.9852581     
   2750713780.3466349     
   2735022846.2304759     
   2724903624.3324456     
   3022224794.8555603     
   2995554165.4534903     
   2980555178.6124940     
   2977907343.1838064     
   2988351099.3075652     
   3237291467.0041161     
   3198868643.2989917     
   3178869731.5153766     
   3179038822.4039121     
   3201278083.6303554     
   2074974337.2891164     
   1973965886.2764323     
   1917225130.7840195     
   1927939465.7660706     
   2032855256.9527149     
   2416354108.3495903     
   2360030802.9110579     
   2322693920.9917464     
   2308104247.4196930     
   2321179121.0944200     
   2724903624.3324456     
   2692332886.7034683     
   2673345192.8879347     
   2669176045.3837333     
   2681186086.6040964     
   2988351099.3075652     
   2957166398.4630065     
   2943966386.3964424     
   2957175034.0587816     
   3007995313.4104795     
   3201278083.6303554     
   3148629107.2563605     
   3124499955.6866326     
   3152092452.6982455     
   3261936156.4208708     
   3624905968.1698437     
   3719777742.9198036     
   3825882946.1425180     
   3943171188.8431559     
   4071560742.8043604     
   4134031809.7921157     
   4224502441.2096820     
   4320903022.1412687     
   4421586580.4078112     
   4525107147.7945213     
   4643403605.0415134     
   4755684648.0499859     
   4869119533.5687199     
   4981073664.5740442     
   5089620928.0300722     
   5151503076.7133694     
   5311503221.2575111     
   5468181498.6005802     
   5618629740.9809008     
   5761367900.5629349     
   5658069216.3455896     
   5891122774.7852745     
   6116598232.5257425     
   6332009640.0596495     
   6537105105.4739113     
   4071560742.8043604     
   4113535987.8359876     
   4153033959.1292996     
   4189131320.4789810     
   4221074238.7049084     
   4525107147.7945213     
   4540014501.4127722     
   4559649921.4077282     
   4581513591.2827568     
   4603874570.5115776     
   5089620928.0300722     
   5054854297.3752861     
   5030584779.6707382     
   5011597790.7910147     
   4994690571.9621353     
   5761367900.5629349     
   5652778615.7639694     
   5560131716.4313145     
   5474377558.2104750     
   5389978582.6490288     
   6537105105.4739113     
   6329229632.0340004     
   6143456895.4733477     
   5965921665.8821745     
   5787631335.0974808     
   4221074238.7049084     
   4139242215.8476114     
   4064822176.2679253     
   3997043961.5402870     
   3935649303.9373970     
   4603874570.5115776     
   4496628830.8440542     
   4394222056.5738869     
   4296390845.0782337     
   4203098645.6981988     
   4994690571.9621353     
   4867194167.8059254     
   4743207467.3210831     
   4622724650.1172686     
   4505824328.2867298     
   5389978582.6490288     
   5247214840.6877041     
   5107701151.8227644     
   4971487287.9963884     
   4838675952.0283957     
   5787631335.0974808     
   5634180436.8755808     
   5484669289.9624004     
   5339017370.4716349     
   5197250609.6513052     
   3935649303.9373970     
   3867909760.2274580     
   3808087942.5747490     
   3756898526.7934117     
   3715302622.9263482     
   4203098645.6981988     
   4108202587.7553277     
   4018534707.5108781     
   3934584846.9756145     
   3857036303.4537921     
   4505824328.2867298     
   4388809672.6352530     
   4274886072.9423265     
   4164314880.5774202     
   4057482886.2334619     
   4838675952.0283957     
   4704918974.1609793     
   4572698220.6190081     
   4442100216.7293911     
   4313274449.0628281     
   5197250609.6513052     
   5052155499.1339836     
   4907591036.6184025     
   4763548461.7645750     
   4620039422.8729239     
   3715302622.9263482     
   3653582826.3176332     
   3596259116.8530159     
   3543551925.6679993     
   3495696385.9846711     
   3857036303.4537921     
   3776132131.3783321     
   3699097118.5164199     
   3626217655.9092402     
   3557811038.7448487     
   4057482886.2334619     
   3958273576.8224502     
   3862159912.4673934     
   3769418033.8019218     
   3680373655.0524673     
   4313274449.0628281     
   4196819253.8404198     
   4082586358.7815361     
   3970772911.5895104     
   3861640146.9452434     
   4620039422.8729239     
   4487324243.6929026     
   4355981456.5290766     
   4226079273.8018031     
   4097758201.6967220     
   3495696385.9846711     
   3420951346.0296054     
   3352547238.8320870     
   3291098873.1023655     
   3237291467.0041161     
   3557811038.7448487     
   3458058880.4676762     
   3363696404.5016022     
   3275290378.6417618     
   3193499605.9020233     
   3680373655.0524673     
   3558269146.0331774     
   3440567726.7083168     
   3327718347.3522062     
   3220271967.0953832     
   3861640146.9452434     
   3720145172.1613774     
   3582197414.6413698     
   3448092537.2186446     
   3318224663.4477119     
   4097758201.6967220     
   3939695585.7364845     
   3784554790.8732586     
   3632481877.4758959     
   3483711532.1465702     
   3237291467.0041161     
   3198868643.2989917     
   3178869731.5153766     
   3179038822.4039121     
   3201278083.6303554     
   3193499605.9020233     
   3113634309.5413465     
   3045812424.5340490     
   2991497266.6065731     
   2952372944.4834757     
   3220271967.0953832     
   3107758067.2843299     
   3001460250.6315017     
   2902214206.9036131     
   2811031946.5069952     
   3318224663.4477119     
   3185284552.5188198     
   3054247957.5390830     
   2925328527.0512352     
   2798787131.2662501     
   3483711532.1465702     
   3344288761.7075677     
   3204654319.6085615     
   3064817362.3340135     
   2924802996.3335071     
   3201278083.6303554     
   3148629107.2563605     
   3124499955.6866326     
   3152092452.6982455     
   3261936156.4208708     
   2952372944.4834757     
   2797569533.7585554     
   2653288177.6179986     
   2530089974.0504279     
   2444442770.4004445     
   2811031946.5069952     
   2599666123.7859025     
   2390634212.0859275     
   2184568410.7355347     
   1982612087.9968283     
   2798787131.2662501     
   2577735393.4285150     
   2366876173.8873386     
   2170295352.9548779     
   1995187467.9754300     
   2924802996.3335071     
   2729571900.6808600     
   2563438578.2139001     
   2443768306.0812297     
   2397250101.0097632     
   5658069216.3455896     
   5891122774.7852745     
   6116598232.5257425     
   6332009640.0596495     
   6537105105.4739113     
   6492011317.6998520     
   6587126465.3243704     
   6757572170.1497517     
   6961275536.1820431     
   7171578361.9101448     
   7982510958.8975306     
   7735129196.6363420     
   7669248660.9473076     
   7669651245.5017519     
   7666429862.7668161     
   10130011998.069597     
   9321992081.1621113     
   8826454996.5605965     
   8443765621.9061079     
   8036196189.3565645     
   12934598806.785950     
   11340439679.178049     
   10210371624.965361     
   9273357212.9124737     
   8305142567.1419020     
   6537105105.4739113     
   6329229632.0340004     
   6143456895.4733477     
   5965921665.8821745     
   5787631335.0974808     
   7171578361.9101448     
   6911453977.5844450     
   6659189052.2546167     
   6410921134.0993176     
   6163505896.6090870     
   7666429862.7668161     
   7381604639.6750126     
   7102123745.0511522     
   6828050150.9345036     
   6559564788.6504765     
   8036196189.3565645     
   7747311593.8661585     
   7473966344.7774277     
   7214225528.1099691     
   6968069935.6717796     
   8305142567.1419020     
   8021121902.0433159     
   7778875039.5907211     
   7567853351.8674698     
   7383102510.9793873     
   5787631335.0974808     
   5634180436.8755808     
   5484669289.9624004     
   5339017370.4716349     
   5197250609.6513052     
   6163505896.6090870     
   6011430098.7236643     
   5860504810.7449980     
   5710764369.4567766     
   5562257556.2865257     
   6559564788.6504765     
   6406974294.4459372     
   6252757909.0661993     
   6096878514.1685781     
   5939349185.1810570     
   6968069935.6717796     
   6814313747.6622429     
   6656216606.7049437     
   6493511954.2728662     
   6326124076.0180407     
   7383102510.9793873     
   7228427699.6513691     
   7066829621.9461660     
   6897684565.2668762     
   6720788122.1517229     
   5197250609.6513052     
   5052155499.1339836     
   4907591036.6184025     
   4763548461.7645750     
   4620039422.8729239     
   5562257556.2865257     
   5407667962.0126162     
   5254095851.8904715     
   5101557443.6582003     
   4950092475.9606180     
   5939349185.1810570     
   5773388507.4514818     
   5608896373.9544506     
   5445891962.0839643     
   5284431015.2717810     
   6326124076.0180407     
   6146613297.4165430     
   5968982729.5491314     
   5793241576.8213549     
   5619457548.3923540     
   6720788122.1517229     
   6525327392.0130835     
   6332119984.1950932     
   6141159519.3871756     
   5952528091.4983654     
   4620039422.8729239     
   4487324243.6929026     
   4355981456.5290766     
   4226079273.8018031     
   4097758201.6967220     
   4950092475.9606180     
   4806668580.8019133     
   4664044742.2072554     
   4522283904.7615538     
   4381503562.5902996     
   5284431015.2717810     
   5130888873.9337034     
   4977756512.7358341     
   4825092169.1318283     
   4672994359.1144590     
   5619457548.3923540     
   5456472675.6530380     
   5293661066.0999098     
   5131076908.7980919     
   4968803654.1841364     
   5952528091.4983654     
   5780820625.2039070     
   5609181149.7357121     
   5437660056.9386005     
   5266328826.0122023     
   4097758201.6967220     
   3939695585.7364845     
   3784554790.8732586     
   3632481877.4758959     
   3483711532.1465702     
   4381503562.5902996     
   4213178710.0259585     
   4046649099.7246666     
   3882030189.0365229     
   3719503095.3679681     
   4672994359.1144590     
   4494987098.6675787     
   4317817957.8512611     
   4141568356.6032166     
   3966366819.1892867     
   4968803654.1841364     
   4781996448.8367920     
   4595218517.9495993     
   4408519621.0976820     
   4221983559.0414076     
   5266328826.0122023     
   5071825170.9424400     
   4876671732.3375273     
   4680893209.2421532     
   4484541305.9119358     
   3483711532.1465702     
   3344288761.7075677     
   3204654319.6085615     
   3064817362.3340135     
   2924802996.3335071     
   3719503095.3679681     
   3580523858.7027793     
   3442387321.3157988     
   3305113509.2275977     
   3168732342.3114014     
   3966366819.1892867     
   3821784212.0443935     
   3678593508.8485699     
   3536855093.9617009     
   3396669762.7059145     
   4221983559.0414076     
   4065528325.2535329     
   3910558412.0243740     
   3757208244.4790421     
   3605716679.4135756     
   4484541305.9119358     
   4309897304.7852354     
   4136421451.7833972     
   3964346641.3149123     
   3794104672.1337476     
   2924802996.3335071     
   2729571900.6808600     
   2563438578.2139001     
   2443768306.0812297     
   2397250101.0097632     
   3168732342.3114014     
   2988343285.3775635     
   2821136421.9414129     
   2671827629.3658423     
   2548239569.9123831     
   3396669762.7059145     
   3213341597.3622756     
   3033371263.0171008     
   2857093303.1575813     
   2685060429.3105273     
   3605716679.4135756     
   3405138793.6601739     
   3200607324.9908299     
   2993247155.6518164     
   2785438727.0941463     
   3794104672.1337476     
   3565246310.5902710     
   3326004161.2470808     
   3081893291.4503527     
   2844678849.2839036     
 </DataArray>
 <DataArray  type="Float64" Name="strain" NumberOfComponents="3" format="ascii">
  0.20348585157859084        0.0000000000000000       0.12540620876956443     
  0.18665494895400789       -2.7324706370838815E-002   7.4351919937695590E-002
  0.16982404632942494       -4.4676018452324412E-002   3.5131935624971300E-002
  0.15299314370484199       -5.2053936244456783E-002   7.7462558313915464E-003
  0.13616224108025904       -4.9458459747235950E-002  -7.8051194430436566E-003
  0.15985464180437828        0.0000000000000000        9.6449714701007799E-002
  0.15317632978066026       -2.1844315550974859E-002   6.2690568163170299E-002
  0.14649801775694221       -3.6174092960703778E-002   3.7402298307918080E-002
  0.13981970573322419       -4.2989332229186751E-002   2.0584905135251151E-002
  0.13314139370950615       -4.2290033356423770E-002   1.2238388645169511E-002
  0.12645632202717710        0.0000000000000000        7.4203039526368766E-002
  0.12656717276776475       -1.6363924731110903E-002   5.5280179134455334E-002
  0.12667802350835236       -2.7672167469083138E-002   4.1464767588567930E-002
  0.12678887424894000       -3.3924728213916705E-002   3.2756804888706532E-002
  0.12689972498952759       -3.5121606965611604E-002   2.9156291034871246E-002
  0.10329089224698733        0.0000000000000000        5.8666183245647333E-002
  0.10682747791532136       -1.0883533911246948E-002   5.2120752851550683E-002
  0.11036406358365540       -1.9170241977462504E-002   4.7319343466920794E-002
  0.11390064925198941       -2.4860124198646662E-002   4.4261955091757711E-002
  0.11743723492032343       -2.7953180574799438E-002   4.2948587726061360E-002
   9.0358352463808939E-002   0.0000000000000000        4.9839145858843484E-002
   9.3957245223330113E-002  -5.4031430913829906E-003   5.3212289314456346E-002
   9.7556137982851288E-002  -1.0668316485841864E-002   5.4966025942976712E-002
  0.10115503074237245       -1.5795520183376623E-002   5.5100355744404604E-002
  0.10475392350189362       -2.0784754183987258E-002   5.3615278718740014E-002
  0.13616224108025904       -4.9458459747235950E-002  -7.8051194430436566E-003
  0.13296155807615628       -4.2924946035595692E-002  -3.3903858049940117E-003
  0.12976087507205353       -3.8488752184469927E-002  -3.9132613386954479E-004
  0.12656019206795077       -3.6149878193858516E-002   1.1920595703297371E-003
  0.12335950906384799       -3.5908324063761543E-002   1.3597713076037576E-003
  0.13314139370950615       -4.2290033356423770E-002   1.2238388645169511E-002
  0.12891306331407745       -3.8424668286168390E-002   1.2180464706205006E-002
  0.12468473291864875       -3.5741708962174094E-002   1.1482919951513768E-002
  0.12045640252322001       -3.4241155384440988E-002   1.0145754381095834E-002
  0.11622807212779132       -3.3923007552968898E-002   8.1689679949512872E-003
  0.12689972498952759       -3.5121606965611604E-002   2.9156291034871246E-002
  0.12241980035397149       -3.3924390536741067E-002   2.5540623633145791E-002
  0.11793987571841530       -3.2994665739878318E-002   2.2061388566892260E-002
  0.11345995108285915       -3.2332432575023384E-002   1.8718585836110607E-002
  0.10898002644730301       -3.1937691042176253E-002   1.5512215440800711E-002
  0.11743723492032343       -2.7953180574799438E-002   4.2948587726061360E-002
  0.11348176919583836       -2.9424112787313744E-002   3.6690090975828475E-002
  0.10952630347135327       -3.0247622517582541E-002   3.1344079712265896E-002
  0.10557083774686818       -3.0423709765605822E-002   2.6910553935373636E-002
  0.10161537202238306       -2.9952374531383580E-002   2.3389513645151690E-002
  0.10475392350189362       -2.0784754183987258E-002   5.3615278718740014E-002
  0.10209896983967809       -2.4923835037886446E-002   4.5628866734252926E-002
   9.9444016177462541E-002  -2.7500579295286778E-002   3.9330993387634586E-002
   9.6789062515247035E-002  -2.8514986956188298E-002   3.4721658678885152E-002
   9.4134108853031473E-002  -2.7967058020590935E-002   3.1800862608004493E-002
  0.12335950906384799       -3.5908324063761543E-002   1.3597713076037576E-003
  0.12042885958089936       -3.6408111105106999E-002   6.3105252909642640E-004
  0.11749821009795076       -3.6293260628822821E-002   9.5914483800252359E-005
  0.11456756061500215       -3.5563772634909008E-002  -2.4564282828525019E-004
  0.11163691113205354       -3.4219647123365560E-002  -3.9361940715954002E-004
  0.11622807212779132       -3.3923007552968898E-002   8.1689679949512872E-003
  0.11347643302493063       -3.3999654450586031E-002   7.8127970217456433E-003
  0.11072479392207001       -3.3683485060120366E-002   7.6210660755048412E-003
  0.10797315481920935       -3.2974499381572014E-002   7.5937751562291378E-003
  0.10522151571634869       -3.1872697414940865E-002   7.7309242639182207E-003
  0.10898002644730301       -3.1937691042176253E-002   1.5512215440800711E-002
  0.10637825701828432       -3.1591197796065035E-002   1.5306771043349585E-002
  0.10377648758926564       -3.1073709491417967E-002   1.5236625966617484E-002
  0.10117471816024697       -3.0385226128234938E-002   1.5301780210604340E-002
   9.8572948731228280E-002  -2.9525747706516059E-002   1.5502233775310140E-002
  0.10161537202238306       -2.9952374531383580E-002   2.3389513645151690E-002
   9.9134331560960326E-002  -2.9182741141544025E-002   2.3112974593908452E-002
   9.6653291099537603E-002  -2.8463933922715526E-002   2.2942594157138271E-002
   9.4172250638114921E-002  -2.7795952874897903E-002   2.2878372334840909E-002
   9.1691210176692184E-002  -2.7178797998091309E-002   2.2920309127016630E-002
   9.4134108853031473E-002  -2.7967058020590935E-002   3.1800862608004493E-002
   9.1744656652958709E-002  -2.6774284487023112E-002   3.1231407673422196E-002
   8.9355204452885945E-002  -2.5854158354013126E-002   3.0738970647066974E-002
   8.6965752252813180E-002  -2.5206679621560885E-002   3.0323551528938605E-002
   8.4576300052740416E-002  -2.4831848289666530E-002   2.9985150319037285E-002
  0.11163691113205354       -3.4219647123365560E-002  -3.9361940715954002E-004
  0.10856676503318569       -3.2696897045997236E-002  -1.4503555386857769E-004
  0.10549661893431780       -3.1431535354608978E-002   1.5534544138381956E-004
  0.10242647283544994       -3.0423562049200385E-002   5.0752357859827624E-004
   9.9356326736582068E-002  -2.9672977129771849E-002   9.1149885777408457E-004
  0.10522151571634869       -3.1872697414940865E-002   7.7309242639182207E-003
  0.10223338859533171       -3.0651539719357468E-002   7.5708117756035365E-003
   9.9245261474314755E-002  -2.9584486853952499E-002   7.5229401010291075E-003
   9.6257134353297816E-002  -2.8671538818725782E-002   7.5873092401946632E-003
   9.3269007232280821E-002  -2.7912695613677374E-002   7.7639191931005158E-003
   9.8572948731228280E-002  -2.9525747706516059E-002   1.5502233775310140E-002
   9.5727284259840631E-002  -2.8606182392717630E-002   1.5036708501191751E-002
   9.2881619788452996E-002  -2.7737438353295903E-002   1.4743867712591660E-002
   9.0035955317065375E-002  -2.6919515588251064E-002   1.4623711409510260E-002
   8.7190290845677740E-002  -2.6152414097582871E-002   1.4676239591947401E-002
   9.1691210176692184E-002  -2.7178797998091309E-002   2.2920309127016630E-002
   8.9048452026712313E-002  -2.6560825066077771E-002   2.2252654622895617E-002
   8.6405693876732470E-002  -2.5890389852639421E-002   2.1818128276071734E-002
   8.3762935726752669E-002  -2.5167492357776294E-002   2.1616730086544786E-002
   8.1120177576772812E-002  -2.4392132581488438E-002   2.1648460054314898E-002
   8.4576300052740416E-002  -2.4831848289666530E-002   2.9985150319037285E-002
   8.2196891895946839E-002  -2.4515467739437968E-002   2.9218650140715452E-002
   7.9817483739153261E-002  -2.4043341351982890E-002   2.8745721791469128E-002
   7.7438075582359683E-002  -2.3415469127301622E-002   2.8566365271298327E-002
   7.5058667425566106E-002  -2.2631851065393949E-002   2.8680580580203008E-002
   9.9356326736582068E-002  -2.9672977129771849E-002   9.1149885777408457E-004
   9.6409936737772928E-002  -2.8995674166893776E-002   6.2197131948332762E-004
   9.3463546738963704E-002  -2.8207546731136610E-002   5.1934043489434978E-004
   9.0517156740154495E-002  -2.7308594822500431E-002   6.0360620400702614E-004
   8.7570766741345341E-002  -2.6298818440985139E-002   8.7476862682189793E-004
   9.3269007232280821E-002  -2.7912695613677374E-002   7.7639191931005158E-003
   9.0501370234432721E-002  -2.7196276073286396E-002   7.5648921066383545E-003
   8.7733733236584704E-002  -2.6410599032032439E-002   7.5364743683969393E-003
   8.4966096238736646E-002  -2.5555664489914635E-002   7.6786659783756803E-003
   8.2198459240888588E-002  -2.4631472446933866E-002   7.9914669365752644E-003
   8.7190290845677740E-002  -2.6152414097582871E-002   1.4676239591947401E-002
   8.4585119543309481E-002  -2.5396877979679336E-002   1.4526145985298444E-002
   8.1979948240941208E-002  -2.4613651332928220E-002   1.4530374421388471E-002
   7.9374776938572950E-002  -2.3802734157329121E-002   1.4688924900217535E-002
   7.6769605636204691E-002  -2.2964126452882594E-002   1.5001797421786062E-002
   8.1120177576772812E-002  -2.4392132581488438E-002   2.1648460054314898E-002
   7.8661184664402986E-002  -2.3597479886072033E-002   2.1505732955463243E-002
   7.6202191752033244E-002  -2.2816703633823803E-002   2.1501040593869335E-002
   7.3743198839663432E-002  -2.2049803824743631E-002   2.1634382969533208E-002
   7.1284205927293676E-002  -2.1296780458831377E-002   2.1905760082454893E-002
   7.5058667425566106E-002  -2.2631851065393949E-002   2.8680580580203008E-002
   7.2729565597713430E-002  -2.1798081792464896E-002   2.8503653017132952E-002
   7.0400463769860755E-002  -2.1019755934719650E-002   2.8448472885839404E-002
   6.8071361942008093E-002  -2.0296873492157943E-002   2.8515040186322158E-002
   6.5742260114155432E-002  -1.9629434464780049E-002   2.8703354918581669E-002
   8.7570766741345341E-002  -2.6298818440985139E-002   8.7476862682189793E-004
   8.4328912287421232E-002  -2.5264101985187248E-002   6.9770675242181168E-004
   8.1087057833497067E-002  -2.4290329853703302E-002   6.4544505381619599E-004
   7.7845203379572958E-002  -2.3377502046533029E-002   7.1798353100402390E-004
   7.4603348925648794E-002  -2.2525618563676630E-002   9.1532218398637788E-004
   8.2198459240888588E-002  -2.4631472446933866E-002   7.9914669365752644E-003
   7.9100351055935991E-002  -2.3691985706583818E-002   7.7269988359063291E-003
   7.6002242870983422E-002  -2.2791167072358509E-002   7.6252230973866686E-003
   7.2904134686030839E-002  -2.1929016544258301E-002   7.6861397210159915E-003
   6.9806026501078255E-002  -2.1105534122282332E-002   7.9097487067943950E-003
   7.6769605636204691E-002  -2.2964126452882594E-002   1.5001797421786062E-002
   7.3853135906578715E-002  -2.2119869427979999E-002   1.4672199313037232E-002
   7.0936666176952823E-002  -2.1292004291013703E-002   1.4543185752792828E-002
   6.8020196447326889E-002  -2.0480531041982792E-002   1.4614756741052372E-002
   6.5103726717700927E-002  -1.9685449680888256E-002   1.4886912277816272E-002
   7.1284205927293676E-002  -2.1296780458831377E-002   2.1905760082454893E-002
   6.8587266839349514E-002  -2.0547753149376596E-002   2.1533308183815145E-002
   6.5890327751405339E-002  -1.9792841509668681E-002   2.1399333020034644E-002
   6.3193388663461150E-002  -1.9032045539707894E-002   2.1503834591113623E-002
   6.0496449575517010E-002  -1.8265365239494125E-002   2.1846812897052030E-002
   6.5742260114155432E-002  -1.9629434464780049E-002   2.8703354918581669E-002
   6.3302743854248195E-002  -1.8975636870772861E-002   2.8310325448239720E-002
   6.0863227594340916E-002  -1.8293678728323937E-002   2.8193664899112431E-002
   5.8423711334433699E-002  -1.7583560037432763E-002   2.8353373271199273E-002
   5.5984195074526399E-002  -1.6845280798099882E-002   2.8789450564500940E-002
   7.4603348925648794E-002  -2.2525618563676630E-002   9.1532218398637788E-004
   7.1808710108530183E-002  -2.1682477093228680E-002   5.1309639086005721E-004
   6.9014071291411627E-002  -2.0795875323283669E-002   4.2434331412527504E-004
   6.6219432474293044E-002  -1.9865813253841992E-002   6.4906295378316936E-004
   6.3424793657174461E-002  -1.8892290884902629E-002   1.1872553098333238E-003
   6.9806026501078255E-002  -2.1105534122282332E-002   7.9097487067943950E-003
   6.7284664542390571E-002  -2.0286668652806816E-002   7.5987969472109951E-003
   6.4763302583702886E-002  -1.9438368982206189E-002   7.5209261880972711E-003
   6.2241940625015230E-002  -1.8560635110480450E-002   7.6761364294530288E-003
   5.9720578666327573E-002  -1.7653467037629378E-002   8.0644276712789065E-003
   6.5103726717700927E-002  -1.9685449680888256E-002   1.4886912277816272E-002
   6.2775249901521696E-002  -1.8890860212384952E-002   1.4653208453404121E-002
   6.0446773085342478E-002  -1.8080862641128362E-002   1.4572193913539089E-002
   5.8118296269163226E-002  -1.7255456967118905E-002   1.4643868658221156E-002
   5.5789819452984030E-002  -1.6414643190356293E-002   1.4868232687450161E-002
   6.0496449575517010E-002  -1.8265365239494125E-002   2.1846812897052030E-002
   5.8280466185923703E-002  -1.7495051771962977E-002   2.1676330909438851E-002
   5.6064482796330445E-002  -1.6723356300050819E-002   2.1578146490450357E-002
   5.3848499406737221E-002  -1.5950278823757581E-002   2.1552259640086911E-002
   5.1632516017143880E-002  -1.5175819343083125E-002   2.1598670358348067E-002
   5.5984195074526399E-002  -1.6845280798099882E-002   2.8789450564500940E-002
   5.3800313395596600E-002  -1.6099243331541113E-002   2.8668164315315103E-002
   5.1616431716666772E-002  -1.5365849958973332E-002   2.8538783918831523E-002
   4.9432550037736958E-002  -1.4645100680396247E-002   2.8401309375050185E-002
   4.7248668358807144E-002  -1.3936995495809956E-002   2.8255740683970965E-002
   6.3424793657174461E-002  -1.8892290884902629E-002   1.1872553098333238E-003
   6.0041580149407414E-002  -1.7971272078787015E-002   1.1582680736204054E-003
   5.6658366641640312E-002  -1.7198720697814890E-002   1.1253578830355271E-003
   5.3275153133873182E-002  -1.6574636741986358E-002   1.0885247380783003E-003
   4.9891939626106163E-002  -1.6099020211301607E-002   1.0477686387493357E-003
   5.9720578666327573E-002  -1.7653467037629378E-002   8.0644276712789065E-003
   5.6387401530749282E-002  -1.6768952701736006E-002   7.7512509890391712E-003
   5.3054224395170935E-002  -1.5959180040880983E-002   7.5420700055494061E-003
   4.9721047259592754E-002  -1.5224149055065653E-002   7.4368847208093891E-003
   4.6387870124014352E-002  -1.4563859744289420E-002   7.4356951348195643E-003
   5.5789819452984030E-002  -1.6414643190356293E-002   1.4868232687450161E-002
   5.2614597342716618E-002  -1.5566633324684553E-002   1.4344592309288307E-002
   4.9439375232449276E-002  -1.4719639383947311E-002   1.4032866282998060E-002
   4.6264153122181927E-002  -1.3873661368145062E-002   1.3933054608579874E-002
   4.3088931011914522E-002  -1.3028699277277234E-002   1.4045157286033505E-002
   5.1632516017143880E-002  -1.5175819343083125E-002   2.1598670358348067E-002
   4.8723167585309521E-002  -1.4364313947633101E-002   2.0938292034367714E-002
   4.5813819153475169E-002  -1.3480098727013522E-002   2.0597746715381487E-002
   4.2904470721640782E-002  -1.2523173681224081E-002   2.0577034401389457E-002
   3.9995122289806340E-002  -1.1493538810265158E-002   2.0876155092391435E-002
   4.7248668358807144E-002  -1.3936995495809956E-002   2.8255740683970965E-002
   4.4713112258527810E-002  -1.3161994570581981E-002   2.7532350164277297E-002
   4.2177556158248503E-002  -1.2240558070079899E-002   2.7236711302699612E-002
   3.9642000057969196E-002  -1.1172685994303419E-002   2.7368824099238187E-002
   3.7106443957689916E-002  -9.9583783432528605E-003   2.7928688553892744E-002
   9.0358352463808939E-002   0.0000000000000000        4.9839145858843484E-002
   9.3957245223330113E-002  -5.4031430913829906E-003   5.3212289314456346E-002
   9.7556137982851288E-002  -1.0668316485841864E-002   5.4966025942976712E-002
  0.10115503074237245       -1.5795520183376623E-002   5.5100355744404604E-002
  0.10475392350189362       -2.0784754183987258E-002   5.3615278718740014E-002
   8.2420653686714418E-002   0.0000000000000000        4.4789159800707259E-002
   8.4629265134852999E-002  -4.5723625674499680E-003   4.8272687244625863E-002
   8.6837876582991594E-002  -9.0337619169450697E-003   5.0595058892871810E-002
   8.9046488031130175E-002  -1.3384198048485306E-002   5.1756274745445051E-002
   9.1255099479268770E-002  -1.7623670962070681E-002   5.1756334802345608E-002
   7.4239746924776223E-002   0.0000000000000000        4.0583457505988685E-002
   7.5516328092952056E-002  -3.7415820435169446E-003   4.4150362459243794E-002
   7.6792909261127848E-002  -7.3992073480482756E-003   4.7014362648246009E-002
   7.8069490429303681E-002  -1.0972875913593987E-002   4.9175458072995365E-002
   7.9346071597479473E-002  -1.4462587740154090E-002   5.0633648733491833E-002
   6.5815632177994410E-002   0.0000000000000000        3.7222038974687753E-002
   6.6618434097627272E-002  -2.9108015195839221E-003   4.0845314958310106E-002
   6.7421236017260092E-002  -5.7646527791514806E-003   4.4223937209099375E-002
   6.8224037936892926E-002  -8.5615537787026678E-003   4.7357905727055595E-002
   6.9026839856525773E-002  -1.1301504518237502E-002   5.0247220512178711E-002
   5.7148309446368950E-002   0.0000000000000000        3.4704904206804471E-002
   5.7935583148878617E-002  -2.0800209956508978E-003   3.8357544741824817E-002
   5.8722856851388297E-002  -4.1300982102546856E-003   4.2223782575431884E-002
   5.9510130553897964E-002  -6.1502316438113540E-003   4.6303617707625692E-002
   6.0297404256407644E-002  -8.1404212963209141E-003   5.0597050138406242E-002
  0.10475392350189362       -2.0784754183987258E-002   5.3615278718740014E-002
  0.10209896983967809       -2.4923835037886446E-002   4.5628866734252926E-002
   9.9444016177462541E-002  -2.7500579295286778E-002   3.9330993387634586E-002
   9.6789062515247035E-002  -2.8514986956188298E-002   3.4721658678885152E-002
   9.4134108853031473E-002  -2.7967058020590935E-002   3.1800862608004493E-002
   9.1255099479268770E-002  -1.7623670962070681E-002   5.1756334802345608E-002
   9.0051015697136055E-002  -2.1197219736803045E-002   4.6513661029033052E-002
   8.8846931915003355E-002  -2.3549883451784225E-002   4.2484188378017394E-002
   8.7642848132870640E-002  -2.4681662107014272E-002   3.9667916849298601E-002
   8.6438764350737926E-002  -2.4592555702493149E-002   3.8064846442876527E-002
   7.9346071597479473E-002  -1.4462587740154090E-002   5.0633648733491833E-002
   7.9117520179857639E-002  -1.7470604435719642E-002   4.7793261634606232E-002
   7.8888968762235778E-002  -1.9599187608281700E-002   4.5690738142445481E-002
   7.8660417344613903E-002  -2.0848337257840265E-002   4.4326078257009613E-002
   7.8431865926992070E-002  -2.1218053384395336E-002   4.3699281978298601E-002
   6.9026839856525773E-002  -1.1301504518237502E-002   5.0247220512178711E-002
   6.9298483287842785E-002  -1.3743989134636238E-002   4.9467668550972350E-002
   6.9570126719159797E-002  -1.5648491764779150E-002   4.8950642680918886E-002
   6.9841770150476837E-002  -1.7015012408666253E-002   4.8696142902018243E-002
   7.0113413581793835E-002  -1.7843551066297529E-002   4.8704169214270565E-002
   6.0297404256407644E-002  -8.1404212963209141E-003   5.0597050138406242E-002
   6.0593905021091549E-002  -1.0017373833552836E-002   5.1536881778131455E-002
   6.0890405785775481E-002  -1.1697795921276616E-002   5.2263901993437584E-002
   6.1186906550459400E-002  -1.3181687559492254E-002   5.2778110784324622E-002
   6.1483407315143318E-002  -1.4469048748199737E-002   5.3079508150792556E-002
   9.4134108853031473E-002  -2.7967058020590935E-002   3.1800862608004493E-002
   9.1744656652958709E-002  -2.6774284487023112E-002   3.1231407673422196E-002
   8.9355204452885945E-002  -2.5854158354013126E-002   3.0738970647066974E-002
   8.6965752252813180E-002  -2.5206679621560885E-002   3.0323551528938605E-002
   8.4576300052740416E-002  -2.4831848289666530E-002   2.9985150319037285E-002
   8.6438764350737926E-002  -2.4592555702493149E-002   3.8064846442876527E-002
   8.4172648285001900E-002  -2.3947613785219306E-002   3.7039225095549973E-002
   8.1906532219265915E-002  -2.3411885902191173E-002   3.6183258108670048E-002
   7.9640416153529917E-002  -2.2985372053408754E-002   3.5496945482236683E-002
   7.7374300087793918E-002  -2.2668072238872072E-002   3.4980287216249795E-002
   7.8431865926992070E-002  -2.1218053384395336E-002   4.3699281978298601E-002
   7.6381722447812397E-002  -2.1120943083415465E-002   4.2380927584539874E-002
   7.4331578968632767E-002  -2.0969613450369247E-002   4.1324864003447342E-002
   7.2281435489453108E-002  -2.0764064485256591E-002   4.0531091235020897E-002
   7.0231292010273477E-002  -2.0504296188077628E-002   3.9999609279260710E-002
   7.0113413581793835E-002  -1.7843551066297529E-002   4.8704169214270565E-002
   6.8371879141390174E-002  -1.8294272381611649E-002   4.7256515140391739E-002
   6.6630344700986513E-002  -1.8527340998547321E-002   4.6163788331398649E-002
   6.4888810260582852E-002  -1.8542756917104466E-002   4.5425988787291531E-002
   6.3147275820179177E-002  -1.8340520137283149E-002   4.5043116508069955E-002
   6.1483407315143318E-002  -1.4469048748199737E-002   5.3079508150792556E-002
   6.0143118365735229E-002  -1.5467601679807822E-002   5.1665987763105742E-002
   5.8802829416327140E-002  -1.6085068546725378E-002   5.0700031092524293E-002
   5.7462540466919051E-002  -1.6321449348952282E-002   5.0181638139048315E-002
   5.6122251517510977E-002  -1.6176744086488712E-002   5.0110808902677648E-002
   8.4576300052740416E-002  -2.4831848289666530E-002   2.9985150319037285E-002
   8.2196891895946839E-002  -2.4515467739437968E-002   2.9218650140715452E-002
   7.9817483739153261E-002  -2.4043341351982890E-002   2.8745721791469128E-002
   7.7438075582359683E-002  -2.3415469127301622E-002   2.8566365271298327E-002
   7.5058667425566106E-002  -2.2631851065393949E-002   2.8680580580203008E-002
   7.7374300087793918E-002  -2.2668072238872072E-002   3.4980287216249795E-002
   7.5272364585261820E-002  -2.2348657815586689E-002   3.4391274295024796E-002
   7.3170429082729707E-002  -2.1915800140558182E-002   3.4063634853247315E-002
   7.1068493580197581E-002  -2.1369499213786620E-002   3.3997368890917180E-002
   6.8966558077665496E-002  -2.0709755035271893E-002   3.4192476408034661E-002
   7.0231292010273477E-002  -2.0504296188077628E-002   3.9999609279260710E-002
   6.8374630812374826E-002  -2.0181847891735522E-002   3.9545781029649264E-002
   6.6517969614476175E-002  -1.9788258929133499E-002   3.9321127909857298E-002
   6.4661308416577523E-002  -1.9323529300271668E-002   3.9325649919884742E-002
   6.2804647218678900E-002  -1.8787659005149920E-002   3.9559347059731700E-002
   6.3147275820179177E-002  -1.8340520137283149E-002   4.5043116508069955E-002
   6.1503690577285948E-002  -1.8015037967884256E-002   4.4682170344588858E-002
   5.9860105334392719E-002  -1.7660717717708815E-002   4.4518200961299270E-002
   5.8216520091499510E-002  -1.7277559386756691E-002   4.4551208358200922E-002
   5.6572934848606253E-002  -1.6865562975027892E-002   4.4781192535294126E-002
   5.6122251517510977E-002  -1.6176744086488712E-002   5.0110808902677648E-002
   5.4659543879995109E-002  -1.5848228044033047E-002   4.9800442239843562E-002
   5.3196836242479291E-002  -1.5533176506284125E-002   4.9654854007573031E-002
   5.1734128604963459E-002  -1.5231589473241703E-002   4.9674044205865756E-002
   5.0271420967447605E-002  -1.4943466944905920E-002   4.9858012834721965E-002
   7.5058667425566106E-002  -2.2631851065393949E-002   2.8680580580203008E-002
   7.2729565597713430E-002  -2.1798081792464896E-002   2.8503653017132952E-002
   7.0400463769860755E-002  -2.1019755934719650E-002   2.8448472885839404E-002
   6.8071361942008093E-002  -2.0296873492157943E-002   2.8515040186322158E-002
   6.5742260114155432E-002  -1.9629434464780049E-002   2.8703354918581669E-002
   6.8966558077665496E-002  -2.0709755035271893E-002   3.4192476408034661E-002
   6.6775813908732676E-002  -2.0005793335380412E-002   3.3922131748935366E-002
   6.4585069739799814E-002  -1.9326839844478430E-002   3.3806754975899356E-002
   6.2394325570866958E-002  -1.8672894562565979E-002   3.3846346088926477E-002
   6.0203581401934131E-002  -1.8043957489642992E-002   3.4040905088016882E-002
   6.2804647218678900E-002  -1.8787659005149920E-002   3.9559347059731700E-002
   6.0785481162952661E-002  -1.8213504878295927E-002   3.9226020510797377E-002
   5.8766315107226394E-002  -1.7633923754237245E-002   3.9080882302212953E-002
   5.6747149051500113E-002  -1.7048915632973907E-002   3.9123932433978617E-002
   5.4727982995773881E-002  -1.6458480514505935E-002   3.9355170906094125E-002
   5.6572934848606253E-002  -1.6865562975027892E-002   4.4781192535294126E-002
   5.4758567360373309E-002  -1.6421216421211443E-002   4.4415319302718984E-002
   5.2944199872140413E-002  -1.5941007663996070E-002   4.4270854864780475E-002
   5.1129832383907510E-002  -1.5424936703381832E-002   4.4347799221478752E-002
   4.9315464895674573E-002  -1.4873003539368823E-002   4.4646152372813705E-002
   5.0271420967447605E-002  -1.4943466944905920E-002   4.9858012834721965E-002
   4.8695072500994807E-002  -1.4628927964126959E-002   4.9490028124700103E-002
   4.7118724034541967E-002  -1.4248091573754930E-002   4.9376672663601698E-002
   4.5542375568089162E-002  -1.3800957773789849E-002   4.9517946451426743E-002
   4.3966027101636329E-002  -1.3287526564231822E-002   4.9913849488175288E-002
   6.5742260114155432E-002  -1.9629434464780049E-002   2.8703354918581669E-002
   6.3302743854248195E-002  -1.8975636870772861E-002   2.8310325448239720E-002
   6.0863227594340916E-002  -1.8293678728323937E-002   2.8193664899112431E-002
   5.8423711334433699E-002  -1.7583560037432763E-002   2.8353373271199273E-002
   5.5984195074526399E-002  -1.6845280798099882E-002   2.8789450564500940E-002
   6.0203581401934131E-002  -1.8043957489642992E-002   3.4040905088016882E-002
   5.8015759526099775E-002  -1.7418668568107601E-002   3.3709217613922635E-002
   5.5827937650265419E-002  -1.6775667740358227E-002   3.3604549986759560E-002
   5.3640115774431084E-002  -1.6114955006394416E-002   3.3726902206528075E-002
   5.1452293898596707E-002  -1.5436530366216394E-002   3.4076274273227625E-002
   5.4727982995773881E-002  -1.6458480514505935E-002   3.9355170906094125E-002
   5.2742506429729288E-002  -1.5861700265442313E-002   3.9074376786019688E-002
   5.0757029863684702E-002  -1.5257656752392351E-002   3.8971253438593381E-002
   4.8771553297640095E-002  -1.4646349975355848E-002   3.9045800863815400E-002
   4.6786076731595530E-002  -1.4027779934333018E-002   3.9298019061685424E-002
   4.9315464895674573E-002  -1.4873003539368823E-002   4.4646152372813705E-002
   4.7482984565136652E-002  -1.4304731962777095E-002   4.4405802964531213E-002
   4.5650504234598745E-002  -1.3739645764426503E-002   4.4293775254613671E-002
   4.3818023904060796E-002  -1.3177744944317390E-002   4.4310069243061384E-002
   4.1985543573522854E-002  -1.2619029502449697E-002   4.4454684929874172E-002
   4.3966027101636329E-002  -1.3287526564231822E-002   4.9913849488175288E-002
   4.2237193932321920E-002  -1.2747763660111738E-002   4.9703496149456988E-002
   4.0508360763007512E-002  -1.2221634776460627E-002   4.9572115434820652E-002
   3.8779527593693131E-002  -1.1709139913278842E-002   4.9519707344266348E-002
   3.7050694424378694E-002  -1.1210279070566209E-002   4.9546271877793757E-002
   5.5984195074526399E-002  -1.6845280798099882E-002   2.8789450564500940E-002
   5.3800313395596600E-002  -1.6099243331541113E-002   2.8668164315315103E-002
   5.1616431716666772E-002  -1.5365849958973332E-002   2.8538783918831523E-002
   4.9432550037736958E-002  -1.4645100680396247E-002   2.8401309375050185E-002
   4.7248668358807144E-002  -1.3936995495809956E-002   2.8255740683970965E-002
   5.1452293898596707E-002  -1.5436530366216394E-002   3.4076274273227625E-002
   4.9310062184511158E-002  -1.4750910047473698E-002   3.3862433823574734E-002
   4.7167830470425623E-002  -1.4068610277815766E-002   3.3739987450907977E-002
   4.5025598756340136E-002  -1.3389631057242352E-002   3.3708935155227771E-002
   4.2883367042254539E-002  -1.2713972385753836E-002   3.3769276936533699E-002
   4.6786076731595530E-002  -1.4027779934333018E-002   3.9298019061685424E-002
   4.4784983206638443E-002  -1.3402576763406227E-002   3.9000947956471327E-002
   4.2783889681681238E-002  -1.2771370596658144E-002   3.8894759152527714E-002
   4.0782796156724102E-002  -1.2134161434088624E-002   3.8979452649854460E-002
   3.8781702631766932E-002  -1.1490949275697937E-002   3.9255028448451690E-002
   4.1985543573522854E-002  -1.2619029502449697E-002   4.4454684929874172E-002
   4.0225076461978253E-002  -1.2054243479338811E-002   4.4083706714004869E-002
   3.8464609350433623E-002  -1.1474130915500549E-002   4.4003099023690255E-002
   3.6704142238888980E-002  -1.0878691810934867E-002   4.4212861858930377E-002
   3.4943675127344337E-002  -1.0267926165642038E-002   4.4712995219724841E-002
   3.7050694424378694E-002  -1.1210279070566209E-002   4.9546271877793757E-002
   3.5630341950530720E-002  -1.0705910195271284E-002   4.9110710096175680E-002
   3.4209989476682717E-002  -1.0176891234342927E-002   4.9065007064396315E-002
   3.2789637002834729E-002  -9.6232221877811039E-003   4.9409162782455246E-002
   3.1369284528986741E-002  -9.0449030555859733E-003   5.0143177250353388E-002
   4.7248668358807144E-002  -1.3936995495809956E-002   2.8255740683970965E-002
   4.4713112258527810E-002  -1.3161994570581981E-002   2.7532350164277297E-002
   4.2177556158248503E-002  -1.2240558070079899E-002   2.7236711302699612E-002
   3.9642000057969196E-002  -1.1172685994303419E-002   2.7368824099238187E-002
   3.7106443957689916E-002  -9.9583783432528605E-003   2.7928688553892744E-002
   4.2883367042254539E-002  -1.2713972385753836E-002   3.3769276936533699E-002
   4.0706608265292904E-002  -1.2005963106744483E-002   3.3347797657806766E-002
   3.8529849488331297E-002  -1.1229932063608630E-002   3.3216161367599029E-002
   3.6353090711369690E-002  -1.0385879256346420E-002   3.3374368065910723E-002
   3.4176331934408055E-002  -9.4738046849576207E-003   3.3822417752741307E-002
   3.8781702631766932E-002  -1.1490949275697937E-002   3.9255028448451690E-002
   3.6825832508526113E-002  -1.0849931642907096E-002   3.9057046599543857E-002
   3.4869962385285197E-002  -1.0219306057137584E-002   3.9010999069558128E-002
   3.2914092262044378E-002  -9.5990725183893663E-003   3.9116885858494946E-002
   3.0958222138803421E-002  -8.9892310266623809E-003   3.9374706966353867E-002
   3.4943675127344337E-002  -1.0267926165642038E-002   4.4712995219724841E-002
   3.3070784988227339E-002  -9.6939001790695978E-003   4.4660096989488363E-002
   3.1197894849110300E-002  -9.2086800506664263E-003   4.4621224408577097E-002
   2.9325004709993312E-002  -8.8122657804322845E-003   4.4596377476991883E-002
   2.7452114570876214E-002  -8.5046573683671967E-003   4.4585556194731410E-002
   3.1369284528986741E-002  -9.0449030555859733E-003   5.0143177250353388E-002
   2.9441465704396624E-002  -8.5378687152322663E-003   5.0156948827640602E-002
   2.7513646879806536E-002  -8.1980540441954214E-003   5.0046837384656234E-002
   2.5585828055216406E-002  -8.0254590424753795E-003   4.9812842921400216E-002
   2.3658009230626331E-002  -8.0200837100719014E-003   4.9454965437872866E-002
   5.7148309446368950E-002   0.0000000000000000        3.4704904206804471E-002
   5.7935583148878617E-002  -2.0800209956508978E-003   3.8357544741824817E-002
   5.8722856851388297E-002  -4.1300982102546856E-003   4.2223782575431884E-002
   5.9510130553897964E-002  -6.1502316438113540E-003   4.6303617707625692E-002
   6.0297404256407644E-002  -8.1404212963209141E-003   5.0597050138406242E-002
   4.8649733586602184E-002   0.0000000000000000        3.2807579060066983E-002
   4.9585504267228145E-002  -1.7067896314740582E-003   3.6983660669527955E-002
   5.0521274947854099E-002  -3.4278437112951980E-003   4.1243138936634761E-002
   5.1457045628480046E-002  -5.1631622394634202E-003   4.5586013861387394E-002
   5.2392816309106013E-002  -6.9127452159787103E-003   5.0012285443785873E-002
   4.0731859455396500E-002   0.0000000000000000        3.1305589392203445E-002
   4.1685926473197826E-002  -1.3335582672972181E-003   3.5960903846710843E-002
   4.2639993490999173E-002  -2.7255892123357111E-003   4.0569414317923186E-002
   4.3594060508800520E-002  -4.1760928351154813E-003   4.5131120805840447E-002
   4.4548127526601852E-002  -5.6850691356365238E-003   4.9646023310462660E-002
   3.3394687052751865E-002   0.0000000000000000        3.0198935203213827E-002
   3.4236849766787682E-002  -9.6032690312037867E-004   3.5289274273373472E-002
   3.5079012480823506E-002  -2.0233347133762256E-003   4.0202608719297150E-002
   3.5921175194859323E-002  -3.1890234307675458E-003   4.4938938540984873E-002
   3.6763337908895147E-002  -4.4573930552943338E-003   4.9498263738436597E-002
   2.6638216378668304E-002   0.0000000000000000        2.9487616493098154E-002
   2.7238274147997701E-002  -5.8709553894353839E-004   3.4968771949515851E-002
   2.7838331917327101E-002  -1.3210802144167384E-003   4.0142722140756683E-002
   2.8438389686656497E-002  -2.2019540264196068E-003   4.5009467066820637E-002
   2.9038447455985904E-002  -3.2297169749521352E-003   4.9569006727707719E-002
   6.0297404256407644E-002  -8.1404212963209141E-003   5.0597050138406242E-002
   6.0593905021091549E-002  -1.0017373833552836E-002   5.1536881778131455E-002
   6.0890405785775481E-002  -1.1697795921276616E-002   5.2263901993437584E-002
   6.1186906550459400E-002  -1.3181687559492254E-002   5.2778110784324622E-002
   6.1483407315143318E-002  -1.4469048748199737E-002   5.3079508150792556E-002
   5.2392816309106013E-002  -6.9127452159787103E-003   5.0012285443785873E-002
   5.2515779058246337E-002  -8.5744268147918499E-003   5.1244588483813795E-002
   5.2638741807386653E-002  -1.0046041209853560E-002   5.2342626917173611E-002
   5.2761704556526949E-002  -1.1327588401163853E-002   5.3306400743865279E-002
   5.2884667305667266E-002  -1.2419068388722726E-002   5.4135909963888826E-002
   4.4548127526601852E-002  -5.6850691356365238E-003   4.9646023310462660E-002
   4.4576099077949530E-002  -7.1314797960308563E-003   5.1164334505036581E-002
   4.4604070629297193E-002  -8.3942864984305025E-003   5.2626927910693351E-002
   4.4632042180644871E-002  -9.4734892428354617E-003   5.4033803527432922E-002
   4.4660013731992534E-002  -1.0369088029245729E-002   5.5384961355255363E-002
   3.6763337908895147E-002  -4.4573930552943338E-003   4.9498263738436597E-002
   3.6774865080201134E-002  -5.6885327772698713E-003   5.1296119841799791E-002
   3.6786392251507122E-002  -6.7425317870074501E-003   5.3116804973996776E-002
   3.6797919422813109E-002  -7.6193900845070578E-003   5.4960319135027545E-002
   3.6809446594119111E-002  -8.3191076697687188E-003   5.6826662324892148E-002
   2.9038447455985904E-002  -3.2297169749521352E-003   4.9569006727707719E-002
   2.9112077065001171E-002  -4.2455857585088786E-003   5.1639944494103432E-002
   2.9185706674016439E-002  -5.0907770755843924E-003   5.3812258107083906E-002
   2.9259336283031706E-002  -5.7652909261786721E-003   5.6085947566649148E-002
   2.9332965892046980E-002  -6.2691273102917291E-003   5.8461012872799152E-002
   6.1483407315143318E-002  -1.4469048748199737E-002   5.3079508150792556E-002
   6.0143118365735229E-002  -1.5467601679807822E-002   5.1665987763105742E-002
   5.8802829416327140E-002  -1.6085068546725378E-002   5.0700031092524293E-002
   5.7462540466919051E-002  -1.6321449348952282E-002   5.0181638139048315E-002
   5.6122251517510977E-002  -1.6176744086488712E-002   5.0110808902677648E-002
   5.2884667305667266E-002  -1.2419068388722726E-002   5.4135909963888826E-002
   5.1940416238798651E-002  -1.3262644479651312E-002   5.3388363504537267E-002
   5.0996165171930008E-002  -1.3800479981070757E-002   5.2985329093159242E-002
   5.0051914105061379E-002  -1.4032574892981042E-002   5.2926806729754756E-002
   4.9107663038192736E-002  -1.3958929215382193E-002   5.3212796414323749E-002
   4.4660013731992534E-002  -1.0369088029245729E-002   5.5384961355255363E-002
   4.4008748878531526E-002  -1.1057687279494773E-002   5.5228043349057634E-002
   4.3357484025070496E-002  -1.1515891415416124E-002   5.5312585721701571E-002
   4.2706219171609466E-002  -1.1743700437009749E-002   5.5638588473187228E-002
   4.2054954318148471E-002  -1.1741114344275654E-002   5.6206051603514537E-002
   3.6809446594119111E-002  -8.3191076697687188E-003   5.6826662324892148E-002
   3.6348116284933854E-002  -8.8527300793382752E-003   5.7185027296666815E-002
   3.5886785975748590E-002  -9.2313028497615114E-003   5.7681800978151253E-002
   3.5425455666563341E-002  -9.4548259810384536E-003   5.8316983369345606E-002
   3.4964125357378084E-002  -9.5232994731691521E-003   5.9090574470249770E-002
   2.9332965892046980E-002  -6.2691273102917291E-003   5.8461012872799152E-002
   2.8958518458005650E-002  -6.6477728791817341E-003   5.9259315347364755E-002
   2.8584071023964316E-002  -6.9467142841068748E-003   6.0092974862508350E-002
   2.8209623589922982E-002  -7.1659515250671896E-003   6.0961991418229937E-002
   2.7835176155881644E-002  -7.3054846020626091E-003   6.1866365014529481E-002
   5.6122251517510977E-002  -1.6176744086488712E-002   5.0110808902677648E-002
   5.4659543879995109E-002  -1.5848228044033047E-002   4.9800442239843562E-002
   5.3196836242479291E-002  -1.5533176506284125E-002   4.9654854007573031E-002
   5.1734128604963459E-002  -1.5231589473241703E-002   4.9674044205865756E-002
   5.0271420967447605E-002  -1.4943466944905920E-002   4.9858012834721965E-002
   4.9107663038192736E-002  -1.3958929215382193E-002   5.3212796414323749E-002
   4.7811033791545547E-002  -1.3728387847794905E-002   5.2862902613949540E-002
   4.6514404544898372E-002  -1.3489795689739820E-002   5.2680387164749251E-002
   4.5217775298251155E-002  -1.3243152741216908E-002   5.2665250066722742E-002
   4.3921146051603979E-002  -1.2988459002226421E-002   5.2817491319870236E-002
   4.2054954318148471E-002  -1.1741114344275654E-002   5.6206051603514537E-002
   4.0927003382980429E-002  -1.1608547651556625E-002   5.5838145960774396E-002
   3.9799052447812386E-002  -1.1446414873195513E-002   5.5640218589818692E-002
   3.8671101512644336E-002  -1.1254716009192237E-002   5.5612269490647410E-002
   3.7543150577476321E-002  -1.1033451059546909E-002   5.5754298663260489E-002
   3.4964125357378084E-002  -9.5232994731691521E-003   5.9090574470249770E-002
   3.4007452654299719E-002  -9.4887074553184278E-003   5.8726172280318061E-002
   3.3050779951221354E-002  -9.4030340566512334E-003   5.8534348282781368E-002
   3.2094107248142982E-002  -9.2662792771675325E-003   5.8515102477639629E-002
   3.1137434545064617E-002  -9.0784431168674032E-003   5.8668434864892725E-002
   2.7835176155881644E-002  -7.3054846020626091E-003   6.1866365014529481E-002
   2.7052381605503460E-002  -7.3688672590802098E-003   6.1526981572580700E-002
   2.6269587055125269E-002  -7.3596532401069593E-003   6.1362776243637361E-002
   2.5486792504747072E-002  -7.2778425451427995E-003   6.1373749027699445E-002
   2.4703997954368881E-002  -7.1234351741878976E-003   6.1559899924766903E-002
   5.0271420967447605E-002  -1.4943466944905920E-002   4.9858012834721965E-002
   4.8695072500994807E-002  -1.4628927964126959E-002   4.9490028124700103E-002
   4.7118724034541967E-002  -1.4248091573754930E-002   4.9376672663601698E-002
   4.5542375568089162E-002  -1.3800957773789849E-002   4.9517946451426743E-002
   4.3966027101636329E-002  -1.3287526564231822E-002   4.9913849488175288E-002
   4.3921146051603979E-002  -1.2988459002226421E-002   5.2817491319870236E-002
   4.2589674135012225E-002  -1.2702044016809799E-002   5.2472877908490589E-002
   4.1258202218420442E-002  -1.2360237329008983E-002   5.2363388347909573E-002
   3.9926730301828688E-002  -1.1963038938823833E-002   5.2489022638127325E-002
   3.8595258385236933E-002  -1.1510448846254434E-002   5.2849780779143624E-002
   3.7543150577476321E-002  -1.1033451059546909E-002   5.5754298663260489E-002
   3.6437049812620789E-002  -1.0775160069492723E-002   5.5422150843314255E-002
   3.5330949047765278E-002  -1.0472383084263005E-002   5.5305621476041955E-002
   3.4224848282909746E-002  -1.0125120103857788E-002   5.5404710561443422E-002
   3.3118747518054228E-002  -9.7333711282771018E-003   5.5719418099518719E-002
   3.1137434545064617E-002  -9.0784431168674032E-003   5.8668434864892725E-002
   3.0237199533820522E-002  -8.8482761221756190E-003   5.8337846929171211E-002
   2.9336964522576416E-002  -8.5845288395170975E-003   5.8203372047998796E-002
   2.8436729511332335E-002  -8.2872012688917866E-003   5.8265010221375341E-002
   2.7536494500088243E-002  -7.9562934102997418E-003   5.8522761449300860E-002
   2.4703997954368881E-002  -7.1234351741878976E-003   6.1559899924766903E-002
   2.3990123298611402E-002  -6.9213921748584872E-003   6.1219966166061374E-002
   2.3276248642853915E-002  -6.6966745947710515E-003   6.1056640063780032E-002
   2.2562373987096433E-002  -6.4492824339257224E-003   6.1069921617922851E-002
   2.1848499331338950E-002  -6.1792156923224373E-003   6.1259810828489858E-002
   4.3966027101636329E-002  -1.3287526564231822E-002   4.9913849488175288E-002
   4.2237193932321920E-002  -1.2747763660111738E-002   4.9703496149456988E-002
   4.0508360763007512E-002  -1.2221634776460627E-002   4.9572115434820652E-002
   3.8779527593693131E-002  -1.1709139913278842E-002   4.9519707344266348E-002
   3.7050694424378694E-002  -1.1210279070566209E-002   4.9546271877793757E-002
   3.8595258385236933E-002  -1.1510448846254434E-002   5.2849780779143624E-002
   3.6974806307792651E-002  -1.1036157938125984E-002   5.2550281711562452E-002
   3.5354354230348335E-002  -1.0573857101263746E-002   5.2388572203639752E-002
   3.3733902152904061E-002  -1.0123546335667548E-002   5.2364652255375239E-002
   3.2113450075459751E-002  -9.6852256413375581E-003   5.2478521866768935E-002
   3.3118747518054228E-002  -9.7333711282771018E-003   5.5719418099518719E-002
   3.1665493468056367E-002  -9.3245522161402999E-003   5.5332417252277798E-002
   3.0212239418058541E-002  -8.9260794260665882E-003   5.5142022900271523E-002
   2.8758985368060701E-002  -8.5379527580563101E-003   5.5148235043499756E-002
   2.7305731318062854E-002  -8.1601722121089904E-003   5.5351053681962692E-002
   2.7536494500088243E-002  -7.9562934102997418E-003   5.8522761449300860E-002
   2.6309255413113148E-002  -7.6129464941546363E-003   5.8049902771603060E-002
   2.5082016326138046E-002  -7.2783017508695133E-003   5.7832467524716186E-002
   2.3854777239162957E-002  -6.9523591804448222E-003   5.7870455708640155E-002
   2.2627538152187845E-002  -6.6351187828805197E-003   5.8163867323375133E-002
   2.1848499331338950E-002  -6.1792156923224373E-003   6.1259810828489858E-002
   2.0906092142962934E-002  -5.9013407721688615E-003   6.0702738269538092E-002
   1.9963684954586905E-002  -5.6305240756724939E-003   6.0459906076973685E-002
   1.9021277766210890E-002  -5.3667656028335425E-003   6.0531314250796331E-002
   1.8078870577834860E-002  -5.1100653536517715E-003   6.0916962791006335E-002
   3.7050694424378694E-002  -1.1210279070566209E-002   4.9546271877793757E-002
   3.5630341950530720E-002  -1.0705910195271284E-002   4.9110710096175680E-002
   3.4209989476682717E-002  -1.0176891234342927E-002   4.9065007064396315E-002
   3.2789637002834729E-002  -9.6232221877811039E-003   4.9409162782455246E-002
   3.1369284528986741E-002  -9.0449030555859733E-003   5.0143177250353388E-002
   3.2113450075459751E-002  -9.6852256413375581E-003   5.2478521866768935E-002
   3.1026819857015955E-002  -9.2438933727451711E-003   5.2137680834950628E-002
   2.9940189638572139E-002  -8.7845478843617542E-003   5.2074425564101634E-002
   2.8853559420128346E-002  -8.3071891761871061E-003   5.2288756054222452E-002
   2.7766929201684512E-002  -7.8118172482216641E-003   5.2780672305312859E-002
   2.7305731318062854E-002  -8.1601722121089904E-003   5.5351053681962692E-002
   2.6440550366154170E-002  -7.7818765502190856E-003   5.5098296534101504E-002
   2.5575369414245479E-002  -7.3922045343804837E-003   5.5010852158340992E-002
   2.4710188462336791E-002  -6.9911561645932783E-003   5.5088720554681191E-002
   2.3845007510428104E-002  -6.5787314408574382E-003   5.5331901723121898E-002
   2.2627538152187845E-002  -6.6351187828805197E-003   5.8163867323375133E-002
   2.1871533477945293E-002  -6.3198597276931529E-003   5.7992557193628912E-002
   2.1115528803702710E-002  -5.9998611843993729E-003   5.7874286847114279E-002
   2.0359524129460158E-002  -5.6751231529995321E-003   5.7809056283831151E-002
   1.9603519455217575E-002  -5.3456456334932262E-003   5.7796865503779826E-002
   1.8078870577834860E-002  -5.1100653536517715E-003   6.0916962791006335E-002
   1.7319769192389381E-002  -4.8578429051668592E-003   6.0820462813532594E-002
   1.6560667806943874E-002  -4.6075178344180540E-003   6.0664729630421549E-002
   1.5801566421498388E-002  -4.3590901414054008E-003   6.0449763241672769E-002
   1.5042465036052902E-002  -4.1125598261289587E-003   6.0175563647286878E-002
   3.1369284528986741E-002  -9.0449030555859733E-003   5.0143177250353388E-002
   2.9441465704396624E-002  -8.5378687152322663E-003   5.0156948827640602E-002
   2.7513646879806536E-002  -8.1980540441954214E-003   5.0046837384656234E-002
   2.5585828055216406E-002  -8.0254590424753795E-003   4.9812842921400216E-002
   2.3658009230626331E-002  -8.0200837100719014E-003   4.9454965437872866E-002
   2.7766929201684512E-002  -7.8118172482216641E-003   5.2780672305312859E-002
   2.5777955476566666E-002  -7.2838702577777970E-003   5.2477564256314196E-002
   2.3788981751448841E-002  -6.7087863621684007E-003   5.2176029426531295E-002
   2.1800008026331013E-002  -6.0865655613936073E-003   5.1876067815964669E-002
   1.9811034301213171E-002  -5.4172078554528547E-003   5.1577679424613998E-002
   2.3845007510428104E-002  -6.5787314408574382E-003   5.5331901723121898E-002
   2.1920335124270114E-002  -6.0298718003232443E-003   5.4926270622319306E-002
   1.9995662738112117E-002  -5.2195186801414425E-003   5.4647668980220450E-002
   1.8070990351954055E-002  -4.1476720803116703E-003   5.4496096796824975E-002
   1.6146317965796131E-002  -2.8143320008340300E-003   5.4471554072133666E-002
   1.9603519455217575E-002  -5.3456456334932262E-003   5.7796865503779826E-002
   1.7868604647506968E-002  -4.7758733428688444E-003   5.7503067925655953E-002
   1.6133689839796392E-002  -3.7302509981142311E-003   5.7461756045722852E-002
   1.4398775032085743E-002  -2.2087785992297047E-003   5.7672929863981814E-002
   1.2663860224375156E-002  -2.1145614621503883E-004   5.8136589380430967E-002
   1.5042465036052902E-002  -4.1125598261289587E-003   6.0175563647286878E-002
   1.3622764046277255E-002  -3.5218748854141668E-003   6.0207956166323850E-002
   1.2203063056501616E-002  -2.2409833160875053E-003   6.0618290623039500E-002
   1.0783362066725959E-002  -2.6988511814799929E-004   6.1406567017434008E-002
   9.3636610769503026E-003   2.3914197084038413E-003   6.2572785349507276E-002
   2.6638216378668304E-002   0.0000000000000000        2.9487616493098154E-002
   2.7238274147997701E-002  -5.8709553894353839E-004   3.4968771949515851E-002
   2.7838331917327101E-002  -1.3210802144167384E-003   4.0142722140756683E-002
   2.8438389686656497E-002  -2.2019540264196068E-003   4.5009467066820637E-002
   2.9038447455985904E-002  -3.2297169749521352E-003   4.9569006727707719E-002
   2.0124368295713166E-002   0.0000000000000000        2.9037390604088564E-002
   2.0456846886500665E-002  -4.4196804320664577E-004   3.4334103796706025E-002
   2.0789325477288168E-002  -9.9427055814564017E-004   3.9402863897416554E-002
   2.1121804068075671E-002  -1.6569075448169815E-003   4.4243670906220160E-002
   2.1454282658863167E-002  -2.4298790032206627E-003   4.8856524823116851E-002
   1.3515063666453827E-002   0.0000000000000000        2.8714014878417207E-002
   1.3659215251969373E-002  -2.9684054746975490E-004   3.3862840472031745E-002
   1.3803366837484923E-002  -6.6746090187453939E-004   3.8862965147009293E-002
   1.3947518423000469E-002  -1.1118610632143517E-003   4.3714388903349874E-002
   1.4091670008516015E-002  -1.6300410314891963E-003   4.8417111741053474E-002
   6.8103024908902753E-003   0.0000000000000000        2.8517489316084083E-002
   6.8453792444038170E-003  -1.5171305173286315E-004   3.3554981975493010E-002
   6.8804559979173596E-003  -3.4065124560343817E-004   3.8523025889534906E-002
   6.9155327514309013E-003  -5.6681458161172765E-004   4.3421621058209785E-002
   6.9506095049444439E-003  -8.3020305975772335E-004   4.8250767481517597E-002
   1.0084769022518023E-005   0.0000000000000000        2.8447813917089192E-002
   1.5338863804001575E-005  -6.5855559959722768E-006   3.3410528307089835E-002
   2.0592958585483826E-005  -1.3841589332338686E-005   3.8383046124993395E-002
   2.5847053366965861E-005  -2.1768100009096625E-005   4.3365367370799858E-002
   3.1101148148449630E-005  -3.0365088026254768E-005   4.8357492044509238E-002
   2.9038447455985904E-002  -3.2297169749521352E-003   4.9569006727707719E-002
   2.9112077065001171E-002  -4.2455857585088786E-003   5.1639944494103432E-002
   2.9185706674016439E-002  -5.0907770755843924E-003   5.3812258107083906E-002
   2.9259336283031706E-002  -5.7652909261786721E-003   5.6085947566649148E-002
   2.9332965892046980E-002  -6.2691273102917291E-003   5.8461012872799152E-002
   2.1454282658863167E-002  -2.4298790032206627E-003   4.8856524823116851E-002
   2.1600069518235634E-002  -3.1942594464602911E-003   5.1268893124331430E-002
   2.1745856377608105E-002  -3.8311233876394384E-003   5.3724200079675669E-002
   2.1891643236980573E-002  -4.3404708267581037E-003   5.6222445689149511E-002
   2.2037430096353040E-002  -4.7223017638162584E-003   5.8763629952753013E-002
   1.4091670008516015E-002  -1.6300410314891963E-003   4.8417111741053474E-002
   1.4251176925790556E-002  -2.1429331344116906E-003   5.1127749612666182E-002
   1.4410683843065097E-002  -2.5714696996944559E-003   5.3822888945953412E-002
   1.4570190760339635E-002  -2.9156507273374968E-003   5.6502529740915124E-002
   1.4729697677614175E-002  -3.1754762173408120E-003   5.9166671997551372E-002
   6.9506095049444439E-003  -8.3020305975772335E-004   4.8250767481517597E-002
   7.0653992876659275E-003  -1.0916068223630966E-003   5.1216513959107687E-002
   7.1801890703874112E-003  -1.3118160117494772E-003   5.4108324705917137E-002
   7.2949788531088949E-003  -1.4908306279169021E-003   5.6926199721945965E-002
   7.4097686358303768E-003  -1.6286506708653396E-003   5.9670139007194214E-002
   3.1101148148449630E-005  -3.0365088026254768E-005   4.8357492044509238E-002
   4.2736603861751217E-005  -4.0280510314503505E-005   5.1535186163655933E-002
   5.4372059575050636E-005  -5.2162323804515230E-005   5.4580507359566877E-002
   6.6007515288348971E-005  -6.6010528496316886E-005   5.7493455632242077E-002
   7.7642971001651642E-005  -8.1825124389901804E-005   6.0274030981681541E-002
   2.9332965892046980E-002  -6.2691273102917291E-003   5.8461012872799152E-002
   2.8958518458005650E-002  -6.6477728791817341E-003   5.9259315347364755E-002
   2.8584071023964316E-002  -6.9467142841068748E-003   6.0092974862508350E-002
   2.8209623589922982E-002  -7.1659515250671896E-003   6.0961991418229937E-002
   2.7835176155881644E-002  -7.3054846020626091E-003   6.1866365014529481E-002
   2.2037430096353040E-002  -4.7223017638162584E-003   5.8763629952753013E-002
   2.1715518751702807E-002  -5.0126119727585093E-003   5.9634529412154899E-002
   2.1393607407052574E-002  -5.2473972275293330E-003   6.0575144009761016E-002
   2.1071696062402348E-002  -5.4266575281288762E-003   6.1585473745571273E-002
   2.0749784717752108E-002  -5.5503928745569558E-003   6.2665518619585803E-002
   1.4729697677614175E-002  -3.1754762173408120E-003   5.9166671997551372E-002
   1.4494680519981252E-002  -3.3774510663352932E-003   6.0085989231996095E-002
   1.4259663362348327E-002  -3.5480801709518754E-003   6.1109379702271163E-002
   1.4024646204715401E-002  -3.6873635311905220E-003   6.2236843408376721E-002
   1.3789629047082478E-002  -3.7953011470512679E-003   6.3468380350312617E-002
   7.4097686358303768E-003  -1.6286506708653396E-003   5.9670139007194214E-002
   7.2960037628409698E-003  -1.7422901599120659E-003   6.0613694806888260E-002
   7.1822388898515567E-003  -1.8487631143743757E-003   6.1695681940038966E-002
   7.0684740168621453E-003  -1.9480695342522091E-003   6.2916100406646247E-002
   6.9547091438727383E-003  -2.0402094195455835E-003   6.4274950206710174E-002
   7.7642971001651642E-005  -8.1825124389901804E-005   6.0274030981681541E-002
   1.1948848028196443E-004  -1.0712925348884197E-004   6.1217646136831450E-002
   1.6133398956227462E-004  -1.4944605779688112E-004   6.2334050723064249E-002
   2.0317949884258698E-004  -2.0877553731383494E-004   6.3623244740379864E-002
   2.4502500812289760E-004  -2.8511769203991288E-004   6.5085228188778252E-002
   2.7835176155881644E-002  -7.3054846020626091E-003   6.1866365014529481E-002
   2.7052381605503460E-002  -7.3688672590802098E-003   6.1526981572580700E-002
   2.6269587055125269E-002  -7.3596532401069593E-003   6.1362776243637361E-002
   2.5486792504747072E-002  -7.2778425451427995E-003   6.1373749027699445E-002
   2.4703997954368881E-002  -7.1234351741878976E-003   6.1559899924766903E-002
   2.0749784717752108E-002  -5.5503928745569558E-003   6.2665518619585803E-002
   2.0157774306394930E-002  -5.6189634337217229E-003   6.2530677619285491E-002
   1.9565763895037769E-002  -5.6327293725311790E-003   6.2602226784021872E-002
   1.8973753483680598E-002  -5.5916906909854050E-003   6.2880166113794780E-002
   1.8381743072323424E-002  -5.4958473890842907E-003   6.3364495608604299E-002
   1.3789629047082478E-002  -3.7953011470512679E-003   6.3468380350312617E-002
   1.3419614826777478E-002  -3.8690596083632046E-003   6.3520289736025373E-002
   1.3049600606472478E-002  -3.9058055049553970E-003   6.3809801338805885E-002
   1.2679586386167478E-002  -3.9055388368279269E-003   6.4336915158654112E-002
   1.2309572165862478E-002  -3.8682596039807393E-003   6.5101631195570109E-002
   6.9547091438727383E-003  -2.0402094195455835E-003   6.4274950206710174E-002
   6.8379031666510725E-003  -2.1191557830046882E-003   6.4495817922800264E-002
   6.7210971894294111E-003  -2.1788816373796297E-003   6.4985499907989325E-002
   6.6042912122077496E-003  -2.2193869826705043E-003   6.5743996162277232E-002
   6.4874852349860847E-003  -2.2406718188771463E-003   6.6771306685664111E-002
   2.4502500812289760E-004  -2.8511769203991288E-004   6.5085228188778252E-002
   4.1263932601572940E-004  -3.6925195764622720E-004   6.5457262179610190E-002
   5.8025364390855948E-004  -4.5195776980381033E-004   6.6129322491572273E-002
   7.4786796180138868E-004  -5.3323512851302050E-004   6.7101409124664349E-002
   9.1548227969422136E-004  -6.1308403377360876E-004   6.8373522078886501E-002
   2.4703997954368881E-002  -7.1234351741878976E-003   6.1559899924766903E-002
   2.3990123298611402E-002  -6.9213921748584872E-003   6.1219966166061374E-002
   2.3276248642853915E-002  -6.6966745947710515E-003   6.1056640063780032E-002
   2.2562373987096433E-002  -6.4492824339257224E-003   6.1069921617922851E-002
   2.1848499331338950E-002  -6.1792156923224373E-003   6.1259810828489858E-002
   1.8381743072323424E-002  -5.4958473890842907E-003   6.3364495608604299E-002
   1.7835911524225083E-002  -5.3677308796459405E-003   6.3282289464456867E-002
   1.7290079976126738E-002  -5.2298725754882716E-003   6.3359561879203552E-002
   1.6744248428028401E-002  -5.0822724766113551E-003   6.3596312852844297E-002
   1.6198416879930053E-002  -4.9249305830151302E-003   6.3992542385379048E-002
   1.2309572165862478E-002  -3.8682596039807393E-003   6.5101631195570109E-002
   1.1914654627893168E-002  -3.8140695844333661E-003   6.5264219879942048E-002
   1.1519737089923860E-002  -3.7630705562054362E-003   6.5569158025677934E-002
   1.1124819551954549E-002  -3.7152625192969323E-003   6.6016445632777865E-002
   1.0729902013985236E-002  -3.6706454737078509E-003   6.6606082701241631E-002
   6.4874852349860847E-003  -2.2406718188771463E-003   6.6771306685664111E-002
   6.2263526096156836E-003  -2.2604082892208333E-003   6.7165757412516819E-002
   5.9652199842452902E-003  -2.2962685369226285E-003   6.7685428503203304E-002
   5.7040873588748908E-003  -2.3482525619825095E-003   6.8330319957723651E-002
   5.4429547335044966E-003  -2.4163603644005022E-003   6.9100431776077886E-002
   9.1548227969422136E-004  -6.1308403377360876E-004   6.8373522078886501E-002
   7.7100546939261674E-004  -7.0674699400825880E-004   6.8986902062181193E-002
   6.2652865909101733E-004  -8.2946651763981388E-004   6.9708373311779634E-002
   4.8205184878941099E-004  -9.8124260466811268E-004   7.0537935827681808E-002
   3.3757503848781331E-004  -1.1620752550932645E-003   7.1475589609887702E-002
   2.1848499331338950E-002  -6.1792156923224373E-003   6.1259810828489858E-002
   2.0906092142962934E-002  -5.9013407721688615E-003   6.0702738269538092E-002
   1.9963684954586905E-002  -5.6305240756724939E-003   6.0459906076973685E-002
   1.9021277766210890E-002  -5.3667656028335425E-003   6.0531314250796331E-002
   1.8078870577834860E-002  -5.1100653536517715E-003   6.0916962791006335E-002
   1.6198416879930053E-002  -4.9249305830151302E-003   6.3992542385379048E-002
   1.5552498637774956E-002  -4.7612212125340975E-003   6.3597253459421590E-002
   1.4906580395619852E-002  -4.5945186830026047E-003   6.3480702059518834E-002
   1.4260662153464752E-002  -4.4248229944210300E-003   6.3642888185670557E-002
   1.3614743911309637E-002  -4.2521341467887663E-003   6.4083811837877008E-002
   1.0729902013985236E-002  -3.6706454737078509E-003   6.6606082701241631E-002
   1.0344969877718432E-002  -3.6211016528994167E-003   6.6382628790986234E-002
   9.9600377414516272E-003  -3.5585132903328820E-003   6.6402409566452783E-002
   9.5751056051848263E-003  -3.4828803860084065E-003   6.6665425027641237E-002
   9.1901734689180253E-003  -3.3942029399256501E-003   6.7171675174551873E-002
   5.4429547335044966E-003  -2.4163603644005022E-003   6.9100431776077886E-002
   5.2835058627933654E-003  -2.4809820932646665E-003   6.9058864264232175E-002
   5.1240569920822324E-003  -2.5225078976631038E-003   6.9225028597775767E-002
   4.9646081213711047E-003  -2.5409377775956719E-003   6.9598924776708787E-002
   4.8051592506599752E-003  -2.5362717330625062E-003   7.0180552801031207E-002
   3.3757503848781331E-004  -1.1620752550932645E-003   7.1475589609887702E-002
   3.6810659299974652E-004  -1.3408625336299163E-003   7.1625959879159262E-002
   3.9863814751167452E-004  -1.4865025049932840E-003   7.1948559153487690E-002
   4.2916970202360426E-004  -1.5989951691831907E-003   7.2443387432872833E-002
   4.5970125653553573E-004  -1.6783405261994733E-003   7.3110444717314649E-002
   1.8078870577834860E-002  -5.1100653536517715E-003   6.0916962791006335E-002
   1.7319769192389381E-002  -4.8578429051668592E-003   6.0820462813532594E-002
   1.6560667806943874E-002  -4.6075178344180540E-003   6.0664729630421549E-002
   1.5801566421498388E-002  -4.3590901414054008E-003   6.0449763241672769E-002
   1.5042465036052902E-002  -4.1125598261289587E-003   6.0175563647286878E-002
   1.3614743911309637E-002  -4.2521341467887663E-003   6.4083811837877008E-002
   1.2871617409985429E-002  -4.0925686607995171E-003   6.4086507544259180E-002
   1.2128490908661228E-002  -3.9622430571467221E-003   6.4180386224521560E-002
   1.1385364407337017E-002  -3.8611573358303293E-003   6.4365447878663912E-002
   1.0642237906012791E-002  -3.7893114968502450E-003   6.4641692506686110E-002
   9.1901734689180253E-003  -3.3942029399256501E-003   6.7171675174551873E-002
   8.6134380312325211E-003  -3.3272944164321888E-003   6.7246224060189971E-002
   8.0367025935470307E-003  -3.3169682798754943E-003   6.7562372099225582E-002
   7.4599671558615351E-003  -3.3632245302552561E-003   6.8120119291658662E-002
   6.8832317181760395E-003  -3.4660631675717257E-003   6.8919465637489005E-002
   4.8051592506599752E-003  -2.5362717330625062E-003   7.0180552801031207E-002
   4.5452310561306377E-003  -2.5620201720649646E-003   7.0299612361324870E-002
   4.2853028616012950E-003  -2.6716935026041035E-003   7.0810687254533475E-002
   4.0253746670719593E-003  -2.8652917246802948E-003   7.1713777480656840E-002
   3.7654464725426070E-003  -3.1428148382930537E-003   7.3008883039695271E-002
   4.5970125653553573E-004  -1.6783405261994733E-003   7.3110444717314649E-002
   6.6699648467978545E-004  -1.7967459276974906E-003   7.3246672447663863E-002
   8.7429171282402823E-004  -2.0264187253329208E-003   7.3925331690445212E-002
   1.0815869409682728E-003  -2.3673589191051080E-003   7.5146422445658986E-002
   1.2888821691125207E-003  -2.8195665090144928E-003   7.6909944713304812E-002
   1.5042465036052902E-002  -4.1125598261289587E-003   6.0175563647286878E-002
   1.3622764046277255E-002  -3.5218748854141668E-003   6.0207956166323850E-002
   1.2203063056501616E-002  -2.2409833160875053E-003   6.0618290623039500E-002
   1.0783362066725959E-002  -2.6988511814799929E-004   6.1406567017434008E-002
   9.3636610769503026E-003   2.3914197084038413E-003   6.2572785349507276E-002
   1.0642237906012791E-002  -3.7893114968502450E-003   6.4641692506686110E-002
   9.5928225386119059E-003  -3.6367896547771228E-003   6.5748048911190154E-002
   8.5434071712110135E-003  -3.2936759241805613E-003   6.7217034622764987E-002
   7.4939918038101350E-003  -2.7599703050612684E-003   6.9048649641410678E-002
   6.4445764364092495E-003  -2.0356727974186750E-003   7.1242893967126797E-002
   6.8832317181760395E-003  -3.4660631675717257E-003   6.8919465637489005E-002
   6.1887893425419081E-003  -3.7517044241396069E-003   7.0600171187370803E-002
   5.4943469669077854E-003  -4.3463685322739018E-003   7.2628193413715236E-002
   4.7999045912736514E-003  -5.2500554919744560E-003   7.5003532316522153E-002
   4.1054622156395104E-003  -6.4627653032414134E-003   7.7726187895792442E-002
   3.7654464725426070E-003  -3.1428148382930537E-003   7.3008883039695271E-002
   3.4106644580672620E-003  -3.8666191935022159E-003   7.4764322994865226E-002
   3.0558824435919156E-003  -5.3990611403670445E-003   7.6851766995889970E-002
   2.7011004291165640E-003  -7.7401406788876288E-003   7.9271215042769710E-002
   2.3463184146412172E-003  -1.0889857809063985E-002   8.2022667135503838E-002
   1.2888821691125207E-003  -2.8195665090144928E-003   7.6909944713304812E-002
   1.2584478851879570E-003  -3.9815339628650470E-003   7.8240504333673910E-002
   1.2280136012634037E-003  -6.4517537484604093E-003   7.9887755369289604E-002
   1.1975793173388365E-003  -1.0230225865801051E-002   8.1851697820152142E-002
   1.1671450334142797E-003  -1.5316950314886668E-002   8.4132331686261219E-002
   1.0084769022518023E-005   0.0000000000000000        2.8447813917089192E-002
   1.5338863804001575E-005  -6.5855559959722768E-006   3.3410528307089835E-002
   2.0592958585483826E-005  -1.3841589332338686E-005   3.8383046124993395E-002
   2.5847053366965861E-005  -2.1768100009096625E-005   4.3365367370799858E-002
   3.1101148148449630E-005  -3.0365088026254768E-005   4.8357492044509238E-002
  -6.7909361821639567E-003   0.0000000000000000        2.8506259667190732E-002
  -6.8159808471470792E-003   1.4120073811619942E-004   3.3540445639107769E-002
  -6.8410255121302008E-003   3.1851931740707086E-004   3.8504230663592688E-002
  -6.8660701771133224E-003   5.3195573787260912E-004   4.3397614740645483E-002
  -6.8911148420964432E-003   7.8150999951281767E-004   4.8220597870266141E-002
  -1.3498107045683654E-002   0.0000000000000000        2.8694097552146920E-002
  -1.3633654845766419E-002   2.8898703222837068E-004   3.3836543424495415E-002
  -1.3769202645849183E-002   6.5088022414647780E-004   3.8828383974076751E-002
  -1.3904750445931950E-002   1.0856795757543183E-003   4.3669619200890929E-002
  -1.4040298246014708E-002   1.5933850870518940E-003   4.8360249104937941E-002
  -2.0111427821536576E-002   0.0000000000000000        2.9011327571957745E-002
  -2.0437683132054019E-002   4.3677332634054346E-004   3.4298821663252765E-002
  -2.0763938442571461E-002   9.8324113088588605E-004   3.9355506056445597E-002
  -2.1090193753088907E-002   1.6394034136360258E-003   4.4181380751536214E-002
  -2.1416449063606346E-002   2.4052601745909686E-003   4.8776445748524626E-002
  -2.6630898509722722E-002   0.0000000000000000        2.9457949726623210E-002
  -2.7228065706009885E-002   5.8455962045271450E-004   3.4927280355379821E-002
  -2.7825232902297044E-002   1.3156020376252943E-003   4.0085596910699184E-002
  -2.8422400098584204E-002   2.1931272515177368E-003   4.4932899392581334E-002
  -2.9019567294871366E-002   3.2171352621300437E-003   4.9469187801026222E-002
   3.1101148148449630E-005  -3.0365088026254768E-005   4.8357492044509238E-002
   4.2736603861751217E-005  -4.0280510314503505E-005   5.1535186163655933E-002
   5.4372059575050636E-005  -5.2162323804515230E-005   5.4580507359566877E-002
   6.6007515288348971E-005  -6.6010528496316886E-005   5.7493455632242077E-002
   7.7642971001651642E-005  -8.1825124389901804E-005   6.0274030981681541E-002
  -6.8911148420964432E-003   7.8150999951281767E-004   4.8220597870266141E-002
  -6.9842344267934727E-003   1.0276764819429759E-003   5.1176512563166604E-002
  -7.0773540114905022E-003   1.2309495647783645E-003   5.4055290098482152E-002
  -7.1704735961875318E-003   1.3913292480189562E-003   5.6856930476212771E-002
  -7.2635931808845648E-003   1.5088155316647922E-003   5.9581433696358516E-002
  -1.4040298246014708E-002   1.5933850870518940E-003   4.8360249104937941E-002
  -1.4182937105471234E-002   2.0956334742004488E-003   5.1053457363199162E-002
  -1.4325575964927765E-002   2.5140614533612445E-003   5.3724764229526323E-002
  -1.4468214824384292E-002   2.8486690245342499E-003   5.6374169703919383E-002
  -1.4610853683840816E-002   3.0994561877194897E-003   5.9001673786378349E-002
  -2.1416449063606346E-002   2.4052601745909686E-003   4.8776445748524626E-002
  -2.1553371432171540E-002   3.1635904664579148E-003   5.1166020563753634E-002
  -2.1690293800736730E-002   3.7971733419441137E-003   5.3588929752699396E-002
  -2.1827216169301920E-002   4.3060088010495401E-003   5.6045173315361879E-002
  -2.1964138537867110E-002   4.6900968437741854E-003   5.8534751251741179E-002
  -2.9019567294871366E-002   3.2171352621300437E-003   4.9469187801026222E-002
  -2.9095537406894384E-002   4.2315474587154107E-003   5.1514202164829992E-002
  -2.9171507518917401E-002   5.0802852305269972E-003   5.3647786668001358E-002
  -2.9247477630940422E-002   5.7633485775648256E-003   5.5869941310540308E-002
  -2.9323447742963436E-002   6.2807374998288742E-003   5.8180666092446841E-002
   7.7642971001651642E-005  -8.1825124389901804E-005   6.0274030981681541E-002
   1.1948848028196443E-004  -1.0712925348884197E-004   6.1217646136831450E-002
   1.6133398956227462E-004  -1.4944605779688112E-004   6.2334050723064249E-002
   2.0317949884258698E-004  -2.0877553731383494E-004   6.3623244740379864E-002
   2.4502500812289760E-004  -2.8511769203991288E-004   6.5085228188778252E-002
  -7.2635931808845648E-003   1.5088155316647922E-003   5.9581433696358516E-002
  -7.0722018268385587E-003   1.5888852707850315E-003   6.0471304731788508E-002
  -6.8808104727925545E-003   1.6370153204487460E-003   6.1487478025667126E-002
  -6.6894191187465545E-003   1.6532056806560303E-003   6.2629953577994266E-002
  -6.4980277647005511E-003   1.6374563514068713E-003   6.3898731388769947E-002
  -1.4610853683840816E-002   3.0994561877194897E-003   5.9001673786378349E-002
  -1.4316403657663386E-002   3.2848997950588928E-003   5.9822873687841047E-002
  -1.4021953631485961E-002   3.4234766986943723E-003   6.0723888675118007E-002
  -1.3727503605308541E-002   3.5151868986259644E-003   6.1704718748209243E-002
  -1.3433053579131111E-002   3.5600303948536208E-003   6.2765363907114791E-002
  -2.1964138537867110E-002   4.6900968437741854E-003   5.8534751251741179E-002
  -2.1613117012192529E-002   4.9809143193327672E-003   5.9272353004989002E-002
  -2.1262095486517953E-002   5.2099380769399847E-003   6.0043282671416891E-002
  -2.0911073960843369E-002   5.3771681165958787E-003   6.0847540251024776E-002
  -2.0560052435168789E-002   5.4826044383004015E-003   6.1685125743812706E-002
  -2.9323447742963436E-002   6.2807374998288742E-003   5.8180666092446841E-002
  -2.8962341890425972E-002   6.6769288436066276E-003   5.8819742683232458E-002
  -2.8601236037888510E-002   6.9963994551856101E-003   5.9445660014563834E-002
  -2.8240130185351049E-002   7.2391493345657677E-003   6.0058418086440940E-002
  -2.7879024332813581E-002   7.4051784817471544E-003   6.0658016898863798E-002
   2.4502500812289760E-004  -2.8511769203991288E-004   6.5085228188778252E-002
   4.1263932601572940E-004  -3.6925195764622720E-004   6.5457262179610190E-002
   5.8025364390855948E-004  -4.5195776980381033E-004   6.6129322491572273E-002
   7.4786796180138868E-004  -5.3323512851302050E-004   6.7101409124664349E-002
   9.1548227969422136E-004  -6.1308403377360876E-004   6.8373522078886501E-002
  -6.4980277647005511E-003   1.6374563514068713E-003   6.3898731388769947E-002
  -6.0753139643356952E-003   1.6072507527773172E-003   6.4036093301408858E-002
  -5.6526001639708419E-003   1.5800723048434058E-003   6.4383627857861753E-002
  -5.2298863636059921E-003   1.5559210076052836E-003   6.4941335058128630E-002
  -4.8071725632411397E-003   1.5347968610629203E-003   6.5709214902209448E-002
  -1.3433053579131111E-002   3.5600303948536208E-003   6.2765363907114791E-002
  -1.2845093973610338E-002   3.5837534632007645E-003   6.2669652438807830E-002
  -1.2257134368089567E-002   3.6121023794908180E-003   6.2694259936998772E-002
  -1.1669174762568799E-002   3.6450771437236576E-003   6.2839186401687522E-002
  -1.1081215157048031E-002   3.6826777558994633E-003   6.3104431832874147E-002
  -2.0560052435168789E-002   5.4826044383004015E-003   6.1685125743812706E-002
  -1.9896700701808202E-002   5.5602561736242465E-003   6.1357939591807055E-002
  -1.9233348968447615E-002   5.6441324541381460E-003   6.1061218728983124E-002
  -1.8569997235087024E-002   5.7342332798419830E-003   6.0794963155340970E-002
  -1.7906645501726440E-002   5.8305586507359439E-003   6.0559172870880654E-002
  -2.7879024332813581E-002   7.4051784817471544E-003   6.0658016898863798E-002
  -2.7230134148929282E-002   7.5367588840477492E-003   6.0100954760406555E-002
  -2.6581243965044986E-002   7.6761625287854740E-003   5.9484504233814961E-002
  -2.5932353781160693E-002   7.8233894159603287E-003   5.8808665319089085E-002
  -2.5283463597276391E-002   7.9784395455725354E-003   5.8073438016228829E-002
   9.1548227969422136E-004  -6.1308403377360876E-004   6.8373522078886501E-002
   7.7100546939261674E-004  -7.0674699400825880E-004   6.8986902062181193E-002
   6.2652865909101733E-004  -8.2946651763981388E-004   6.9708373311779634E-002
   4.8205184878941099E-004  -9.8124260466811268E-004   7.0537935827681808E-002
   3.3757503848781331E-004  -1.1620752550932645E-003   7.1475589609887702E-002
  -4.8071725632411397E-003   1.5347968610629203E-003   6.5709214902209448E-002
  -4.8160035521072333E-003   1.4979254246760276E-003   6.5766972542873614E-002
  -4.8248345409733287E-003   1.4265322579043796E-003   6.5987930560105046E-002
  -4.8336655298394276E-003   1.3206173607479502E-003   6.6372088953903730E-002
  -4.8424965187055247E-003   1.1801807332068037E-003   6.6919447724269721E-002
  -1.1081215157048031E-002   3.6826777558994633E-003   6.3104431832874147E-002
  -1.0899291214215080E-002   3.7025978433603210E-003   6.2601101963919908E-002
  -1.0717367271382137E-002   3.6825310334485141E-003   6.2316081581796370E-002
  -1.0535443328549193E-002   3.6224773261640678E-003   6.2249370686503686E-002
  -1.0353519385716242E-002   3.5224367215069829E-003   6.2400969278041826E-002
  -1.7906645501726440E-002   5.8305586507359439E-003   6.0559172870880654E-002
  -1.7478857516930912E-002   5.9072702620446386E-003   5.9489290325319931E-002
  -1.7051069532135386E-002   5.9385298089927058E-003   5.8692826376853552E-002
  -1.6623281547339875E-002   5.9243372915801298E-003   5.8169781025481586E-002
  -1.6195493562544343E-002   5.8646927098070234E-003   5.7920154271203894E-002
  -2.5283463597276391E-002   7.9784395455725354E-003   5.8073438016228829E-002
  -2.4554702460254745E-002   8.1119426807289147E-003   5.6431537627073786E-002
  -2.3825941323233110E-002   8.1945285845368837E-003   5.5118164945276715E-002
  -2.3097180186211472E-002   8.2261972569962864E-003   5.4133319970837479E-002
  -2.2368419049189837E-002   8.2069486981072304E-003   5.3477002703756049E-002
   3.3757503848781331E-004  -1.1620752550932645E-003   7.1475589609887702E-002
   3.6810659299974652E-004  -1.3408625336299163E-003   7.1625959879159262E-002
   3.9863814751167452E-004  -1.4865025049932840E-003   7.1948559153487690E-002
   4.2916970202360426E-004  -1.5989951691831907E-003   7.2443387432872833E-002
   4.5970125653553573E-004  -1.6783405261994733E-003   7.3110444717314649E-002
  -4.8424965187055247E-003   1.1801807332068037E-003   6.6919447724269721E-002
  -4.6285104209649094E-003   1.0346612534152949E-003   6.6778843888424602E-002
  -4.4145243232242923E-003   9.1349779950762600E-004   6.6832920133980067E-002
  -4.2005382254836779E-003   8.1669037148388371E-004   6.7081676460936254E-002
  -3.9865521277430600E-003   7.4423896934400213E-004   6.7525112869292941E-002
  -1.0353519385716242E-002   3.5224367215069829E-003   6.2400969278041826E-002
  -9.9336276684030729E-003   3.4101850404606726E-003   6.1960600055790307E-002
  -9.5137359510899001E-003   3.3134981040086539E-003   6.1737361991283275E-002
  -9.0938442337767343E-003   3.2323759121509043E-003   6.1731255084520736E-002
  -8.6739525164635668E-003   3.1668184648874498E-003   6.1942279335502629E-002
  -1.6195493562544343E-002   5.8646927098070234E-003   5.7920154271203894E-002
  -1.5547245149314749E-002   5.7857088275059393E-003   5.7171228381256448E-002
  -1.4898996736085152E-002   5.7134984085095951E-003   5.6661884725397405E-002
  -1.4250748322855571E-002   5.6480614528180073E-003   5.6392123303626661E-002
  -1.3602499909625969E-002   5.5893979604308835E-003   5.6361944115944307E-002
  -2.2368419049189837E-002   8.2069486981072304E-003   5.3477002703756049E-002
  -2.1469362863699951E-002   8.1612326145513170E-003   5.2410728864823064E-002
  -2.0570306678210061E-002   8.1134987130106334E-003   5.1606488336322281E-002
  -1.9671250492720171E-002   8.0637469934849819E-003   5.1064281118253702E-002
  -1.8772194307230282E-002   8.0119774559743728E-003   5.0784107210617380E-002
   4.5970125653553573E-004  -1.6783405261994733E-003   7.3110444717314649E-002
   6.6699648467978545E-004  -1.7967459276974906E-003   7.3246672447663863E-002
   8.7429171282402823E-004  -2.0264187253329208E-003   7.3925331690445212E-002
   1.0815869409682728E-003  -2.3673589191051080E-003   7.5146422445658986E-002
   1.2888821691125207E-003  -2.8195665090144928E-003   7.6909944713304812E-002
  -3.9865521277430600E-003   7.4423896934400213E-004   6.7525112869292941E-002
  -3.3376861932834095E-003   6.6659553028966534E-004   6.7246329041158293E-002
  -2.6888202588237660E-003   5.5421199152251577E-004   6.7308255113222096E-002
  -2.0399543243641164E-003   4.0708835304265403E-004   6.7710891085484282E-002
  -1.3910883899044720E-003   2.2522461484969503E-004   6.8454236957945280E-002
  -8.6739525164635668E-003   3.1668184648874498E-003   6.1942279335502629E-002
  -7.7852374879223210E-003   3.1299369882768074E-003   6.1325011245308633E-002
  -6.8965224593810753E-003   3.1348427083777233E-003   6.0846731443079109E-002
  -6.0078074308398330E-003   3.1815356251899702E-003   6.0507439928814452E-002
  -5.1190924022985907E-003   3.2700157387136608E-003   6.0307136702514363E-002
  -1.3602499909625969E-002   5.5893979604308835E-003   5.6361944115944307E-002
  -1.2675657399236930E-002   5.5932784462640953E-003   5.5482719060114913E-002
  -1.1748814888847908E-002   5.7154734252328789E-003   5.4540760680016356E-002
  -1.0821972378458874E-002   5.9559828973374538E-003   5.3536068975648630E-002
  -9.8951298680698477E-003   6.3148068625778486E-003   5.2468643947011964E-002
  -1.8772194307230282E-002   8.0119774559743728E-003   5.0784107210617380E-002
  -1.8008945927227266E-002   8.0566199042511610E-003   4.9719452485576965E-002
  -1.7245697547224253E-002   8.2961041420882425E-003   4.8390342824033650E-002
  -1.6482449167221233E-002   8.7304301694850171E-003   4.6796778225987504E-002
  -1.5719200787218217E-002   9.3595979864417589E-003   4.4938758691438319E-002
   1.2888821691125207E-003  -2.8195665090144928E-003   7.6909944713304812E-002
   1.2584478851879570E-003  -3.9815339628650470E-003   7.8240504333673910E-002
   1.2280136012634037E-003  -6.4517537484604093E-003   7.9887755369289604E-002
   1.1975793173388365E-003  -1.0230225865801051E-002   8.1851697820152142E-002
   1.1671450334142797E-003  -1.5316950314886668E-002   8.4132331686261219E-002
  -1.3910883899044720E-003   2.2522461484969503E-004   6.8454236957945280E-002
  -1.1155081170254252E-003  -2.9474074282800911E-004   6.7751228530992885E-002
  -8.3992784414638373E-004  -1.4561692397624115E-003   6.7343557802400950E-002
  -5.6434757126733875E-004  -3.2590608759534220E-003   6.7231224772169501E-002
  -2.8876729838828857E-004  -5.7034156514013112E-003   6.7414229440298512E-002
  -5.1190924022985907E-003   3.2700157387136608E-003   6.0307136702514363E-002
  -4.5588512895023223E-003   3.3920524772088623E-003   5.8237349420729195E-002
  -3.9986101767060566E-003   3.5394152689358083E-003   5.6441546120417921E-002
  -3.4383690639097969E-003   3.7121041138942629E-003   5.4919726801580734E-002
  -2.8781279511135363E-003   3.9101190120842677E-003   5.3671891464217580E-002
  -9.8951298680698477E-003   6.3148068625778486E-003   5.2468643947011964E-002
  -9.0715816322427308E-003   7.0788456972458169E-003   4.9698867002882098E-002
  -8.2480333964156365E-003   8.5349997776339726E-003   4.7181720323340011E-002
  -7.4244851605885422E-003   1.0683269103741865E-002   4.4917203908385675E-002
  -6.6009369247614271E-003   1.3523653675569680E-002   4.2905317758018702E-002
  -1.5719200787218217E-002   9.3595979864417589E-003   4.4938758691438319E-002
  -1.4653699145246658E-002   1.0765638917282605E-002   4.2135781277452322E-002
  -1.3588197503275105E-002   1.3530584286332095E-002   3.9564080411167574E-002
  -1.2522695861303574E-002   1.7654434093589539E-002   3.7223656092584281E-002
  -1.1457194219332001E-002   2.3137188339055204E-002   3.5114508321702154E-002
  -2.6630898509722722E-002   0.0000000000000000        2.9457949726623210E-002
  -2.7228065706009885E-002   5.8455962045271450E-004   3.4927280355379821E-002
  -2.7825232902297044E-002   1.3156020376252943E-003   4.0085596910699184E-002
  -2.8422400098584204E-002   2.1931272515177368E-003   4.4932899392581334E-002
  -2.9019567294871366E-002   3.2171352621300437E-003   4.9469187801026222E-002
  -3.3393032154573621E-002   0.0000000000000000        3.0167612222458978E-002
  -3.4235722675537913E-002   9.5949822180348837E-004   3.5247990449564073E-002
  -3.5078413196502206E-002   2.0219793480564423E-003   4.0148336100752149E-002
  -3.5921103717466499E-002   3.1874433787588644E-003   4.4868649176023193E-002
  -3.6763794238430784E-002   4.4558903139107564E-003   4.9408929675377217E-002
  -4.0734341800420799E-002   0.0000000000000000        3.1273963265780719E-002
  -4.1691574148542014E-002   1.3344368231542618E-003   3.5921889198963913E-002
  -4.2648806496663229E-002   2.7283566584875938E-003   4.0520764053750283E-002
  -4.3606038844784430E-002   4.1817595059999938E-003   4.5070587830139848E-002
  -4.4563271192905644E-002   5.6946453656914649E-003   4.9571360528132609E-002
  -4.8654827447264265E-002   0.0000000000000000        3.2777002856588425E-002
  -4.9595620125022180E-002   1.7093754245050359E-003   3.6948976603579313E-002
  -5.0536412802780102E-002   3.4347339689187431E-003   4.1202880769693605E-002
  -5.1477205480538017E-002   5.1760756332411223E-003   4.5538715354931286E-002
  -5.2417998158295932E-002   6.9334004174721794E-003   4.9956480359292371E-002
  -5.7154489095103997E-002   0.0000000000000000        3.4676730994882110E-002
  -5.7947860604978425E-002   2.0843140258558074E-003   3.8329252663410307E-002
  -5.8741232114852840E-002   4.1411112793498933E-003   4.2194686248582101E-002
  -5.9534603624727254E-002   6.1703917604822526E-003   4.6273031750397507E-002
  -6.0327975134601669E-002   8.1721554692528904E-003   5.0564289168856510E-002
  -2.9019567294871366E-002   3.2171352621300437E-003   4.9469187801026222E-002
  -2.9095537406894384E-002   4.2315474587154107E-003   5.1514202164829992E-002
  -2.9171507518917401E-002   5.0802852305269972E-003   5.3647786668001358E-002
  -2.9247477630940422E-002   5.7633485775648256E-003   5.5869941310540308E-002
  -2.9323447742963436E-002   6.2807374998288742E-003   5.8180666092446841E-002
  -3.6763794238430784E-002   4.4558903139107564E-003   4.9408929675377217E-002
  -3.6787693679525058E-002   5.6886719378499047E-003   5.1192200584002354E-002
  -3.6811593120619338E-002   6.7471400349141172E-003   5.2991042695117417E-002
  -3.6835492561713604E-002   7.6312946051033670E-003   5.4805456008722372E-002
  -3.6859392002807870E-002   8.3411356484176871E-003   5.6635440524817227E-002
  -4.4563271192905644E-002   5.6946453656914649E-003   4.9571360528132609E-002
  -4.4608098899948850E-002   7.1457964169844203E-003   5.1084248879477920E-002
  -4.4652926606992056E-002   8.4139948393012302E-003   5.2539709496435487E-002
  -4.4697754314035262E-002   9.4992406326419292E-003   5.3937742379005241E-002
  -4.4742582021078475E-002   1.0401533797006503E-002   5.5278347527187244E-002
  -5.2417998158295932E-002   6.9334004174721794E-003   4.9956480359292371E-002
  -5.2556753068165755E-002   8.6029208961189308E-003   5.1190347051256711E-002
  -5.2695507978035586E-002   1.0080849643688368E-002   5.2293787071955602E-002
  -5.2834262887905402E-002   1.1367186660180500E-002   5.3266800421389024E-002
  -5.2973017797775232E-002   1.2461931945595311E-002   5.4109387099556976E-002
  -6.0327975134601669E-002   8.1721554692528904E-003   5.0564289168856510E-002
  -6.0633656184175794E-002   1.0060045375253436E-002   5.1510495099338680E-002
  -6.0939337233749918E-002   1.1747704448075467E-002   5.2253275421677702E-002
  -6.1245018283324029E-002   1.3235132687719043E-002   5.2792630135873597E-002
  -6.1550699332898154E-002   1.4522330094184133E-002   5.3128559241926346E-002
  -2.9323447742963436E-002   6.2807374998288742E-003   5.8180666092446841E-002
  -2.8962341890425972E-002   6.6769288436066276E-003   5.8819742683232458E-002
  -2.8601236037888510E-002   6.9963994551856101E-003   5.9445660014563834E-002
  -2.8240130185351049E-002   7.2391493345657677E-003   6.0058418086440940E-002
  -2.7879024332813581E-002   7.4051784817471544E-003   6.0658016898863798E-002
  -3.6859392002807870E-002   8.3411356484176871E-003   5.6635440524817227E-002
  -3.6449949273003039E-002   8.8912042342351241E-003   5.6877791433739479E-002
  -3.6040506543198209E-002   9.2960414319337662E-003   5.7229975356650711E-002
  -3.5631063813393392E-002   9.5556472415136446E-003   5.7691992293550910E-002
  -3.5221621083588554E-002   9.6700216629747038E-003   5.8263842244440082E-002
  -4.4742582021078475E-002   1.0401533797006503E-002   5.5278347527187244E-002
  -4.4161810140563064E-002   1.1105479624863593E-002   5.5055462098326187E-002
  -4.3581038260047625E-002   1.1595683408681952E-002   5.5065401956897311E-002
  -4.3000266379532207E-002   1.1872145148461468E-002   5.5308167102900624E-002
  -4.2419494499016795E-002   1.1934864844202253E-002   5.5783757536336159E-002
  -5.2973017797775232E-002   1.2461931945595311E-002   5.4109387099556976E-002
  -5.2097924493106004E-002   1.3319755015492103E-002   5.3352754676992582E-002
  -5.1222831188436763E-002   1.3895325385430108E-002   5.2951939815303564E-002
  -5.0347737883767528E-002   1.4188643055409331E-002   5.2906942514489998E-002
  -4.9472644579098300E-002   1.4199708025429789E-002   5.3217762774551876E-002
  -6.1550699332898154E-002   1.4522330094184133E-002   5.3128559241926346E-002
  -6.0258292330631881E-002   1.5534030406120548E-002   5.1769669169738589E-002
  -5.8965885328365594E-002   1.6194967362178275E-002   5.0889588931869532E-002
  -5.7673478326099335E-002   1.6505140962357164E-002   5.0488318528319059E-002
  -5.6381071323833049E-002   1.6464551206657338E-002   5.0565857959087315E-002
  -2.7879024332813581E-002   7.4051784817471544E-003   6.0658016898863798E-002
  -2.7230134148929282E-002   7.5367588840477492E-003   6.0100954760406555E-002
  -2.6581243965044986E-002   7.6761625287854740E-003   5.9484504233814961E-002
  -2.5932353781160693E-002   7.8233894159603287E-003   5.8808665319089085E-002
  -2.5283463597276391E-002   7.9784395455725354E-003   5.8073438016228829E-002
  -3.5221621083588554E-002   9.6700216629747038E-003   5.8263842244440082E-002
  -3.4573061048185659E-002   9.6989862661335871E-003   5.7901679177958347E-002
  -3.3924501012782764E-002   9.7023626208069327E-003   5.7598244202648183E-002
  -3.3275940977379882E-002   9.6801507269946799E-003   5.7353537318509507E-002
  -3.2627380941976980E-002   9.6323505846968582E-003   5.7167558525542408E-002
  -4.2419494499016795E-002   1.1934864844202253E-002   5.5783757536336159E-002
  -4.1653148132789433E-002   1.1861213648219456E-002   5.5583082050907166E-002
  -4.0886801766562064E-002   1.1728562712828364E-002   5.5559251135955570E-002
  -4.0120455400334702E-002   1.1536912038028948E-002   5.5712264791481413E-002
  -3.9354109034107340E-002   1.1286261623821264E-002   5.6042123017484624E-002
  -4.9472644579098300E-002   1.4199708025429789E-002   5.3217762774551876E-002
  -4.8470395402740570E-002   1.4023441030305324E-002   5.3145163379252867E-002
  -4.7468146226382853E-002   1.3754762804849809E-002   5.3367525033737206E-002
  -4.6465897050025164E-002   1.3393673349063313E-002   5.3884847738004719E-002
  -4.5463647873667412E-002   1.2940172662945656E-002   5.4697131492055684E-002
  -5.6381071323833049E-002   1.6464551206657338E-002   5.0565857959087315E-002
  -5.5024802858039124E-002   1.6185668412391184E-002   5.0587923162995596E-002
  -5.3668534392245171E-002   1.5780962896871243E-002   5.1023065895992988E-002
  -5.2312265926451218E-002   1.5250434660097494E-002   5.1871286158079608E-002
  -5.0955997460657307E-002   1.4594083702070021E-002   5.3132583949255324E-002
  -2.5283463597276391E-002   7.9784395455725354E-003   5.8073438016228829E-002
  -2.4554702460254745E-002   8.1119426807289147E-003   5.6431537627073786E-002
  -2.3825941323233110E-002   8.1945285845368837E-003   5.5118164945276715E-002
  -2.3097180186211472E-002   8.2261972569962864E-003   5.4133319970837479E-002
  -2.2368419049189837E-002   8.2069486981072304E-003   5.3477002703756049E-002
  -3.2627380941976980E-002   9.6323505846968582E-003   5.7167558525542408E-002
  -3.1600483122159087E-002   9.5596194640202997E-003   5.6074860894585701E-002
  -3.0573585302341208E-002   9.4626146350715312E-003   5.5249908921863579E-002
  -2.9546687482523322E-002   9.3413360978507054E-003   5.4692702607376048E-002
  -2.8519789662705432E-002   9.1957838523578084E-003   5.4403241951123227E-002
  -3.9354109034107340E-002   1.1286261623821264E-002   5.6042123017484624E-002
  -3.8089856580616470E-002   1.1007296247311567E-002   5.5525271667802620E-002
  -3.6825604127125613E-002   1.0730700685606241E-002   5.5215383927232041E-002
  -3.5561351673634743E-002   1.0456474938705182E-002   5.5112459795772742E-002
  -3.4297099220143873E-002   1.0184619006608553E-002   5.5216499273424841E-002
  -4.5463647873667412E-002   1.2940172662945656E-002   5.4697131492055684E-002
  -4.4022822835626876E-002   1.2454973030602823E-002   5.4782769946724777E-002
  -4.2581997797586313E-002   1.1998786736140892E-002   5.5014589961382074E-002
  -4.1141172759545756E-002   1.1571613779559658E-002   5.5392591536027339E-002
  -3.9700347721505200E-002   1.1173454160859242E-002   5.5916774670660724E-002
  -5.0955997460657307E-002   1.4594083702070021E-002   5.3132583949255324E-002
  -4.9399381887190313E-002   1.3902649813894191E-002   5.3847355731352076E-002
  -4.7842766313723327E-002   1.3266872786675647E-002   5.4647527024313705E-002
  -4.6286150740256340E-002   1.2686752620414061E-002   5.5533097828140039E-002
  -4.4729535166789333E-002   1.2162289315109931E-002   5.6504068142831210E-002
  -2.2368419049189837E-002   8.2069486981072304E-003   5.3477002703756049E-002
  -2.1469362863699951E-002   8.1612326145513170E-003   5.2410728864823064E-002
  -2.0570306678210061E-002   8.1134987130106334E-003   5.1606488336322281E-002
  -1.9671250492720171E-002   8.0637469934849819E-003   5.1064281118253702E-002
  -1.8772194307230282E-002   8.0119774559743728E-003   5.0784107210617380E-002
  -2.8519789662705432E-002   9.1957838523578084E-003   5.4403241951123227E-002
  -2.7368123342388091E-002   9.0289119267830675E-003   5.3691414257724196E-002
  -2.6216457022070740E-002   8.8436743493163217E-003   5.3222773523547873E-002
  -2.5064790701753385E-002   8.6400711199578345E-003   5.2997319748594229E-002
  -2.3913124381436050E-002   8.4181022387072590E-003   5.3015052932863349E-002
  -3.4297099220143873E-002   1.0184619006608553E-002   5.5216499273424841E-002
  -3.2911669116208617E-002   9.8965912390146238E-003   5.4842769891652807E-002
  -3.1526239012273305E-002   9.5738499856219614E-003   5.4693381117894076E-002
  -3.0140808908337986E-002   9.2163952464304668E-003   5.4768332952148460E-002
  -2.8755378804402730E-002   8.8242270214402008E-003   5.5067625394416106E-002
  -3.9700347721505200E-002   1.1173454160859242E-002   5.5916774670660724E-002
  -3.8100000185161485E-002   1.0764270551246305E-002   5.5864795766608979E-002
  -3.6499652648817785E-002   1.0304025621927487E-002   5.6018311119360793E-002
  -3.4899305112474077E-002   9.7927193729032101E-003   5.6377320728916290E-002
  -3.3298957576130377E-002   9.2303518041731425E-003   5.6941824595275414E-002
  -4.4729535166789333E-002   1.2162289315109931E-002   5.6504068142831210E-002
  -4.2933116549246766E-002   1.1631949863477903E-002   5.6757491882592548E-002
  -4.1136697931704151E-002   1.1034201258233303E-002   5.7197563527948025E-002
  -3.9340279314161536E-002   1.0369043499376011E-002   5.7824283078897684E-002
  -3.7543860696618955E-002   9.6364765869060287E-003   5.8637650535441455E-002
  -1.8772194307230282E-002   8.0119774559743728E-003   5.0784107210617380E-002
  -1.8008945927227266E-002   8.0566199042511610E-003   4.9719452485576965E-002
  -1.7245697547224253E-002   8.2961041420882425E-003   4.8390342824033650E-002
  -1.6482449167221233E-002   8.7304301694850171E-003   4.6796778225987504E-002
  -1.5719200787218217E-002   9.3595979864417589E-003   4.4938758691438319E-002
  -2.3913124381436050E-002   8.4181022387072590E-003   5.3015052932863349E-002
  -2.3311731544821718E-002   8.2436472500361513E-003   5.2505790865481489E-002
  -2.2710338708207392E-002   8.1825856984155815E-003   5.1937272647825189E-002
  -2.2108945871593066E-002   8.2349175838455392E-003   5.1309498279894214E-002
  -2.1507553034978762E-002   8.4006429063261390E-003   5.0622467761688938E-002
  -2.8755378804402730E-002   8.8242270214402008E-003   5.5067625394416106E-002
  -2.8110642724948683E-002   8.4306745958210583E-003   5.5032307632183211E-002
  -2.7465906645494611E-002   8.0690672547431494E-003   5.5142932505904428E-002
  -2.6821170566040570E-002   7.7394049982061185E-003   5.5399500015579500E-002
  -2.6176434486586488E-002   7.4416878262104358E-003   5.5802010161208712E-002
  -3.3298957576130377E-002   9.2303518041731425E-003   5.6941824595275414E-002
  -3.2405679467608153E-002   8.6177019416060346E-003   5.7299002785682285E-002
  -3.1512401359085902E-002   7.9555488110706306E-003   5.8007322398271527E-002
  -3.0619123250563658E-002   7.2438924125668358E-003   5.9066783433043120E-002
  -2.9725845142041442E-002   6.4827327460947187E-003   6.0477385889997196E-002
  -3.7543860696618955E-002   9.6364765869060287E-003   5.8637650535441455E-002
  -3.6196841772800123E-002   8.8047292873909000E-003   5.9305876325978502E-002
  -3.4849822848981270E-002   7.8420303673980563E-003   6.0530442324926492E-002
  -3.3502803925162417E-002   6.7483798269272754E-003   6.2311348532285260E-002
  -3.2155785001343584E-002   5.5237776659790017E-003   6.4648594948054861E-002
  -1.5719200787218217E-002   9.3595979864417589E-003   4.4938758691438319E-002
  -1.4653699145246658E-002   1.0765638917282605E-002   4.2135781277452322E-002
  -1.3588197503275105E-002   1.3530584286332095E-002   3.9564080411167574E-002
  -1.2522695861303574E-002   1.7654434093589539E-002   3.7223656092584281E-002
  -1.1457194219332001E-002   2.3137188339055204E-002   3.5114508321702154E-002
  -2.1507553034978762E-002   8.4006429063261390E-003   5.0622467761688938E-002
  -2.0184866560250297E-002   8.9134707149943759E-003   4.9934727415678115E-002
  -1.8862180085521808E-002   1.0007110058988078E-002   4.9530080187479925E-002
  -1.7539493610793308E-002   1.1681560938306537E-002   4.9408526077094381E-002
  -1.6216807136064861E-002   1.3936823352950212E-002   4.9570065084520998E-002
  -2.6176434486586488E-002   7.4416878262104358E-003   5.5802010161208712E-002
  -2.4544746608989840E-002   7.0613025127061191E-003   5.6451413980289800E-002
  -2.2913058731393161E-002   6.4836358316440537E-003   5.7435727487294745E-002
  -2.1281370853796444E-002   5.7086877830236724E-003   5.8754950682223625E-002
  -1.9649682976199772E-002   4.7364583668454419E-003   6.0409083565076294E-002
  -2.9725845142041442E-002   6.4827327460947187E-003   6.0477385889997196E-002
  -2.7733339291465244E-002   5.2091343104179316E-003   6.1685840971287223E-002
  -2.5740833440889017E-002   2.9601616042999220E-003   6.3281022310612417E-002
  -2.3748327590312836E-002  -2.6418537225903881E-004   6.5262929907973000E-002
  -2.1755821739736624E-002  -4.4639066192594945E-003   6.7631563763368360E-002
  -3.2155785001343584E-002   5.5237776659790017E-003   6.4648594948054861E-002
  -2.9750644607676596E-002   3.3569661081295221E-003   6.5638008388670677E-002
  -2.7345504214009553E-002  -5.6331262304398777E-004   6.7065964657432975E-002
  -2.4940363820342537E-002  -6.2370585275420831E-003   6.8932463754341533E-002
  -2.2535223426675521E-002  -1.3664271605364320E-002   7.1237505679396795E-002
  -5.7154489095103997E-002   0.0000000000000000        3.4676730994882110E-002
  -5.7947860604978425E-002   2.0843140258558074E-003   3.8329252663410307E-002
  -5.8741232114852840E-002   4.1411112793498933E-003   4.2194686248582101E-002
  -5.9534603624727254E-002   6.1703917604822526E-003   4.6273031750397507E-002
  -6.0327975134601669E-002   8.1721554692528904E-003   5.0564289168856510E-002
  -6.5822320447419327E-002   0.0000000000000000        3.7197344018128638E-002
  -6.6631396122097009E-002   2.9152864645043243E-003   4.0822460641122153E-002
  -6.7440471796774676E-002   5.7748385891045325E-003   4.4203257017865538E-002
  -6.8249547471452357E-002   8.5786563738006159E-003   4.7339733148358799E-002
  -6.9058623146130038E-002   1.1326739818592578E-002   5.0231889032601930E-002
  -7.4247315207689540E-002   0.0000000000000000        4.0563038263794877E-002
  -7.5529327210064209E-002   3.7462589031528395E-003   4.4132532273711327E-002
  -7.6811339212438878E-002   7.4085658988591648E-003   4.7000473874483903E-002
  -7.8093351214813547E-002   1.0986920987118978E-002   4.9166863066112634E-002
  -7.9375363217188216E-002   1.4481324167932278E-002   5.0631699848597493E-002
  -8.2429473375914636E-002   0.0000000000000000        4.4773813731880836E-002
  -8.4641653868880035E-002   4.5772313418013530E-003   4.8259467561177792E-002
  -8.6853834361845419E-002   9.0422932086137980E-003   5.0586336818437182E-002
  -8.9066014854810818E-002   1.3395185600437337E-002   5.1754421503658971E-002
  -9.1278195347776231E-002   1.7635908517271974E-002   5.1763721616843186E-002
  -9.0368794952094628E-002   0.0000000000000000        4.9829670422386493E-002
  -9.3968376098544484E-002   5.4082037804498700E-003   5.3203266503521612E-002
  -9.7567957244994341E-002   1.0676020518368436E-002   5.4960845849725402E-002
 -0.10116753839144420        1.5803450213755701E-002   5.5102408460997863E-002
 -0.10476711953789405        2.0790492866611658E-002   5.3627954337339016E-002
  -6.0327975134601669E-002   8.1721554692528904E-003   5.0564289168856510E-002
  -6.0633656184175794E-002   1.0060045375253436E-002   5.1510495099338680E-002
  -6.0939337233749918E-002   1.1747704448075467E-002   5.2253275421677702E-002
  -6.1245018283324029E-002   1.3235132687719043E-002   5.2792630135873597E-002
  -6.1550699332898154E-002   1.4522330094184133E-002   5.3128559241926346E-002
  -6.9058623146130038E-002   1.1326739818592578E-002   5.0231889032601930E-002
  -6.9332139002432472E-002   1.3776723726748740E-002   4.9457245921696091E-002
  -6.9605654858734906E-002   1.5686242901537334E-002   4.8950358805476775E-002
  -6.9879170715037298E-002   1.7055297342958384E-002   4.8711227683943974E-002
  -7.0152686571339759E-002   1.7883887051011904E-002   4.8739852557097715E-002
  -7.9375363217188216E-002   1.4481324167932278E-002   5.0631699848597493E-002
  -7.9145532277389283E-002   1.7493402078244031E-002   4.7795973796114596E-002
  -7.8915701337590363E-002   1.9624781354999166E-002   4.5699185341147884E-002
  -7.8685870397791444E-002   2.0875461998197724E-002   4.4341334483697370E-002
  -7.8456039457992510E-002   2.1245444007839676E-002   4.3722421223763006E-002
  -9.1278195347776231E-002   1.7635908517271974E-002   5.1763721616843186E-002
  -9.0073836009046282E-002   2.1210080429739316E-002   4.6526678722594153E-002
  -8.8869476670316347E-002   2.3563319808461023E-002   4.2499755028690994E-002
  -8.7665117331586398E-002   2.4695626653437063E-002   3.9682950535133668E-002
  -8.6460757992856463E-002   2.4607000964667416E-002   3.8076265241922189E-002
 -0.10476711953789405        2.0790492866611658E-002   5.3627954337339016E-002
 -0.10211705019740343        2.4926758781234633E-002   4.5649360701134796E-002
  -9.9466980856912815E-002   2.7501858261922859E-002   3.9352067868106140E-002
  -9.6816911516422202E-002   2.8515791308676392E-002   3.4736075838252944E-002
  -9.4166842175931575E-002   2.7968557921495218E-002   3.1801384611575292E-002
  -6.1550699332898154E-002   1.4522330094184133E-002   5.3128559241926346E-002
  -6.0258292330631881E-002   1.5534030406120548E-002   5.1769669169738589E-002
  -5.8965885328365594E-002   1.6194967362178275E-002   5.0889588931869532E-002
  -5.7673478326099335E-002   1.6505140962357164E-002   5.0488318528319059E-002
  -5.6381071323833049E-002   1.6464551206657338E-002   5.0565857959087315E-002
  -7.0152686571339759E-002   1.7883887051011904E-002   4.8739852557097715E-002
  -6.8429871839060921E-002   1.8341005502325564E-002   4.7354574164397215E-002
  -6.6707057106782097E-002   1.8595646173527020E-002   4.6351301397403163E-002
  -6.4984242374503259E-002   1.8647809064616296E-002   4.5730034256115576E-002
  -6.3261427642224421E-002   1.8497494175593404E-002   4.5490772740534362E-002
  -7.8456039457992510E-002   2.1245444007839676E-002   4.3722421223763006E-002
  -7.6399621204313373E-002   2.1147980598530507E-002   4.2459040086316346E-002
  -7.4343202950634207E-002   2.0996324984875768E-002   4.1480860365963899E-002
  -7.2286784696955056E-002   2.0790477166875401E-002   4.0787882062705678E-002
  -7.0230366443275863E-002   2.0530437144529477E-002   4.0380105176541697E-002
  -8.6460757992856463E-002   2.4607000964667416E-002   3.8076265241922189E-002
  -8.4167540426389173E-002   2.3954955694735474E-002   3.7083066935495956E-002
  -8.1874322859921883E-002   2.3397003796224527E-002   3.6278265837551671E-002
  -7.9581105293454607E-002   2.2933145269134536E-002   3.5661861948089457E-002
  -7.7287887726987303E-002   2.2563380113465519E-002   3.5233855267109225E-002
  -9.4166842175931575E-002   2.7968557921495218E-002   3.1801384611575292E-002
  -9.1733629505288392E-002   2.6761930790940459E-002   3.1226654711936030E-002
  -8.9300416834645180E-002   2.5797682607573244E-002   3.0743517812166568E-002
  -8.6867204164001996E-002   2.5075813371393602E-002   3.0351973912266905E-002
  -8.4433991493358798E-002   2.4596323082401617E-002   3.0052023012237028E-002
  -5.6381071323833049E-002   1.6464551206657338E-002   5.0565857959087315E-002
  -5.5024802858039124E-002   1.6185668412391184E-002   5.0587923162995596E-002
  -5.3668534392245171E-002   1.5780962896871243E-002   5.1023065895992988E-002
  -5.2312265926451218E-002   1.5250434660097494E-002   5.1871286158079608E-002
  -5.0955997460657307E-002   1.4594083702070021E-002   5.3132583949255324E-002
  -6.3261427642224421E-002   1.8497494175593404E-002   4.5490772740534362E-002
  -6.1528436242428597E-002   1.8192177644317090E-002   4.5271226753871144E-002
  -5.9795444842632731E-002   1.7779335608646092E-002   4.5392049106122587E-002
  -5.8062453442836871E-002   1.7258968068580460E-002   4.5853239797288774E-002
  -5.6329462043041040E-002   1.6631075024120284E-002   4.6654798827369531E-002
  -7.0230366443275863E-002   2.0530437144529477E-002   4.0380105176541697E-002
  -6.8193361299652588E-002   2.0198686876242971E-002   3.9937245216166130E-002
  -6.6156356156029286E-002   1.9777708320420938E-002   3.9762044404530739E-002
  -6.4119351012406012E-002   1.9267501477063485E-002   3.9854502741635545E-002
  -6.2082345868782710E-002   1.8668066346170478E-002   4.0214620227480534E-002
  -7.7287887726987303E-002   2.2563380113465519E-002   3.5233855267109225E-002
  -7.5019578029711098E-002   2.2205196108168852E-002   3.4585978549880457E-002
  -7.2751268332434865E-002   2.1776081032195801E-002   3.4133051791217402E-002
  -7.0482958635158632E-002   2.1276034885546451E-002   3.3875074991120087E-002
  -6.8214648937882413E-002   2.0705057668220651E-002   3.3812048149588353E-002
  -8.4433991493358798E-002   2.4596323082401617E-002   3.0052023012237028E-002
  -8.2007086432604112E-002   2.4211705340094730E-002   2.9217426755014236E-002
  -7.9580181371849412E-002   2.3774453743970650E-002   2.8505071266182597E-002
  -7.7153276311094726E-002   2.3284568294029421E-002   2.7914956545742255E-002
  -7.4726371250340068E-002   2.2742048990270936E-002   2.7447082593693023E-002
  -5.0955997460657307E-002   1.4594083702070021E-002   5.3132583949255324E-002
  -4.9399381887190313E-002   1.3902649813894191E-002   5.3847355731352076E-002
  -4.7842766313723327E-002   1.3266872786675647E-002   5.4647527024313705E-002
  -4.6286150740256340E-002   1.2686752620414061E-002   5.5533097828140039E-002
  -4.4729535166789333E-002   1.2162289315109931E-002   5.6504068142831210E-002
  -5.6329462043041040E-002   1.6631075024120284E-002   4.6654798827369531E-002
  -5.4670524751256167E-002   1.5963193577352819E-002   4.7048676353930077E-002
  -5.3011587459471349E-002   1.5322860830365666E-002   4.7561797806261671E-002
  -5.1352650167686503E-002   1.4710076783158875E-002   4.8194163184364112E-002
  -4.9693712875901630E-002   1.4124841435732394E-002   4.8945772488237477E-002
  -6.2082345868782710E-002   1.8668066346170478E-002   4.0214620227480534E-002
  -6.0287242443773870E-002   1.8023737340811433E-002   4.0259495337328095E-002
  -5.8492139018765092E-002   1.7378848874055799E-002   4.0457458787852729E-002
  -5.6697035593756266E-002   1.6733400945903636E-002   4.0808510579054311E-002
  -5.4901932168747475E-002   1.6087393556354940E-002   4.1312650710933055E-002
  -6.8214648937882413E-002   2.0705057668220651E-002   3.3812048149588353E-002
  -6.6249534964743478E-002   2.0084281104270081E-002   3.3479812681545949E-002
  -6.4284420991604543E-002   1.9434836917745932E-002   3.3334509969086830E-002
  -6.2319307018465629E-002   1.8756725108648478E-002   3.3376140012210780E-002
  -6.0354193045326708E-002   1.8049945676977416E-002   3.3604702810917958E-002
  -7.4726371250340068E-002   2.2742048990270936E-002   2.7447082593693023E-002
  -7.2557402314164882E-002   2.2144824867728632E-002   2.6709628386583861E-002
  -7.0388433377989751E-002   2.1490824961436006E-002   2.6192951349963939E-002
  -6.8219464441814606E-002   2.0780049271393222E-002   2.5897051483833422E-002
  -6.6050495505639434E-002   2.0012497797600004E-002   2.5821928788192172E-002
  -4.4729535166789333E-002   1.2162289315109931E-002   5.6504068142831210E-002
  -4.2933116549246766E-002   1.1631949863477903E-002   5.6757491882592548E-002
  -4.1136697931704151E-002   1.1034201258233303E-002   5.7197563527948025E-002
  -3.9340279314161536E-002   1.0369043499376011E-002   5.7824283078897684E-002
  -3.7543860696618955E-002   9.6364765869060287E-003   5.8637650535441455E-002
  -4.9693712875901630E-002   1.4124841435732394E-002   4.8945772488237477E-002
  -4.7707300690201272E-002   1.3534729622569311E-002   4.8906144914395946E-002
  -4.5720888504500901E-002   1.2907316178152731E-002   4.9059856571275873E-002
  -4.3734476318800501E-002   1.2242601102482365E-002   4.9406907458877207E-002
  -4.1748064133100116E-002   1.1540584395558717E-002   4.9947297577200067E-002
  -5.4901932168747475E-002   1.6087393556354940E-002   4.1312650710933055E-002
  -5.2718835089761926E-002   1.5437509381660650E-002   4.1010079345847772E-002
  -5.0535738010776432E-002   1.4780431098071985E-002   4.0907538536611159E-002
  -4.8352640931790931E-002   1.4116158705588884E-002   4.1005028283223374E-002
  -4.6169543852805389E-002   1.3444692204211295E-002   4.1302548585684384E-002
  -6.0354193045326708E-002   1.8049945676977416E-002   3.3604702810917958E-002
  -5.7967719747928741E-002   1.7340289140752023E-002   3.3069295176947872E-002
  -5.5581246450530808E-002   1.6653546017991298E-002   3.2740609423954008E-002
  -5.3194773153132827E-002   1.5989716308695265E-002   3.2618645551936234E-002
  -5.0808299855734922E-002   1.5348800012863928E-002   3.2703403560894545E-002
  -6.6050495505639434E-002   2.0012497797600004E-002   2.5821928788192172E-002
  -6.3453954664701717E-002   1.9243068899843396E-002   2.5083792407696565E-002
  -6.0857413823763987E-002   1.8526660937910652E-002   2.4559069233304420E-002
  -5.8260872982826235E-002   1.7863273911801782E-002   2.4247759265015739E-002
  -5.5664332141888512E-002   1.7252907821516561E-002   2.4149862502830466E-002
  -3.7543860696618955E-002   9.6364765869060287E-003   5.8637650535441455E-002
  -3.6196841772800123E-002   8.8047292873909000E-003   5.9305876325978502E-002
  -3.4849822848981270E-002   7.8420303673980563E-003   6.0530442324926492E-002
  -3.3502803925162417E-002   6.7483798269272754E-003   6.2311348532285260E-002
  -3.2155785001343584E-002   5.5237776659790017E-003   6.4648594948054861E-002
  -4.1748064133100116E-002   1.1540584395558717E-002   4.9947297577200067E-002
  -3.9923287088813479E-002   1.0775825955158580E-002   5.0210098268481412E-002
  -3.8098510044526870E-002   9.9228856790591347E-003   5.0872074992287492E-002
  -3.6273733000240255E-002   8.9817635672603396E-003   5.1933227748618277E-002
  -3.4448955955953570E-002   7.9524596197622088E-003   5.3393556537473796E-002
  -4.6169543852805389E-002   1.3444692204211295E-002   4.1302548585684384E-002
  -4.4024172863937117E-002   1.2746922622926177E-002   4.1202693962488518E-002
  -4.1878801875068844E-002   1.2003740990720102E-002   4.1344851195931245E-002
  -3.9733430886200571E-002   1.1215147307593348E-002   4.1729020286012539E-002
  -3.7588059897332299E-002   1.0381141573545583E-002   4.2355201232732481E-002
  -5.0808299855734922E-002   1.5348800012863928E-002   3.2703403560894545E-002
  -4.8499499098171063E-002   1.4718019290693815E-002   3.2283663407999805E-002
  -4.6190698340607191E-002   1.4084596302381097E-002   3.1948770935857532E-002
  -4.3881897583043381E-002   1.3448531047926107E-002   3.1698726144467788E-002
  -4.1573096825479515E-002   1.2809823527328817E-002   3.1533529033830617E-002
  -5.5664332141888512E-002   1.7252907821516561E-002   2.4149862502830466E-002
  -5.3349265791515221E-002   1.6689115958461426E-002   2.3453006605015425E-002
  -5.1034199441141959E-002   1.6165451614042231E-002   2.2683834212066656E-002
  -4.8719133090768710E-002   1.5681914788259331E-002   2.1842345323984352E-002
  -4.6404066740395461E-002   1.5238505481112163E-002   2.0928539940768376E-002
  -3.2155785001343584E-002   5.5237776659790017E-003   6.4648594948054861E-002
  -2.9750644607676596E-002   3.3569661081295221E-003   6.5638008388670677E-002
  -2.7345504214009553E-002  -5.6331262304398777E-004   6.7065964657432975E-002
  -2.4940363820342537E-002  -6.2370585275420831E-003   6.8932463754341533E-002
  -2.2535223426675521E-002  -1.3664271605364320E-002   7.1237505679396795E-002
  -3.4448955955953570E-002   7.9524596197622088E-003   5.3393556537473796E-002
  -3.1675578040679241E-002   6.3916463346254671E-003   5.2102579678330707E-002
  -2.8902200125404884E-002   3.8559962099103950E-003   5.1109535034255776E-002
  -2.6128822210130465E-002   3.4550924561710383E-004   5.0414422605249046E-002
  -2.3355444294856142E-002  -4.1398145582542956E-003   5.0017242391310779E-002
  -3.7588059897332299E-002   1.0381141573545583E-002   4.2355201232732481E-002
  -3.4587055073528696E-002   9.4263265611213565E-003   3.9562464407576270E-002
  -3.1586050249725148E-002   8.2753050428648889E-003   3.6927049184410227E-002
  -2.8585045425921614E-002   6.9280770187763463E-003   3.4448955563234213E-002
  -2.5584040602118066E-002   5.3846424888555067E-003   3.2128183544048283E-002
  -4.1573096825479515E-002   1.2809823527328817E-002   3.1533529033830617E-002
  -3.8485075706225023E-002   1.2461006787617274E-002   2.8017662576407566E-002
  -3.5397054586970511E-002   1.2694613875819383E-002   2.4518507107896444E-002
  -3.2309033467715957E-002   1.3510644791935505E-002   2.1036062628297297E-002
  -2.9221012348461611E-002   1.4909099535965475E-002   1.7570329137609794E-002
  -4.6404066740395461E-002   1.5238505481112163E-002   2.0928539940768376E-002
  -4.3369639938768106E-002   1.5495687014113191E-002   1.7468174184824492E-002
  -4.0335213137140849E-002   1.7113922708773766E-002   1.3883908804714296E-002
  -3.7300786335513571E-002   2.0093212565094720E-002   1.0175743800437786E-002
  -3.4266359533886237E-002   2.4433556583075333E-002   6.3436791719948538E-003
  -9.0368794952094628E-002   0.0000000000000000        4.9829670422386493E-002
  -9.3968376098544484E-002   5.4082037804498700E-003   5.3203266503521612E-002
  -9.7567957244994341E-002   1.0676020518368436E-002   5.4960845849725402E-002
 -0.10116753839144420        1.5803450213755701E-002   5.5102408460997863E-002
 -0.10476711953789405        2.0790492866611658E-002   5.3627954337339016E-002
 -0.10330137484489052        0.0000000000000000        5.8660136099667637E-002
 -0.10683658473549117        1.0884451370736173E-002   5.2116490742930129E-002
 -0.11037179462609180        1.9172737377251139E-002   4.7317604632822363E-002
 -0.11390700451669249        2.4864858019544897E-002   4.4263477769344341E-002
 -0.11744221440729311        2.7960813297617446E-002   4.2954110152496068E-002
 -0.12646330796296332        0.0000000000000000        7.4194738528080048E-002
 -0.12657337061615367        1.6360698961022477E-002   5.5278073411779982E-002
 -0.12668343326934406        2.7669454236133831E-002   4.1466943523670766E-002
 -0.12679349592253439        3.3926265825334090E-002   3.2761348863752343E-002
 -0.12690355857572480        3.5131133728623233E-002   2.9161289432024780E-002
 -0.15985459430631305        0.0000000000000000        9.6433477707623713E-002
 -0.15317873374053209        2.1836946551308783E-002   6.2688014510071208E-002
 -0.14650287317475105        3.6166171095016547E-002   3.7408862522270596E-002
 -0.13982701260897004        4.2987673631123290E-002   2.0596021744221909E-002
 -0.13315115204318909        4.2301454159629000E-002   1.2249492175925065E-002
 -0.20347523387493968        0.0000000000000000       0.12537635363829863     
 -0.18665267410862624        2.7313194141595082E-002   7.4346314037803771E-002
 -0.16983011434231282        4.4662887953899229E-002   3.5143361628621909E-002
 -0.15300755457599940        5.2049081436912475E-002   7.7674964107529720E-003
 -0.13618499480968599        4.9471774590634787E-002  -7.7812816158029582E-003
 -0.10476711953789405        2.0790492866611658E-002   5.3627954337339016E-002
 -0.10211705019740343        2.4926758781234633E-002   4.5649360701134796E-002
  -9.9466980856912815E-002   2.7501858261922859E-002   3.9352067868106140E-002
  -9.6816911516422202E-002   2.8515791308676392E-002   3.4736075838252944E-002
  -9.4166842175931575E-002   2.7968557921495218E-002   3.1801384611575292E-002
 -0.11744221440729311        2.7960813297617446E-002   4.2954110152496068E-002
 -0.11349528674223419        2.9433232140509961E-002   3.6698787768615238E-002
 -0.10954835907717529        3.0254743477263604E-002   3.1355881230695465E-002
 -0.10560143141211641        3.0425347307878402E-002   2.6925390538736757E-002
 -0.10165450374705752        2.9945043632354340E-002   2.3407315692739062E-002
 -0.12690355857572480        3.5131133728623233E-002   2.9161289432024780E-002
 -0.12242865754331207        3.3939705499785283E-002   2.5539497228263128E-002
 -0.11795375651089933        3.3007628692604367E-002   2.2061235913248097E-002
 -0.11347885547848657        3.2334903307080394E-002   1.8726505486979714E-002
 -0.10900395444607387        3.1921529343213434E-002   1.5535305949457838E-002
 -0.13315115204318909        4.2301454159629000E-002   1.2249492175925065E-002
 -0.12891716260063696        3.8446178859060647E-002   1.2171489080078533E-002
 -0.12468317315808489        3.5760513907945081E-002   1.1468131915764030E-002
 -0.12044918371553279        3.4244459306282421E-002   1.0139420682981841E-002
 -0.11621519427298069        3.3898015054072542E-002   8.1853553817317383E-003
 -0.13618499480968599        4.9471774590634787E-002  -7.7812816158029582E-003
 -0.13296080191420900        4.2952652218335954E-002  -3.4052366759386166E-003
 -0.12973660901873196        3.8513399123285899E-002  -4.2343076175651272E-004
 -0.12651241612325495        3.6154015305484385E-002   1.1641361267430797E-003
 -0.12328822322777797        3.5874500764931677E-002   1.3574639895605756E-003
  -9.4166842175931575E-002   2.7968557921495218E-002   3.1801384611575292E-002
  -9.1733629505288392E-002   2.6761930790940459E-002   3.1226654711936030E-002
  -8.9300416834645180E-002   2.5797682607573244E-002   3.0743517812166568E-002
  -8.6867204164001996E-002   2.5075813371393602E-002   3.0351973912266905E-002
  -8.4433991493358798E-002   2.4596323082401617E-002   3.0052023012237028E-002
 -0.10165450374705752        2.9945043632354340E-002   2.3407315692739062E-002
  -9.9125629522351738E-002   2.9159136480087153E-002   2.3115904969322261E-002
  -9.6596755297645970E-002   2.8412929880472695E-002   2.2924224354160756E-002
  -9.4067881072940229E-002   2.7706423833511011E-002   2.2832273847254576E-002
  -9.1539006848234447E-002   2.7039618339201973E-002   2.2840053448603681E-002
 -0.10900395444607387        3.1921529343213434E-002   1.5535305949457838E-002
 -0.10637128155892002        3.1556342169233885E-002   1.5324536007728564E-002
 -0.10373860867176621        3.1028177153372243E-002   1.5221633282640271E-002
 -0.10110593578461238        3.0337034295628375E-002   1.5226597774192777E-002
  -9.8473262897458558E-002   2.9482913596002330E-002   1.5339429482385959E-002
 -0.11621519427298069        3.3898015054072542E-002   8.1853553817317383E-003
 -0.11347058561499328        3.3953547858380687E-002   7.8525478271552207E-003
 -0.11072597695700584        3.3643424426271662E-002   7.6357445976049983E-003
 -0.10798136829901842        3.2967644757745669E-002   7.5349456930813444E-003
 -0.10523675964103098        3.1926208852802687E-002   7.5501511135839389E-003
 -0.12328822322777797        3.5874500764931677E-002   1.3574639895605756E-003
 -0.12042354169057143        3.6350753547527370E-002   6.9994042760199160E-004
 -0.11755886015336488        3.6258671699171137E-002   1.6655829905528469E-004
 -0.11469417861615833        3.5598255219863081E-002  -2.4268239607967181E-004
 -0.11182949707895179        3.4369504109603100E-002  -5.2778165780276165E-004
  -8.4433991493358798E-002   2.4596323082401617E-002   3.0052023012237028E-002
  -8.2007086432604112E-002   2.4211705340094730E-002   2.9217426755014236E-002
  -7.9580181371849412E-002   2.3774453743970650E-002   2.8505071266182597E-002
  -7.7153276311094726E-002   2.3284568294029421E-002   2.7914956545742255E-002
  -7.4726371250340068E-002   2.2742048990270936E-002   2.7447082593693023E-002
  -9.1539006848234447E-002   2.7039618339201973E-002   2.2840053448603681E-002
  -8.8975341036948929E-002   2.6393320373033415E-002   2.2165076804077678E-002
  -8.6411675225663370E-002   2.5748336910493091E-002   2.1641380892222270E-002
  -8.3848009414377853E-002   2.5104667951581106E-002   2.1268965713037290E-002
  -8.1284343603092307E-002   2.4462313496297350E-002   2.1047831266522946E-002
  -9.8473262897458558E-002   2.9482913596002330E-002   1.5339429482385959E-002
  -9.5743796371362794E-002   2.8574935405972071E-002   1.4878020808002244E-002
  -9.3014329845267030E-002   2.7722220077015615E-002   1.4596932830568420E-002
  -9.0284863319171266E-002   2.6924767609132927E-002   1.4496165550084400E-002
  -8.7555396793075474E-002   2.6182578002323792E-002   1.4575718966550300E-002
 -0.10523675964103098        3.1926208852802687E-002   7.5501511135839389E-003
 -0.10231245243584568        3.0756550438910825E-002   7.3562587667878451E-003
  -9.9388145230660391E-002   2.9696103243538111E-002   7.3717270812209846E-003
  -9.6463838025475090E-002   2.8744867266684557E-002   7.5965560568834250E-003
  -9.3539530820289790E-002   2.7902842508350331E-002   8.0307456937750259E-003
 -0.11182949707895179        3.4369504109603100E-002  -5.2778165780276165E-004
 -0.10868130923039765        3.2938165471849468E-002  -4.0020931956566419E-004
 -0.10553312138184351        3.1669986410060580E-002  -3.4236355819866615E-005
 -0.10238493353328937        3.0564966924236381E-002   5.7013723343449924E-004
  -9.9236745684735228E-002   2.9623107014376704E-002   1.4129114481972183E-003
  -7.4726371250340068E-002   2.2742048990270936E-002   2.7447082593693023E-002
  -7.2557402314164882E-002   2.2144824867728632E-002   2.6709628386583861E-002
  -7.0388433377989751E-002   2.1490824961436006E-002   2.6192951349963939E-002
  -6.8219464441814606E-002   2.0780049271393222E-002   2.5897051483833422E-002
  -6.6050495505639434E-002   2.0012497797600004E-002   2.5821928788192172E-002
  -8.1284343603092307E-002   2.4462313496297350E-002   2.1047831266522946E-002
  -7.8906405664777274E-002   2.3799069547878179E-002   2.0535553417008343E-002
  -7.6528467726462407E-002   2.3092732109559796E-002   2.0220436401284105E-002
  -7.4150529788147471E-002   2.2343301181342323E-002   2.0102480219350193E-002
  -7.1772591849832507E-002   2.1550776763225532E-002   2.0181684871206335E-002
  -8.7555396793075474E-002   2.6182578002323792E-002   1.4575718966550300E-002
  -8.4992106189319849E-002   2.5453314228027553E-002   1.4302299768481637E-002
  -8.2428815585564197E-002   2.4694639257683532E-002   1.4202425067504160E-002
  -7.9865524981808544E-002   2.3906553091291423E-002   1.4276094863617878E-002
  -7.7302234378052920E-002   2.3089055728851254E-002   1.4523309156822872E-002
  -9.3539530820289790E-002   2.7902842508350331E-002   8.0307456937750259E-003
  -9.0814503887792511E-002   2.7107558908177013E-002   8.0098674410032412E-003
  -8.8089476955295218E-002   2.6296546405807239E-002   8.1389173486240002E-003
  -8.5364450022797897E-002   2.5469805001240551E-002   8.4178954166365186E-003
  -8.2639423090300576E-002   2.4627334694476935E-002   8.8468016450414487E-003
  -9.9236745684735228E-002   2.9623107014376704E-002   1.4129114481972183E-003
  -9.6373598760195300E-002   2.8761803588326529E-002   1.6582564345738460E-003
  -9.3510451835655345E-002   2.7898453553930849E-002   2.0299132446436885E-003
  -9.0647304911115403E-002   2.7033056911189544E-002   2.5278818784064544E-003
  -8.7784157986575462E-002   2.6165613660102616E-002   3.1521623358624629E-003
  -6.6050495505639434E-002   2.0012497797600004E-002   2.5821928788192172E-002
  -6.3453954664701717E-002   1.9243068899843396E-002   2.5083792407696565E-002
  -6.0857413823763987E-002   1.8526660937910652E-002   2.4559069233304420E-002
  -5.8260872982826235E-002   1.7863273911801782E-002   2.4247759265015739E-002
  -5.5664332141888512E-002   1.7252907821516561E-002   2.4149862502830466E-002
  -7.1772591849832507E-002   2.1550776763225532E-002   2.0181684871206335E-002
  -6.8974545440336557E-002   2.0749193579593678E-002   1.9663093116484648E-002
  -6.6176499030840524E-002   1.9972586354830693E-002   1.9334099292775936E-002
  -6.3378452621344589E-002   1.9220955088936165E-002   1.9194703400080330E-002
  -6.0580406211848542E-002   1.8494299781910528E-002   1.9244905438397714E-002
  -7.7302234378052920E-002   2.3089055728851254E-002   1.4523309156822872E-002
  -7.4326497675088990E-002   2.2255318259344181E-002   1.4196217050919793E-002
  -7.1350760972125143E-002   2.1418511771750630E-002   1.4034907600939457E-002
  -6.8375024269161241E-002   2.0578636266070663E-002   1.4039380806881750E-002
  -6.5399287566197367E-002   1.9735691742304440E-002   1.4209636668747097E-002
  -8.2639423090300576E-002   2.4627334694476935E-002   8.8468016450414487E-003
  -7.9509811368959099E-002   2.3761442939094296E-002   8.6831642110021395E-003
  -7.6380199647617678E-002   2.2864437188670341E-002   8.6614941577951490E-003
  -7.3250587926276214E-002   2.1936317443205157E-002   8.7817914854204371E-003
  -7.0120976204934751E-002   2.0977083702698435E-002   9.0440561938783109E-003
  -8.7784157986575462E-002   2.6165613660102616E-002   3.1521623358624629E-003
  -8.4524486521946829E-002   2.5267567618844855E-002   3.1239345967316590E-003
  -8.1264815057318196E-002   2.4310362605590496E-002   3.2138589633430859E-003
  -7.8005143592689563E-002   2.3293998620339651E-002   3.4219354356958137E-003
  -7.4745472128060930E-002   2.2218475663092430E-002   3.7481640137911887E-003
  -5.5664332141888512E-002   1.7252907821516561E-002   2.4149862502830466E-002
  -5.3349265791515221E-002   1.6689115958461426E-002   2.3453006605015425E-002
  -5.1034199441141959E-002   1.6165451614042231E-002   2.2683834212066656E-002
  -4.8719133090768710E-002   1.5681914788259331E-002   2.1842345323984352E-002
  -4.6404066740395461E-002   1.5238505481112163E-002   2.0928539940768376E-002
  -6.0580406211848542E-002   1.8494299781910528E-002   1.9244905438397714E-002
  -5.8285149672559128E-002   1.7800697407014954E-002   1.8738377652257582E-002
  -5.5989893133269714E-002   1.7148224937510725E-002   1.8264546739083162E-002
  -5.3694636593980341E-002   1.6536882373398218E-002   1.7823412698874823E-002
  -5.1399380054690941E-002   1.5966669714677140E-002   1.7414975531632293E-002
  -6.5399287566197367E-002   1.9735691742304440E-002   1.4209636668747097E-002
  -6.3018827469892263E-002   1.8912278855568551E-002   1.3894439381037044E-002
  -6.0638367373587118E-002   1.8130998260979345E-002   1.3716952334392588E-002
  -5.8257907277282001E-002   1.7391849958537108E-002   1.3677175528813514E-002
  -5.5877447180976821E-002   1.6694833948241894E-002   1.3775108964299898E-002
  -7.0120976204934751E-002   2.0977083702698435E-002   9.0440561938783109E-003
  -6.7550299183514434E-002   2.0023860304121892E-002   8.9211917913539773E-003
  -6.4979622162094047E-002   1.9113771584447790E-002   9.0410509979944979E-003
  -6.2408945140673716E-002   1.8246817543676221E-002   9.4036338138002631E-003
  -5.9838268119253350E-002   1.7422998181806870E-002   1.0008940238770955E-002
  -7.4745472128060930E-002   2.2218475663092430E-002   3.7481640137911887E-003
  -7.1879564813425778E-002   2.1135441752675732E-002   3.8186348832079942E-003
  -6.9013657498790681E-002   2.0096544907916375E-002   4.2368427298892508E-003
  -6.6147750184155585E-002   1.9101785128815309E-002   5.0027875538350489E-003
  -6.3281842869520433E-002   1.8151162415371846E-002   6.1164693550456173E-003
  -4.6404066740395461E-002   1.5238505481112163E-002   2.0928539940768376E-002
  -4.3369639938768106E-002   1.5495687014113191E-002   1.7468174184824492E-002
  -4.0335213137140849E-002   1.7113922708773766E-002   1.3883908804714296E-002
  -3.7300786335513571E-002   2.0093212565094720E-002   1.0175743800437786E-002
  -3.4266359533886237E-002   2.4433556583075333E-002   6.3436791719948538E-003
  -5.1399380054690941E-002   1.5966669714677140E-002   1.7414975531632293E-002
  -4.8414197156460323E-002   1.5795608294248586E-002   1.5605625050894356E-002
  -4.5429014258229775E-002   1.6381719445014320E-002   1.3821686387529425E-002
  -4.2443831359999191E-002   1.7725003166973674E-002   1.2063159541537333E-002
  -3.9458648461768664E-002   1.9825459460127481E-002   1.0330044512917969E-002
  -5.5877447180976821E-002   1.6694833948241894E-002   1.3775108964299898E-002
  -5.2792196744603823E-002   1.6095529574384093E-002   1.3012892168302037E-002
  -4.9706946308230804E-002   1.5649516181254430E-002   1.2425398631216347E-002
  -4.6621695871857820E-002   1.5356793768852656E-002   1.2012628353042697E-002
  -4.3536445435484780E-002   1.5217362337179408E-002   1.1774581333781065E-002
  -5.9838268119253350E-002   1.7422998181806870E-002   1.0008940238770955E-002
  -5.6503638703198696E-002   1.6395450854519766E-002   9.6899755370476737E-003
  -5.3169009287144020E-002   1.4917312917494485E-002   9.6950455357751389E-003
  -4.9834379871089421E-002   1.2988584370731845E-002   1.0024150234953986E-002
  -4.6499750455034752E-002   1.0609265214231389E-002   1.0677289634584308E-002
  -6.3281842869520433E-002   1.8151162415371846E-002   6.1164693550456173E-003
  -5.9548523032244893E-002   1.6695372134654995E-002   5.6368751571302944E-003
  -5.5815203194969409E-002   1.4185109653735151E-002   5.6306271012055986E-003
  -5.2081883357693926E-002   1.0620374972610439E-002   6.0977251872712385E-003
  -4.8348563520418386E-002   6.0011680912834819E-003   7.0381694153274221E-003
 </DataArray>
 </PointData>
 </Piece>
 <Piece  NumberOfPoints="          1600 "  NumberOfCells="         1024 ">
 <Points>
 <DataArray  type="Float64" NumberOfComponents="3"  format="ascii" >
  0.50000000000000000        0.0000000000000000        0.0000000000000000     
  0.53125000000000000        0.0000000000000000        0.0000000000000000     
  0.56250000000000000        0.0000000000000000        0.0000000000000000     
  0.59375000000000000        0.0000000000000000        0.0000000000000000     
  0.62500000000000000        0.0000000000000000        0.0000000000000000     
  0.50000000000000000        3.1250000000000000E-002   0.0000000000000000     
  0.53125000000000000        3.1250000000000000E-002   0.0000000000000000     
  0.56250000000000000        3.1250000000000000E-002   0.0000000000000000     
  0.59375000000000000        3.1250000000000000E-002   0.0000000000000000     
  0.62500000000000000        3.1250000000000000E-002   0.0000000000000000     
  0.50000000000000000        6.2500000000000000E-002   0.0000000000000000     
  0.53125000000000000        6.2500000000000000E-002   0.0000000000000000     
  0.56250000000000000        6.2500000000000000E-002   0.0000000000000000     
  0.59375000000000000        6.2500000000000000E-002   0.0000000000000000     
  0.62500000000000000        6.2500000000000000E-002   0.0000000000000000     
  0.50000000000000000        9.3750000000000000E-002   0.0000000000000000     
  0.53125000000000000        9.3750000000000000E-002   0.0000000000000000     
  0.56250000000000000        9.3750000000000000E-002   0.0000000000000000     
  0.59375000000000000        9.3750000000000000E-002   0.0000000000000000     
  0.62500000000000000        9.3750000000000000E-002   0.0000000000000000     
  0.50000000000000000       0.12500000000000000        0.0000000000000000     
  0.53125000000000000       0.12500000000000000        0.0000000000000000     
  0.56250000000000000       0.12500000000000000        0.0000000000000000     
  0.59375000000000000       0.12500000000000000        0.0000000000000000     
  0.62500000000000000       0.12500000000000000        0.0000000000000000     
  0.62500000000000000        0.0000000000000000        0.0000000000000000     
  0.65625000000000000        0.0000000000000000        0.0000000000000000     
  0.68750000000000000        0.0000000000000000        0.0000000000000000     
  0.71875000000000000        0.0000000000000000        0.0000000000000000     
  0.75000000000000000        0.0000000000000000        0.0000000000000000     
  0.62500000000000000        3.1250000000000000E-002   0.0000000000000000     
  0.65625000000000000        3.1250000000000000E-002   0.0000000000000000     
  0.68750000000000000        3.1250000000000000E-002   0.0000000000000000     
  0.71875000000000000        3.1250000000000000E-002   0.0000000000000000     
  0.75000000000000000        3.1250000000000000E-002   0.0000000000000000     
  0.62500000000000000        6.2500000000000000E-002   0.0000000000000000     
  0.65625000000000000        6.2500000000000000E-002   0.0000000000000000     
  0.68750000000000000        6.2500000000000000E-002   0.0000000000000000     
  0.71875000000000000        6.2500000000000000E-002   0.0000000000000000     
  0.75000000000000000        6.2500000000000000E-002   0.0000000000000000     
  0.62500000000000000        9.3750000000000000E-002   0.0000000000000000     
  0.65625000000000000        9.3750000000000000E-002   0.0000000000000000     
  0.68750000000000000        9.3750000000000000E-002   0.0000000000000000     
  0.71875000000000000        9.3750000000000000E-002   0.0000000000000000     
  0.75000000000000000        9.3750000000000000E-002   0.0000000000000000     
  0.62500000000000000       0.12500000000000000        0.0000000000000000     
  0.65625000000000000       0.12500000000000000        0.0000000000000000     
  0.68750000000000000       0.12500000000000000        0.0000000000000000     
  0.71875000000000000       0.12500000000000000        0.0000000000000000     
  0.75000000000000000       0.12500000000000000        0.0000000000000000     
  0.75000000000000000        0.0000000000000000        0.0000000000000000     
  0.78125000000000000        0.0000000000000000        0.0000000000000000     
  0.81250000000000000        0.0000000000000000        0.0000000000000000     
  0.84375000000000000        0.0000000000000000        0.0000000000000000     
  0.87500000000000000        0.0000000000000000        0.0000000000000000     
  0.75000000000000000        3.1250000000000000E-002   0.0000000000000000     
  0.78125000000000000        3.1250000000000000E-002   0.0000000000000000     
  0.81250000000000000        3.1250000000000000E-002   0.0000000000000000     
  0.84375000000000000        3.1250000000000000E-002   0.0000000000000000     
  0.87500000000000000        3.1250000000000000E-002   0.0000000000000000     
  0.75000000000000000        6.2500000000000000E-002   0.0000000000000000     
  0.78125000000000000        6.2500000000000000E-002   0.0000000000000000     
  0.81250000000000000        6.2500000000000000E-002   0.0000000000000000     
  0.84375000000000000        6.2500000000000000E-002   0.0000000000000000     
  0.87500000000000000        6.2500000000000000E-002   0.0000000000000000     
  0.75000000000000000        9.3750000000000000E-002   0.0000000000000000     
  0.78125000000000000        9.3750000000000000E-002   0.0000000000000000     
  0.81250000000000000        9.3750000000000000E-002   0.0000000000000000     
  0.84375000000000000        9.3750000000000000E-002   0.0000000000000000     
  0.87500000000000000        9.3750000000000000E-002   0.0000000000000000     
  0.75000000000000000       0.12500000000000000        0.0000000000000000     
  0.78125000000000000       0.12500000000000000        0.0000000000000000     
  0.81250000000000000       0.12500000000000000        0.0000000000000000     
  0.84375000000000000       0.12500000000000000        0.0000000000000000     
  0.87500000000000000       0.12500000000000000        0.0000000000000000     
  0.87500000000000000        0.0000000000000000        0.0000000000000000     
  0.90625000000000000        0.0000000000000000        0.0000000000000000     
  0.93750000000000000        0.0000000000000000        0.0000000000000000     
  0.96875000000000000        0.0000000000000000        0.0000000000000000     
   1.0000000000000000        0.0000000000000000        0.0000000000000000     
  0.87500000000000000        3.1250000000000000E-002   0.0000000000000000     
  0.90625000000000000        3.1250000000000000E-002   0.0000000000000000     
  0.93750000000000000        3.1250000000000000E-002   0.0000000000000000     
  0.96875000000000000        3.1250000000000000E-002   0.0000000000000000     
   1.0000000000000000        3.1250000000000000E-002   0.0000000000000000     
  0.87500000000000000        6.2500000000000000E-002   0.0000000000000000     
  0.90625000000000000        6.2500000000000000E-002   0.0000000000000000     
  0.93750000000000000        6.2500000000000000E-002   0.0000000000000000     
  0.96875000000000000        6.2500000000000000E-002   0.0000000000000000     
   1.0000000000000000        6.2500000000000000E-002   0.0000000000000000     
  0.87500000000000000        9.3750000000000000E-002   0.0000000000000000     
  0.90625000000000000        9.3750000000000000E-002   0.0000000000000000     
  0.93750000000000000        9.3750000000000000E-002   0.0000000000000000     
  0.96875000000000000        9.3750000000000000E-002   0.0000000000000000     
   1.0000000000000000        9.3750000000000000E-002   0.0000000000000000     
  0.87500000000000000       0.12500000000000000        0.0000000000000000     
  0.90625000000000000       0.12500000000000000        0.0000000000000000     
  0.93750000000000000       0.12500000000000000        0.0000000000000000     
  0.96875000000000000       0.12500000000000000        0.0000000000000000     
   1.0000000000000000       0.12500000000000000        0.0000000000000000     
   1.0000000000000000        0.0000000000000000        0.0000000000000000     
   1.0312500000000000        0.0000000000000000        0.0000000000000000     
   1.0625000000000000        0.0000000000000000        0.0000000000000000     
   1.0937500000000000        0.0000000000000000        0.0000000000000000     
   1.1250000000000000        0.0000000000000000        0.0000000000000000     
   1.0000000000000000        3.1250000000000000E-002   0.0000000000000000     
   1.0312500000000000        3.1250000000000000E-002   0.0000000000000000     
   1.0625000000000000        3.1250000000000000E-002   0.0000000000000000     
   1.0937500000000000        3.1250000000000000E-002   0.0000000000000000     
   1.1250000000000000        3.1250000000000000E-002   0.0000000000000000     
   1.0000000000000000        6.2500000000000000E-002   0.0000000000000000     
   1.0312500000000000        6.2500000000000000E-002   0.0000000000000000     
   1.0625000000000000        6.2500000000000000E-002   0.0000000000000000     
   1.0937500000000000        6.2500000000000000E-002   0.0000000000000000     
   1.1250000000000000        6.2500000000000000E-002   0.0000000000000000     
   1.0000000000000000        9.3750000000000000E-002   0.0000000000000000     
   1.0312500000000000        9.3750000000000000E-002   0.0000000000000000     
   1.0625000000000000        9.3750000000000000E-002   0.0000000000000000     
   1.0937500000000000        9.3750000000000000E-002   0.0000000000000000     
   1.1250000000000000        9.3750000000000000E-002   0.0000000000000000     
   1.0000000000000000       0.12500000000000000        0.0000000000000000     
   1.0312500000000000       0.12500000000000000        0.0000000000000000     
   1.0625000000000000       0.12500000000000000        0.0000000000000000     
   1.0937500000000000       0.12500000000000000        0.0000000000000000     
   1.1250000000000000       0.12500000000000000        0.0000000000000000     
   1.1250000000000000        0.0000000000000000        0.0000000000000000     
   1.1562500000000000        0.0000000000000000        0.0000000000000000     
   1.1875000000000000        0.0000000000000000        0.0000000000000000     
   1.2187500000000000        0.0000000000000000        0.0000000000000000     
   1.2500000000000000        0.0000000000000000        0.0000000000000000     
   1.1250000000000000        3.1250000000000000E-002   0.0000000000000000     
   1.1562500000000000        3.1250000000000000E-002   0.0000000000000000     
   1.1875000000000000        3.1250000000000000E-002   0.0000000000000000     
   1.2187500000000000        3.1250000000000000E-002   0.0000000000000000     
   1.2500000000000000        3.1250000000000000E-002   0.0000000000000000     
   1.1250000000000000        6.2500000000000000E-002   0.0000000000000000     
   1.1562500000000000        6.2500000000000000E-002   0.0000000000000000     
   1.1875000000000000        6.2500000000000000E-002   0.0000000000000000     
   1.2187500000000000        6.2500000000000000E-002   0.0000000000000000     
   1.2500000000000000        6.2500000000000000E-002   0.0000000000000000     
   1.1250000000000000        9.3750000000000000E-002   0.0000000000000000     
   1.1562500000000000        9.3750000000000000E-002   0.0000000000000000     
   1.1875000000000000        9.3750000000000000E-002   0.0000000000000000     
   1.2187500000000000        9.3750000000000000E-002   0.0000000000000000     
   1.2500000000000000        9.3750000000000000E-002   0.0000000000000000     
   1.1250000000000000       0.12500000000000000        0.0000000000000000     
   1.1562500000000000       0.12500000000000000        0.0000000000000000     
   1.1875000000000000       0.12500000000000000        0.0000000000000000     
   1.2187500000000000       0.12500000000000000        0.0000000000000000     
   1.2500000000000000       0.12500000000000000        0.0000000000000000     
   1.2500000000000000        0.0000000000000000        0.0000000000000000     
   1.2812500000000000        0.0000000000000000        0.0000000000000000     
   1.3125000000000000        0.0000000000000000        0.0000000000000000     
   1.3437500000000000        0.0000000000000000        0.0000000000000000     
   1.3750000000000000        0.0000000000000000        0.0000000000000000     
   1.2500000000000000        3.1250000000000000E-002   0.0000000000000000     
   1.2812500000000000        3.1250000000000000E-002   0.0000000000000000     
   1.3125000000000000        3.1250000000000000E-002   0.0000000000000000     
   1.3437500000000000        3.1250000000000000E-002   0.0000000000000000     
   1.3750000000000000        3.1250000000000000E-002   0.0000000000000000     
   1.2500000000000000        6.2500000000000000E-002   0.0000000000000000     
   1.2812500000000000        6.2500000000000000E-002   0.0000000000000000     
   1.3125000000000000        6.2500000000000000E-002   0.0000000000000000     
   1.3437500000000000        6.2500000000000000E-002   0.0000000000000000     
   1.3750000000000000        6.2500000000000000E-002   0.0000000000000000     
   1.2500000000000000        9.3750000000000000E-002   0.0000000000000000     
   1.2812500000000000        9.3750000000000000E-002   0.0000000000000000     
   1.3125000000000000        9.3750000000000000E-002   0.0000000000000000     
   1.3437500000000000        9.3750000000000000E-002   0.0000000000000000     
   1.3750000000000000        9.3750000000000000E-002   0.0000000000000000     
   1.2500000000000000       0.12500000000000000        0.0000000000000000     
   1.2812500000000000       0.12500000000000000        0.0000000000000000     
   1.3125000000000000       0.12500000000000000        0.0000000000000000     
   1.3437500000000000       0.12500000000000000        0.0000000000000000     
   1.3750000000000000       0.12500000000000000        0.0000000000000000     
   1.3750000000000000        0.0000000000000000        0.0000000000000000     
   1.4062500000000000        0.0000000000000000        0.0000000000000000     
   1.4375000000000000        0.0000000000000000        0.0000000000000000     
   1.4687500000000000        0.0000000000000000        0.0000000000000000     
   1.5000000000000000        0.0000000000000000        0.0000000000000000     
   1.3750000000000000        3.1250000000000000E-002   0.0000000000000000     
   1.4062500000000000        3.1250000000000000E-002   0.0000000000000000     
   1.4375000000000000        3.1250000000000000E-002   0.0000000000000000     
   1.4687500000000000        3.1250000000000000E-002   0.0000000000000000     
   1.5000000000000000        3.1250000000000000E-002   0.0000000000000000     
   1.3750000000000000        6.2500000000000000E-002   0.0000000000000000     
   1.4062500000000000        6.2500000000000000E-002   0.0000000000000000     
   1.4375000000000000        6.2500000000000000E-002   0.0000000000000000     
   1.4687500000000000        6.2500000000000000E-002   0.0000000000000000     
   1.5000000000000000        6.2500000000000000E-002   0.0000000000000000     
   1.3750000000000000        9.3750000000000000E-002   0.0000000000000000     
   1.4062500000000000        9.3750000000000000E-002   0.0000000000000000     
   1.4375000000000000        9.3750000000000000E-002   0.0000000000000000     
   1.4687500000000000        9.3750000000000000E-002   0.0000000000000000     
   1.5000000000000000        9.3750000000000000E-002   0.0000000000000000     
   1.3750000000000000       0.12500000000000000        0.0000000000000000     
   1.4062500000000000       0.12500000000000000        0.0000000000000000     
   1.4375000000000000       0.12500000000000000        0.0000000000000000     
   1.4687500000000000       0.12500000000000000        0.0000000000000000     
   1.5000000000000000       0.12500000000000000        0.0000000000000000     
  0.50000000000000000       0.12500000000000000        0.0000000000000000     
  0.53125000000000000       0.12500000000000000        0.0000000000000000     
  0.56250000000000000       0.12500000000000000        0.0000000000000000     
  0.59375000000000000       0.12500000000000000        0.0000000000000000     
  0.62500000000000000       0.12500000000000000        0.0000000000000000     
  0.50000000000000000       0.15625000000000000        0.0000000000000000     
  0.53125000000000000       0.15625000000000000        0.0000000000000000     
  0.56250000000000000       0.15625000000000000        0.0000000000000000     
  0.59375000000000000       0.15625000000000000        0.0000000000000000     
  0.62500000000000000       0.15625000000000000        0.0000000000000000     
  0.50000000000000000       0.18750000000000000        0.0000000000000000     
  0.53125000000000000       0.18750000000000000        0.0000000000000000     
  0.56250000000000000       0.18750000000000000        0.0000000000000000     
  0.59375000000000000       0.18750000000000000        0.0000000000000000     
  0.62500000000000000       0.18750000000000000        0.0000000000000000     
  0.50000000000000000       0.21875000000000000        0.0000000000000000     
  0.53125000000000000       0.21875000000000000        0.0000000000000000     
  0.56250000000000000       0.21875000000000000        0.0000000000000000     
  0.59375000000000000       0.21875000000000000        0.0000000000000000     
  0.62500000000000000       0.21875000000000000        0.0000000000000000     
  0.50000000000000000       0.25000000000000000        0.0000000000000000     
  0.53125000000000000       0.25000000000000000        0.0000000000000000     
  0.56250000000000000       0.25000000000000000        0.0000000000000000     
  0.59375000000000000       0.25000000000000000        0.0000000000000000     
  0.62500000000000000       0.25000000000000000        0.0000000000000000     
  0.62500000000000000       0.12500000000000000        0.0000000000000000     
  0.65625000000000000       0.12500000000000000        0.0000000000000000     
  0.68750000000000000       0.12500000000000000        0.0000000000000000     
  0.71875000000000000       0.12500000000000000        0.0000000000000000     
  0.75000000000000000       0.12500000000000000        0.0000000000000000     
  0.62500000000000000       0.15625000000000000        0.0000000000000000     
  0.65625000000000000       0.15625000000000000        0.0000000000000000     
  0.68750000000000000       0.15625000000000000        0.0000000000000000     
  0.71875000000000000       0.15625000000000000        0.0000000000000000     
  0.75000000000000000       0.15625000000000000        0.0000000000000000     
  0.62500000000000000       0.18750000000000000        0.0000000000000000     
  0.65625000000000000       0.18750000000000000        0.0000000000000000     
  0.68750000000000000       0.18750000000000000        0.0000000000000000     
  0.71875000000000000       0.18750000000000000        0.0000000000000000     
  0.75000000000000000       0.18750000000000000        0.0000000000000000     
  0.62500000000000000       0.21875000000000000        0.0000000000000000     
  0.65625000000000000       0.21875000000000000        0.0000000000000000     
  0.68750000000000000       0.21875000000000000        0.0000000000000000     
  0.71875000000000000       0.21875000000000000        0.0000000000000000     
  0.75000000000000000       0.21875000000000000        0.0000000000000000     
  0.62500000000000000       0.25000000000000000        0.0000000000000000     
  0.65625000000000000       0.25000000000000000        0.0000000000000000     
  0.68750000000000000       0.25000000000000000        0.0000000000000000     
  0.71875000000000000       0.25000000000000000        0.0000000000000000     
  0.75000000000000000       0.25000000000000000        0.0000000000000000     
  0.75000000000000000       0.12500000000000000        0.0000000000000000     
  0.78125000000000000       0.12500000000000000        0.0000000000000000     
  0.81250000000000000       0.12500000000000000        0.0000000000000000     
  0.84375000000000000       0.12500000000000000        0.0000000000000000     
  0.87500000000000000       0.12500000000000000        0.0000000000000000     
  0.75000000000000000       0.15625000000000000        0.0000000000000000     
  0.78125000000000000       0.15625000000000000        0.0000000000000000     
  0.81250000000000000       0.15625000000000000        0.0000000000000000     
  0.84375000000000000       0.15625000000000000        0.0000000000000000     
  0.87500000000000000       0.15625000000000000        0.0000000000000000     
  0.75000000000000000       0.18750000000000000        0.0000000000000000     
  0.78125000000000000       0.18750000000000000        0.0000000000000000     
  0.81250000000000000       0.18750000000000000        0.0000000000000000     
  0.84375000000000000       0.18750000000000000        0.0000000000000000     
  0.87500000000000000       0.18750000000000000        0.0000000000000000     
  0.75000000000000000       0.21875000000000000        0.0000000000000000     
  0.78125000000000000       0.21875000000000000        0.0000000000000000     
  0.81250000000000000       0.21875000000000000        0.0000000000000000     
  0.84375000000000000       0.21875000000000000        0.0000000000000000     
  0.87500000000000000       0.21875000000000000        0.0000000000000000     
  0.75000000000000000       0.25000000000000000        0.0000000000000000     
  0.78125000000000000       0.25000000000000000        0.0000000000000000     
  0.81250000000000000       0.25000000000000000        0.0000000000000000     
  0.84375000000000000       0.25000000000000000        0.0000000000000000     
  0.87500000000000000       0.25000000000000000        0.0000000000000000     
  0.87500000000000000       0.12500000000000000        0.0000000000000000     
  0.90625000000000000       0.12500000000000000        0.0000000000000000     
  0.93750000000000000       0.12500000000000000        0.0000000000000000     
  0.96875000000000000       0.12500000000000000        0.0000000000000000     
   1.0000000000000000       0.12500000000000000        0.0000000000000000     
  0.87500000000000000       0.15625000000000000        0.0000000000000000     
  0.90625000000000000       0.15625000000000000        0.0000000000000000     
  0.93750000000000000       0.15625000000000000        0.0000000000000000     
  0.96875000000000000       0.15625000000000000        0.0000000000000000     
   1.0000000000000000       0.15625000000000000        0.0000000000000000     
  0.87500000000000000       0.18750000000000000        0.0000000000000000     
  0.90625000000000000       0.18750000000000000        0.0000000000000000     
  0.93750000000000000       0.18750000000000000        0.0000000000000000     
  0.96875000000000000       0.18750000000000000        0.0000000000000000     
   1.0000000000000000       0.18750000000000000        0.0000000000000000     
  0.87500000000000000       0.21875000000000000        0.0000000000000000     
  0.90625000000000000       0.21875000000000000        0.0000000000000000     
  0.93750000000000000       0.21875000000000000        0.0000000000000000     
  0.96875000000000000       0.21875000000000000        0.0000000000000000     
   1.0000000000000000       0.21875000000000000        0.0000000000000000     
  0.87500000000000000       0.25000000000000000        0.0000000000000000     
  0.90625000000000000       0.25000000000000000        0.0000000000000000     
  0.93750000000000000       0.25000000000000000        0.0000000000000000     
  0.96875000000000000       0.25000000000000000        0.0000000000000000     
   1.0000000000000000       0.25000000000000000        0.0000000000000000     
   1.0000000000000000       0.12500000000000000        0.0000000000000000     
   1.0312500000000000       0.12500000000000000        0.0000000000000000     
   1.0625000000000000       0.12500000000000000        0.0000000000000000     
   1.0937500000000000       0.12500000000000000        0.0000000000000000     
   1.1250000000000000       0.12500000000000000        0.0000000000000000     
   1.0000000000000000       0.15625000000000000        0.0000000000000000     
   1.0312500000000000       0.15625000000000000        0.0000000000000000     
   1.0625000000000000       0.15625000000000000        0.0000000000000000     
   1.0937500000000000       0.15625000000000000        0.0000000000000000     
   1.1250000000000000       0.15625000000000000        0.0000000000000000     
   1.0000000000000000       0.18750000000000000        0.0000000000000000     
   1.0312500000000000       0.18750000000000000        0.0000000000000000     
   1.0625000000000000       0.18750000000000000        0.0000000000000000     
   1.0937500000000000       0.18750000000000000        0.0000000000000000     
   1.1250000000000000       0.18750000000000000        0.0000000000000000     
   1.0000000000000000       0.21875000000000000        0.0000000000000000     
   1.0312500000000000       0.21875000000000000        0.0000000000000000     
   1.0625000000000000       0.21875000000000000        0.0000000000000000     
   1.0937500000000000       0.21875000000000000        0.0000000000000000     
   1.1250000000000000       0.21875000000000000        0.0000000000000000     
   1.0000000000000000       0.25000000000000000        0.0000000000000000     
   1.0312500000000000       0.25000000000000000        0.0000000000000000     
   1.0625000000000000       0.25000000000000000        0.0000000000000000     
   1.0937500000000000       0.25000000000000000        0.0000000000000000     
   1.1250000000000000       0.25000000000000000        0.0000000000000000     
   1.1250000000000000       0.12500000000000000        0.0000000000000000     
   1.1562500000000000       0.12500000000000000        0.0000000000000000     
   1.1875000000000000       0.12500000000000000        0.0000000000000000     
   1.2187500000000000       0.12500000000000000        0.0000000000000000     
   1.2500000000000000       0.12500000000000000        0.0000000000000000     
   1.1250000000000000       0.15625000000000000        0.0000000000000000     
   1.1562500000000000       0.15625000000000000        0.0000000000000000     
   1.1875000000000000       0.15625000000000000        0.0000000000000000     
   1.2187500000000000       0.15625000000000000        0.0000000000000000     
   1.2500000000000000       0.15625000000000000        0.0000000000000000     
   1.1250000000000000       0.18750000000000000        0.0000000000000000     
   1.1562500000000000       0.18750000000000000        0.0000000000000000     
   1.1875000000000000       0.18750000000000000        0.0000000000000000     
   1.2187500000000000       0.18750000000000000        0.0000000000000000     
   1.2500000000000000       0.18750000000000000        0.0000000000000000     
   1.1250000000000000       0.21875000000000000        0.0000000000000000     
   1.1562500000000000       0.21875000000000000        0.0000000000000000     
   1.1875000000000000       0.21875000000000000        0.0000000000000000     
   1.2187500000000000       0.21875000000000000        0.0000000000000000     
   1.2500000000000000       0.21875000000000000        0.0000000000000000     
   1.1250000000000000       0.25000000000000000        0.0000000000000000     
   1.1562500000000000       0.25000000000000000        0.0000000000000000     
   1.1875000000000000       0.25000000000000000        0.0000000000000000     
   1.2187500000000000       0.25000000000000000        0.0000000000000000     
   1.2500000000000000       0.25000000000000000        0.0000000000000000     
   1.2500000000000000       0.12500000000000000        0.0000000000000000     
   1.2812500000000000       0.12500000000000000        0.0000000000000000     
   1.3125000000000000       0.12500000000000000        0.0000000000000000     
   1.3437500000000000       0.12500000000000000        0.0000000000000000     
   1.3750000000000000       0.12500000000000000        0.0000000000000000     
   1.2500000000000000       0.15625000000000000        0.0000000000000000     
   1.2812500000000000       0.15625000000000000        0.0000000000000000     
   1.3125000000000000       0.15625000000000000        0.0000000000000000     
   1.3437500000000000       0.15625000000000000        0.0000000000000000     
   1.3750000000000000       0.15625000000000000        0.0000000000000000     
   1.2500000000000000       0.18750000000000000        0.0000000000000000     
   1.2812500000000000       0.18750000000000000        0.0000000000000000     
   1.3125000000000000       0.18750000000000000        0.0000000000000000     
   1.3437500000000000       0.18750000000000000        0.0000000000000000     
   1.3750000000000000       0.18750000000000000        0.0000000000000000     
   1.2500000000000000       0.21875000000000000        0.0000000000000000     
   1.2812500000000000       0.21875000000000000        0.0000000000000000     
   1.3125000000000000       0.21875000000000000        0.0000000000000000     
   1.3437500000000000       0.21875000000000000        0.0000000000000000     
   1.3750000000000000       0.21875000000000000        0.0000000000000000     
   1.2500000000000000       0.25000000000000000        0.0000000000000000     
   1.2812500000000000       0.25000000000000000        0.0000000000000000     
   1.3125000000000000       0.25000000000000000        0.0000000000000000     
   1.3437500000000000       0.25000000000000000        0.0000000000000000     
   1.3750000000000000       0.25000000000000000        0.0000000000000000     
   1.3750000000000000       0.12500000000000000        0.0000000000000000     
   1.4062500000000000       0.12500000000000000        0.0000000000000000     
   1.4375000000000000       0.12500000000000000        0.0000000000000000     
   1.4687500000000000       0.12500000000000000        0.0000000000000000     
   1.5000000000000000       0.12500000000000000        0.0000000000000000     
   1.3750000000000000       0.15625000000000000        0.0000000000000000     
   1.4062500000000000       0.15625000000000000        0.0000000000000000     
   1.4375000000000000       0.15625000000000000        0.0000000000000000     
   1.4687500000000000       0.15625000000000000        0.0000000000000000     
   1.5000000000000000       0.15625000000000000        0.0000000000000000     
   1.3750000000000000       0.18750000000000000        0.0000000000000000     
   1.4062500000000000       0.18750000000000000        0.0000000000000000     
   1.4375000000000000       0.18750000000000000        0.0000000000000000     
   1.4687500000000000       0.18750000000000000        0.0000000000000000     
   1.5000000000000000       0.18750000000000000        0.0000000000000000     
   1.3750000000000000       0.21875000000000000        0.0000000000000000     
   1.4062500000000000       0.21875000000000000        0.0000000000000000     
   1.4375000000000000       0.21875000000000000        0.0000000000000000     
   1.4687500000000000       0.21875000000000000        0.0000000000000000     
   1.5000000000000000       0.21875000000000000        0.0000000000000000     
   1.3750000000000000       0.25000000000000000        0.0000000000000000     
   1.4062500000000000       0.25000000000000000        0.0000000000000000     
   1.4375000000000000       0.25000000000000000        0.0000000000000000     
   1.4687500000000000       0.25000000000000000        0.0000000000000000     
   1.5000000000000000       0.25000000000000000        0.0000000000000000     
  0.50000000000000000       0.25000000000000000        0.0000000000000000     
  0.53125000000000000       0.25000000000000000        0.0000000000000000     
  0.56250000000000000       0.25000000000000000        0.0000000000000000     
  0.59375000000000000       0.25000000000000000        0.0000000000000000     
  0.62500000000000000       0.25000000000000000        0.0000000000000000     
  0.50000000000000000       0.28125000000000000        0.0000000000000000     
  0.53125000000000000       0.28125000000000000        0.0000000000000000     
  0.56250000000000000       0.28125000000000000        0.0000000000000000     
  0.59375000000000000       0.28125000000000000        0.0000000000000000     
  0.62500000000000000       0.28125000000000000        0.0000000000000000     
  0.50000000000000000       0.31250000000000000        0.0000000000000000     
  0.53125000000000000       0.31250000000000000        0.0000000000000000     
  0.56250000000000000       0.31250000000000000        0.0000000000000000     
  0.59375000000000000       0.31250000000000000        0.0000000000000000     
  0.62500000000000000       0.31250000000000000        0.0000000000000000     
  0.50000000000000000       0.34375000000000000        0.0000000000000000     
  0.53125000000000000       0.34375000000000000        0.0000000000000000     
  0.56250000000000000       0.34375000000000000        0.0000000000000000     
  0.59375000000000000       0.34375000000000000        0.0000000000000000     
  0.62500000000000000       0.34375000000000000        0.0000000000000000     
  0.50000000000000000       0.37500000000000000        0.0000000000000000     
  0.53125000000000000       0.37500000000000000        0.0000000000000000     
  0.56250000000000000       0.37500000000000000        0.0000000000000000     
  0.59375000000000000       0.37500000000000000        0.0000000000000000     
  0.62500000000000000       0.37500000000000000        0.0000000000000000     
  0.62500000000000000       0.25000000000000000        0.0000000000000000     
  0.65625000000000000       0.25000000000000000        0.0000000000000000     
  0.68750000000000000       0.25000000000000000        0.0000000000000000     
  0.71875000000000000       0.25000000000000000        0.0000000000000000     
  0.75000000000000000       0.25000000000000000        0.0000000000000000     
  0.62500000000000000       0.28125000000000000        0.0000000000000000     
  0.65625000000000000       0.28125000000000000        0.0000000000000000     
  0.68750000000000000       0.28125000000000000        0.0000000000000000     
  0.71875000000000000       0.28125000000000000        0.0000000000000000     
  0.75000000000000000       0.28125000000000000        0.0000000000000000     
  0.62500000000000000       0.31250000000000000        0.0000000000000000     
  0.65625000000000000       0.31250000000000000        0.0000000000000000     
  0.68750000000000000       0.31250000000000000        0.0000000000000000     
  0.71875000000000000       0.31250000000000000        0.0000000000000000     
  0.75000000000000000       0.31250000000000000        0.0000000000000000     
  0.62500000000000000       0.34375000000000000        0.0000000000000000     
  0.65625000000000000       0.34375000000000000        0.0000000000000000     
  0.68750000000000000       0.34375000000000000        0.0000000000000000     
  0.71875000000000000       0.34375000000000000        0.0000000000000000     
  0.75000000000000000       0.34375000000000000        0.0000000000000000     
  0.62500000000000000       0.37500000000000000        0.0000000000000000     
  0.65625000000000000       0.37500000000000000        0.0000000000000000     
  0.68750000000000000       0.37500000000000000        0.0000000000000000     
  0.71875000000000000       0.37500000000000000        0.0000000000000000     
  0.75000000000000000       0.37500000000000000        0.0000000000000000     
  0.75000000000000000       0.25000000000000000        0.0000000000000000     
  0.78125000000000000       0.25000000000000000        0.0000000000000000     
  0.81250000000000000       0.25000000000000000        0.0000000000000000     
  0.84375000000000000       0.25000000000000000        0.0000000000000000     
  0.87500000000000000       0.25000000000000000        0.0000000000000000     
  0.75000000000000000       0.28125000000000000        0.0000000000000000     
  0.78125000000000000       0.28125000000000000        0.0000000000000000     
  0.81250000000000000       0.28125000000000000        0.0000000000000000     
  0.84375000000000000       0.28125000000000000        0.0000000000000000     
  0.87500000000000000       0.28125000000000000        0.0000000000000000     
  0.75000000000000000       0.31250000000000000        0.0000000000000000     
  0.78125000000000000       0.31250000000000000        0.0000000000000000     
  0.81250000000000000       0.31250000000000000        0.0000000000000000     
  0.84375000000000000       0.31250000000000000        0.0000000000000000     
  0.87500000000000000       0.31250000000000000        0.0000000000000000     
  0.75000000000000000       0.34375000000000000        0.0000000000000000     
  0.78125000000000000       0.34375000000000000        0.0000000000000000     
  0.81250000000000000       0.34375000000000000        0.0000000000000000     
  0.84375000000000000       0.34375000000000000        0.0000000000000000     
  0.87500000000000000       0.34375000000000000        0.0000000000000000     
  0.75000000000000000       0.37500000000000000        0.0000000000000000     
  0.78125000000000000       0.37500000000000000        0.0000000000000000     
  0.81250000000000000       0.37500000000000000        0.0000000000000000     
  0.84375000000000000       0.37500000000000000        0.0000000000000000     
  0.87500000000000000       0.37500000000000000        0.0000000000000000     
  0.87500000000000000       0.25000000000000000        0.0000000000000000     
  0.90625000000000000       0.25000000000000000        0.0000000000000000     
  0.93750000000000000       0.25000000000000000        0.0000000000000000     
  0.96875000000000000       0.25000000000000000        0.0000000000000000     
   1.0000000000000000       0.25000000000000000        0.0000000000000000     
  0.87500000000000000       0.28125000000000000        0.0000000000000000     
  0.90625000000000000       0.28125000000000000        0.0000000000000000     
  0.93750000000000000       0.28125000000000000        0.0000000000000000     
  0.96875000000000000       0.28125000000000000        0.0000000000000000     
   1.0000000000000000       0.28125000000000000        0.0000000000000000     
  0.87500000000000000       0.31250000000000000        0.0000000000000000     
  0.90625000000000000       0.31250000000000000        0.0000000000000000     
  0.93750000000000000       0.31250000000000000        0.0000000000000000     
  0.96875000000000000       0.31250000000000000        0.0000000000000000     
   1.0000000000000000       0.31250000000000000        0.0000000000000000     
  0.87500000000000000       0.34375000000000000        0.0000000000000000     
  0.90625000000000000       0.34375000000000000        0.0000000000000000     
  0.93750000000000000       0.34375000000000000        0.0000000000000000     
  0.96875000000000000       0.34375000000000000        0.0000000000000000     
   1.0000000000000000       0.34375000000000000        0.0000000000000000     
  0.87500000000000000       0.37500000000000000        0.0000000000000000     
  0.90625000000000000       0.37500000000000000        0.0000000000000000     
  0.93750000000000000       0.37500000000000000        0.0000000000000000     
  0.96875000000000000       0.37500000000000000        0.0000000000000000     
   1.0000000000000000       0.37500000000000000        0.0000000000000000     
   1.0000000000000000       0.25000000000000000        0.0000000000000000     
   1.0312500000000000       0.25000000000000000        0.0000000000000000     
   1.0625000000000000       0.25000000000000000        0.0000000000000000     
   1.0937500000000000       0.25000000000000000        0.0000000000000000     
   1.1250000000000000       0.25000000000000000        0.0000000000000000     
   1.0000000000000000       0.28125000000000000        0.0000000000000000     
   1.0312500000000000       0.28125000000000000        0.0000000000000000     
   1.0625000000000000       0.28125000000000000        0.0000000000000000     
   1.0937500000000000       0.28125000000000000        0.0000000000000000     
   1.1250000000000000       0.28125000000000000        0.0000000000000000     
   1.0000000000000000       0.31250000000000000        0.0000000000000000     
   1.0312500000000000       0.31250000000000000        0.0000000000000000     
   1.0625000000000000       0.31250000000000000        0.0000000000000000     
   1.0937500000000000       0.31250000000000000        0.0000000000000000     
   1.1250000000000000       0.31250000000000000        0.0000000000000000     
   1.0000000000000000       0.34375000000000000        0.0000000000000000     
   1.0312500000000000       0.34375000000000000        0.0000000000000000     
   1.0625000000000000       0.34375000000000000        0.0000000000000000     
   1.0937500000000000       0.34375000000000000        0.0000000000000000     
   1.1250000000000000       0.34375000000000000        0.0000000000000000     
   1.0000000000000000       0.37500000000000000        0.0000000000000000     
   1.0312500000000000       0.37500000000000000        0.0000000000000000     
   1.0625000000000000       0.37500000000000000        0.0000000000000000     
   1.0937500000000000       0.37500000000000000        0.0000000000000000     
   1.1250000000000000       0.37500000000000000        0.0000000000000000     
   1.1250000000000000       0.25000000000000000        0.0000000000000000     
   1.1562500000000000       0.25000000000000000        0.0000000000000000     
   1.1875000000000000       0.25000000000000000        0.0000000000000000     
   1.2187500000000000       0.25000000000000000        0.0000000000000000     
   1.2500000000000000       0.25000000000000000        0.0000000000000000     
   1.1250000000000000       0.28125000000000000        0.0000000000000000     
   1.1562500000000000       0.28125000000000000        0.0000000000000000     
   1.1875000000000000       0.28125000000000000        0.0000000000000000     
   1.2187500000000000       0.28125000000000000        0.0000000000000000     
   1.2500000000000000       0.28125000000000000        0.0000000000000000     
   1.1250000000000000       0.31250000000000000        0.0000000000000000     
   1.1562500000000000       0.31250000000000000        0.0000000000000000     
   1.1875000000000000       0.31250000000000000        0.0000000000000000     
   1.2187500000000000       0.31250000000000000        0.0000000000000000     
   1.2500000000000000       0.31250000000000000        0.0000000000000000     
   1.1250000000000000       0.34375000000000000        0.0000000000000000     
   1.1562500000000000       0.34375000000000000        0.0000000000000000     
   1.1875000000000000       0.34375000000000000        0.0000000000000000     
   1.2187500000000000       0.34375000000000000        0.0000000000000000     
   1.2500000000000000       0.34375000000000000        0.0000000000000000     
   1.1250000000000000       0.37500000000000000        0.0000000000000000     
   1.1562500000000000       0.37500000000000000        0.0000000000000000     
   1.1875000000000000       0.37500000000000000        0.0000000000000000     
   1.2187500000000000       0.37500000000000000        0.0000000000000000     
   1.2500000000000000       0.37500000000000000        0.0000000000000000     
   1.2500000000000000       0.25000000000000000        0.0000000000000000     
   1.2812500000000000       0.25000000000000000        0.0000000000000000     
   1.3125000000000000       0.25000000000000000        0.0000000000000000     
   1.3437500000000000       0.25000000000000000        0.0000000000000000     
   1.3750000000000000       0.25000000000000000        0.0000000000000000     
   1.2500000000000000       0.28125000000000000        0.0000000000000000     
   1.2812500000000000       0.28125000000000000        0.0000000000000000     
   1.3125000000000000       0.28125000000000000        0.0000000000000000     
   1.3437500000000000       0.28125000000000000        0.0000000000000000     
   1.3750000000000000       0.28125000000000000        0.0000000000000000     
   1.2500000000000000       0.31250000000000000        0.0000000000000000     
   1.2812500000000000       0.31250000000000000        0.0000000000000000     
   1.3125000000000000       0.31250000000000000        0.0000000000000000     
   1.3437500000000000       0.31250000000000000        0.0000000000000000     
   1.3750000000000000       0.31250000000000000        0.0000000000000000     
   1.2500000000000000       0.34375000000000000        0.0000000000000000     
   1.2812500000000000       0.34375000000000000        0.0000000000000000     
   1.3125000000000000       0.34375000000000000        0.0000000000000000     
   1.3437500000000000       0.34375000000000000        0.0000000000000000     
   1.3750000000000000       0.34375000000000000        0.0000000000000000     
   1.2500000000000000       0.37500000000000000        0.0000000000000000     
   1.2812500000000000       0.37500000000000000        0.0000000000000000     
   1.3125000000000000       0.37500000000000000        0.0000000000000000     
   1.3437500000000000       0.37500000000000000        0.0000000000000000     
   1.3750000000000000       0.37500000000000000        0.0000000000000000     
   1.3750000000000000       0.25000000000000000        0.0000000000000000     
   1.4062500000000000       0.25000000000000000        0.0000000000000000     
   1.4375000000000000       0.25000000000000000        0.0000000000000000     
   1.4687500000000000       0.25000000000000000        0.0000000000000000     
   1.5000000000000000       0.25000000000000000        0.0000000000000000     
   1.3750000000000000       0.28125000000000000        0.0000000000000000     
   1.4062500000000000       0.28125000000000000        0.0000000000000000     
   1.4375000000000000       0.28125000000000000        0.0000000000000000     
   1.4687500000000000       0.28125000000000000        0.0000000000000000     
   1.5000000000000000       0.28125000000000000        0.0000000000000000     
   1.3750000000000000       0.31250000000000000        0.0000000000000000     
   1.4062500000000000       0.31250000000000000        0.0000000000000000     
   1.4375000000000000       0.31250000000000000        0.0000000000000000     
   1.4687500000000000       0.31250000000000000        0.0000000000000000     
   1.5000000000000000       0.31250000000000000        0.0000000000000000     
   1.3750000000000000       0.34375000000000000        0.0000000000000000     
   1.4062500000000000       0.34375000000000000        0.0000000000000000     
   1.4375000000000000       0.34375000000000000        0.0000000000000000     
   1.4687500000000000       0.34375000000000000        0.0000000000000000     
   1.5000000000000000       0.34375000000000000        0.0000000000000000     
   1.3750000000000000       0.37500000000000000        0.0000000000000000     
   1.4062500000000000       0.37500000000000000        0.0000000000000000     
   1.4375000000000000       0.37500000000000000        0.0000000000000000     
   1.4687500000000000       0.37500000000000000        0.0000000000000000     
   1.5000000000000000       0.37500000000000000        0.0000000000000000     
  0.50000000000000000       0.37500000000000000        0.0000000000000000     
  0.53125000000000000       0.37500000000000000        0.0000000000000000     
  0.56250000000000000       0.37500000000000000        0.0000000000000000     
  0.59375000000000000       0.37500000000000000        0.0000000000000000     
  0.62500000000000000       0.37500000000000000        0.0000000000000000     
  0.50000000000000000       0.40625000000000000        0.0000000000000000     
  0.53125000000000000       0.40625000000000000        0.0000000000000000     
  0.56250000000000000       0.40625000000000000        0.0000000000000000     
  0.59375000000000000       0.40625000000000000        0.0000000000000000     
  0.62500000000000000       0.40625000000000000        0.0000000000000000     
  0.50000000000000000       0.43750000000000000        0.0000000000000000     
  0.53125000000000000       0.43750000000000000        0.0000000000000000     
  0.56250000000000000       0.43750000000000000        0.0000000000000000     
  0.59375000000000000       0.43750000000000000        0.0000000000000000     
  0.62500000000000000       0.43750000000000000        0.0000000000000000     
  0.50000000000000000       0.46875000000000000        0.0000000000000000     
  0.53125000000000000       0.46875000000000000        0.0000000000000000     
  0.56250000000000000       0.46875000000000000        0.0000000000000000     
  0.59375000000000000       0.46875000000000000        0.0000000000000000     
  0.62500000000000000       0.46875000000000000        0.0000000000000000     
  0.50000000000000000       0.50000000000000000        0.0000000000000000     
  0.53125000000000000       0.50000000000000000        0.0000000000000000     
  0.56250000000000000       0.50000000000000000        0.0000000000000000     
  0.59375000000000000       0.50000000000000000        0.0000000000000000     
  0.62500000000000000       0.50000000000000000        0.0000000000000000     
  0.62500000000000000       0.37500000000000000        0.0000000000000000     
  0.65625000000000000       0.37500000000000000        0.0000000000000000     
  0.68750000000000000       0.37500000000000000        0.0000000000000000     
  0.71875000000000000       0.37500000000000000        0.0000000000000000     
  0.75000000000000000       0.37500000000000000        0.0000000000000000     
  0.62500000000000000       0.40625000000000000        0.0000000000000000     
  0.65625000000000000       0.40625000000000000        0.0000000000000000     
  0.68750000000000000       0.40625000000000000        0.0000000000000000     
  0.71875000000000000       0.40625000000000000        0.0000000000000000     
  0.75000000000000000       0.40625000000000000        0.0000000000000000     
  0.62500000000000000       0.43750000000000000        0.0000000000000000     
  0.65625000000000000       0.43750000000000000        0.0000000000000000     
  0.68750000000000000       0.43750000000000000        0.0000000000000000     
  0.71875000000000000       0.43750000000000000        0.0000000000000000     
  0.75000000000000000       0.43750000000000000        0.0000000000000000     
  0.62500000000000000       0.46875000000000000        0.0000000000000000     
  0.65625000000000000       0.46875000000000000        0.0000000000000000     
  0.68750000000000000       0.46875000000000000        0.0000000000000000     
  0.71875000000000000       0.46875000000000000        0.0000000000000000     
  0.75000000000000000       0.46875000000000000        0.0000000000000000     
  0.62500000000000000       0.50000000000000000        0.0000000000000000     
  0.65625000000000000       0.50000000000000000        0.0000000000000000     
  0.68750000000000000       0.50000000000000000        0.0000000000000000     
  0.71875000000000000       0.50000000000000000        0.0000000000000000     
  0.75000000000000000       0.50000000000000000        0.0000000000000000     
  0.75000000000000000       0.37500000000000000        0.0000000000000000     
  0.78125000000000000       0.37500000000000000        0.0000000000000000     
  0.81250000000000000       0.37500000000000000        0.0000000000000000     
  0.84375000000000000       0.37500000000000000        0.0000000000000000     
  0.87500000000000000       0.37500000000000000        0.0000000000000000     
  0.75000000000000000       0.40625000000000000        0.0000000000000000     
  0.78125000000000000       0.40625000000000000        0.0000000000000000     
  0.81250000000000000       0.40625000000000000        0.0000000000000000     
  0.84375000000000000       0.40625000000000000        0.0000000000000000     
  0.87500000000000000       0.40625000000000000        0.0000000000000000     
  0.75000000000000000       0.43750000000000000        0.0000000000000000     
  0.78125000000000000       0.43750000000000000        0.0000000000000000     
  0.81250000000000000       0.43750000000000000        0.0000000000000000     
  0.84375000000000000       0.43750000000000000        0.0000000000000000     
  0.87500000000000000       0.43750000000000000        0.0000000000000000     
  0.75000000000000000       0.46875000000000000        0.0000000000000000     
  0.78125000000000000       0.46875000000000000        0.0000000000000000     
  0.81250000000000000       0.46875000000000000        0.0000000000000000     
  0.84375000000000000       0.46875000000000000        0.0000000000000000     
  0.87500000000000000       0.46875000000000000        0.0000000000000000     
  0.75000000000000000       0.50000000000000000        0.0000000000000000     
  0.78125000000000000       0.50000000000000000        0.0000000000000000     
  0.81250000000000000       0.50000000000000000        0.0000000000000000     
  0.84375000000000000       0.50000000000000000        0.0000000000000000     
  0.87500000000000000       0.50000000000000000        0.0000000000000000     
  0.87500000000000000       0.37500000000000000        0.0000000000000000     
  0.90625000000000000       0.37500000000000000        0.0000000000000000     
  0.93750000000000000       0.37500000000000000        0.0000000000000000     
  0.96875000000000000       0.37500000000000000        0.0000000000000000     
   1.0000000000000000       0.37500000000000000        0.0000000000000000     
  0.87500000000000000       0.40625000000000000        0.0000000000000000     
  0.90625000000000000       0.40625000000000000        0.0000000000000000     
  0.93750000000000000       0.40625000000000000        0.0000000000000000     
  0.96875000000000000       0.40625000000000000        0.0000000000000000     
   1.0000000000000000       0.40625000000000000        0.0000000000000000     
  0.87500000000000000       0.43750000000000000        0.0000000000000000     
  0.90625000000000000       0.43750000000000000        0.0000000000000000     
  0.93750000000000000       0.43750000000000000        0.0000000000000000     
  0.96875000000000000       0.43750000000000000        0.0000000000000000     
   1.0000000000000000       0.43750000000000000        0.0000000000000000     
  0.87500000000000000       0.46875000000000000        0.0000000000000000     
  0.90625000000000000       0.46875000000000000        0.0000000000000000     
  0.93750000000000000       0.46875000000000000        0.0000000000000000     
  0.96875000000000000       0.46875000000000000        0.0000000000000000     
   1.0000000000000000       0.46875000000000000        0.0000000000000000     
  0.87500000000000000       0.50000000000000000        0.0000000000000000     
  0.90625000000000000       0.50000000000000000        0.0000000000000000     
  0.93750000000000000       0.50000000000000000        0.0000000000000000     
  0.96875000000000000       0.50000000000000000        0.0000000000000000     
   1.0000000000000000       0.50000000000000000        0.0000000000000000     
   1.0000000000000000       0.37500000000000000        0.0000000000000000     
   1.0312500000000000       0.37500000000000000        0.0000000000000000     
   1.0625000000000000       0.37500000000000000        0.0000000000000000     
   1.0937500000000000       0.37500000000000000        0.0000000000000000     
   1.1250000000000000       0.37500000000000000        0.0000000000000000     
   1.0000000000000000       0.40625000000000000        0.0000000000000000     
   1.0312500000000000       0.40625000000000000        0.0000000000000000     
   1.0625000000000000       0.40625000000000000        0.0000000000000000     
   1.0937500000000000       0.40625000000000000        0.0000000000000000     
   1.1250000000000000       0.40625000000000000        0.0000000000000000     
   1.0000000000000000       0.43750000000000000        0.0000000000000000     
   1.0312500000000000       0.43750000000000000        0.0000000000000000     
   1.0625000000000000       0.43750000000000000        0.0000000000000000     
   1.0937500000000000       0.43750000000000000        0.0000000000000000     
   1.1250000000000000       0.43750000000000000        0.0000000000000000     
   1.0000000000000000       0.46875000000000000        0.0000000000000000     
   1.0312500000000000       0.46875000000000000        0.0000000000000000     
   1.0625000000000000       0.46875000000000000        0.0000000000000000     
   1.0937500000000000       0.46875000000000000        0.0000000000000000     
   1.1250000000000000       0.46875000000000000        0.0000000000000000     
   1.0000000000000000       0.50000000000000000        0.0000000000000000     
   1.0312500000000000       0.50000000000000000        0.0000000000000000     
   1.0625000000000000       0.50000000000000000        0.0000000000000000     
   1.0937500000000000       0.50000000000000000        0.0000000000000000     
   1.1250000000000000       0.50000000000000000        0.0000000000000000     
   1.1250000000000000       0.37500000000000000        0.0000000000000000     
   1.1562500000000000       0.37500000000000000        0.0000000000000000     
   1.1875000000000000       0.37500000000000000        0.0000000000000000     
   1.2187500000000000       0.37500000000000000        0.0000000000000000     
   1.2500000000000000       0.37500000000000000        0.0000000000000000     
   1.1250000000000000       0.40625000000000000        0.0000000000000000     
   1.1562500000000000       0.40625000000000000        0.0000000000000000     
   1.1875000000000000       0.40625000000000000        0.0000000000000000     
   1.2187500000000000       0.40625000000000000        0.0000000000000000     
   1.2500000000000000       0.40625000000000000        0.0000000000000000     
   1.1250000000000000       0.43750000000000000        0.0000000000000000     
   1.1562500000000000       0.43750000000000000        0.0000000000000000     
   1.1875000000000000       0.43750000000000000        0.0000000000000000     
   1.2187500000000000       0.43750000000000000        0.0000000000000000     
   1.2500000000000000       0.43750000000000000        0.0000000000000000     
   1.1250000000000000       0.46875000000000000        0.0000000000000000     
   1.1562500000000000       0.46875000000000000        0.0000000000000000     
   1.1875000000000000       0.46875000000000000        0.0000000000000000     
   1.2187500000000000       0.46875000000000000        0.0000000000000000     
   1.2500000000000000       0.46875000000000000        0.0000000000000000     
   1.1250000000000000       0.50000000000000000        0.0000000000000000     
   1.1562500000000000       0.50000000000000000        0.0000000000000000     
   1.1875000000000000       0.50000000000000000        0.0000000000000000     
   1.2187500000000000       0.50000000000000000        0.0000000000000000     
   1.2500000000000000       0.50000000000000000        0.0000000000000000     
   1.2500000000000000       0.37500000000000000        0.0000000000000000     
   1.2812500000000000       0.37500000000000000        0.0000000000000000     
   1.3125000000000000       0.37500000000000000        0.0000000000000000     
   1.3437500000000000       0.37500000000000000        0.0000000000000000     
   1.3750000000000000       0.37500000000000000        0.0000000000000000     
   1.2500000000000000       0.40625000000000000        0.0000000000000000     
   1.2812500000000000       0.40625000000000000        0.0000000000000000     
   1.3125000000000000       0.40625000000000000        0.0000000000000000     
   1.3437500000000000       0.40625000000000000        0.0000000000000000     
   1.3750000000000000       0.40625000000000000        0.0000000000000000     
   1.2500000000000000       0.43750000000000000        0.0000000000000000     
   1.2812500000000000       0.43750000000000000        0.0000000000000000     
   1.3125000000000000       0.43750000000000000        0.0000000000000000     
   1.3437500000000000       0.43750000000000000        0.0000000000000000     
   1.3750000000000000       0.43750000000000000        0.0000000000000000     
   1.2500000000000000       0.46875000000000000        0.0000000000000000     
   1.2812500000000000       0.46875000000000000        0.0000000000000000     
   1.3125000000000000       0.46875000000000000        0.0000000000000000     
   1.3437500000000000       0.46875000000000000        0.0000000000000000     
   1.3750000000000000       0.46875000000000000        0.0000000000000000     
   1.2500000000000000       0.50000000000000000        0.0000000000000000     
   1.2812500000000000       0.50000000000000000        0.0000000000000000     
   1.3125000000000000       0.50000000000000000        0.0000000000000000     
   1.3437500000000000       0.50000000000000000        0.0000000000000000     
   1.3750000000000000       0.50000000000000000        0.0000000000000000     
   1.3750000000000000       0.37500000000000000        0.0000000000000000     
   1.4062500000000000       0.37500000000000000        0.0000000000000000     
   1.4375000000000000       0.37500000000000000        0.0000000000000000     
   1.4687500000000000       0.37500000000000000        0.0000000000000000     
   1.5000000000000000       0.37500000000000000        0.0000000000000000     
   1.3750000000000000       0.40625000000000000        0.0000000000000000     
   1.4062500000000000       0.40625000000000000        0.0000000000000000     
   1.4375000000000000       0.40625000000000000        0.0000000000000000     
   1.4687500000000000       0.40625000000000000        0.0000000000000000     
   1.5000000000000000       0.40625000000000000        0.0000000000000000     
   1.3750000000000000       0.43750000000000000        0.0000000000000000     
   1.4062500000000000       0.43750000000000000        0.0000000000000000     
   1.4375000000000000       0.43750000000000000        0.0000000000000000     
   1.4687500000000000       0.43750000000000000        0.0000000000000000     
   1.5000000000000000       0.43750000000000000        0.0000000000000000     
   1.3750000000000000       0.46875000000000000        0.0000000000000000     
   1.4062500000000000       0.46875000000000000        0.0000000000000000     
   1.4375000000000000       0.46875000000000000        0.0000000000000000     
   1.4687500000000000       0.46875000000000000        0.0000000000000000     
   1.5000000000000000       0.46875000000000000        0.0000000000000000     
   1.3750000000000000       0.50000000000000000        0.0000000000000000     
   1.4062500000000000       0.50000000000000000        0.0000000000000000     
   1.4375000000000000       0.50000000000000000        0.0000000000000000     
   1.4687500000000000       0.50000000000000000        0.0000000000000000     
   1.5000000000000000       0.50000000000000000        0.0000000000000000     
  0.50000000000000000       0.50000000000000000        0.0000000000000000     
  0.53125000000000000       0.50000000000000000        0.0000000000000000     
  0.56250000000000000       0.50000000000000000        0.0000000000000000     
  0.59375000000000000       0.50000000000000000        0.0000000000000000     
  0.62500000000000000       0.50000000000000000        0.0000000000000000     
  0.50000000000000000       0.53125000000000000        0.0000000000000000     
  0.53125000000000000       0.53125000000000000        0.0000000000000000     
  0.56250000000000000       0.53125000000000000        0.0000000000000000     
  0.59375000000000000       0.53125000000000000        0.0000000000000000     
  0.62500000000000000       0.53125000000000000        0.0000000000000000     
  0.50000000000000000       0.56250000000000000        0.0000000000000000     
  0.53125000000000000       0.56250000000000000        0.0000000000000000     
  0.56250000000000000       0.56250000000000000        0.0000000000000000     
  0.59375000000000000       0.56250000000000000        0.0000000000000000     
  0.62500000000000000       0.56250000000000000        0.0000000000000000     
  0.50000000000000000       0.59375000000000000        0.0000000000000000     
  0.53125000000000000       0.59375000000000000        0.0000000000000000     
  0.56250000000000000       0.59375000000000000        0.0000000000000000     
  0.59375000000000000       0.59375000000000000        0.0000000000000000     
  0.62500000000000000       0.59375000000000000        0.0000000000000000     
  0.50000000000000000       0.62500000000000000        0.0000000000000000     
  0.53125000000000000       0.62500000000000000        0.0000000000000000     
  0.56250000000000000       0.62500000000000000        0.0000000000000000     
  0.59375000000000000       0.62500000000000000        0.0000000000000000     
  0.62500000000000000       0.62500000000000000        0.0000000000000000     
  0.62500000000000000       0.50000000000000000        0.0000000000000000     
  0.65625000000000000       0.50000000000000000        0.0000000000000000     
  0.68750000000000000       0.50000000000000000        0.0000000000000000     
  0.71875000000000000       0.50000000000000000        0.0000000000000000     
  0.75000000000000000       0.50000000000000000        0.0000000000000000     
  0.62500000000000000       0.53125000000000000        0.0000000000000000     
  0.65625000000000000       0.53125000000000000        0.0000000000000000     
  0.68750000000000000       0.53125000000000000        0.0000000000000000     
  0.71875000000000000       0.53125000000000000        0.0000000000000000     
  0.75000000000000000       0.53125000000000000        0.0000000000000000     
  0.62500000000000000       0.56250000000000000        0.0000000000000000     
  0.65625000000000000       0.56250000000000000        0.0000000000000000     
  0.68750000000000000       0.56250000000000000        0.0000000000000000     
  0.71875000000000000       0.56250000000000000        0.0000000000000000     
  0.75000000000000000       0.56250000000000000        0.0000000000000000     
  0.62500000000000000       0.59375000000000000        0.0000000000000000     
  0.65625000000000000       0.59375000000000000        0.0000000000000000     
  0.68750000000000000       0.59375000000000000        0.0000000000000000     
  0.71875000000000000       0.59375000000000000        0.0000000000000000     
  0.75000000000000000       0.59375000000000000        0.0000000000000000     
  0.62500000000000000       0.62500000000000000        0.0000000000000000     
  0.65625000000000000       0.62500000000000000        0.0000000000000000     
  0.68750000000000000       0.62500000000000000        0.0000000000000000     
  0.71875000000000000       0.62500000000000000        0.0000000000000000     
  0.75000000000000000       0.62500000000000000        0.0000000000000000     
  0.75000000000000000       0.50000000000000000        0.0000000000000000     
  0.78125000000000000       0.50000000000000000        0.0000000000000000     
  0.81250000000000000       0.50000000000000000        0.0000000000000000     
  0.84375000000000000       0.50000000000000000        0.0000000000000000     
  0.87500000000000000       0.50000000000000000        0.0000000000000000     
  0.75000000000000000       0.53125000000000000        0.0000000000000000     
  0.78125000000000000       0.53125000000000000        0.0000000000000000     
  0.81250000000000000       0.53125000000000000        0.0000000000000000     
  0.84375000000000000       0.53125000000000000        0.0000000000000000     
  0.87500000000000000       0.53125000000000000        0.0000000000000000     
  0.75000000000000000       0.56250000000000000        0.0000000000000000     
  0.78125000000000000       0.56250000000000000        0.0000000000000000     
  0.81250000000000000       0.56250000000000000        0.0000000000000000     
  0.84375000000000000       0.56250000000000000        0.0000000000000000     
  0.87500000000000000       0.56250000000000000        0.0000000000000000     
  0.75000000000000000       0.59375000000000000        0.0000000000000000     
  0.78125000000000000       0.59375000000000000        0.0000000000000000     
  0.81250000000000000       0.59375000000000000        0.0000000000000000     
  0.84375000000000000       0.59375000000000000        0.0000000000000000     
  0.87500000000000000       0.59375000000000000        0.0000000000000000     
  0.75000000000000000       0.62500000000000000        0.0000000000000000     
  0.78125000000000000       0.62500000000000000        0.0000000000000000     
  0.81250000000000000       0.62500000000000000        0.0000000000000000     
  0.84375000000000000       0.62500000000000000        0.0000000000000000     
  0.87500000000000000       0.62500000000000000        0.0000000000000000     
  0.87500000000000000       0.50000000000000000        0.0000000000000000     
  0.90625000000000000       0.50000000000000000        0.0000000000000000     
  0.93750000000000000       0.50000000000000000        0.0000000000000000     
  0.96875000000000000       0.50000000000000000        0.0000000000000000     
   1.0000000000000000       0.50000000000000000        0.0000000000000000     
  0.87500000000000000       0.53125000000000000        0.0000000000000000     
  0.90625000000000000       0.53125000000000000        0.0000000000000000     
  0.93750000000000000       0.53125000000000000        0.0000000000000000     
  0.96875000000000000       0.53125000000000000        0.0000000000000000     
   1.0000000000000000       0.53125000000000000        0.0000000000000000     
  0.87500000000000000       0.56250000000000000        0.0000000000000000     
  0.90625000000000000       0.56250000000000000        0.0000000000000000     
  0.93750000000000000       0.56250000000000000        0.0000000000000000     
  0.96875000000000000       0.56250000000000000        0.0000000000000000     
   1.0000000000000000       0.56250000000000000        0.0000000000000000     
  0.87500000000000000       0.59375000000000000        0.0000000000000000     
  0.90625000000000000       0.59375000000000000        0.0000000000000000     
  0.93750000000000000       0.59375000000000000        0.0000000000000000     
  0.96875000000000000       0.59375000000000000        0.0000000000000000     
   1.0000000000000000       0.59375000000000000        0.0000000000000000     
  0.87500000000000000       0.62500000000000000        0.0000000000000000     
  0.90625000000000000       0.62500000000000000        0.0000000000000000     
  0.93750000000000000       0.62500000000000000        0.0000000000000000     
  0.96875000000000000       0.62500000000000000        0.0000000000000000     
   1.0000000000000000       0.62500000000000000        0.0000000000000000     
   1.0000000000000000       0.50000000000000000        0.0000000000000000     
   1.0312500000000000       0.50000000000000000        0.0000000000000000     
   1.0625000000000000       0.50000000000000000        0.0000000000000000     
   1.0937500000000000       0.50000000000000000        0.0000000000000000     
   1.1250000000000000       0.50000000000000000        0.0000000000000000     
   1.0000000000000000       0.53125000000000000        0.0000000000000000     
   1.0312500000000000       0.53125000000000000        0.0000000000000000     
   1.0625000000000000       0.53125000000000000        0.0000000000000000     
   1.0937500000000000       0.53125000000000000        0.0000000000000000     
   1.1250000000000000       0.53125000000000000        0.0000000000000000     
   1.0000000000000000       0.56250000000000000        0.0000000000000000     
   1.0312500000000000       0.56250000000000000        0.0000000000000000     
   1.0625000000000000       0.56250000000000000        0.0000000000000000     
   1.0937500000000000       0.56250000000000000        0.0000000000000000     
   1.1250000000000000       0.56250000000000000        0.0000000000000000     
   1.0000000000000000       0.59375000000000000        0.0000000000000000     
   1.0312500000000000       0.59375000000000000        0.0000000000000000     
   1.0625000000000000       0.59375000000000000        0.0000000000000000     
   1.0937500000000000       0.59375000000000000        0.0000000000000000     
   1.1250000000000000       0.59375000000000000        0.0000000000000000     
   1.0000000000000000       0.62500000000000000        0.0000000000000000     
   1.0312500000000000       0.62500000000000000        0.0000000000000000     
   1.0625000000000000       0.62500000000000000        0.0000000000000000     
   1.0937500000000000       0.62500000000000000        0.0000000000000000     
   1.1250000000000000       0.62500000000000000        0.0000000000000000     
   1.1250000000000000       0.50000000000000000        0.0000000000000000     
   1.1562500000000000       0.50000000000000000        0.0000000000000000     
   1.1875000000000000       0.50000000000000000        0.0000000000000000     
   1.2187500000000000       0.50000000000000000        0.0000000000000000     
   1.2500000000000000       0.50000000000000000        0.0000000000000000     
   1.1250000000000000       0.53125000000000000        0.0000000000000000     
   1.1562500000000000       0.53125000000000000        0.0000000000000000     
   1.1875000000000000       0.53125000000000000        0.0000000000000000     
   1.2187500000000000       0.53125000000000000        0.0000000000000000     
   1.2500000000000000       0.53125000000000000        0.0000000000000000     
   1.1250000000000000       0.56250000000000000        0.0000000000000000     
   1.1562500000000000       0.56250000000000000        0.0000000000000000     
   1.1875000000000000       0.56250000000000000        0.0000000000000000     
   1.2187500000000000       0.56250000000000000        0.0000000000000000     
   1.2500000000000000       0.56250000000000000        0.0000000000000000     
   1.1250000000000000       0.59375000000000000        0.0000000000000000     
   1.1562500000000000       0.59375000000000000        0.0000000000000000     
   1.1875000000000000       0.59375000000000000        0.0000000000000000     
   1.2187500000000000       0.59375000000000000        0.0000000000000000     
   1.2500000000000000       0.59375000000000000        0.0000000000000000     
   1.1250000000000000       0.62500000000000000        0.0000000000000000     
   1.1562500000000000       0.62500000000000000        0.0000000000000000     
   1.1875000000000000       0.62500000000000000        0.0000000000000000     
   1.2187500000000000       0.62500000000000000        0.0000000000000000     
   1.2500000000000000       0.62500000000000000        0.0000000000000000     
   1.2500000000000000       0.50000000000000000        0.0000000000000000     
   1.2812500000000000       0.50000000000000000        0.0000000000000000     
   1.3125000000000000       0.50000000000000000        0.0000000000000000     
   1.3437500000000000       0.50000000000000000        0.0000000000000000     
   1.3750000000000000       0.50000000000000000        0.0000000000000000     
   1.2500000000000000       0.53125000000000000        0.0000000000000000     
   1.2812500000000000       0.53125000000000000        0.0000000000000000     
   1.3125000000000000       0.53125000000000000        0.0000000000000000     
   1.3437500000000000       0.53125000000000000        0.0000000000000000     
   1.3750000000000000       0.53125000000000000        0.0000000000000000     
   1.2500000000000000       0.56250000000000000        0.0000000000000000     
   1.2812500000000000       0.56250000000000000        0.0000000000000000     
   1.3125000000000000       0.56250000000000000        0.0000000000000000     
   1.3437500000000000       0.56250000000000000        0.0000000000000000     
   1.3750000000000000       0.56250000000000000        0.0000000000000000     
   1.2500000000000000       0.59375000000000000        0.0000000000000000     
   1.2812500000000000       0.59375000000000000        0.0000000000000000     
   1.3125000000000000       0.59375000000000000        0.0000000000000000     
   1.3437500000000000       0.59375000000000000        0.0000000000000000     
   1.3750000000000000       0.59375000000000000        0.0000000000000000     
   1.2500000000000000       0.62500000000000000        0.0000000000000000     
   1.2812500000000000       0.62500000000000000        0.0000000000000000     
   1.3125000000000000       0.62500000000000000        0.0000000000000000     
   1.3437500000000000       0.62500000000000000        0.0000000000000000     
   1.3750000000000000       0.62500000000000000        0.0000000000000000     
   1.3750000000000000       0.50000000000000000        0.0000000000000000     
   1.4062500000000000       0.50000000000000000        0.0000000000000000     
   1.4375000000000000       0.50000000000000000        0.0000000000000000     
   1.4687500000000000       0.50000000000000000        0.0000000000000000     
   1.5000000000000000       0.50000000000000000        0.0000000000000000     
   1.3750000000000000       0.53125000000000000        0.0000000000000000     
   1.4062500000000000       0.53125000000000000        0.0000000000000000     
   1.4375000000000000       0.53125000000000000        0.0000000000000000     
   1.4687500000000000       0.53125000000000000        0.0000000000000000     
   1.5000000000000000       0.53125000000000000        0.0000000000000000     
   1.3750000000000000       0.56250000000000000        0.0000000000000000     
   1.4062500000000000       0.56250000000000000        0.0000000000000000     
   1.4375000000000000       0.56250000000000000        0.0000000000000000     
   1.4687500000000000       0.56250000000000000        0.0000000000000000     
   1.5000000000000000       0.56250000000000000        0.0000000000000000     
   1.3750000000000000       0.59375000000000000        0.0000000000000000     
   1.4062500000000000       0.59375000000000000        0.0000000000000000     
   1.4375000000000000       0.59375000000000000        0.0000000000000000     
   1.4687500000000000       0.59375000000000000        0.0000000000000000     
   1.5000000000000000       0.59375000000000000        0.0000000000000000     
   1.3750000000000000       0.62500000000000000        0.0000000000000000     
   1.4062500000000000       0.62500000000000000        0.0000000000000000     
   1.4375000000000000       0.62500000000000000        0.0000000000000000     
   1.4687500000000000       0.62500000000000000        0.0000000000000000     
   1.5000000000000000       0.62500000000000000        0.0000000000000000     
  0.50000000000000000       0.62500000000000000        0.0000000000000000     
  0.53125000000000000       0.62500000000000000        0.0000000000000000     
  0.56250000000000000       0.62500000000000000        0.0000000000000000     
  0.59375000000000000       0.62500000000000000        0.0000000000000000     
  0.62500000000000000       0.62500000000000000        0.0000000000000000     
  0.50000000000000000       0.65625000000000000        0.0000000000000000     
  0.53125000000000000       0.65625000000000000        0.0000000000000000     
  0.56250000000000000       0.65625000000000000        0.0000000000000000     
  0.59375000000000000       0.65625000000000000        0.0000000000000000     
  0.62500000000000000       0.65625000000000000        0.0000000000000000     
  0.50000000000000000       0.68750000000000000        0.0000000000000000     
  0.53125000000000000       0.68750000000000000        0.0000000000000000     
  0.56250000000000000       0.68750000000000000        0.0000000000000000     
  0.59375000000000000       0.68750000000000000        0.0000000000000000     
  0.62500000000000000       0.68750000000000000        0.0000000000000000     
  0.50000000000000000       0.71875000000000000        0.0000000000000000     
  0.53125000000000000       0.71875000000000000        0.0000000000000000     
  0.56250000000000000       0.71875000000000000        0.0000000000000000     
  0.59375000000000000       0.71875000000000000        0.0000000000000000     
  0.62500000000000000       0.71875000000000000        0.0000000000000000     
  0.50000000000000000       0.75000000000000000        0.0000000000000000     
  0.53125000000000000       0.75000000000000000        0.0000000000000000     
  0.56250000000000000       0.75000000000000000        0.0000000000000000     
  0.59375000000000000       0.75000000000000000        0.0000000000000000     
  0.62500000000000000       0.75000000000000000        0.0000000000000000     
  0.62500000000000000       0.62500000000000000        0.0000000000000000     
  0.65625000000000000       0.62500000000000000        0.0000000000000000     
  0.68750000000000000       0.62500000000000000        0.0000000000000000     
  0.71875000000000000       0.62500000000000000        0.0000000000000000     
  0.75000000000000000       0.62500000000000000        0.0000000000000000     
  0.62500000000000000       0.65625000000000000        0.0000000000000000     
  0.65625000000000000       0.65625000000000000        0.0000000000000000     
  0.68750000000000000       0.65625000000000000        0.0000000000000000     
  0.71875000000000000       0.65625000000000000        0.0000000000000000     
  0.75000000000000000       0.65625000000000000        0.0000000000000000     
  0.62500000000000000       0.68750000000000000        0.0000000000000000     
  0.65625000000000000       0.68750000000000000        0.0000000000000000     
  0.68750000000000000       0.68750000000000000        0.0000000000000000     
  0.71875000000000000       0.68750000000000000        0.0000000000000000     
  0.75000000000000000       0.68750000000000000        0.0000000000000000     
  0.62500000000000000       0.71875000000000000        0.0000000000000000     
  0.65625000000000000       0.71875000000000000        0.0000000000000000     
  0.68750000000000000       0.71875000000000000        0.0000000000000000     
  0.71875000000000000       0.71875000000000000        0.0000000000000000     
  0.75000000000000000       0.71875000000000000        0.0000000000000000     
  0.62500000000000000       0.75000000000000000        0.0000000000000000     
  0.65625000000000000       0.75000000000000000        0.0000000000000000     
  0.68750000000000000       0.75000000000000000        0.0000000000000000     
  0.71875000000000000       0.75000000000000000        0.0000000000000000     
  0.75000000000000000       0.75000000000000000        0.0000000000000000     
  0.75000000000000000       0.62500000000000000        0.0000000000000000     
  0.78125000000000000       0.62500000000000000        0.0000000000000000     
  0.81250000000000000       0.62500000000000000        0.0000000000000000     
  0.84375000000000000       0.62500000000000000        0.0000000000000000     
  0.87500000000000000       0.62500000000000000        0.0000000000000000     
  0.75000000000000000       0.65625000000000000        0.0000000000000000     
  0.78125000000000000       0.65625000000000000        0.0000000000000000     
  0.81250000000000000       0.65625000000000000        0.0000000000000000     
  0.84375000000000000       0.65625000000000000        0.0000000000000000     
  0.87500000000000000       0.65625000000000000        0.0000000000000000     
  0.75000000000000000       0.68750000000000000        0.0000000000000000     
  0.78125000000000000       0.68750000000000000        0.0000000000000000     
  0.81250000000000000       0.68750000000000000        0.0000000000000000     
  0.84375000000000000       0.68750000000000000        0.0000000000000000     
  0.87500000000000000       0.68750000000000000        0.0000000000000000     
  0.75000000000000000       0.71875000000000000        0.0000000000000000     
  0.78125000000000000       0.71875000000000000        0.0000000000000000     
  0.81250000000000000       0.71875000000000000        0.0000000000000000     
  0.84375000000000000       0.71875000000000000        0.0000000000000000     
  0.87500000000000000       0.71875000000000000        0.0000000000000000     
  0.75000000000000000       0.75000000000000000        0.0000000000000000     
  0.78125000000000000       0.75000000000000000        0.0000000000000000     
  0.81250000000000000       0.75000000000000000        0.0000000000000000     
  0.84375000000000000       0.75000000000000000        0.0000000000000000     
  0.87500000000000000       0.75000000000000000        0.0000000000000000     
  0.87500000000000000       0.62500000000000000        0.0000000000000000     
  0.90625000000000000       0.62500000000000000        0.0000000000000000     
  0.93750000000000000       0.62500000000000000        0.0000000000000000     
  0.96875000000000000       0.62500000000000000        0.0000000000000000     
   1.0000000000000000       0.62500000000000000        0.0000000000000000     
  0.87500000000000000       0.65625000000000000        0.0000000000000000     
  0.90625000000000000       0.65625000000000000        0.0000000000000000     
  0.93750000000000000       0.65625000000000000        0.0000000000000000     
  0.96875000000000000       0.65625000000000000        0.0000000000000000     
   1.0000000000000000       0.65625000000000000        0.0000000000000000     
  0.87500000000000000       0.68750000000000000        0.0000000000000000     
  0.90625000000000000       0.68750000000000000        0.0000000000000000     
  0.93750000000000000       0.68750000000000000        0.0000000000000000     
  0.96875000000000000       0.68750000000000000        0.0000000000000000     
   1.0000000000000000       0.68750000000000000        0.0000000000000000     
  0.87500000000000000       0.71875000000000000        0.0000000000000000     
  0.90625000000000000       0.71875000000000000        0.0000000000000000     
  0.93750000000000000       0.71875000000000000        0.0000000000000000     
  0.96875000000000000       0.71875000000000000        0.0000000000000000     
   1.0000000000000000       0.71875000000000000        0.0000000000000000     
  0.87500000000000000       0.75000000000000000        0.0000000000000000     
  0.90625000000000000       0.75000000000000000        0.0000000000000000     
  0.93750000000000000       0.75000000000000000        0.0000000000000000     
  0.96875000000000000       0.75000000000000000        0.0000000000000000     
   1.0000000000000000       0.75000000000000000        0.0000000000000000     
   1.0000000000000000       0.62500000000000000        0.0000000000000000     
   1.0312500000000000       0.62500000000000000        0.0000000000000000     
   1.0625000000000000       0.62500000000000000        0.0000000000000000     
   1.0937500000000000       0.62500000000000000        0.0000000000000000     
   1.1250000000000000       0.62500000000000000        0.0000000000000000     
   1.0000000000000000       0.65625000000000000        0.0000000000000000     
   1.0312500000000000       0.65625000000000000        0.0000000000000000     
   1.0625000000000000       0.65625000000000000        0.0000000000000000     
   1.0937500000000000       0.65625000000000000        0.0000000000000000     
   1.1250000000000000       0.65625000000000000        0.0000000000000000     
   1.0000000000000000       0.68750000000000000        0.0000000000000000     
   1.0312500000000000       0.68750000000000000        0.0000000000000000     
   1.0625000000000000       0.68750000000000000        0.0000000000000000     
   1.0937500000000000       0.68750000000000000        0.0000000000000000     
   1.1250000000000000       0.68750000000000000        0.0000000000000000     
   1.0000000000000000       0.71875000000000000        0.0000000000000000     
   1.0312500000000000       0.71875000000000000        0.0000000000000000     
   1.0625000000000000       0.71875000000000000        0.0000000000000000     
   1.0937500000000000       0.71875000000000000        0.0000000000000000     
   1.1250000000000000       0.71875000000000000        0.0000000000000000     
   1.0000000000000000       0.75000000000000000        0.0000000000000000     
   1.0312500000000000       0.75000000000000000        0.0000000000000000     
   1.0625000000000000       0.75000000000000000        0.0000000000000000     
   1.0937500000000000       0.75000000000000000        0.0000000000000000     
   1.1250000000000000       0.75000000000000000        0.0000000000000000     
   1.1250000000000000       0.62500000000000000        0.0000000000000000     
   1.1562500000000000       0.62500000000000000        0.0000000000000000     
   1.1875000000000000       0.62500000000000000        0.0000000000000000     
   1.2187500000000000       0.62500000000000000        0.0000000000000000     
   1.2500000000000000       0.62500000000000000        0.0000000000000000     
   1.1250000000000000       0.65625000000000000        0.0000000000000000     
   1.1562500000000000       0.65625000000000000        0.0000000000000000     
   1.1875000000000000       0.65625000000000000        0.0000000000000000     
   1.2187500000000000       0.65625000000000000        0.0000000000000000     
   1.2500000000000000       0.65625000000000000        0.0000000000000000     
   1.1250000000000000       0.68750000000000000        0.0000000000000000     
   1.1562500000000000       0.68750000000000000        0.0000000000000000     
   1.1875000000000000       0.68750000000000000        0.0000000000000000     
   1.2187500000000000       0.68750000000000000        0.0000000000000000     
   1.2500000000000000       0.68750000000000000        0.0000000000000000     
   1.1250000000000000       0.71875000000000000        0.0000000000000000     
   1.1562500000000000       0.71875000000000000        0.0000000000000000     
   1.1875000000000000       0.71875000000000000        0.0000000000000000     
   1.2187500000000000       0.71875000000000000        0.0000000000000000     
   1.2500000000000000       0.71875000000000000        0.0000000000000000     
   1.1250000000000000       0.75000000000000000        0.0000000000000000     
   1.1562500000000000       0.75000000000000000        0.0000000000000000     
   1.1875000000000000       0.75000000000000000        0.0000000000000000     
   1.2187500000000000       0.75000000000000000        0.0000000000000000     
   1.2500000000000000       0.75000000000000000        0.0000000000000000     
   1.2500000000000000       0.62500000000000000        0.0000000000000000     
   1.2812500000000000       0.62500000000000000        0.0000000000000000     
   1.3125000000000000       0.62500000000000000        0.0000000000000000     
   1.3437500000000000       0.62500000000000000        0.0000000000000000     
   1.3750000000000000       0.62500000000000000        0.0000000000000000     
   1.2500000000000000       0.65625000000000000        0.0000000000000000     
   1.2812500000000000       0.65625000000000000        0.0000000000000000     
   1.3125000000000000       0.65625000000000000        0.0000000000000000     
   1.3437500000000000       0.65625000000000000        0.0000000000000000     
   1.3750000000000000       0.65625000000000000        0.0000000000000000     
   1.2500000000000000       0.68750000000000000        0.0000000000000000     
   1.2812500000000000       0.68750000000000000        0.0000000000000000     
   1.3125000000000000       0.68750000000000000        0.0000000000000000     
   1.3437500000000000       0.68750000000000000        0.0000000000000000     
   1.3750000000000000       0.68750000000000000        0.0000000000000000     
   1.2500000000000000       0.71875000000000000        0.0000000000000000     
   1.2812500000000000       0.71875000000000000        0.0000000000000000     
   1.3125000000000000       0.71875000000000000        0.0000000000000000     
   1.3437500000000000       0.71875000000000000        0.0000000000000000     
   1.3750000000000000       0.71875000000000000        0.0000000000000000     
   1.2500000000000000       0.75000000000000000        0.0000000000000000     
   1.2812500000000000       0.75000000000000000        0.0000000000000000     
   1.3125000000000000       0.75000000000000000        0.0000000000000000     
   1.3437500000000000       0.75000000000000000        0.0000000000000000     
   1.3750000000000000       0.75000000000000000        0.0000000000000000     
   1.3750000000000000       0.62500000000000000        0.0000000000000000     
   1.4062500000000000       0.62500000000000000        0.0000000000000000     
   1.4375000000000000       0.62500000000000000        0.0000000000000000     
   1.4687500000000000       0.62500000000000000        0.0000000000000000     
   1.5000000000000000       0.62500000000000000        0.0000000000000000     
   1.3750000000000000       0.65625000000000000        0.0000000000000000     
   1.4062500000000000       0.65625000000000000        0.0000000000000000     
   1.4375000000000000       0.65625000000000000        0.0000000000000000     
   1.4687500000000000       0.65625000000000000        0.0000000000000000     
   1.5000000000000000       0.65625000000000000        0.0000000000000000     
   1.3750000000000000       0.68750000000000000        0.0000000000000000     
   1.4062500000000000       0.68750000000000000        0.0000000000000000     
   1.4375000000000000       0.68750000000000000        0.0000000000000000     
   1.4687500000000000       0.68750000000000000        0.0000000000000000     
   1.5000000000000000       0.68750000000000000        0.0000000000000000     
   1.3750000000000000       0.71875000000000000        0.0000000000000000     
   1.4062500000000000       0.71875000000000000        0.0000000000000000     
   1.4375000000000000       0.71875000000000000        0.0000000000000000     
   1.4687500000000000       0.71875000000000000        0.0000000000000000     
   1.5000000000000000       0.71875000000000000        0.0000000000000000     
   1.3750000000000000       0.75000000000000000        0.0000000000000000     
   1.4062500000000000       0.75000000000000000        0.0000000000000000     
   1.4375000000000000       0.75000000000000000        0.0000000000000000     
   1.4687500000000000       0.75000000000000000        0.0000000000000000     
   1.5000000000000000       0.75000000000000000        0.0000000000000000     
  0.50000000000000000       0.75000000000000000        0.0000000000000000     
  0.53125000000000000       0.75000000000000000        0.0000000000000000     
  0.56250000000000000       0.75000000000000000        0.0000000000000000     
  0.59375000000000000       0.75000000000000000        0.0000000000000000     
  0.62500000000000000       0.75000000000000000        0.0000000000000000     
  0.50000000000000000       0.78125000000000000        0.0000000000000000     
  0.53125000000000000       0.78125000000000000        0.0000000000000000     
  0.56250000000000000       0.78125000000000000        0.0000000000000000     
  0.59375000000000000       0.78125000000000000        0.0000000000000000     
  0.62500000000000000       0.78125000000000000        0.0000000000000000     
  0.50000000000000000       0.81250000000000000        0.0000000000000000     
  0.53125000000000000       0.81250000000000000        0.0000000000000000     
  0.56250000000000000       0.81250000000000000        0.0000000000000000     
  0.59375000000000000       0.81250000000000000        0.0000000000000000     
  0.62500000000000000       0.81250000000000000        0.0000000000000000     
  0.50000000000000000       0.84375000000000000        0.0000000000000000     
  0.53125000000000000       0.84375000000000000        0.0000000000000000     
  0.56250000000000000       0.84375000000000000        0.0000000000000000     
  0.59375000000000000       0.84375000000000000        0.0000000000000000     
  0.62500000000000000       0.84375000000000000        0.0000000000000000     
  0.50000000000000000       0.87500000000000000        0.0000000000000000     
  0.53125000000000000       0.87500000000000000        0.0000000000000000     
  0.56250000000000000       0.87500000000000000        0.0000000000000000     
  0.59375000000000000       0.87500000000000000        0.0000000000000000     
  0.62500000000000000       0.87500000000000000        0.0000000000000000     
  0.62500000000000000       0.75000000000000000        0.0000000000000000     
  0.65625000000000000       0.75000000000000000        0.0000000000000000     
  0.68750000000000000       0.75000000000000000        0.0000000000000000     
  0.71875000000000000       0.75000000000000000        0.0000000000000000     
  0.75000000000000000       0.75000000000000000        0.0000000000000000     
  0.62500000000000000       0.78125000000000000        0.0000000000000000     
  0.65625000000000000       0.78125000000000000        0.0000000000000000     
  0.68750000000000000       0.78125000000000000        0.0000000000000000     
  0.71875000000000000       0.78125000000000000        0.0000000000000000     
  0.75000000000000000       0.78125000000000000        0.0000000000000000     
  0.62500000000000000       0.81250000000000000        0.0000000000000000     
  0.65625000000000000       0.81250000000000000        0.0000000000000000     
  0.68750000000000000       0.81250000000000000        0.0000000000000000     
  0.71875000000000000       0.81250000000000000        0.0000000000000000     
  0.75000000000000000       0.81250000000000000        0.0000000000000000     
  0.62500000000000000       0.84375000000000000        0.0000000000000000     
  0.65625000000000000       0.84375000000000000        0.0000000000000000     
  0.68750000000000000       0.84375000000000000        0.0000000000000000     
  0.71875000000000000       0.84375000000000000        0.0000000000000000     
  0.75000000000000000       0.84375000000000000        0.0000000000000000     
  0.62500000000000000       0.87500000000000000        0.0000000000000000     
  0.65625000000000000       0.87500000000000000        0.0000000000000000     
  0.68750000000000000       0.87500000000000000        0.0000000000000000     
  0.71875000000000000       0.87500000000000000        0.0000000000000000     
  0.75000000000000000       0.87500000000000000        0.0000000000000000     
  0.75000000000000000       0.75000000000000000        0.0000000000000000     
  0.78125000000000000       0.75000000000000000        0.0000000000000000     
  0.81250000000000000       0.75000000000000000        0.0000000000000000     
  0.84375000000000000       0.75000000000000000        0.0000000000000000     
  0.87500000000000000       0.75000000000000000        0.0000000000000000     
  0.75000000000000000       0.78125000000000000        0.0000000000000000     
  0.78125000000000000       0.78125000000000000        0.0000000000000000     
  0.81250000000000000       0.78125000000000000        0.0000000000000000     
  0.84375000000000000       0.78125000000000000        0.0000000000000000     
  0.87500000000000000       0.78125000000000000        0.0000000000000000     
  0.75000000000000000       0.81250000000000000        0.0000000000000000     
  0.78125000000000000       0.81250000000000000        0.0000000000000000     
  0.81250000000000000       0.81250000000000000        0.0000000000000000     
  0.84375000000000000       0.81250000000000000        0.0000000000000000     
  0.87500000000000000       0.81250000000000000        0.0000000000000000     
  0.75000000000000000       0.84375000000000000        0.0000000000000000     
  0.78125000000000000       0.84375000000000000        0.0000000000000000     
  0.81250000000000000       0.84375000000000000        0.0000000000000000     
  0.84375000000000000       0.84375000000000000        0.0000000000000000     
  0.87500000000000000       0.84375000000000000        0.0000000000000000     
  0.75000000000000000       0.87500000000000000        0.0000000000000000     
  0.78125000000000000       0.87500000000000000        0.0000000000000000     
  0.81250000000000000       0.87500000000000000        0.0000000000000000     
  0.84375000000000000       0.87500000000000000        0.0000000000000000     
  0.87500000000000000       0.87500000000000000        0.0000000000000000     
  0.87500000000000000       0.75000000000000000        0.0000000000000000     
  0.90625000000000000       0.75000000000000000        0.0000000000000000     
  0.93750000000000000       0.75000000000000000        0.0000000000000000     
  0.96875000000000000       0.75000000000000000        0.0000000000000000     
   1.0000000000000000       0.75000000000000000        0.0000000000000000     
  0.87500000000000000       0.78125000000000000        0.0000000000000000     
  0.90625000000000000       0.78125000000000000        0.0000000000000000     
  0.93750000000000000       0.78125000000000000        0.0000000000000000     
  0.96875000000000000       0.78125000000000000        0.0000000000000000     
   1.0000000000000000       0.78125000000000000        0.0000000000000000     
  0.87500000000000000       0.81250000000000000        0.0000000000000000     
  0.90625000000000000       0.81250000000000000        0.0000000000000000     
  0.93750000000000000       0.81250000000000000        0.0000000000000000     
  0.96875000000000000       0.81250000000000000        0.0000000000000000     
   1.0000000000000000       0.81250000000000000        0.0000000000000000     
  0.87500000000000000       0.84375000000000000        0.0000000000000000     
  0.90625000000000000       0.84375000000000000        0.0000000000000000     
  0.93750000000000000       0.84375000000000000        0.0000000000000000     
  0.96875000000000000       0.84375000000000000        0.0000000000000000     
   1.0000000000000000       0.84375000000000000        0.0000000000000000     
  0.87500000000000000       0.87500000000000000        0.0000000000000000     
  0.90625000000000000       0.87500000000000000        0.0000000000000000     
  0.93750000000000000       0.87500000000000000        0.0000000000000000     
  0.96875000000000000       0.87500000000000000        0.0000000000000000     
   1.0000000000000000       0.87500000000000000        0.0000000000000000     
   1.0000000000000000       0.75000000000000000        0.0000000000000000     
   1.0312500000000000       0.75000000000000000        0.0000000000000000     
   1.0625000000000000       0.75000000000000000        0.0000000000000000     
   1.0937500000000000       0.75000000000000000        0.0000000000000000     
   1.1250000000000000       0.75000000000000000        0.0000000000000000     
   1.0000000000000000       0.78125000000000000        0.0000000000000000     
   1.0312500000000000       0.78125000000000000        0.0000000000000000     
   1.0625000000000000       0.78125000000000000        0.0000000000000000     
   1.0937500000000000       0.78125000000000000        0.0000000000000000     
   1.1250000000000000       0.78125000000000000        0.0000000000000000     
   1.0000000000000000       0.81250000000000000        0.0000000000000000     
   1.0312500000000000       0.81250000000000000        0.0000000000000000     
   1.0625000000000000       0.81250000000000000        0.0000000000000000     
   1.0937500000000000       0.81250000000000000        0.0000000000000000     
   1.1250000000000000       0.81250000000000000        0.0000000000000000     
   1.0000000000000000       0.84375000000000000        0.0000000000000000     
   1.0312500000000000       0.84375000000000000        0.0000000000000000     
   1.0625000000000000       0.84375000000000000        0.0000000000000000     
   1.0937500000000000       0.84375000000000000        0.0000000000000000     
   1.1250000000000000       0.84375000000000000        0.0000000000000000     
   1.0000000000000000       0.87500000000000000        0.0000000000000000     
   1.0312500000000000       0.87500000000000000        0.0000000000000000     
   1.0625000000000000       0.87500000000000000        0.0000000000000000     
   1.0937500000000000       0.87500000000000000        0.0000000000000000     
   1.1250000000000000       0.87500000000000000        0.0000000000000000     
   1.1250000000000000       0.75000000000000000        0.0000000000000000     
   1.1562500000000000       0.75000000000000000        0.0000000000000000     
   1.1875000000000000       0.75000000000000000        0.0000000000000000     
   1.2187500000000000       0.75000000000000000        0.0000000000000000     
   1.2500000000000000       0.75000000000000000        0.0000000000000000     
   1.1250000000000000       0.78125000000000000        0.0000000000000000     
   1.1562500000000000       0.78125000000000000        0.0000000000000000     
   1.1875000000000000       0.78125000000000000        0.0000000000000000     
   1.2187500000000000       0.78125000000000000        0.0000000000000000     
   1.2500000000000000       0.78125000000000000        0.0000000000000000     
   1.1250000000000000       0.81250000000000000        0.0000000000000000     
   1.1562500000000000       0.81250000000000000        0.0000000000000000     
   1.1875000000000000       0.81250000000000000        0.0000000000000000     
   1.2187500000000000       0.81250000000000000        0.0000000000000000     
   1.2500000000000000       0.81250000000000000        0.0000000000000000     
   1.1250000000000000       0.84375000000000000        0.0000000000000000     
   1.1562500000000000       0.84375000000000000        0.0000000000000000     
   1.1875000000000000       0.84375000000000000        0.0000000000000000     
   1.2187500000000000       0.84375000000000000        0.0000000000000000     
   1.2500000000000000       0.84375000000000000        0.0000000000000000     
   1.1250000000000000       0.87500000000000000        0.0000000000000000     
   1.1562500000000000       0.87500000000000000        0.0000000000000000     
   1.1875000000000000       0.87500000000000000        0.0000000000000000     
   1.2187500000000000       0.87500000000000000        0.0000000000000000     
   1.2500000000000000       0.87500000000000000        0.0000000000000000     
   1.2500000000000000       0.75000000000000000        0.0000000000000000     
   1.2812500000000000       0.75000000000000000        0.0000000000000000     
   1.3125000000000000       0.75000000000000000        0.0000000000000000     
   1.3437500000000000       0.75000000000000000        0.0000000000000000     
   1.3750000000000000       0.75000000000000000        0.0000000000000000     
   1.2500000000000000       0.78125000000000000        0.0000000000000000     
   1.2812500000000000       0.78125000000000000        0.0000000000000000     
   1.3125000000000000       0.78125000000000000        0.0000000000000000     
   1.3437500000000000       0.78125000000000000        0.0000000000000000     
   1.3750000000000000       0.78125000000000000        0.0000000000000000     
   1.2500000000000000       0.81250000000000000        0.0000000000000000     
   1.2812500000000000       0.81250000000000000        0.0000000000000000     
   1.3125000000000000       0.81250000000000000        0.0000000000000000     
   1.3437500000000000       0.81250000000000000        0.0000000000000000     
   1.3750000000000000       0.81250000000000000        0.0000000000000000     
   1.2500000000000000       0.84375000000000000        0.0000000000000000     
   1.2812500000000000       0.84375000000000000        0.0000000000000000     
   1.3125000000000000       0.84375000000000000        0.0000000000000000     
   1.3437500000000000       0.84375000000000000        0.0000000000000000     
   1.3750000000000000       0.84375000000000000        0.0000000000000000     
   1.2500000000000000       0.87500000000000000        0.0000000000000000     
   1.2812500000000000       0.87500000000000000        0.0000000000000000     
   1.3125000000000000       0.87500000000000000        0.0000000000000000     
   1.3437500000000000       0.87500000000000000        0.0000000000000000     
   1.3750000000000000       0.87500000000000000        0.0000000000000000     
   1.3750000000000000       0.75000000000000000        0.0000000000000000     
   1.4062500000000000       0.75000000000000000        0.0000000000000000     
   1.4375000000000000       0.75000000000000000        0.0000000000000000     
   1.4687500000000000       0.75000000000000000        0.0000000000000000     
   1.5000000000000000       0.75000000000000000        0.0000000000000000     
   1.3750000000000000       0.78125000000000000        0.0000000000000000     
   1.4062500000000000       0.78125000000000000        0.0000000000000000     
   1.4375000000000000       0.78125000000000000        0.0000000000000000     
   1.4687500000000000       0.78125000000000000        0.0000000000000000     
   1.5000000000000000       0.78125000000000000        0.0000000000000000     
   1.3750000000000000       0.81250000000000000        0.0000000000000000     
   1.4062500000000000       0.81250000000000000        0.0000000000000000     
   1.4375000000000000       0.81250000000000000        0.0000000000000000     
   1.4687500000000000       0.81250000000000000        0.0000000000000000     
   1.5000000000000000       0.81250000000000000        0.0000000000000000     
   1.3750000000000000       0.84375000000000000        0.0000000000000000     
   1.4062500000000000       0.84375000000000000        0.0000000000000000     
   1.4375000000000000       0.84375000000000000        0.0000000000000000     
   1.4687500000000000       0.84375000000000000        0.0000000000000000     
   1.5000000000000000       0.84375000000000000        0.0000000000000000     
   1.3750000000000000       0.87500000000000000        0.0000000000000000     
   1.4062500000000000       0.87500000000000000        0.0000000000000000     
   1.4375000000000000       0.87500000000000000        0.0000000000000000     
   1.4687500000000000       0.87500000000000000        0.0000000000000000     
   1.5000000000000000       0.87500000000000000        0.0000000000000000     
  0.50000000000000000       0.87500000000000000        0.0000000000000000     
  0.53125000000000000       0.87500000000000000        0.0000000000000000     
  0.56250000000000000       0.87500000000000000        0.0000000000000000     
  0.59375000000000000       0.87500000000000000        0.0000000000000000     
  0.62500000000000000       0.87500000000000000        0.0000000000000000     
  0.50000000000000000       0.90625000000000000        0.0000000000000000     
  0.53125000000000000       0.90625000000000000        0.0000000000000000     
  0.56250000000000000       0.90625000000000000        0.0000000000000000     
  0.59375000000000000       0.90625000000000000        0.0000000000000000     
  0.62500000000000000       0.90625000000000000        0.0000000000000000     
  0.50000000000000000       0.93750000000000000        0.0000000000000000     
  0.53125000000000000       0.93750000000000000        0.0000000000000000     
  0.56250000000000000       0.93750000000000000        0.0000000000000000     
  0.59375000000000000       0.93750000000000000        0.0000000000000000     
  0.62500000000000000       0.93750000000000000        0.0000000000000000     
  0.50000000000000000       0.96875000000000000        0.0000000000000000     
  0.53125000000000000       0.96875000000000000        0.0000000000000000     
  0.56250000000000000       0.96875000000000000        0.0000000000000000     
  0.59375000000000000       0.96875000000000000        0.0000000000000000     
  0.62500000000000000       0.96875000000000000        0.0000000000000000     
  0.50000000000000000        1.0000000000000000        0.0000000000000000     
  0.53125000000000000        1.0000000000000000        0.0000000000000000     
  0.56250000000000000        1.0000000000000000        0.0000000000000000     
  0.59375000000000000        1.0000000000000000        0.0000000000000000     
  0.62500000000000000        1.0000000000000000        0.0000000000000000     
  0.62500000000000000       0.87500000000000000        0.0000000000000000     
  0.65625000000000000       0.87500000000000000        0.0000000000000000     
  0.68750000000000000       0.87500000000000000        0.0000000000000000     
  0.71875000000000000       0.87500000000000000        0.0000000000000000     
  0.75000000000000000       0.87500000000000000        0.0000000000000000     
  0.62500000000000000       0.90625000000000000        0.0000000000000000     
  0.65625000000000000       0.90625000000000000        0.0000000000000000     
  0.68750000000000000       0.90625000000000000        0.0000000000000000     
  0.71875000000000000       0.90625000000000000        0.0000000000000000     
  0.75000000000000000       0.90625000000000000        0.0000000000000000     
  0.62500000000000000       0.93750000000000000        0.0000000000000000     
  0.65625000000000000       0.93750000000000000        0.0000000000000000     
  0.68750000000000000       0.93750000000000000        0.0000000000000000     
  0.71875000000000000       0.93750000000000000        0.0000000000000000     
  0.75000000000000000       0.93750000000000000        0.0000000000000000     
  0.62500000000000000       0.96875000000000000        0.0000000000000000     
  0.65625000000000000       0.96875000000000000        0.0000000000000000     
  0.68750000000000000       0.96875000000000000        0.0000000000000000     
  0.71875000000000000       0.96875000000000000        0.0000000000000000     
  0.75000000000000000       0.96875000000000000        0.0000000000000000     
  0.62500000000000000        1.0000000000000000        0.0000000000000000     
  0.65625000000000000        1.0000000000000000        0.0000000000000000     
  0.68750000000000000        1.0000000000000000        0.0000000000000000     
  0.71875000000000000        1.0000000000000000        0.0000000000000000     
  0.75000000000000000        1.0000000000000000        0.0000000000000000     
  0.75000000000000000       0.87500000000000000        0.0000000000000000     
  0.78125000000000000       0.87500000000000000        0.0000000000000000     
  0.81250000000000000       0.87500000000000000        0.0000000000000000     
  0.84375000000000000       0.87500000000000000        0.0000000000000000     
  0.87500000000000000       0.87500000000000000        0.0000000000000000     
  0.75000000000000000       0.90625000000000000        0.0000000000000000     
  0.78125000000000000       0.90625000000000000        0.0000000000000000     
  0.81250000000000000       0.90625000000000000        0.0000000000000000     
  0.84375000000000000       0.90625000000000000        0.0000000000000000     
  0.87500000000000000       0.90625000000000000        0.0000000000000000     
  0.75000000000000000       0.93750000000000000        0.0000000000000000     
  0.78125000000000000       0.93750000000000000        0.0000000000000000     
  0.81250000000000000       0.93750000000000000        0.0000000000000000     
  0.84375000000000000       0.93750000000000000        0.0000000000000000     
  0.87500000000000000       0.93750000000000000        0.0000000000000000     
  0.75000000000000000       0.96875000000000000        0.0000000000000000     
  0.78125000000000000       0.96875000000000000        0.0000000000000000     
  0.81250000000000000       0.96875000000000000        0.0000000000000000     
  0.84375000000000000       0.96875000000000000        0.0000000000000000     
  0.87500000000000000       0.96875000000000000        0.0000000000000000     
  0.75000000000000000        1.0000000000000000        0.0000000000000000     
  0.78125000000000000        1.0000000000000000        0.0000000000000000     
  0.81250000000000000        1.0000000000000000        0.0000000000000000     
  0.84375000000000000        1.0000000000000000        0.0000000000000000     
  0.87500000000000000        1.0000000000000000        0.0000000000000000     
  0.87500000000000000       0.87500000000000000        0.0000000000000000     
  0.90625000000000000       0.87500000000000000        0.0000000000000000     
  0.93750000000000000       0.87500000000000000        0.0000000000000000     
  0.96875000000000000       0.87500000000000000        0.0000000000000000     
   1.0000000000000000       0.87500000000000000        0.0000000000000000     
  0.87500000000000000       0.90625000000000000        0.0000000000000000     
  0.90625000000000000       0.90625000000000000        0.0000000000000000     
  0.93750000000000000       0.90625000000000000        0.0000000000000000     
  0.96875000000000000       0.90625000000000000        0.0000000000000000     
   1.0000000000000000       0.90625000000000000        0.0000000000000000     
  0.87500000000000000       0.93750000000000000        0.0000000000000000     
  0.90625000000000000       0.93750000000000000        0.0000000000000000     
  0.93750000000000000       0.93750000000000000        0.0000000000000000     
  0.96875000000000000       0.93750000000000000        0.0000000000000000     
   1.0000000000000000       0.93750000000000000        0.0000000000000000     
  0.87500000000000000       0.96875000000000000        0.0000000000000000     
  0.90625000000000000       0.96875000000000000        0.0000000000000000     
  0.93750000000000000       0.96875000000000000        0.0000000000000000     
  0.96875000000000000       0.96875000000000000        0.0000000000000000     
   1.0000000000000000       0.96875000000000000        0.0000000000000000     
  0.87500000000000000        1.0000000000000000        0.0000000000000000     
  0.90625000000000000        1.0000000000000000        0.0000000000000000     
  0.93750000000000000        1.0000000000000000        0.0000000000000000     
  0.96875000000000000        1.0000000000000000        0.0000000000000000     
   1.0000000000000000        1.0000000000000000        0.0000000000000000     
   1.0000000000000000       0.87500000000000000        0.0000000000000000     
   1.0312500000000000       0.87500000000000000        0.0000000000000000     
   1.0625000000000000       0.87500000000000000        0.0000000000000000     
   1.0937500000000000       0.87500000000000000        0.0000000000000000     
   1.1250000000000000       0.87500000000000000        0.0000000000000000     
   1.0000000000000000       0.90625000000000000        0.0000000000000000     
   1.0312500000000000       0.90625000000000000        0.0000000000000000     
   1.0625000000000000       0.90625000000000000        0.0000000000000000     
   1.0937500000000000       0.90625000000000000        0.0000000000000000     
   1.1250000000000000       0.90625000000000000        0.0000000000000000     
   1.0000000000000000       0.93750000000000000        0.0000000000000000     
   1.0312500000000000       0.93750000000000000        0.0000000000000000     
   1.0625000000000000       0.93750000000000000        0.0000000000000000     
   1.0937500000000000       0.93750000000000000        0.0000000000000000     
   1.1250000000000000       0.93750000000000000        0.0000000000000000     
   1.0000000000000000       0.96875000000000000        0.0000000000000000     
   1.0312500000000000       0.96875000000000000        0.0000000000000000     
   1.0625000000000000       0.96875000000000000        0.0000000000000000     
   1.0937500000000000       0.96875000000000000        0.0000000000000000     
   1.1250000000000000       0.96875000000000000        0.0000000000000000     
   1.0000000000000000        1.0000000000000000        0.0000000000000000     
   1.0312500000000000        1.0000000000000000        0.0000000000000000     
   1.0625000000000000        1.0000000000000000        0.0000000000000000     
   1.0937500000000000        1.0000000000000000        0.0000000000000000     
   1.1250000000000000        1.0000000000000000        0.0000000000000000     
   1.1250000000000000       0.87500000000000000        0.0000000000000000     
   1.1562500000000000       0.87500000000000000        0.0000000000000000     
   1.1875000000000000       0.87500000000000000        0.0000000000000000     
   1.2187500000000000       0.87500000000000000        0.0000000000000000     
   1.2500000000000000       0.87500000000000000        0.0000000000000000     
   1.1250000000000000       0.90625000000000000        0.0000000000000000     
   1.1562500000000000       0.90625000000000000        0.0000000000000000     
   1.1875000000000000       0.90625000000000000        0.0000000000000000     
   1.2187500000000000       0.90625000000000000        0.0000000000000000     
   1.2500000000000000       0.90625000000000000        0.0000000000000000     
   1.1250000000000000       0.93750000000000000        0.0000000000000000     
   1.1562500000000000       0.93750000000000000        0.0000000000000000     
   1.1875000000000000       0.93750000000000000        0.0000000000000000     
   1.2187500000000000       0.93750000000000000        0.0000000000000000     
   1.2500000000000000       0.93750000000000000        0.0000000000000000     
   1.1250000000000000       0.96875000000000000        0.0000000000000000     
   1.1562500000000000       0.96875000000000000        0.0000000000000000     
   1.1875000000000000       0.96875000000000000        0.0000000000000000     
   1.2187500000000000       0.96875000000000000        0.0000000000000000     
   1.2500000000000000       0.96875000000000000        0.0000000000000000     
   1.1250000000000000        1.0000000000000000        0.0000000000000000     
   1.1562500000000000        1.0000000000000000        0.0000000000000000     
   1.1875000000000000        1.0000000000000000        0.0000000000000000     
   1.2187500000000000        1.0000000000000000        0.0000000000000000     
   1.2500000000000000        1.0000000000000000        0.0000000000000000     
   1.2500000000000000       0.87500000000000000        0.0000000000000000     
   1.2812500000000000       0.87500000000000000        0.0000000000000000     
   1.3125000000000000       0.87500000000000000        0.0000000000000000     
   1.3437500000000000       0.87500000000000000        0.0000000000000000     
   1.3750000000000000       0.87500000000000000        0.0000000000000000     
   1.2500000000000000       0.90625000000000000        0.0000000000000000     
   1.2812500000000000       0.90625000000000000        0.0000000000000000     
   1.3125000000000000       0.90625000000000000        0.0000000000000000     
   1.3437500000000000       0.90625000000000000        0.0000000000000000     
   1.3750000000000000       0.90625000000000000        0.0000000000000000     
   1.2500000000000000       0.93750000000000000        0.0000000000000000     
   1.2812500000000000       0.93750000000000000        0.0000000000000000     
   1.3125000000000000       0.93750000000000000        0.0000000000000000     
   1.3437500000000000       0.93750000000000000        0.0000000000000000     
   1.3750000000000000       0.93750000000000000        0.0000000000000000     
   1.2500000000000000       0.96875000000000000        0.0000000000000000     
   1.2812500000000000       0.96875000000000000        0.0000000000000000     
   1.3125000000000000       0.96875000000000000        0.0000000000000000     
   1.3437500000000000       0.96875000000000000        0.0000000000000000     
   1.3750000000000000       0.96875000000000000        0.0000000000000000     
   1.2500000000000000        1.0000000000000000        0.0000000000000000     
   1.2812500000000000        1.0000000000000000        0.0000000000000000     
   1.3125000000000000        1.0000000000000000        0.0000000000000000     
   1.3437500000000000        1.0000000000000000        0.0000000000000000     
   1.3750000000000000        1.0000000000000000        0.0000000000000000     
   1.3750000000000000       0.87500000000000000        0.0000000000000000     
   1.4062500000000000       0.87500000000000000        0.0000000000000000     
   1.4375000000000000       0.87500000000000000        0.0000000000000000     
   1.4687500000000000       0.87500000000000000        0.0000000000000000     
   1.5000000000000000       0.87500000000000000        0.0000000000000000     
   1.3750000000000000       0.90625000000000000        0.0000000000000000     
   1.4062500000000000       0.90625000000000000        0.0000000000000000     
   1.4375000000000000       0.90625000000000000        0.0000000000000000     
   1.4687500000000000       0.90625000000000000        0.0000000000000000     
   1.5000000000000000       0.90625000000000000        0.0000000000000000     
   1.3750000000000000       0.93750000000000000        0.0000000000000000     
   1.4062500000000000       0.93750000000000000        0.0000000000000000     
   1.4375000000000000       0.93750000000000000        0.0000000000000000     
   1.4687500000000000       0.93750000000000000        0.0000000000000000     
   1.5000000000000000       0.93750000000000000        0.0000000000000000     
   1.3750000000000000       0.96875000000000000        0.0000000000000000     
   1.4062500000000000       0.96875000000000000        0.0000000000000000     
   1.4375000000000000       0.96875000000000000        0.0000000000000000     
   1.4687500000000000       0.96875000000000000        0.0000000000000000     
   1.5000000000000000       0.96875000000000000        0.0000000000000000     
   1.3750000000000000        1.0000000000000000        0.0000000000000000     
   1.4062500000000000        1.0000000000000000        0.0000000000000000     
   1.4375000000000000        1.0000000000000000        0.0000000000000000     
   1.4687500000000000        1.0000000000000000        0.0000000000000000     
   1.5000000000000000        1.0000000000000000        0.0000000000000000     
 </DataArray>
 </Points>
 <Cells>
 <DataArray  type="Int32"  Name="connectivity"  format="ascii">
           0           1           6           5
           1           2           7           6
           2           3           8           7
           3           4           9           8
           5           6          11          10
           6           7          12          11
           7           8          13          12
           8           9          14          13
          10          11          16          15
          11          12          17          16
          12          13          18          17
          13          14          19          18
          15          16          21          20
          16          17          22          21
          17          18          23          22
          18          19          24          23
          25          26          31          30
          26          27          32          31
          27          28          33          32
          28          29          34          33
          30          31          36          35
          31          32          37          36
          32          33          38          37
          33          34          39          38
          35          36          41          40
          36          37          42          41
          37          38          43          42
          38          39          44          43
          40          41          46          45
          41          42          47          46
          42          43          48          47
          43          44          49          48
          50          51          56          55
          51          52          57          56
          52          53          58          57
          53          54          59          58
          55          56          61          60
          56          57          62          61
          57          58          63          62
          58          59          64          63
          60          61          66          65
          61          62          67          66
          62          63          68          67
          63          64          69          68
          65          66          71          70
          66          67          72          71
          67          68          73          72
          68          69          74          73
          75          76          81          80
          76          77          82          81
          77          78          83          82
          78          79          84          83
          80          81          86          85
          81          82          87          86
          82          83          88          87
          83          84          89          88
          85          86          91          90
          86          87          92          91
          87          88          93          92
          88          89          94          93
          90          91          96          95
          91          92          97          96
          92          93          98          97
          93          94          99          98
         100         101         106         105
         101         102         107         106
         102         103         108         107
         103         104         109         108
         105         106         111         110
         106         107         112         111
         107         108         113         112
         108         109         114         113
         110         111         116         115
         111         112         117         116
         112         113         118         117
         113         114         119         118
         115         116         121         120
         116         117         122         121
         117         118         123         122
         118         119         124         123
         125         126         131         130
         126         127         132         131
         127         128         133         132
         128         129         134         133
         130         131         136         135
         131         132         137         136
         132         133         138         137
         133         134         139         138
         135         136         141         140
         136         137         142         141
         137         138         143         142
         138         139         144         143
         140         141         146         145
         141         142         147         146
         142         143         148         147
         143         144         149         148
         150         151         156         155
         151         152         157         156
         152         153         158         157
         153         154         159         158
         155         156         161         160
         156         157         162         161
         157         158         163         162
         158         159         164         163
         160         161         166         165
         161         162         167         166
         162         163         168         167
         163         164         169         168
         165         166         171         170
         166         167         172         171
         167         168         173         172
         168         169         174         173
         175         176         181         180
         176         177         182         181
         177         178         183         182
         178         179         184         183
         180         181         186         185
         181         182         187         186
         182         183         188         187
         183         184         189         188
         185         186         191         190
         186         187         192         191
         187         188         193         192
         188         189         194         193
         190         191         196         195
         191         192         197         196
         192         193         198         197
         193         194         199         198
         200         201         206         205
         201         202         207         206
         202         203         208         207
         203         204         209         208
         205         206         211         210
         206         207         212         211
         207         208         213         212
         208         209         214         213
         210         211         216         215
         211         212         217         216
         212         213         218         217
         213         214         219         218
         215         216         221         220
         216         217         222         221
         217         218         223         222
         218         219         224         223
         225         226         231         230
         226         227         232         231
         227         228         233         232
         228         229         234         233
         230         231         236         235
         231         232         237         236
         232         233         238         237
         233         234         239         238
         235         236         241         240
         236         237         242         241
         237         238         243         242
         238         239         244         243
         240         241         246         245
         241         242         247         246
         242         243         248         247
         243         244         249         248
         250         251         256         255
         251         252         257         256
         252         253         258         257
         253         254         259         258
         255         256         261         260
         256         257         262         261
         257         258         263         262
         258         259         264         263
         260         261         266         265
         261         262         267         266
         262         263         268         267
         263         264         269         268
         265         266         271         270
         266         267         272         271
         267         268         273         272
         268         269         274         273
         275         276         281         280
         276         277         282         281
         277         278         283         282
         278         279         284         283
         280         281         286         285
         281         282         287         286
         282         283         288         287
         283         284         289         288
         285         286         291         290
         286         287         292         291
         287         288         293         292
         288         289         294         293
         290         291         296         295
         291         292         297         296
         292         293         298         297
         293         294         299         298
         300         301         306         305
         301         302         307         306
         302         303         308         307
         303         304         309         308
         305         306         311         310
         306         307         312         311
         307         308         313         312
         308         309         314         313
         310         311         316         315
         311         312         317         316
         312         313         318         317
         313         314         319         318
         315         316         321         320
         316         317         322         321
         317         318         323         322
         318         319         324         323
         325         326         331         330
         326         327         332         331
         327         328         333         332
         328         329         334         333
         330         331         336         335
         331         332         337         336
         332         333         338         337
         333         334         339         338
         335         336         341         340
         336         337         342         341
         337         338         343         342
         338         339         344         343
         340         341         346         345
         341         342         347         346
         342         343         348         347
         343         344         349         348
         350         351         356         355
         351         352         357         356
         352         353         358         357
         353         354         359         358
         355         356         361         360
         356         357         362         361
         357         358         363         362
         358         359         364         363
         360         361         366         365
         361         362         367         366
         362         363         368         367
         363         364         369         368
         365         366         371         370
         366         367         372         371
         367         368         373         372
         368         369         374         373
         375         376         381         380
         376         377         382         381
         377         378         383         382
         378         379         384         383
         380         381         386         385
         381         382         387         386
         382         383         388         387
         383         384         389         388
         385         386         391         390
         386         387         392         391
         387         388         393         392
         388         389         394         393
         390         391         396         395
         391         392         397         396
         392         393         398         397
         393         394         399         398
         400         401         406         405
         401         402         407         406
         402         403         408         407
         403         404         409         408
         405         406         411         410
         406         407         412         411
         407         408         413         412
         408         409         414         413
         410         411         416         415
         411         412         417         416
         412         413         418         417
         413         414         419         418
         415         416         421         420
         416         417         422         421
         417         418         423         422
         418         419         424         423
         425         426         431         430
         426         427         432         431
         427         428         433         432
         428         429         434         433
         430         431         436         435
         431         432         437         436
         432         433         438         437
         433         434         439         438
         435         436         441         440
         436         437         442         441
         437         438         443         442
         438         439         444         443
         440         441         446         445
         441         442         447         446
         442         443         448         447
         443         444         449         448
         450         451         456         455
         451         452         457         456
         452         453         458         457
         453         454         459         458
         455         456         461         460
         456         457         462         461
         457         458         463         462
         458         459         464         463
         460         461         466         465
         461         462         467         466
         462         463         468         467
         463         464         469         468
         465         466         471         470
         466         467         472         471
         467         468         473         472
         468         469         474         473
         475         476         481         480
         476         477         482         481
         477         478         483         482
         478         479         484         483
         480         481         486         485
         481         482         487         486
         482         483         488         487
         483         484         489         488
         485         486         491         490
         486         487         492         491
         487         488         493         492
         488         489         494         493
         490         491         496         495
         491         492         497         496
         492         493         498         497
         493         494         499         498
         500         501         506         505
         501         502         507         506
         502         503         508         507
         503         504         509         508
         505         506         511         510
         506         507         512         511
         507         508         513         512
         508         509         514         513
         510         511         516         515
         511         512         517         516
         512         513         518         517
         513         514         519         518
         515         516         521         520
         516         517         522         521
         517         518         523         522
         518         519         524         523
         525         526         531         530
         526         527         532         531
         527         528         533         532
         528         529         534         533
         530         531         536         535
         531         532         537         536
         532         533         538         537
         533         534         539         538
         535         536         541         540
         536         537         542         541
         537         538         543         542
         538         539         544         543
         540         541         546         545
         541         542         547         546
         542         543         548         547
         543         544         549         548
         550         551         556         555
         551         552         557         556
         552         553         558         557
         553         554         559         558
         555         556         561         560
         556         557         562         561
         557         558         563         562
         558         559         564         563
         560         561         566         565
         561         562         567         566
         562         563         568         567
         563         564         569         568
         565         566         571         570
         566         567         572         571
         567         568         573         572
         568         569         574         573
         575         576         581         580
         576         577         582         581
         577         578         583         582
         578         579         584         583
         580         581         586         585
         581         582         587         586
         582         583         588         587
         583         584         589         588
         585         586         591         590
         586         587         592         591
         587         588         593         592
         588         589         594         593
         590         591         596         595
         591         592         597         596
         592         593         598         597
         593         594         599         598
         600         601         606         605
         601         602         607         606
         602         603         608         607
         603         604         609         608
         605         606         611         610
         606         607         612         611
         607         608         613         612
         608         609         614         613
         610         611         616         615
         611         612         617         616
         612         613         618         617
         613         614         619         618
         615         616         621         620
         616         617         622         621
         617         618         623         622
         618         619         624         623
         625         626         631         630
         626         627         632         631
         627         628         633         632
         628         629         634         633
         630         631         636         635
         631         632         637         636
         632         633         638         637
         633         634         639         638
         635         636         641         640
         636         637         642         641
         637         638         643         642
         638         639         644         643
         640         641         646         645
         641         642         647         646
         642         643         648         647
         643         644         649         648
         650         651         656         655
         651         652         657         656
         652         653         658         657
         653         654         659         658
         655         656         661         660
         656         657         662         661
         657         658         663         662
         658         659         664         663
         660         661         666         665
         661         662         667         666
         662         663         668         667
         663         664         669         668
         665         666         671         670
         666         667         672         671
         667         668         673         672
         668         669         674         673
         675         676         681         680
         676         677         682         681
         677         678         683         682
         678         679         684         683
         680         681         686         685
         681         682         687         686
         682         683         688         687
         683         684         689         688
         685         686         691         690
         686         687         692         691
         687         688         693         692
         688         689         694         693
         690         691         696         695
         691         692         697         696
         692         693         698         697
         693         694         699         698
         700         701         706         705
         701         702         707         706
         702         703         708         707
         703         704         709         708
         705         706         711         710
         706         707         712         711
         707         708         713         712
         708         709         714         713
         710         711         716         715
         711         712         717         716
         712         713         718         717
         713         714         719         718
         715         716         721         720
         716         717         722         721
         717         718         723         722
         718         719         724         723
         725         726         731         730
         726         727         732         731
         727         728         733         732
         728         729         734         733
         730         731         736         735
         731         732         737         736
         732         733         738         737
         733         734         739         738
         735         736         741         740
         736         737         742         741
         737         738         743         742
         738         739         744         743
         740         741         746         745
         741         742         747         746
         742         743         748         747
         743         744         749         748
         750         751         756         755
         751         752         757         756
         752         753         758         757
         753         754         759         758
         755         756         761         760
         756         757         762         761
         757         758         763         762
         758         759         764         763
         760         761         766         765
         761         762         767         766
         762         763         768         767
         763         764         769         768
         765         766         771         770
         766         767         772         771
         767         768         773         772
         768         769         774         773
         775         776         781         780
         776         777         782         781
         777         778         783         782
         778         779         784         783
         780         781         786         785
         781         782         787         786
         782         783         788         787
         783         784         789         788
         785         786         791         790
         786         787         792         791
         787         788         793         792
         788         789         794         793
         790         791         796         795
         791         792         797         796
         792         793         798         797
         793         794         799         798
         800         801         806         805
         801         802         807         806
         802         803         808         807
         803         804         809         808
         805         806         811         810
         806         807         812         811
         807         808         813         812
         808         809         814         813
         810         811         816         815
         811         812         817         816
         812         813         818         817
         813         814         819         818
         815         816         821         820
         816         817         822         821
         817         818         823         822
         818         819         824         823
         825         826         831         830
         826         827         832         831
         827         828         833         832
         828         829         834         833
         830         831         836         835
         831         832         837         836
         832         833         838         837
         833         834         839         838
         835         836         841         840
         836         837         842         841
         837         838         843         842
         838         839         844         843
         840         841         846         845
         841         842         847         846
         842         843         848         847
         843         844         849         848
         850         851         856         855
         851         852         857         856
         852         853         858         857
         853         854         859         858
         855         856         861         860
         856         857         862         861
         857         858         863         862
         858         859         864         863
         860         861         866         865
         861         862         867         866
         862         863         868         867
         863         864         869         868
         865         866         871         870
         866         867         872         871
         867         868         873         872
         868         869         874         873
         875         876         881         880
         876         877         882         881
         877         878         883         882
         878         879         884         883
         880         881         886         885
         881         882         887         886
         882         883         888         887
         883         884         889         888
         885         886         891         890
         886         887         892         891
         887         888         893         892
         888         889         894         893
         890         891         896         895
         891         892         897         896
         892         893         898         897
         893         894         899         898
         900         901         906         905
         901         902         907         906
         902         903         908         907
         903         904         909         908
         905         906         911         910
         906         907         912         911
         907         908         913         912
         908         909         914         913
         910         911         916         915
         911         912         917         916
         912         913         918         917
         913         914         919         918
         915         916         921         920
         916         917         922         921
         917         918         923         922
         918         919         924         923
         925         926         931         930
         926         927         932         931
         927         928         933         932
         928         929         934         933
         930         931         936         935
         931         932         937         936
         932         933         938         937
         933         934         939         938
         935         936         941         940
         936         937         942         941
         937         938         943         942
         938         939         944         943
         940         941         946         945
         941         942         947         946
         942         943         948         947
         943         944         949         948
         950         951         956         955
         951         952         957         956
         952         953         958         957
         953         954         959         958
         955         956         961         960
         956         957         962         961
         957         958         963         962
         958         959         964         963
         960         961         966         965
         961         962         967         966
         962         963         968         967
         963         964         969         968
         965         966         971         970
         966         967         972         971
         967         968         973         972
         968         969         974         973
         975         976         981         980
         976         977         982         981
         977         978         983         982
         978         979         984         983
         980         981         986         985
         981         982         987         986
         982         983         988         987
         983         984         989         988
         985         986         991         990
         986         987         992         991
         987         988         993         992
         988         989         994         993
         990         991         996         995
         991         992         997         996
         992         993         998         997
         993         994         999         998
        1000        1001        1006        1005
        1001        1002        1007        1006
        1002        1003        1008        1007
        1003        1004        1009        1008
        1005        1006        1011        1010
        1006        1007        1012        1011
        1007        1008        1013        1012
        1008        1009        1014        1013
        1010        1011        1016        1015
        1011        1012        1017        1016
        1012        1013        1018        1017
        1013        1014        1019        1018
        1015        1016        1021        1020
        1016        1017        1022        1021
        1017        1018        1023        1022
        1018        1019        1024        1023
        1025        1026        1031        1030
        1026        1027        1032        1031
        1027        1028        1033        1032
        1028        1029        1034        1033
        1030        1031        1036        1035
        1031        1032        1037        1036
        1032        1033        1038        1037
        1033        1034        1039        1038
        1035        1036        1041        1040
        1036        1037        1042        1041
        1037        1038        1043        1042
        1038        1039        1044        1043
        1040        1041        1046        1045
        1041        1042        1047        1046
        1042        1043        1048        1047
        1043        1044        1049        1048
        1050        1051        1056        1055
        1051        1052        1057        1056
        1052        1053        1058        1057
        1053        1054        1059        1058
        1055        1056        1061        1060
        1056        1057        1062        1061
        1057        1058        1063        1062
        1058        1059        1064        1063
        1060        1061        1066        1065
        1061        1062        1067        1066
        1062        1063        1068        1067
        1063        1064        1069        1068
        1065        1066        1071        1070
        1066        1067        1072        1071
        1067        1068        1073        1072
        1068        1069        1074        1073
        1075        1076        1081        1080
        1076        1077        1082        1081
        1077        1078        1083        1082
        1078        1079        1084        1083
        1080        1081        1086        1085
        1081        1082        1087        1086
        1082        1083        1088        1087
        1083        1084        1089        1088
        1085        1086        1091        1090
        1086        1087        1092        1091
        1087        1088        1093        1092
        1088        1089        1094        1093
        1090        1091        1096        1095
        1091        1092        1097        1096
        1092        1093        1098        1097
        1093        1094        1099        1098
        1100        1101        1106        1105
        1101        1102        1107        1106
        1102        1103        1108        1107
        1103        1104        1109        1108
        1105        1106        1111        1110
        1106        1107        1112        1111
        1107        1108        1113        1112
        1108        1109        1114        1113
        1110        1111        1116        1115
        1111        1112        1117        1116
        1112        1113        1118        1117
        1113        1114        1119        1118
        1115        1116        1121        1120
        1116        1117        1122        1121
        1117        1118        1123        1122
        1118        1119        1124        1123
        1125        1126        1131        1130
        1126        1127        1132        1131
        1127        1128        1133        1132
        1128        1129        1134        1133
        1130        1131        1136        1135
        1131        1132        1137        1136
        1132        1133        1138        1137
        1133        1134        1139        1138
        1135        1136        1141        1140
        1136        1137        1142        1141
        1137        1138        1143        1142
        1138        1139        1144        1143
        1140        1141        1146        1145
        1141        1142        1147        1146
        1142        1143        1148        1147
        1143        1144        1149        1148
        1150        1151        1156        1155
        1151        1152        1157        1156
        1152        1153        1158        1157
        1153        1154        1159        1158
        1155        1156        1161        1160
        1156        1157        1162        1161
        1157        1158        1163        1162
        1158        1159        1164        1163
        1160        1161        1166        1165
        1161        1162        1167        1166
        1162        1163        1168        1167
        1163        1164        1169        1168
        1165        1166        1171        1170
        1166        1167        1172        1171
        1167        1168        1173        1172
        1168        1169        1174        1173
        1175        1176        1181        1180
        1176        1177        1182        1181
        1177        1178        1183        1182
        1178        1179        1184        1183
        1180        1181        1186        1185
        1181        1182        1187        1186
        1182        1183        1188        1187
        1183        1184        1189        1188
        1185        1186        1191        1190
        1186        1187        1192        1191
        1187        1188        1193        1192
        1188        1189        1194        1193
        1190        1191        1196        1195
        1191        1192        1197        1196
        1192        1193        1198        1197
        1193        1194        1199        1198
        1200        1201        1206        1205
        1201        1202        1207        1206
        1202        1203        1208        1207
        1203        1204        1209        1208
        1205        1206        1211        1210
        1206        1207        1212        1211
        1207        1208        1213        1212
        1208        1209        1214        1213
        1210        1211        1216        1215
        1211        1212        1217        1216
        1212        1213        1218        1217
        1213        1214        1219        1218
        1215        1216        1221        1220
        1216        1217        1222        1221
        1217        1218        1223        1222
        1218        1219        1224        1223
        1225        1226        1231        1230
        1226        1227        1232        1231
        1227        1228        1233        1232
        1228        1229        1234        1233
        1230        1231        1236        1235
        1231        1232        1237        1236
        1232        1233        1238        1237
        1233        1234        1239        1238
        1235        1236        1241        1240
        1236        1237        1242        1241
        1237        1238        1243        1242
        1238        1239        1244        1243
        1240        1241        1246        1245
        1241        1242        1247        1246
        1242        1243        1248        1247
        1243        1244        1249        1248
        1250        1251        1256        1255
        1251        1252        1257        1256
        1252        1253        1258        1257
        1253        1254        1259        1258
        1255        1256        1261        1260
        1256        1257        1262        1261
        1257        1258        1263        1262
        1258        1259        1264        1263
        1260        1261        1266        1265
        1261        1262        1267        1266
        1262        1263        1268        1267
        1263        1264        1269        1268
        1265        1266        1271        1270
        1266        1267        1272        1271
        1267        1268        1273        1272
        1268        1269        1274        1273
        1275        1276        1281        1280
        1276        1277        1282        1281
        1277        1278        1283        1282
        1278        1279        1284        1283
        1280        1281        1286        1285
        1281        1282        1287        1286
        1282        1283        1288        1287
        1283        1284        1289        1288
        1285        1286        1291        1290
        1286        1287        1292        1291
        1287        1288        1293        1292
        1288        1289        1294        1293
        1290        1291        1296        1295
        1291        1292        1297        1296
        1292        1293        1298        1297
        1293        1294        1299        1298
        1300        1301        1306        1305
        1301        1302        1307        1306
        1302        1303        1308        1307
        1303        1304        1309        1308
        1305        1306        1311        1310
        1306        1307        1312        1311
        1307        1308        1313        1312
        1308        1309        1314        1313
        1310        1311        1316        1315
        1311        1312        1317        1316
        1312        1313        1318        1317
        1313        1314        1319        1318
        1315        1316        1321        1320
        1316        1317        1322        1321
        1317        1318        1323        1322
        1318        1319        1324        1323
        1325        1326        1331        1330
        1326        1327        1332        1331
        1327        1328        1333        1332
        1328        1329        1334        1333
        1330        1331        1336        1335
        1331        1332        1337        1336
        1332        1333        1338        1337
        1333        1334        1339        1338
        1335        1336        1341        1340
        1336        1337        1342        1341
        1337        1338        1343        1342
        1338        1339        1344        1343
        1340        1341        1346        1345
        1341        1342        1347        1346
        1342        1343        1348        1347
        1343        1344        1349        1348
        1350        1351        1356        1355
        1351        1352        1357        1356
        1352        1353        1358        1357
        1353        1354        1359        1358
        1355        1356        1361        1360
        1356        1357        1362        1361
        1357        1358        1363        1362
        1358        1359        1364        1363
        1360        1361        1366        1365
        1361        1362        1367        1366
        1362        1363        1368        1367
        1363        1364        1369        1368
        1365        1366        1371        1370
        1366        1367        1372        1371
        1367        1368        1373        1372
        1368        1369        1374        1373
        1375        1376        1381        1380
        1376        1377        1382        1381
        1377        1378        1383        1382
        1378        1379        1384        1383
        1380        1381        1386        1385
        1381        1382        1387        1386
        1382        1383        1388        1387
        1383        1384        1389        1388
        1385        1386        1391        1390
        1386        1387        1392        1391
        1387        1388        1393        1392
        1388        1389        1394        1393
        1390        1391        1396        1395
        1391        1392        1397        1396
        1392        1393        1398        1397
        1393        1394        1399        1398
        1400        1401        1406        1405
        1401        1402        1407        1406
        1402        1403        1408        1407
        1403        1404        1409        1408
        1405        1406        1411        1410
        1406        1407        1412        1411
        1407        1408        1413        1412
        1408        1409        1414        1413
        1410        1411        1416        1415
        1411        1412        1417        1416
        1412        1413        1418        1417
        1413        1414        1419        1418
        1415        1416        1421        1420
        1416        1417        1422        1421
        1417        1418        1423        1422
        1418        1419        1424        1423
        1425        1426        1431        1430
        1426        1427        1432        1431
        1427        1428        1433        1432
        1428        1429        1434        1433
        1430        1431        1436        1435
        1431        1432        1437        1436
        1432        1433        1438        1437
        1433        1434        1439        1438
        1435        1436        1441        1440
        1436        1437        1442        1441
        1437        1438        1443        1442
        1438        1439        1444        1443
        1440        1441        1446        1445
        1441        1442        1447        1446
        1442        1443        1448        1447
        1443        1444        1449        1448
        1450        1451        1456        1455
        1451        1452        1457        1456
        1452        1453        1458        1457
        1453        1454        1459        1458
        1455        1456        1461        1460
        1456        1457        1462        1461
        1457        1458        1463        1462
        1458        1459        1464        1463
        1460        1461        1466        1465
        1461        1462        1467        1466
        1462        1463        1468        1467
        1463        1464        1469        1468
        1465        1466        1471        1470
        1466        1467        1472        1471
        1467        1468        1473        1472
        1468        1469        1474        1473
        1475        1476        1481        1480
        1476        1477        1482        1481
        1477        1478        1483        1482
        1478        1479        1484        1483
        1480        1481        1486        1485
        1481        1482        1487        1486
        1482        1483        1488        1487
        1483        1484        1489        1488
        1485        1486        1491        1490
        1486        1487        1492        1491
        1487        1488        1493        1492
        1488        1489        1494        1493
        1490        1491        1496        1495
        1491        1492        1497        1496
        1492        1493        1498        1497
        1493        1494        1499        1498
        1500        1501        1506        1505
        1501        1502        1507        1506
        1502        1503        1508        1507
        1503        1504        1509        1508
        1505        1506        1511        1510
        1506        1507        1512        1511
        1507        1508        1513        1512
        1508        1509        1514        1513
        1510        1511        1516        1515
        1511        1512        1517        1516
        1512        1513        1518        1517
        1513        1514        1519        1518
        1515        1516        1521        1520
        1516        1517        1522        1521
        1517        1518        1523        1522
        1518        1519        1524        1523
        1525        1526        1531        1530
        1526        1527        1532        1531
        1527        1528        1533        1532
        1528        1529        1534        1533
        1530        1531        1536        1535
        1531        1532        1537        1536
        1532        1533        1538        1537
        1533        1534        1539        1538
        1535        1536        1541        1540
        1536        1537        1542        1541
        1537        1538        1543        1542
        1538        1539        1544        1543
        1540        1541        1546        1545
        1541        1542        1547        1546
        1542        1543        1548        1547
        1543        1544        1549        1548
        1550        1551        1556        1555
        1551        1552        1557        1556
        1552        1553        1558        1557
        1553        1554        1559        1558
        1555        1556        1561        1560
        1556        1557        1562        1561
        1557        1558        1563        1562
        1558        1559        1564        1563
        1560        1561        1566        1565
        1561        1562        1567        1566
        1562        1563        1568        1567
        1563        1564        1569        1568
        1565        1566        1571        1570
        1566        1567        1572        1571
        1567        1568        1573        1572
        1568        1569        1574        1573
        1575        1576        1581        1580
        1576        1577        1582        1581
        1577        1578        1583        1582
        1578        1579        1584        1583
        1580        1581        1586        1585
        1581        1582        1587        1586
        1582        1583        1588        1587
        1583        1584        1589        1588
        1585        1586        1591        1590
        1586        1587        1592        1591
        1587        1588        1593        1592
        1588        1589        1594        1593
        1590        1591        1596        1595
        1591        1592        1597        1596
        1592        1593        1598        1597
        1593        1594        1599        1598
 </DataArray>
 <DataArray  type="Int32"  Name="offsets"  format="ascii"> 
           4
           8
          12
          16
          20
          24
          28
          32
          36
          40
          44
          48
          52
          56
          60
          64
          68
          72
          76
          80
          84
          88
          92
          96
         100
         104
         108
         112
         116
         120
         124
         128
         132
         136
         140
         144
         148
         152
         156
         160
         164
         168
         172
         176
         180
         184
         188
         192
         196
         200
         204
         208
         212
         216
         220
         224
         228
         232
         236
         240
         244
         248
         252
         256
         260
         264
         268
         272
         276
         280
         284
         288
         292
         296
         300
         304
         308
         312
         316
         320
         324
         328
         332
         336
         340
         344
         348
         352
         356
         360
         364
         368
         372
         376
         380
         384
         388
         392
         396
         400
         404
         408
         412
         416
         420
         424
         428
         432
         436
         440
         444
         448
         452
         456
         460
         464
         468
         472
         476
         480
         484
         488
         492
         496
         500
         504
         508
         512
         516
         520
         524
         528
         532
         536
         540
         544
         548
         552
         556
         560
         564
         568
         572
         576
         580
         584
         588
         592
         596
         600
         604
         608
         612
         616
         620
         624
         628
         632
         636
         640
         644
         648
         652
         656
         660
         664
         668
         672
         676
         680
         684
         688
         692
         696
         700
         704
         708
         712
         716
         720
         724
         728
         732
         736
         740
         744
         748
         752
         756
         760
         764
         768
         772
         776
         780
         784
         788
         792
         796
         800
         804
         808
         812
         816
         820
         824
         828
         832
         836
         840
         844
         848
         852
         856
         860
         864
         868
         872
         876
         880
         884
         888
         892
         896
         900
         904
         908
         912
         916
         920
         924
         928
         932
         936
         940
         944
         948
         952
         956
         960
         964
         968
         972
         976
         980
         984
         988
         992
         996
        1000
        1004
        1008
        1012
        1016
        1020
        1024
        1028
        1032
        1036
        1040
        1044
        1048
        1052
        1056
        1060
        1064
        1068
        1072
        1076
        1080
        1084
        1088
        1092
        1096
        1100
        1104
        1108
        1112
        1116
        1120
        1124
        1128
        1132
        1136
        1140
        1144
        1148
        1152
        1156
        1160
        1164
        1168
        1172
        1176
        1180
        1184
        1188
        1192
        1196
        1200
        1204
        1208
        1212
        1216
        1220
        1224
        1228
        1232
        1236
        1240
        1244
        1248
        1252
        1256
        1260
        1264
        1268
        1272
        1276
        1280
        1284
        1288
        1292
        1296
        1300
        1304
        1308
        1312
        1316
        1320
        1324
        1328
        1332
        1336
        1340
        1344
        1348
        1352
        1356
        1360
        1364
        1368
        1372
        1376
        1380
        1384
        1388
        1392
        1396
        1400
        1404
        1408
        1412
        1416
        1420
        1424
        1428
        1432
        1436
        1440
        1444
        1448
        1452
        1456
        1460
        1464
        1468
        1472
        1476
        1480
        1484
        1488
        1492
        1496
        1500
        1504
        1508
        1512
        1516
        1520
        1524
        1528
        1532
        1536
        1540
        1544
        1548
        1552
        1556
        1560
        1564
        1568
        1572
        1576
        1580
        1584
        1588
        1592
        1596
        1600
        1604
        1608
        1612
        1616
        1620
        1624
        1628
        1632
        1636
        1640
        1644
        1648
        1652
        1656
        1660
        1664
        1668
        1672
        1676
        1680
        1684
        1688
        1692
        1696
        1700
        1704
        1708
        1712
        1716
        1720
        1724
        1728
        1732
        1736
        1740
        1744
        1748
        1752
        1756
        1760
        1764
        1768
        1772
        1776
        1780
        1784
        1788
        1792
        1796
        1800
        1804
        1808
        1812
        1816
        1820
        1824
        1828
        1832
        1836
        1840
        1844
        1848
        1852
        1856
        1860
        1864
        1868
        1872
        1876
        1880
        1884
        1888
        1892
        1896
        1900
        1904
        1908
        1912
        1916
        1920
        1924
        1928
        1932
        1936
        1940
        1944
        1948
        1952
        1956
        1960
        1964
        1968
        1972
        1976
        1980
        1984
        1988
        1992
        1996
        2000
        2004
        2008
        2012
        2016
        2020
        2024
        2028
        2032
        2036
        2040
        2044
        2048
        2052
        2056
        2060
        2064
        2068
        2072
        2076
        2080
        2084
        2088
        2092
        2096
        2100
        2104
        2108
        2112
        2116
        2120
        2124
        2128
        2132
        2136
        2140
        2144
        2148
        2152
        2156
        2160
        2164
        2168
        2172
        2176
        2180
        2184
        2188
        2192
        2196
        2200
        2204
        2208
        2212
        2216
        2220
        2224
        2228
        2232
        2236
        2240
        2244
        2248
        2252
        2256
        2260
        2264
        2268
        2272
        2276
        2280
        2284
        2288
        2292
        2296
        2300
        2304
        2308
        2312
        2316
        2320
        2324
        2328
        2332
        2336
        2340
        2344
        2348
        2352
        2356
        2360
        2364
        2368
        2372
        2376
        2380
        2384
        2388
        2392
        2396
        2400
        2404
        2408
        2412
        2416
        2420
        2424
        2428
        2432
        2436
        2440
        2444
        2448
        2452
        2456
        2460
        2464
        2468
        2472
        2476
        2480
        2484
        2488
        2492
        2496
        2500
        2504
        2508
        2512
        2516
        2520
        2524
        2528
        2532
        2536
        2540
        2544
        2548
        2552
        2556
        2560
        2564
        2568
        2572
        2576
        2580
        2584
        2588
        2592
        2596
        2600
        2604
        2608
        2612
        2616
        2620
        2624
        2628
        2632
        2636
        2640
        2644
        2648
        2652
        2656
        2660
        2664
        2668
        2672
        2676
        2680
        2684
        2688
        2692
        2696
        2700
        2704
        2708
        2712
        2716
        2720
        2724
        2728
        2732
        2736
        2740
        2744
        2748
        2752
        2756
        2760
        2764
        2768
        2772
        2776
        2780
        2784
        2788
        2792
        2796
        2800
        2804
        2808
        2812
        2816
        2820
        2824
        2828
        2832
        2836
        2840
        2844
        2848
        2852
        2856
        2860
        2864
        2868
        2872
        2876
        2880
        2884
        2888
        2892
        2896
        2900
        2904
        2908
        2912
        2916
        2920
        2924
        2928
        2932
        2936
        2940
        2944
        2948
        2952
        2956
        2960
        2964
        2968
        2972
        2976
        2980
        2984
        2988
        2992
        2996
        3000
        3004
        3008
        3012
        3016
        3020
        3024
        3028
        3032
        3036
        3040
        3044
        3048
        3052
        3056
        3060
        3064
        3068
        3072
        3076
        3080
        3084
        3088
        3092
        3096
        3100
        3104
        3108
        3112
        3116
        3120
        3124
        3128
        3132
        3136
        3140
        3144
        3148
        3152
        3156
        3160
        3164
        3168
        3172
        3176
        3180
        3184
        3188
        3192
        3196
        3200
        3204
        3208
        3212
        3216
        3220
        3224
        3228
        3232
        3236
        3240
        3244
        3248
        3252
        3256
        3260
        3264
        3268
        3272
        3276
        3280
        3284
        3288
        3292
        3296
        3300
        3304
        3308
        3312
        3316
        3320
        3324
        3328
        3332
        3336
        3340
        3344
        3348
        3352
        3356
        3360
        3364
        3368
        3372
        3376
        3380
        3384
        3388
        3392
        3396
        3400
        3404
        3408
        3412
        3416
        3420
        3424
        3428
        3432
        3436
        3440
        3444
        3448
        3452
        3456
        3460
        3464
        3468
        3472
        3476
        3480
        3484
        3488
        3492
        3496
        3500
        3504
        3508
        3512
        3516
        3520
        3524
        3528
        3532
        3536
        3540
        3544
        3548
        3552
        3556
        3560
        3564
        3568
        3572
        3576
        3580
        3584
        3588
        3592
        3596
        3600
        3604
        3608
        3612
        3616
        3620
        3624
        3628
        3632
        3636
        3640
        3644
        3648
        3652
        3656
        3660
        3664
        3668
        3672
        3676
        3680
        3684
        3688
        3692
        3696
        3700
        3704
        3708
        3712
        3716
        3720
        3724
        3728
        3732
        3736
        3740
        3744
        3748
        3752
        3756
        3760
        3764
        3768
        3772
        3776
        3780
        3784
        3788
        3792
        3796
        3800
        3804
        3808
        3812
        3816
        3820
        3824
        3828
        3832
        3836
        3840
        3844
        3848
        3852
        3856
        3860
        3864
        3868
        3872
        3876
        3880
        3884
        3888
        3892
        3896
        3900
        3904
        3908
        3912
        3916
        3920
        3924
        3928
        3932
        3936
        3940
        3944
        3948
        3952
        3956
        3960
        3964
        3968
        3972
        3976
        3980
        3984
        3988
        3992
        3996
        4000
        4004
        4008
        4012
        4016
        4020
        4024
        4028
        4032
        4036
        4040
        4044
        4048
        4052
        4056
        4060
        4064
        4068
        4072
        4076
        4080
        4084
        4088
        4092
        4096
 </DataArray>
 <DataArray  type="UInt8"  Name="types"  format="ascii">
 9
 9
 9
 9
 9
 9
 9
 9
 9
 9
 9
 9
 9
 9
 9
 9
 9
 9
 9
 9
 9
 9
 9
 9
 9
 9
 9
 9
 9
 9
 9
 9
 9
 9
 9
 9
 9
 9
 9
 9
 9
 9
 9
 9
 9
 9
 9
 9
 9
 9
 9
 9
 9
 9
 9
 9
 9
 9
 9
 9
 9
 9
 9
 9
 9
 9
 9
 9
 9
 9
 9
 9
 9
 9
 9
 9
 9
 9
 9
 9
 9
 9
 9
 9
 9
 9
 9
 9
 9
 9
 9
 9
 9
 9
 9
 9
 9
 9
 9
 9
 9
 9
 9
 9
 9
 9
 9
 9
 9
 9
 9
 9
 9
 9
 9
 9
 9
 9
 9
 9
 9
 9
 9
 9
 9
 9
 9
 9
 9
 9
 9
 9
 9
 9
 9
 9
 9
 9
 9
 9
 9
 9
 9
 9
 9
 9
 9
 9
 9
 9
 9
 9
 9
 9
 9
 9
 9
 9
 9
 9
 9
 9
 9
 9
 9
 9
 9
 9
 9
 9
 9
 9
 9
 9
 9
 9
 9
 9
 9
 9
 9
 9
 9
 9
 9
 9
 9
 9
 9
 9
 9
 9
 9
 9
 9
 9
 9
 9
 9
 9
 9
 9
 9
 9
 9
 9
 9
 9
 9
 9
 9
 9
 9
 9
 9
 9
 9
 9
 9
 9
 9
 9
 9
 9
 9
 9
 9
 9
 9
 9
 9
 9
 9
 9
 9
 9
 9
 9
 9
 9
 9
 9
 9
 9
 9
 9
 9
 9
 9
 9
 9
 9
 9
 9
 9
 9
 9
 9
 9
 9
 9
 9
 9
 9
 9
 9
 9
 9
 9
 9
 9
 9
 9
 9
 9
 9
 9
 9
 9
 9
 9
 9
 9
 9
 9
 9
 9
 9
 9
 9
 9
 9
 9
 9
 9
 9
 9
 9
 9
 9
 9
 9
 9
 9
 9
 9
 9
 9
 9
 9
 9
 9
 9
 9
 9
 9
 9
 9
 9
 9
 9
 9
 9
 9
 9
 9
 9
 9
 9
 9
 9
 9
 9
 9
 9
 9
 9
 9
 9
 9
 9
 9
 9
 9
 9
 9
 9
 9
 9
 9
 9
 9
 9
 9
 9
 9
 9
 9
 9
 9
 9
 9
 9
 9
 9
 9
 9
 9
 9
 9
 9
 9
 9
 9
 9
 9
 9
 9
 9
 9
 9
 9
 9
 9
 9
 9
 9
 9
 9
 9
 9
 9
 9
 9
 9
 9
 9
 9
 9
 9
 9
 9
 9
 9
 9
 9
 9
 9
 9
 9
 9
 9
 9
 9
 9
 9
 9
 9
 9
 9
 9
 9
 9
 9
 9
 9
 9
 9
 9
 9
 9
 9
 9
 9
 9
 9
 9
 9
 9
 9
 9
 9
 9
 9
 9
 9
 9
 9
 9
 9
 9
 9
 9
 9
 9
 9
 9
 9
 9
 9
 9
 9
 9
 9
 9
 9
 9
 9
 9
 9
 9
 9
 9
 9
 9
 9
 9
 9
 9
 9
 9
 9
 9
 9
 9
 9
 9
 9
 9
 9
 9
 9
 9
 9
 9
 9
 9
 9
 9
 9
 9
 9
 9
 9
 9
 9
 9
 9
 9
 9
 9
 9
 9
 9
 9
 9
 9
 9
 9
 9
 9
 9
 9
 9
 9
 9
 9
 9
 9
 9
 9
 9
 9
 9
 9
 9
 9
 9
 9
 9
 9
 9
 9
 9
 9
 9
 9
 9
 9
 9
 9
 9
 9
 9
 9
 9
 9
 9
 9
 9
 9
 9
 9
 9
 9
 9
 9
 9
 9
 9
 9
 9
 9
 9
 9
 9
 9
 9
 9
 9
 9
 9
 9
 9
 9
 9
 9
 9
 9
 9
 9
 9
 9
 9
 9
 9
 9
 9
 9
 9
 9
 9
 9
 9
 9
 9
 9
 9
 9
 9
 9
 9
 9
 9
 9
 9
 9
 9
 9
 9
 9
 9
 9
 9
 9
 9
 9
 9
 9
 9
 9
 9
 9
 9
 9
 9
 9
 9
 9
 9
 9
 9
 9
 9
 9
 9
 9
 9
 9
 9
 9
 9
 9
 9
 9
 9
 9
 9
 9
 9
 9
 9
 9
 9
 9
 9
 9
 9
 9
 9
 9
 9
 9
 9
 9
 9
 9
 9
 9
 9
 9
 9
 9
 9
 9
 9
 9
 9
 9
 9
 9
 9
 9
 9
 9
 9
 9
 9
 9
 9
 9
 9
 9
 9
 9
 9
 9
 9
 9
 9
 9
 9
 9
 9
 9
 9
 9
 9
 9
 9
 9
 9
 9
 9
 9
 9
 9
 9
 9
 9
 9
 9
 9
 9
 9
 9
 9
 9
 9
 9
 9
 9
 9
 9
 9
 9
 9
 9
 9
 9
 9
 9
 9
 9
 9
 9
 9
 9
 9
 9
 9
 9
 9
 9
 9
 9
 9
 9
 9
 9
 9
 9
 9
 9
 9
 9
 9
 9
 9
 9
 9
 9
 9
 9
 9
 9
 9
 9
 9
 9
 9
 9
 9
 9
 9
 9
 9
 9
 9
 9
 9
 9
 9
 9
 9
 9
 9
 9
 9
 9
 9
 9
 9
 9
 9
 9
 9
 9
 9
 9
 9
 9
 9
 9
 9
 9
 9
 9
 9
 9
 9
 9
 9
 9
 9
 9
 9
 9
 9
 9
 9
 9
 9
 9
 9
 9
 9
 9
 9
 9
 9
 9
 9
 9
 9
 9
 9
 9
 9
 9
 9
 9
 9
 9
 9
 9
 9
 9
 9
 9
 9
 9
 9
 9
 9
 9
 9
 9
 9
 9
 9
 9
 9
 9
 9
 9
 9
 9
 9
 9
 9
 9
 9
 9
 9
 9
 9
 9
 9
 9
 9
 9
 9
 9
 9
 9
 9
 9
 9
 9
 9
 9
 9
 9
 9
 9
 9
 9
 9
 9
 9
 9
 9
 9
 9
 9
 9
 9
 9
 9
 9
 9
 9
 9
 9
 9
 9
 9
 9
 9
 9
 9
 9
 9
 9
 9
 9
 9
 9
 9
 9
 9
 9
 9
 9
 9
 9
 9
 9
 9
 9
 9
 9
 9
 9
 9
 9
 9
 9
 9
 9
 9
 9
 9
 9
 9
 9
 9
 9
 9
 9
 9
 9
 9
 9
 9
 9
 9
 9
 9
 9
 9
 9
 9
 9
 9
 9
 9
 9
 9
 9
 9
 9
 9
 9
 9
 9
 9
 9
 9
 9
 9
 9
 9
 9
 9
 9
 9
 9
 9
 9
 9
 9
 9
 </DataArray>
 </Cells> 
 <PointData>
 <DataArray  type="Float64" Name="disp" NumberOfComponents="3" format="ascii">
   6.5367464782833867E-002   6.2777441165841524E-002   0.0000000000000000     
   6.8420291381661863E-002   6.8178075059628321E-002   0.0000000000000000     
   7.1377589278856041E-002   7.3754407425402541E-002   0.0000000000000000     
   7.4239358474416442E-002   7.9506438263164142E-002   0.0000000000000000     
   7.7005598968343011E-002   8.5434167572913167E-002   0.0000000000000000     
   6.0142336441379854E-002   6.1891259757774542E-002   0.0000000000000000     
   6.3027903669530927E-002   6.7308249675054971E-002   0.0000000000000000     
   6.5816347929961910E-002   7.2905198351701284E-002   0.0000000000000000     
   6.8507669222672860E-002   7.8682105787713480E-002   0.0000000000000000     
   7.1101867547663733E-002   8.4638971983091546E-002   0.0000000000000000     
   5.5153531198925264E-002   6.1046973255649721E-002   0.0000000000000000     
   5.7853469064467831E-002   6.6487168656661391E-002   0.0000000000000000     
   6.0460727822561074E-002   7.2108645091928825E-002   0.0000000000000000     
   6.2975307473205011E-002   7.7911402561451987E-002   0.0000000000000000     
   6.5397208016399644E-002   8.3895441065230933E-002   0.0000000000000000     
   5.0401049055470097E-002   6.0244581659467084E-002   0.0000000000000000     
   5.2896987566472584E-002   6.5714832004447582E-002   0.0000000000000000     
   5.5310728956653517E-002   7.1364747646085122E-002   0.0000000000000000     
   5.7642273226012918E-002   7.7194328584379690E-002   0.0000000000000000     
   5.9891620374550779E-002   8.3203574819331258E-002   0.0000000000000000     
   4.5884890011014368E-002   5.9484084969226622E-002   0.0000000000000000     
   4.8158459175545190E-002   6.4991239718413557E-002   0.0000000000000000     
   5.0366351332239261E-002   7.0673506014170218E-002   0.0000000000000000     
   5.2508566481096565E-002   7.6530883856496534E-002   0.0000000000000000     
   5.4585104622117110E-002   8.2563373245392549E-002   0.0000000000000000     
   7.7005598968343011E-002   8.5434167572913167E-002   0.0000000000000000     
   7.9678979649166468E-002   9.1530094268953283E-002   0.0000000000000000     
   8.2262169405417473E-002   9.7786717265588227E-002   0.0000000000000000     
   8.4755168237096001E-002  0.10420403656281796        0.0000000000000000     
   8.7157976144202093E-002  0.11078205216064252        0.0000000000000000     
   7.1101867547663733E-002   8.4638971983091546E-002   0.0000000000000000     
   7.3606159565868370E-002   9.0765460810700138E-002   0.0000000000000000     
   7.6027761938220625E-002   9.7051236143403857E-002   0.0000000000000000     
   7.8366674664720443E-002  0.10349629798120272        0.0000000000000000     
   8.0622897745367864E-002  0.11010064632409668        0.0000000000000000     
   6.5397208016399644E-002   8.3895441065230933E-002   0.0000000000000000     
   6.7734392871065807E-002   9.0049442588658823E-002   0.0000000000000000     
   6.9994825456124302E-002   9.6362089117128930E-002   0.0000000000000000     
   7.2178505771575141E-002  0.10283338065064127        0.0000000000000000     
   7.4285433817418325E-002  0.10946331718919577        0.0000000000000000     
   5.9891620374550779E-002   8.3203574819331258E-002   0.0000000000000000     
   6.2063679564758750E-002   8.9382039602829338E-002   0.0000000000000000     
   6.4163359959128544E-002   9.5719276186763458E-002   0.0000000000000000     
   6.6190661557660110E-002  0.10221528457113359        0.0000000000000000     
   6.8145584360353464E-002  0.10887006475593973        0.0000000000000000     
   5.4585104622117110E-002   8.2563373245392549E-002   0.0000000000000000     
   5.6594019646947241E-002   8.8763251853211711E-002   0.0000000000000000     
   5.8533365447233317E-002   9.5122797352307428E-002   0.0000000000000000     
   6.0403142022975337E-002  0.10164200974267973        0.0000000000000000     
   6.2203349374173302E-002  0.10832088902432860        0.0000000000000000     
   8.7157976144202093E-002  0.11078205216064252        0.0000000000000000     
   8.9465190088551055E-002  0.11750660913445111        0.0000000000000000     
   9.1671407031958224E-002  0.12436355255963304        0.0000000000000000     
   9.3776626974423585E-002  0.13135288243618826        0.0000000000000000     
   9.5780849915947153E-002  0.13847459876411683        0.0000000000000000     
   8.0622897745367864E-002  0.11010064632409668        0.0000000000000000     
   8.2789620460581956E-002  0.11685133540492575        0.0000000000000000     
   8.4860032090781773E-002  0.12373541945652977        0.0000000000000000     
   8.6834132635967329E-002  0.13075289847890881        0.0000000000000000     
   8.8711922096138596E-002  0.13790377247206281        0.0000000000000000     
   7.4285433817418325E-002  0.10946331718919577        0.0000000000000000     
   7.6308675023508341E-002  0.11623951539371109        0.0000000000000000     
   7.8241294819699658E-002  0.12314959192510586        0.0000000000000000     
   8.0083293205992306E-002  0.13019354678338005        0.0000000000000000     
   8.1834670182386257E-002  0.13737137996853369        0.0000000000000000     
   6.8145584360353464E-002  0.10887006475593973        0.0000000000000000     
   7.0022353777330210E-002  0.11567114910080720        0.0000000000000000     
   7.1815195218711908E-002  0.12260606996536129        0.0000000000000000     
   7.3524108684498560E-002  0.12967482734960203        0.0000000000000000     
   7.5149094174690179E-002  0.13687742125352939        0.0000000000000000     
   6.2203349374173302E-002  0.10832088902432860        0.0000000000000000     
   6.3930656722047563E-002  0.11514623652621406        0.0000000000000000     
   6.5581733287818494E-002  0.12210485357729610        0.0000000000000000     
   6.7156579071486075E-002  0.12919674017757474        0.0000000000000000     
   6.8655194073050332E-002  0.13642189632704996        0.0000000000000000     
   9.5780849915947153E-002  0.13847459876411683        0.0000000000000000     
   9.7689039277308709E-002  0.14571789111662092        0.0000000000000000     
   9.9506158479288065E-002  0.15307194906690286        0.0000000000000000     
  0.10123220752188521       0.16053677261496252        0.0000000000000000     
  0.10286718640510012       0.16811236176080002        0.0000000000000000     
   8.8711922096138596E-002  0.13790377247206281        0.0000000000000000     
   9.0499174959160128E-002  0.14517603533500148        0.0000000000000000     
   9.2201665712896466E-002  0.15255768096673444        0.0000000000000000     
   9.3819394357347610E-002  0.16004870936726170        0.0000000000000000     
   9.5352360892513560E-002  0.16764912053658321        0.0000000000000000     
   8.1834670182386257E-002  0.13737137996853369        0.0000000000000000     
   8.3501029353187553E-002  0.14467050947589949        0.0000000000000000     
   8.5087974322702209E-002  0.15207835330081027        0.0000000000000000     
   8.6595505090930211E-002  0.15959491144326599        0.0000000000000000     
   8.8023621657871573E-002  0.16722018390326668        0.0000000000000000     
   7.5149094174690179E-002  0.13687742125352939        0.0000000000000000     
   7.6694602459390998E-002  0.14420131353931495        0.0000000000000000     
   7.8165084308705279E-002  0.15163396606913032        0.0000000000000000     
   7.9560539722633022E-002  0.15917537884297547        0.0000000000000000     
   8.0880968701174200E-002  0.16682555186085038        0.0000000000000000     
   6.8655194073050332E-002  0.13642189632704996        0.0000000000000000     
   7.0079894277770463E-002  0.14376844752524787        0.0000000000000000     
   7.1432995670905691E-002  0.15122451927169456        0.0000000000000000     
   7.2714498252456017E-002  0.15879011156639009        0.0000000000000000     
   7.3924402022421426E-002  0.16646522440933437        0.0000000000000000     
  0.10286718640510012       0.16811236176080002        0.0000000000000000     
  0.10441371708051557       0.17578805242837847        0.0000000000000000     
  0.10587442149971425       0.18355318054166106        0.0000000000000000     
  0.10724929966269617       0.19140774610064787        0.0000000000000000     
  0.10853835156946134       0.19935174910533876        0.0000000000000000     
   9.5352360892513560E-002  0.16764912053658321        0.0000000000000000     
   9.6800791106127257E-002  0.17534944201801575        0.0000000000000000     
   9.8164910785921711E-002  0.18314020135487608        0.0000000000000000     
   9.9444719931896908E-002  0.19102139854716407        0.0000000000000000     
  0.10064021854405285       0.19899303359487988        0.0000000000000000     
   8.8023621657871573E-002  0.16722018390326668        0.0000000000000000     
   8.9371072747287644E-002  0.17494522649976901        0.0000000000000000     
   9.0636607082939760E-002  0.18276109505172961        0.0000000000000000     
   9.1820224664827879E-002  0.19066778955914848        0.0000000000000000     
   9.2921925492952057E-002  0.19866531002202567        0.0000000000000000     
   8.0880968701174200E-002  0.16682555186085038        0.0000000000000000     
   8.2124562003996676E-002  0.17457540587363812        0.0000000000000000     
   8.3289510390768304E-002  0.18241586163222168        0.0000000000000000     
   8.4375813861489068E-002  0.19034691913660096        0.0000000000000000     
   8.5383472416158984E-002  0.19836857838677605        0.0000000000000000     
   7.3924402022421426E-002  0.16646522440933437        0.0000000000000000     
   7.5061258876254408E-002  0.17423998013962319        0.0000000000000000     
   7.6123620709407439E-002  0.18210450109635226        0.0000000000000000     
   7.7111487521880490E-002  0.19005878727952158        0.0000000000000000     
   7.8024859313673617E-002  0.19810283868913117        0.0000000000000000     
  0.10853835156946134       0.19935174910533876        0.0000000000000000     
  0.10974667291795530       0.20738135121048595        0.0000000000000000     
  0.11087935940612360       0.21549271407084145        0.0000000000000000     
  0.11193641103396622       0.22368583768640526        0.0000000000000000     
  0.11291782780148318       0.23196072205717738        0.0000000000000000     
  0.10064021854405285       0.19899303359487988        0.0000000000000000     
  0.10175697723565857       0.20704858061318904        0.0000000000000000     
  0.10280056661998321       0.21518151371725719        0.0000000000000000     
  0.10377098669702675       0.22339183290708439        0.0000000000000000     
  0.10466823746678919       0.23167953818267056        0.0000000000000000     
   9.2921925492952057E-002  0.19866531002202567        0.0000000000000000     
   9.3946692634502532E-002  0.20674566264672523        0.0000000000000000     
   9.4899509156669698E-002  0.21490085363961145        0.0000000000000000     
   9.5780375059453457E-002  0.22313088300068423        0.0000000000000000     
   9.6589290342853865E-002  0.23143575072994363        0.0000000000000000     
   8.5383472416158984E-002  0.19836857838677605        0.0000000000000000     
   8.6315819114487213E-002  0.20647259731109463        0.0000000000000000     
   8.7176187016182988E-002  0.21465073383790423        0.0000000000000000     
   8.7964576121246321E-002  0.22290298796720487        0.0000000000000000     
   8.8680986429677214E-002  0.23122935969899655        0.0000000000000000     
   7.8024859313673617E-002  0.19810283868913117        0.0000000000000000     
   7.8864356675612562E-002  0.20622938460629706        0.0000000000000000     
   7.9630600198523138E-002  0.21443115431213544        0.0000000000000000     
   8.0323589882405372E-002  0.22270814780664622        0.0000000000000000     
   8.0943325727259235E-002  0.23106036508982947        0.0000000000000000     
  0.11291782780148318       0.23196072205717738        0.0000000000000000     
  0.11385200742590718       0.24033389062132998        0.0000000000000000     
  0.11476734762447091       0.24882186681703500        0.0000000000000000     
  0.11566384839717435       0.25742465064429254        0.0000000000000000     
  0.11654150974401753       0.26614224210310261        0.0000000000000000     
  0.10466823746678919       0.23167953818267056        0.0000000000000000     
  0.10549736340204133       0.24006820445595509        0.0000000000000000     
  0.10626340897555406       0.24858140663887740        0.0000000000000000     
  0.10696637418732734       0.25721914473143748        0.0000000000000000     
  0.10760625903736119       0.26598141873363529        0.0000000000000000     
   9.6589290342853865E-002  0.23143575072994363        0.0000000000000000     
   9.7317023360652816E-002  0.23984206948740538        0.0000000000000000     
   9.7954342466632330E-002  0.24837645193308538        0.0000000000000000     
   9.8501247660792365E-002  0.25703889806698366        0.0000000000000000     
   9.8957738943132950E-002  0.26582940788910009        0.0000000000000000     
   8.8680986429677214E-002  0.23122935969899655        0.0000000000000000     
   8.9310987301741654E-002  0.23965548571568077        0.0000000000000000     
   8.9840148097705741E-002  0.24820700269965895        0.0000000000000000     
   9.0268468817569433E-002  0.25688391065093108        0.0000000000000000     
   9.0595949461332745E-002  0.26568620956949707        0.0000000000000000     
   8.0943325727259235E-002  0.23106036508982947        0.0000000000000000     
   8.1479255225307828E-002  0.23950845314078134        0.0000000000000000     
   8.1920825868774250E-002  0.24807305893859807        0.0000000000000000     
   8.2268037657658527E-002  0.25675418248327969        0.0000000000000000     
   8.2520890591960619E-002  0.26555182377482617        0.0000000000000000     
  0.11654150974401753       0.26614224210310261        0.0000000000000000     
  0.11734056047175159       0.27513933242533295        0.0000000000000000     
  0.11800122938712770       0.28458061284285147        0.0000000000000000     
  0.11852351649014591       0.29446608335565805        0.0000000000000000     
  0.11890742178080616       0.30479574396375275        0.0000000000000000     
  0.10760625903736119       0.26598141873363529        0.0000000000000000     
  0.10816407375007761       0.27500038116777409        0.0000000000000000     
  0.10862082854989853       0.28440818455615691        0.0000000000000000     
  0.10897652343682399       0.29420482889878385        0.0000000000000000     
  0.10923115841085397       0.30439031419565488        0.0000000000000000     
   9.8957738943132950E-002  0.26582940788910009        0.0000000000000000     
   9.9334873094953632E-002  0.27484625246729832        0.0000000000000000     
   9.9643706897554071E-002  0.28418770286944178        0.0000000000000000     
   9.9884240350934211E-002  0.29385375909553046        0.0000000000000000     
  0.10005647345509411       0.30384442114556431        0.0000000000000000     
   9.0595949461332745E-002  0.26568620956949707        0.0000000000000000     
   9.0852958506379700E-002  0.27467694632390582        0.0000000000000000     
   9.1069864430094308E-002  0.28391916778270604        0.0000000000000000     
   9.1246667232476597E-002  0.29341287394589788        0.0000000000000000     
   9.1383366913526540E-002  0.30315806481348107        0.0000000000000000     
   8.2520890591960619E-002  0.26555182377482617        0.0000000000000000     
   8.2718329984355798E-002  0.27449246273759653        0.0000000000000000     
   8.2899301147519297E-002  0.28360257929594979        0.0000000000000000     
   8.3063804081451142E-002  0.29288217344988599        0.0000000000000000     
   8.3211838786151293E-002  0.30233124519940502        0.0000000000000000     
   4.5884890011014368E-002   5.9484084969226622E-002   0.0000000000000000     
   4.8158459175545190E-002   6.4991239718413557E-002   0.0000000000000000     
   5.0366351332239261E-002   7.0673506014170218E-002   0.0000000000000000     
   5.2508566481096565E-002   7.6530883856496534E-002   0.0000000000000000     
   5.4585104622117110E-002   8.2563373245392549E-002   0.0000000000000000     
   4.1531346744693345E-002   5.8784009024783160E-002   0.0000000000000000     
   4.3584892731754893E-002   6.4325316396353374E-002   0.0000000000000000     
   4.5588511387119293E-002   7.0037418813116689E-002   0.0000000000000000     
   4.7542202710786526E-002   7.5920316275073077E-002   0.0000000000000000     
   4.9445966702756625E-002   8.1974008782222552E-002   0.0000000000000000     
   3.7266711935642349E-002   5.8162879665991547E-002   0.0000000000000000     
   3.9123297075170954E-002   6.3725986636061077E-002   0.0000000000000000     
   4.0938125559094637E-002   6.9458984659857156E-002   0.0000000000000000     
   4.2711197387413427E-002   7.5361873737379792E-002   0.0000000000000000     
   4.4442512560127316E-002   8.1434653868628984E-002   0.0000000000000000     
   3.3090985583861372E-002   5.7620696892851785E-002   0.0000000000000000     
   3.4773672205793332E-002   6.3193250437536680E-002   0.0000000000000000     
   3.6415193848165293E-002   6.8938203554391661E-002   0.0000000000000000     
   3.8015550510977242E-002   7.4855556243416707E-002   0.0000000000000000     
   3.9574742194229184E-002   8.0945308504611860E-002   0.0000000000000000     
   2.9004167689350411E-002   5.7157460705363865E-002   0.0000000000000000     
   3.0536018123622069E-002   6.2727107800780169E-002   0.0000000000000000     
   3.2019716254331261E-002   6.8475075496720147E-002   0.0000000000000000     
   3.3455262081477977E-002   7.4401363793183808E-002   0.0000000000000000     
   3.4842655605062223E-002   8.0505972690171151E-002   0.0000000000000000     
   5.4585104622117110E-002   8.2563373245392549E-002   0.0000000000000000     
   5.6594019646947241E-002   8.8763251853211711E-002   0.0000000000000000     
   5.8533365447233317E-002   9.5122797352307428E-002   0.0000000000000000     
   6.0403142022975337E-002  0.10164200974267973        0.0000000000000000     
   6.2203349374173302E-002  0.10832088902432860        0.0000000000000000     
   4.9445966702756625E-002   8.1974008782222552E-002   0.0000000000000000     
   5.1291447630319231E-002   8.8193451662498271E-002   0.0000000000000000     
   5.3070289760764028E-002   9.4573600243833336E-002   0.0000000000000000     
   5.4782493094091007E-002  0.10111445452622776        0.0000000000000000     
   5.6428057630300170E-002  0.10781601450968153        0.0000000000000000     
   4.4442512560127316E-002   8.1434653868628984E-002   0.0000000000000000     
   4.6121998027562700E-002   8.7673011353381389E-002   0.0000000000000000     
   4.7739580740046028E-002   9.4072632491413649E-002   0.0000000000000000     
   4.9295260697577267E-002  0.10063351728272572        0.0000000000000000     
   5.0789037900156438E-002  0.10735566572731767        0.0000000000000000     
   3.9574742194229184E-002   8.0945308504611860E-002   0.0000000000000000     
   4.1085670838677694E-002   8.7201930925861065E-002   0.0000000000000000     
   4.2541238385079345E-002   9.3619894095048325E-002   0.0000000000000000     
   4.3941444833434158E-002  0.10019919801217367        0.0000000000000000     
   4.5286290183742105E-002  0.10693984267723702        0.0000000000000000     
   3.4842655605062223E-002   8.0505972690171151E-002   0.0000000000000000     
   3.6182466063664168E-002   8.6780210379937300E-002   0.0000000000000000     
   3.7475262695863973E-002   9.3215385054737421E-002   0.0000000000000000     
   3.8721045501661638E-002   9.9811496714571527E-002   0.0000000000000000     
   3.9919814481057164E-002  0.10656854535943962        0.0000000000000000     
   6.2203349374173302E-002  0.10832088902432860        0.0000000000000000     
   6.3930656722047563E-002  0.11514623652621406        0.0000000000000000     
   6.5581733287818494E-002  0.12210485357729610        0.0000000000000000     
   6.7156579071486075E-002  0.12919674017757474        0.0000000000000000     
   6.8655194073050332E-002  0.13642189632704996        0.0000000000000000     
   5.6428057630300170E-002  0.10781601450968153        0.0000000000000000     
   5.8005977180212477E-002  0.11466425740902204        0.0000000000000000     
   5.9515245554648863E-002  0.12164516043907667        0.0000000000000000     
   6.0955862753609348E-002  0.12875872359984539        0.0000000000000000     
   6.2327828777093919E-002  0.13600494689132825        0.0000000000000000     
   5.0789037900156438E-002  0.10735566572731767        0.0000000000000000     
   5.2220708474377008E-002  0.11422469148832154        0.0000000000000000     
   5.3590068546832480E-002  0.12122620822886941        0.0000000000000000     
   5.4897118117522833E-002  0.12836021594896124        0.0000000000000000     
   5.6141857186448096E-002  0.13562671464859716        0.0000000000000000     
   4.5286290183742105E-002  0.10693984267723702        0.0000000000000000     
   4.6574850604541175E-002  0.11382753876411257        0.0000000000000000     
   4.7806202264369331E-002  0.12084799694667435        0.0000000000000000     
   4.8980345163226580E-002  0.12800121722492236        0.0000000000000000     
   5.0097279301112886E-002  0.13528719959885671        0.0000000000000000     
   3.9919814481057164E-002  0.10656854535943962        0.0000000000000000     
   4.1068403570704959E-002  0.11347279923639511        0.0000000000000000     
   4.2163646707259417E-002  0.12051052659249148        0.0000000000000000     
   4.3205543890720517E-002  0.12768172742772871        0.0000000000000000     
   4.4194095121088281E-002  0.13498640174210680        0.0000000000000000     
   6.8655194073050332E-002  0.13642189632704996        0.0000000000000000     
   7.0079894277770463E-002  0.14376844752524787        0.0000000000000000     
   7.1432995670905691E-002  0.15122451927169456        0.0000000000000000     
   7.2714498252456017E-002  0.15879011156639009        0.0000000000000000     
   7.3924402022421426E-002  0.16646522440933437        0.0000000000000000     
   6.2327828777093919E-002  0.13600494689132825        0.0000000000000000     
   6.3631400945918057E-002  0.14337273672243617        0.0000000000000000     
   6.4866836580897258E-002  0.15085099950208011        0.0000000000000000     
   6.6034135682031536E-002  0.15843973523026006        0.0000000000000000     
   6.7133298249320905E-002  0.16613894390697603        0.0000000000000000     
   5.6141857186448096E-002  0.13562671464859716        0.0000000000000000     
   5.7323618601425895E-002  0.14301500641961779        0.0000000000000000     
   5.8441735210273855E-002  0.15051439335386393        0.0000000000000000     
   5.9496207012991999E-002  0.15812487545133566        0.0000000000000000     
   6.0487034009580318E-002  0.16584645271203285        0.0000000000000000     
   5.0097279301112886E-002  0.13528719959885671        0.0000000000000000     
   5.1156547244293950E-002  0.14269525661679275        0.0000000000000000     
   5.2157691559035442E-002  0.15021470082704613        0.0000000000000000     
   5.3100712245337342E-002  0.15784553222961678        0.0000000000000000     
   5.3985609303199650E-002  0.16558775082450483        0.0000000000000000     
   4.4194095121088281E-002  0.13498640174210680        0.0000000000000000     
   4.5130186874522270E-002  0.14241348731396103        0.0000000000000000     
   4.6014705627182038E-002  0.14995192192162660        0.0000000000000000     
   4.6847651379067573E-002  0.15760170556510361        0.0000000000000000     
   4.7629024130178901E-002  0.16536283824439196        0.0000000000000000     
   7.3924402022421426E-002  0.16646522440933437        0.0000000000000000     
   7.5061258876254408E-002  0.17423998013962319        0.0000000000000000     
   7.6123620709407439E-002  0.18210450109635226        0.0000000000000000     
   7.7111487521880490E-002  0.19005878727952158        0.0000000000000000     
   7.8024859313673617E-002  0.19810283868913117        0.0000000000000000     
   6.7133298249320905E-002  0.16613894390697603        0.0000000000000000     
   6.8163437029518908E-002  0.17393780238598525        0.0000000000000000     
   6.9123664769379090E-002  0.18182548752104488        0.0000000000000000     
   7.0013981468901476E-002  0.18980199931215491        0.0000000000000000     
   7.0834387128086068E-002  0.19786733775931542        0.0000000000000000     
   6.0487034009580318E-002  0.16584645271203285        0.0000000000000000     
   6.1413370129248260E-002  0.17366772570098540        0.0000000000000000     
   6.2274369301205251E-002  0.18157729498322298        0.0000000000000000     
   6.3070031525451306E-002  0.18957516055874568        0.0000000000000000     
   6.3800356801986410E-002  0.19766132242755344        0.0000000000000000     
   5.3985609303199650E-002  0.16558775082450483        0.0000000000000000     
   5.4811058175442476E-002  0.17342975008462358        0.0000000000000000     
   5.5575734304885924E-002  0.18135992348288657        0.0000000000000000     
   5.6279637691529980E-002  0.18937827101929378        0.0000000000000000     
   5.6922768335374664E-002  0.19748479269384517        0.0000000000000000     
   4.7629024130178901E-002  0.16536283824439196        0.0000000000000000     
   4.8356501168101550E-002  0.17322387553689989        0.0000000000000000     
   4.9027759780421093E-002  0.18117337302003567        0.0000000000000000     
   4.9642799967137510E-002  0.18921133069379922        0.0000000000000000     
   5.0201621728250823E-002  0.19733774855819064        0.0000000000000000     
   7.8024859313673617E-002  0.19810283868913117        0.0000000000000000     
   7.8864356675612562E-002  0.20622938460629706        0.0000000000000000     
   7.9630600198523138E-002  0.21443115431213544        0.0000000000000000     
   8.0323589882405372E-002  0.22270814780664622        0.0000000000000000     
   8.0943325727259235E-002  0.23106036508982947        0.0000000000000000     
   7.0834387128086068E-002  0.19786733775931542        0.0000000000000000     
   7.1582907702554058E-002  0.20601534044295458        0.0000000000000000     
   7.2257569147926637E-002  0.21423984494350062        0.0000000000000000     
   7.2858371464203875E-002  0.22254085126095352        0.0000000000000000     
   7.3385314651385702E-002  0.23091835939531330        0.0000000000000000     
   6.3800356801986410E-002  0.19766132242755344        0.0000000000000000     
   6.4462074579987136E-002  0.20582978073168903        0.0000000000000000     
   6.5051914308630041E-002  0.21407453561319520        0.0000000000000000     
   6.5569875987915111E-002  0.22239558707207197        0.0000000000000000     
   6.6015959617842360E-002  0.23079293510831925        0.0000000000000000     
   5.6922768335374664E-002  0.19748479269384517        0.0000000000000000     
   5.7501857307911824E-002  0.20567270547250041        0.0000000000000000     
   5.8013635680633287E-002  0.21393522632121922        0.0000000000000000     
   5.8458103453539093E-002  0.22227235524000150        0.0000000000000000     
   5.8835260626629221E-002  0.23068409222884728        0.0000000000000000     
   5.0201621728250823E-002  0.19733774855819064        0.0000000000000000     
   5.0702255886328096E-002  0.20554411466538880        0.0000000000000000     
   5.1142733263936438E-002  0.21382191706757264        0.0000000000000000     
   5.1523053861075828E-002  0.22217115576474217        0.0000000000000000     
   5.1843217677746273E-002  0.23059183075689740        0.0000000000000000     
   8.0943325727259235E-002  0.23106036508982947        0.0000000000000000     
   8.1479255225307828E-002  0.23950845314078134        0.0000000000000000     
   8.1920825868774250E-002  0.24807305893859807        0.0000000000000000     
   8.2268037657658527E-002  0.25675418248327969        0.0000000000000000     
   8.2520890591960619E-002  0.26555182377482617        0.0000000000000000     
   7.3385314651385702E-002  0.23091835939531330        0.0000000000000000     
   7.3835311459836808E-002  0.23938596398957232        0.0000000000000000     
   7.4205274639921895E-002  0.24795725968672300        0.0000000000000000     
   7.4495204191640962E-002  0.25663224648676519        0.0000000000000000     
   7.4705100114993997E-002  0.26541092438969904        0.0000000000000000     
   6.6015959617842360E-002  0.23079293510831925        0.0000000000000000     
   6.6392640333814104E-002  0.23927301048891922        0.0000000000000000     
   6.6702393271232688E-002  0.24784224398085392        0.0000000000000000     
   6.6945218430098083E-002  0.25650063558412328        0.0000000000000000     
   6.7121115810410303E-002  0.26524818529872735        0.0000000000000000     
   5.8835260626629221E-002  0.23068409222884728        0.0000000000000000     
   5.9151241847239716E-002  0.23916959263882195        0.0000000000000000     
   5.9412181762706594E-002  0.24772801182099080        0.0000000000000000     
   5.9618080373029889E-002  0.25635934977535385        0.0000000000000000     
   5.9768937678209566E-002  0.26506360650191113        0.0000000000000000     
   5.1843217677746273E-002  0.23059183075689740        0.0000000000000000     
   5.2111116000113616E-002  0.23907571043928050        0.0000000000000000     
   5.2334640114343640E-002  0.24761456320713371        0.0000000000000000     
   5.2513790020436366E-002  0.25620838906045695        0.0000000000000000     
   5.2648565718391785E-002  0.26485718799925034        0.0000000000000000     
   8.2520890591960619E-002  0.26555182377482617        0.0000000000000000     
   8.2718329984355798E-002  0.27449246273759653        0.0000000000000000     
   8.2899301147519297E-002  0.28360257929594979        0.0000000000000000     
   8.3063804081451142E-002  0.29288217344988599        0.0000000000000000     
   8.3211838786151293E-002  0.30233124519940502        0.0000000000000000     
   7.4705100114993997E-002  0.26541092438969904        0.0000000000000000     
   7.4875807633611527E-002  0.27428711745893797        0.0000000000000000     
   7.5048171971124095E-002  0.28325464975789549        0.0000000000000000     
   7.5222193127531714E-002  0.29231352128657168        0.0000000000000000     
   7.5397871102834357E-002  0.30146373204496646        0.0000000000000000     
   6.7121115810410303E-002  0.26524818529872735        0.0000000000000000     
   6.7270211558876511E-002  0.27405522623849771        0.0000000000000000     
   6.7432631822203798E-002  0.28289209151726585        0.0000000000000000     
   6.7608376600392192E-002  0.29175878113503184        0.0000000000000000     
   6.7797445893441707E-002  0.30065529509179567        0.0000000000000000     
   5.9768937678209566E-002  0.26506360650191113        0.0000000000000000     
   5.9901541760150723E-002  0.27379678907627575        0.0000000000000000     
   6.0052680700758400E-002  0.28251490457406075        0.0000000000000000     
   6.0222354500032611E-002  0.29121795299526648        0.0000000000000000     
   6.0410563157973336E-002  0.29990593433989260        0.0000000000000000     
   5.2648565718391785E-002  0.26485718799925034        0.0000000000000000     
   5.2769798237434204E-002  0.27351180597227198        0.0000000000000000     
   5.2908318606787921E-002  0.28212308892828042        0.0000000000000000     
   5.3064126826452937E-002  0.29069103686727554        0.0000000000000000     
   5.3237222896429258E-002  0.29921564978925730        0.0000000000000000     
   2.9004167689350411E-002   5.7157460705363865E-002   0.0000000000000000     
   3.0536018123622069E-002   6.2727107800780169E-002   0.0000000000000000     
   3.2019716254331261E-002   6.8475075496720147E-002   0.0000000000000000     
   3.3455262081477977E-002   7.4401363793183808E-002   0.0000000000000000     
   3.4842655605062223E-002   8.0505972690171151E-002   0.0000000000000000     
   2.5075714692947830E-002   5.6737195783014505E-002   0.0000000000000000     
   2.6443610493801152E-002   6.2309174193892078E-002   0.0000000000000000     
   2.7759279415674645E-002   6.8063442366324431E-002   0.0000000000000000     
   2.9022721458568310E-002   7.4000000300311577E-002   0.0000000000000000     
   3.0233936622482142E-002   8.0118847995853532E-002   0.0000000000000000     
   2.1375083035491987E-002   5.6323926805290414E-002   0.0000000000000000     
   2.2529724981474576E-002   6.1921065084972901E-002   0.0000000000000000     
   2.3641469970277558E-002   6.7697146042686285E-002   0.0000000000000000     
   2.4710318001900905E-002   7.3652169678430551E-002   0.0000000000000000     
   2.5736269076344638E-002   7.9786135992205715E-002   0.0000000000000000     
   1.7902272716982887E-002   5.5917653772191579E-002   0.0000000000000000     
   1.8794361586642355E-002   6.1562780474022666E-002   0.0000000000000000     
   1.9666287918139982E-002   6.7376186525805681E-002   0.0000000000000000     
   2.0518051711475770E-002   7.3357871927540702E-002   0.0000000000000000     
   2.1349652966649715E-002   7.9507836679227645E-002   0.0000000000000000     
   1.4657283737420522E-002   5.5518376683718014E-002   0.0000000000000000     
   1.5237520309304477E-002   6.1234320361041344E-002   0.0000000000000000     
   1.5833733259261937E-002   6.7100563815682690E-002   0.0000000000000000     
   1.6445922587292900E-002   7.3117107047642030E-002   0.0000000000000000     
   1.7074088293397370E-002   7.9283950056919378E-002   0.0000000000000000     
   3.4842655605062223E-002   8.0505972690171151E-002   0.0000000000000000     
   3.6182466063664168E-002   8.6780210379937300E-002   0.0000000000000000     
   3.7475262695863973E-002   9.3215385054737421E-002   0.0000000000000000     
   3.8721045501661638E-002   9.9811496714571527E-002   0.0000000000000000     
   3.9919814481057164E-002  0.10656854535943962        0.0000000000000000     
   3.0233936622482142E-002   8.0118847995853532E-002   0.0000000000000000     
   3.1399987479174010E-002   8.6409072905412901E-002   0.0000000000000000     
   3.2527936600401750E-002   9.2859762481452335E-002   0.0000000000000000     
   3.3617783986165370E-002   9.9470916723971778E-002   0.0000000000000000     
   3.4669529636464864E-002  0.10624253563297130        0.0000000000000000     
   2.5736269076344638E-002   7.9786135992205715E-002   0.0000000000000000     
   2.6725838861859072E-002   8.6089741692090674E-002   0.0000000000000000     
   2.7685543026694515E-002   9.2553683486164384E-002   0.0000000000000000     
   2.8615381570850973E-002   9.9177961374426832E-002   0.0000000000000000     
   2.9515354494328436E-002  0.10596257535687803        0.0000000000000000     
   2.1349652966649715E-002   7.9507836679227645E-002   0.0000000000000000     
   2.2160020211719374E-002   8.5822216739970605E-002   0.0000000000000000     
   2.2948081974742282E-002   9.2297148068873625E-002   0.0000000000000000     
   2.3713838255718454E-002   9.8932630665936661E-002   0.0000000000000000     
   2.4457289054647877E-002  0.10572866453115976        0.0000000000000000     
   1.7074088293397370E-002   7.9283950056919378E-002   0.0000000000000000     
   1.7702531528754895E-002   8.5606498049052737E-002   0.0000000000000000     
   1.8315553444545041E-002   9.2090156229580042E-002   0.0000000000000000     
   1.8913154040767804E-002   9.8734924598501292E-002   0.0000000000000000     
   1.9495333317423192E-002  0.10554080315581653        0.0000000000000000     
   3.9919814481057164E-002  0.10656854535943962        0.0000000000000000     
   4.1068403570704959E-002  0.11347279923639511        0.0000000000000000     
   4.2163646707259417E-002  0.12051052659249148        0.0000000000000000     
   4.3205543890720517E-002  0.12768172742772871        0.0000000000000000     
   4.4194095121088281E-002  0.13498640174210680        0.0000000000000000     
   3.4669529636464864E-002  0.10624253563297130        0.0000000000000000     
   3.5677598721931408E-002  0.11316148221894493        0.0000000000000000     
   3.6636416413196184E-002  0.12021461949238674        0.0000000000000000     
   3.7545982710259149E-002  0.12740194745329675        0.0000000000000000     
   3.8406297613120331E-002  0.13472346610167488        0.0000000000000000     
   2.9515354494328436E-002  0.10596257535687803        0.0000000000000000     
   3.0378667407283587E-002  0.11289459702553784        0.0000000000000000     
   3.1198525919873082E-002  0.11996109797242614        0.0000000000000000     
   3.1974930032096921E-002  0.12716207819754297        0.0000000000000000     
   3.2707879743955108E-002  0.13449753770088826        0.0000000000000000     
   2.4457289054647877E-002  0.10572866453115976        0.0000000000000000     
   2.5171609626761467E-002  0.11267214365617380        0.0000000000000000     
   2.5849975227290111E-002  0.11974996203260969        0.0000000000000000     
   2.6492385856233817E-002  0.12696211966046739        0.0000000000000000     
   2.7098841513592587E-002  0.13430861653974696        0.0000000000000000     
   1.9495333317423192E-002  0.10554080315581653        0.0000000000000000     
   2.0056425380365062E-002  0.11249412211085283        0.0000000000000000     
   2.0590764335447282E-002  0.11958121167293732        0.0000000000000000     
   2.1098350182669857E-002  0.12680207184207001        0.0000000000000000     
   2.1579182922032786E-002  0.13415670261825091        0.0000000000000000     
   4.4194095121088281E-002  0.13498640174210680        0.0000000000000000     
   4.5130186874522270E-002  0.14241348731396103        0.0000000000000000     
   4.6014705627182038E-002  0.14995192192162660        0.0000000000000000     
   4.6847651379067573E-002  0.15760170556510361        0.0000000000000000     
   4.7629024130178901E-002  0.16536283824439196        0.0000000000000000     
   3.8406297613120331E-002  0.13472346610167488        0.0000000000000000     
   3.9219646274142067E-002  0.14216776593365094        0.0000000000000000     
   3.9988313845686629E-002  0.14972343744535460        0.0000000000000000     
   4.0712300327754060E-002  0.15739048063678585        0.0000000000000000     
   4.1391605720344345E-002  0.16516889550794470        0.0000000000000000     
   3.2707879743955108E-002  0.13449753770088826        0.0000000000000000     
   3.3400034225184567E-002  0.14195615989839078        0.0000000000000000     
   3.4054052645522255E-002  0.14952662820597915        0.0000000000000000     
   3.4669935004968143E-002  0.15720894262365342        0.0000000000000000     
   3.5247681303522238E-002  0.16500310315141353        0.0000000000000000     
   2.7098841513592587E-002  0.13430861653974696        0.0000000000000000     
   2.7671350727649813E-002  0.14177866920818055        0.0000000000000000     
   2.8211922026688888E-002  0.14936149420350031        0.0000000000000000     
   2.8720555410709819E-002  0.15705709152570629        0.0000000000000000     
   2.9197250879712588E-002  0.16486546117479844        0.0000000000000000     
   2.1579182922032786E-002  0.13415670261825091        0.0000000000000000     
   2.2033595781537779E-002  0.14163529386302021        0.0000000000000000     
   2.2461921989186544E-002  0.14922803543791804        0.0000000000000000     
   2.2864161544979080E-002  0.15693492734294445        0.0000000000000000     
   2.3240314448915396E-002  0.16475596957809946        0.0000000000000000     
   4.7629024130178901E-002  0.16536283824439196        0.0000000000000000     
   4.8356501168101550E-002  0.17322387553689989        0.0000000000000000     
   4.9027759780421093E-002  0.18117337302003567        0.0000000000000000     
   4.9642799967137510E-002  0.18921133069379922        0.0000000000000000     
   5.0201621728250823E-002  0.19733774855819064        0.0000000000000000     
   4.1391605720344345E-002  0.16516889550794470        0.0000000000000000     
   4.2023018876520699E-002  0.17304734374100608        0.0000000000000000     
   4.2603328649346330E-002  0.18101448701814499        0.0000000000000000     
   4.3132535038821251E-002  0.18907032533936136        0.0000000000000000     
   4.3610638044945457E-002  0.19721485870465519        0.0000000000000000     
   3.5247681303522238E-002  0.16500310315141353        0.0000000000000000     
   3.5783931069995077E-002  0.17289739638013402        0.0000000000000000     
   3.6275323833197169E-002  0.18088010890068923        0.0000000000000000     
   3.6721859593128514E-002  0.18895124071307934        0.0000000000000000     
   3.7123538349789133E-002  0.19711079181730418        0.0000000000000000     
   2.9197250879712588E-002  0.16486546117479844        0.0000000000000000     
   2.9639237748524696E-002  0.17277403345428366        0.0000000000000000     
   3.0043745331973608E-002  0.18077023866766853        0.0000000000000000     
   3.0410773630059330E-002  0.18885407681495325        0.0000000000000000     
   3.0740322642781856E-002  0.19702554789613766        0.0000000000000000     
   2.3240314448915396E-002  0.16475596957809946        0.0000000000000000     
   2.3588938912109555E-002  0.17267725496345496        0.0000000000000000     
   2.3908593145675651E-002  0.18068487631908275        0.0000000000000000     
   2.4199277149613667E-002  0.18877883364498299        0.0000000000000000     
   2.4460990923923620E-002  0.19695912694115558        0.0000000000000000     
   5.0201621728250823E-002  0.19733774855819064        0.0000000000000000     
   5.0702255886328096E-002  0.20554411466538880        0.0000000000000000     
   5.1142733263936438E-002  0.21382191706757264        0.0000000000000000     
   5.1523053861075828E-002  0.22217115576474217        0.0000000000000000     
   5.1843217677746273E-002  0.23059183075689740        0.0000000000000000     
   4.3610638044945457E-002  0.19721485870465519        0.0000000000000000     
   4.4037246952545843E-002  0.20543756453669043        0.0000000000000000     
   4.4411971046449318E-002  0.21372792025813098        0.0000000000000000     
   4.4734810326655876E-002  0.22208592586897682        0.0000000000000000     
   4.5005764793165523E-002  0.23051158136922797        0.0000000000000000     
   3.7123538349789133E-002  0.19711079181730418        0.0000000000000000     
   3.7480807143874924E-002  0.20534661131274176        0.0000000000000000     
   3.7794113016081821E-002  0.21364654829876975        0.0000000000000000     
   3.8063455966409816E-002  0.22201060277538834        0.0000000000000000     
   3.8288835994858911E-002  0.23043877474259741        0.0000000000000000     
   3.0740322642781856E-002  0.19702554789613766        0.0000000000000000     
   3.1032936460315342E-002  0.20527125499354268        0.0000000000000000     
   3.1289159172833932E-002  0.21357780118948899        0.0000000000000000     
   3.1508990780337642E-002  0.22194518648397668        0.0000000000000000     
   3.1692431282826457E-002  0.23037341087700569        0.0000000000000000     
   2.4460990923923620E-002  0.19695912694115558        0.0000000000000000     
   2.4693634901867087E-002  0.20521149557909324        0.0000000000000000     
   2.4897109516705672E-002  0.21352167893028867        0.0000000000000000     
   2.5071414768439361E-002  0.22188967699474188        0.0000000000000000     
   2.5216550657068168E-002  0.23031548977245284        0.0000000000000000     
   5.1843217677746273E-002  0.23059183075689740        0.0000000000000000     
   5.2111116000113616E-002  0.23907571043928050        0.0000000000000000     
   5.2334640114343640E-002  0.24761456320713371        0.0000000000000000     
   5.2513790020436366E-002  0.25620838906045695        0.0000000000000000     
   5.2648565718391785E-002  0.26485718799925034        0.0000000000000000     
   4.5005764793165523E-002  0.23051158136922797        0.0000000000000000     
   4.5233228141650733E-002  0.23898985843372655        0.0000000000000000     
   4.5425594067784028E-002  0.24750572873731472        0.0000000000000000     
   4.5582862571565394E-002  0.25605919227999246        0.0000000000000000     
   4.5705033652994824E-002  0.26465024906175971        0.0000000000000000     
   3.8288835994858911E-002  0.23043877474259741        0.0000000000000000     
   3.8478543621066001E-002  0.23891053116559172        0.0000000000000000     
   3.8640869364667971E-002  0.24740533900956596        0.0000000000000000     
   3.8775813225664833E-002  0.25592319827452009        0.0000000000000000     
   3.8883375204056575E-002  0.26446410896045419        0.0000000000000000     
   3.1692431282826457E-002  0.23037341087700569        0.0000000000000000     
   3.1847062438359400E-002  0.23883772863487598        0.0000000000000000     
   3.1980466004995482E-002  0.24731339402388736        0.0000000000000000     
   3.2092641982734690E-002  0.25580040704403995        0.0000000000000000     
   3.2183590371577045E-002  0.26429876769533367        0.0000000000000000     
   2.5216550657068168E-002  0.23031548977245284        0.0000000000000000     
   2.5338784593530943E-002  0.23877145084157930        0.0000000000000000     
   2.5444383988766545E-002  0.24722989378027904        0.0000000000000000     
   2.5533348842774972E-002  0.25569081858855197        0.0000000000000000     
   2.5605679155556227E-002  0.26415422526639820        0.0000000000000000     
   5.2648565718391785E-002  0.26485718799925034        0.0000000000000000     
   5.2769798237434204E-002  0.27351180597227198        0.0000000000000000     
   5.2908318606787921E-002  0.28212308892828042        0.0000000000000000     
   5.3064126826452937E-002  0.29069103686727554        0.0000000000000000     
   5.3237222896429258E-002  0.29921564978925730        0.0000000000000000     
   4.5705033652994824E-002  0.26465024906175971        0.0000000000000000     
   4.5816325065166988E-002  0.27322894152897492        0.0000000000000000     
   4.5940954561176542E-002  0.28174531212799636        0.0000000000000000     
   4.6078922141023486E-002  0.29019936085882403        0.0000000000000000     
   4.6230227804707827E-002  0.29859108772145793        0.0000000000000000     
   3.8883375204056575E-002  0.26446410896045419        0.0000000000000000     
   3.8982466317789150E-002  0.27297686034887275        0.0000000000000000     
   3.9091997584808469E-002  0.28141024172128037        0.0000000000000000     
   3.9211969005114568E-002  0.28976425307767706        0.0000000000000000     
   3.9342380578707412E-002  0.29803889441806275        0.0000000000000000     
   3.2183590371577045E-002  0.26429876769533367        0.0000000000000000     
   3.2268221995300668E-002  0.27275556243196553        0.0000000000000000     
   3.2361447677683695E-002  0.28111787770813246        0.0000000000000000     
   3.2463267418726148E-002  0.28938571352383452        0.0000000000000000     
   3.2573681218428005E-002  0.29755906987907171        0.0000000000000000     
   2.5605679155556227E-002  0.26415422526639820        0.0000000000000000     
   2.5673592097701564E-002  0.27256504777825324        0.0000000000000000     
   2.5749304839802239E-002  0.28086822008855261        0.0000000000000000     
   2.5832817381858254E-002  0.28906374219729652        0.0000000000000000     
   2.5924129723869611E-002  0.29715161410448487        0.0000000000000000     
   1.4657283737420522E-002   5.5518376683718014E-002   0.0000000000000000     
   1.5237520309304477E-002   6.1234320361041344E-002   0.0000000000000000     
   1.5833733259261937E-002   6.7100563815682690E-002   0.0000000000000000     
   1.6445922587292900E-002   7.3117107047642030E-002   0.0000000000000000     
   1.7074088293397370E-002   7.9283950056919378E-002   0.0000000000000000     
   1.1317014017040966E-002   5.5230255587082805E-002   0.0000000000000000     
   1.1615847229132234E-002   6.0997626863911379E-002   0.0000000000000000     
   1.1961902883195177E-002   6.6901715352341795E-002   0.0000000000000000     
   1.2355180979229795E-002   7.2942521052374046E-002   0.0000000000000000     
   1.2795681517236090E-002   7.9120043964008138E-002   0.0000000000000000     
   7.5583614760802876E-003   5.5157450529499018E-002   0.0000000000000000     
   7.6859884257969076E-003   6.0914642100515184E-002   0.0000000000000000     
   7.8688936794914614E-003   6.6811078575807606E-002   0.0000000000000000     
   8.1070772371639541E-003   7.2846759955376247E-002   0.0000000000000000     
   8.4005390988143806E-003   7.9021686239221123E-002   0.0000000000000000     
   3.3813261145384859E-003   5.5299961510966666E-002   0.0000000000000000     
   3.4479438992984978E-003   6.0985366070852781E-002   0.0000000000000000     
   3.5547056481507935E-003   6.6828653486080095E-002   0.0000000000000000     
   3.7016113610953720E-003   7.2829823756648635E-002   0.0000000000000000     
   3.8886610381322351E-003   7.8988876882558387E-002   0.0000000000000000     
  -1.2140920675844389E-003   5.5657788531485744E-002   0.0000000000000000     
  -1.0982863503629938E-003   6.1209798774924148E-002   0.0000000000000000     
  -9.8066121082682938E-004   6.6954440083159303E-002   0.0000000000000000     
  -8.6121664897594529E-004   7.2891712456191221E-002   0.0000000000000000     
  -7.3995266481034338E-004   7.9021615894019889E-002   0.0000000000000000     
   1.7074088293397370E-002   7.9283950056919378E-002   0.0000000000000000     
   1.7702531528754895E-002   8.5606498049052737E-002   0.0000000000000000     
   1.8315553444545041E-002   9.2090156229580042E-002   0.0000000000000000     
   1.8913154040767804E-002   9.8734924598501292E-002   0.0000000000000000     
   1.9495333317423192E-002  0.10554080315581653        0.0000000000000000     
   1.2795681517236090E-002   7.9120043964008138E-002   0.0000000000000000     
   1.3254415825752614E-002   8.5446930486031206E-002   0.0000000000000000     
   1.3702395233317911E-002   9.1935827017230395E-002   0.0000000000000000     
   1.4139619739931988E-002   9.8586733557605721E-002   0.0000000000000000     
   1.4566089345594842E-002  0.10539965010715716        0.0000000000000000     
   8.4005390988143806E-003   7.9021686239221123E-002   0.0000000000000000     
   8.7167161154994843E-003   8.5347858917600217E-002   0.0000000000000000     
   9.0230451382760039E-003   9.1837279480771472E-002   0.0000000000000000     
   9.3195261671439409E-003   9.8489947928734903E-002   0.0000000000000000     
   9.6061592021032937E-003  0.10530586426149049        0.0000000000000000     
   3.8886610381322351E-003   7.8988876882558387E-002   0.0000000000000000     
   4.0894323979955086E-003   8.5309283343759784E-002   0.0000000000000000     
   4.2775031594193191E-003   9.1794513620203272E-002   0.0000000000000000     
   4.4528733224036667E-003   9.8444567711888892E-002   0.0000000000000000     
   4.6155428869485505E-003  0.10525944561881656        0.0000000000000000     
  -7.3995266481034338E-004   7.9021615894019889E-002   0.0000000000000000     
  -6.2743532675931251E-004   8.5331203764509908E-002   0.0000000000000000     
  -5.3423070325214284E-004   9.1807529435525809E-002   0.0000000000000000     
  -4.6033879428883568E-004   9.8450592907067619E-002   0.0000000000000000     
  -4.0575959986938800E-004  0.10526039417913531        0.0000000000000000     
   1.9495333317423192E-002  0.10554080315581653        0.0000000000000000     
   2.0056425380365062E-002  0.11249412211085283        0.0000000000000000     
   2.0590764335447282E-002  0.11958121167293732        0.0000000000000000     
   2.1098350182669857E-002  0.12680207184207001        0.0000000000000000     
   2.1579182922032786E-002  0.13415670261825091        0.0000000000000000     
   1.4566089345594842E-002  0.10539965010715716        0.0000000000000000     
   1.4978243309015414E-002  0.11236024490051666        0.0000000000000000     
   1.5372520888902655E-002  0.11945418617231617        0.0000000000000000     
   1.5748922085256564E-002  0.12668147392255563        0.0000000000000000     
   1.6107446898077141E-002  0.13404210815123510        0.0000000000000000     
   9.6061592021032937E-003  0.10530586426149049        0.0000000000000000     
   9.8821920536335765E-003  0.11227022453610701        0.0000000000000000     
   1.0146872532214305E-002  0.11936822480965317        0.0000000000000000     
   1.0400200637845476E-002  0.12659986508212900        0.0000000000000000     
   1.0642176370527093E-002  0.13396514535353446        0.0000000000000000     
   4.6155428869485505E-003  0.10525944561881656        0.0000000000000000     
   4.7682716142195452E-003  0.11222406101762387        0.0000000000000000     
   4.9138192653822273E-003  0.11932332758494836        0.0000000000000000     
   5.0521858404365943E-003  0.12655724532079010        0.0000000000000000     
   5.1833713393826470E-003  0.13392581422514896        0.0000000000000000     
  -4.0575959986938800E-004  0.10526039417913531        0.0000000000000000     
  -3.6351800922667711E-004  0.11222175434506727        0.0000000000000000     
  -3.2663891159357490E-004  0.11931949449820180        0.0000000000000000     
  -2.9512230697008296E-004  0.12655361463853892        0.0000000000000000     
  -2.6896819535620047E-004  0.13392411476607863        0.0000000000000000     
   2.1579182922032786E-002  0.13415670261825091        0.0000000000000000     
   2.2033595781537779E-002  0.14163529386302021        0.0000000000000000     
   2.2461921989186544E-002  0.14922803543791804        0.0000000000000000     
   2.2864161544979080E-002  0.15693492734294445        0.0000000000000000     
   2.3240314448915396E-002  0.16475596957809946        0.0000000000000000     
   1.6107446898077141E-002  0.13404210815123510        0.0000000000000000     
   1.6446890815845758E-002  0.14152701805441711        0.0000000000000000     
   1.6766049327043793E-002  0.14912713282816412        0.0000000000000000     
   1.7064922431671244E-002  0.15684245247247613        0.0000000000000000     
   1.7343510129728113E-002  0.16467297698735317        0.0000000000000000     
   1.0642176370527093E-002  0.13396514535353446        0.0000000000000000     
   1.0871357259571042E-002  0.14145482597387857        0.0000000000000000     
   1.1086300834289214E-002  0.14905966729317022        0.0000000000000000     
   1.1287007094681601E-002  0.15677966931140944        0.0000000000000000     
   1.1473476040748214E-002  0.16461483202859617        0.0000000000000000     
   5.1833713393826470E-003  0.13392581422514896        0.0000000000000000     
   5.3069951127136345E-003  0.14141871762140457        0.0000000000000000     
   5.4226765109228045E-003  0.14902563883293635        0.0000000000000000     
   5.5304155340101576E-003  0.15674657785974436        0.0000000000000000     
   5.6302121819756957E-003  0.16458153470182854        0.0000000000000000     
  -2.6896819535620047E-004  0.13392411476607863        0.0000000000000000     
  -2.4619562472646831E-004  0.14141869299699508        0.0000000000000000     
  -2.2482364305543255E-004  0.14902504744746251        0.0000000000000000     
  -2.0485225034309060E-004  0.15674317811748087        0.0000000000000000     
  -1.8628144658944289E-004  0.16457308500705020        0.0000000000000000     
   2.3240314448915396E-002  0.16475596957809946        0.0000000000000000     
   2.3588938912109555E-002  0.17267725496345496        0.0000000000000000     
   2.3908593145675651E-002  0.18068487631908275        0.0000000000000000     
   2.4199277149613667E-002  0.18877883364498299        0.0000000000000000     
   2.4460990923923620E-002  0.19695912694115558        0.0000000000000000     
   1.7343510129728113E-002  0.16467297698735317        0.0000000000000000     
   1.7601680028864527E-002  0.17260378352619266        0.0000000000000000     
   1.7839299736730613E-002  0.18061994924239189        0.0000000000000000     
   1.8056369253326373E-002  0.18872147413595100        0.0000000000000000     
   1.8252888578651802E-002  0.19690835820686989        0.0000000000000000     
   1.1473476040748214E-002  0.16461483202859617        0.0000000000000000     
   1.1646106566904478E-002  0.17255034176104139        0.0000000000000000     
   1.1805297567565825E-002  0.18057138482505583        0.0000000000000000     
   1.1951049042732259E-002  0.18867796122063960        0.0000000000000000     
   1.2083360992403775E-002  0.19687007094779255        0.0000000000000000     
   5.6302121819756957E-003  0.16458153470182854        0.0000000000000000     
   5.7222185262294067E-003  0.17251692966800120        0.0000000000000000     
   5.8065866381812863E-003  0.18053918306707462        0.0000000000000000     
   5.8833165178313277E-003  0.18864829489904869        0.0000000000000000     
   5.9524081651795386E-003  0.19684426516392353        0.0000000000000000     
  -1.8628144658944289E-004  0.16457308500705020        0.0000000000000000     
  -1.6998409316068335E-004  0.17250354724707209        0.0000000000000000     
  -1.5683305142300788E-004  0.18052334396844813        0.0000000000000000     
  -1.4682832137641674E-004  0.18863247517117837        0.0000000000000000     
  -1.3996990302090782E-004  0.19683094085526281        0.0000000000000000     
   2.4460990923923620E-002  0.19695912694115558        0.0000000000000000     
   2.4693634901867087E-002  0.20521149557909324        0.0000000000000000     
   2.4897109516705672E-002  0.21352167893028867        0.0000000000000000     
   2.5071414768439361E-002  0.22188967699474188        0.0000000000000000     
   2.5216550657068168E-002  0.23031548977245284        0.0000000000000000     
   1.8252888578651802E-002  0.19690835820686989        0.0000000000000000     
   1.8428073173557789E-002  0.20516550380886503        0.0000000000000000     
   1.8581138498895231E-002  0.21347781329565285        0.0000000000000000     
   1.8712084554664117E-002  0.22184528666723333        0.0000000000000000     
   1.8820911340864454E-002  0.23026792392360645        0.0000000000000000     
   1.2083360992403775E-002  0.19687007094779255        0.0000000000000000     
   1.2201421980415066E-002  0.20513145042232964        0.0000000000000000     
   1.2304420570600825E-002  0.21344583606006556        0.0000000000000000     
   1.2392356762961049E-002  0.22181322786100041        0.0000000000000000     
   1.2465230557495741E-002  0.23023362582513415        0.0000000000000000     
   5.9524081651795386E-003  0.19684426516392353        0.0000000000000000     
   6.0136813224389123E-003  0.20510933541948695        0.0000000000000000     
   6.0669557318224522E-003  0.21342574722352686        0.0000000000000000     
   6.1122313933301567E-003  0.22179350057604316        0.0000000000000000     
   6.1495083069620267E-003  0.23021259547703599        0.0000000000000000     
  -1.3996990302090782E-004  0.19683094085526281        0.0000000000000000     
  -1.3514880037066826E-004  0.20509915880033702        0.0000000000000000     
  -1.3125601743988510E-004  0.21341754678603661        0.0000000000000000     
  -1.2829155422855841E-004  0.22178610481236155        0.0000000000000000     
  -1.2625541073668731E-004  0.23020483287931187        0.0000000000000000     
   2.5216550657068168E-002  0.23031548977245284        0.0000000000000000     
   2.5338784593530943E-002  0.23877145084157930        0.0000000000000000     
   2.5444383988766545E-002  0.24722989378027904        0.0000000000000000     
   2.5533348842774972E-002  0.25569081858855197        0.0000000000000000     
   2.5605679155556227E-002  0.26415422526639820        0.0000000000000000     
   1.8820911340864454E-002  0.23026792392360645        0.0000000000000000     
   1.8912303037430567E-002  0.23871613688475501        0.0000000000000000     
   1.8990943824296780E-002  0.24716033737066162        0.0000000000000000     
   1.9056833701463095E-002  0.25560052538132633        0.0000000000000000     
   1.9109972668929512E-002  0.26403670091674925        0.0000000000000000     
   1.2465230557495741E-002  0.23023362582513415        0.0000000000000000     
   1.2526210720908220E-002  0.23867622586345619        0.0000000000000000     
   1.2578466019901801E-002  0.24711022388695597        0.0000000000000000     
   1.2621996454476496E-002  0.25553561989563328        0.0000000000000000     
   1.2656802024632296E-002  0.26395241388948837        0.0000000000000000     
   6.1495083069620267E-003  0.23021259547703599        0.0000000000000000     
   6.1805076439639004E-003  0.23865171777768299        0.0000000000000000     
   6.2069505755816172E-003  0.24707955332916190        0.0000000000000000     
   6.2288371018151744E-003  0.25549610213147272        0.0000000000000000     
   6.2461672226645764E-003  0.26390136418461552        0.0000000000000000     
  -1.2625541073668731E-004  0.23020483287931187        0.0000000000000000     
  -1.2480619340239033E-004  0.23864261262743530        0.0000000000000000     
  -1.2360250866378210E-004  0.24706832569727960        0.0000000000000000     
  -1.2264435652086924E-004  0.25548197208884471        0.0000000000000000     
  -1.2193173697364491E-004  0.26388355180213074        0.0000000000000000     
   2.5605679155556227E-002  0.26415422526639820        0.0000000000000000     
   2.5673592097701564E-002  0.27256504777825324        0.0000000000000000     
   2.5749304839802239E-002  0.28086822008855261        0.0000000000000000     
   2.5832817381858254E-002  0.28906374219729652        0.0000000000000000     
   2.5924129723869611E-002  0.29715161410448487        0.0000000000000000     
   1.9109972668929512E-002  0.26403670091674925        0.0000000000000000     
   1.9160289502187282E-002  0.27241169328962572        0.0000000000000000     
   1.9217712976727652E-002  0.28066833181265133        0.0000000000000000     
   1.9282243092550624E-002  0.28880661648582612        0.0000000000000000     
   1.9353879849656200E-002  0.29682654730915004        0.0000000000000000     
   1.2656802024632296E-002  0.26395241388948837        0.0000000000000000     
   1.2690027085953277E-002  0.27230187586797294        0.0000000000000000     
   1.2728815994023512E-002  0.28052527583053888        0.0000000000000000     
   1.2773168748843006E-002  0.28862261377718623        0.0000000000000000     
   1.2823085350411755E-002  0.29659388970791506        0.0000000000000000     
   6.2461672226645764E-003  0.26390136418461552        0.0000000000000000     
   6.2628048489995498E-003  0.27223559551329485        0.0000000000000000     
   6.2826138916898229E-003  0.28043905214221537        0.0000000000000000     
   6.3055943507353976E-003  0.28851173407137704        0.0000000000000000     
   6.3317462261362721E-003  0.29645364130078000        0.0000000000000000     
  -1.2193173697364491E-004  0.26388355180213074        0.0000000000000000     
  -1.2137720867389738E-004  0.27221285222559150        0.0000000000000000     
  -1.2089333027341643E-004  0.28040966074768076        0.0000000000000000     
  -1.2048010177219875E-004  0.28847397736839847        0.0000000000000000     
  -1.2013752317024604E-004  0.29640580208774481        0.0000000000000000     
  -1.2140920675844389E-003   5.5657788531485744E-002   0.0000000000000000     
  -1.0982863503629938E-003   6.1209798774924148E-002   0.0000000000000000     
  -9.8066121082682938E-004   6.6954440083159303E-002   0.0000000000000000     
  -8.6121664897594529E-004   7.2891712456191221E-002   0.0000000000000000     
  -7.3995266481034338E-004   7.9021615894019889E-002   0.0000000000000000     
  -5.6251899403990235E-003   5.6017684449740313E-002   0.0000000000000000     
  -5.4846351605475664E-003   6.1447658760776819E-002   0.0000000000000000     
  -5.3789394216689698E-003   6.7102397584983126E-002   0.0000000000000000     
  -5.3081027237632337E-003   7.2981900922359247E-002   0.0000000000000000     
  -5.2721250668303563E-003   7.9086168772905183E-002   0.0000000000000000     
  -9.2492643740158028E-003   5.6166402124414455E-002   0.0000000000000000     
  -9.2430353686152184E-003   6.1558664576458318E-002   0.0000000000000000     
  -9.2818615086031914E-003   6.7186485209489472E-002   0.0000000000000000     
  -9.3657427939797203E-003   7.3049864023507952E-002   0.0000000000000000     
  -9.4946792247448050E-003   7.9148801018513737E-002   0.0000000000000000     
  -1.2086315368434779E-002   5.6103941555508130E-002   0.0000000000000000     
  -1.2373486974565955E-002   6.1542816221968631E-002   0.0000000000000000     
  -1.2689427471629497E-002   6.7206702956678382E-002   0.0000000000000000     
  -1.3034136859625406E-002   7.3095601759637363E-002   0.0000000000000000     
  -1.3407615138553684E-002   7.9209512630845594E-002   0.0000000000000000     
  -1.4136342923655950E-002   5.5830302743021379E-002   0.0000000000000000     
  -1.4875989978399767E-002   6.1400113697307787E-002   0.0000000000000000     
  -1.5601637310747882E-002   6.7163050826549817E-002   0.0000000000000000     
  -1.6313284920700291E-002   7.3119114130747453E-002   0.0000000000000000     
  -1.7010932808256995E-002   7.9268303609900725E-002   0.0000000000000000     
  -7.3995266481034338E-004   7.9021615894019889E-002   0.0000000000000000     
  -6.2743532675931251E-004   8.5331203764509908E-002   0.0000000000000000     
  -5.3423070325214284E-004   9.1807529435525809E-002   0.0000000000000000     
  -4.6033879428883568E-004   9.8450592907067619E-002   0.0000000000000000     
  -4.0575959986938800E-004  0.10526039417913531        0.0000000000000000     
  -5.2721250668303563E-003   7.9086168772905183E-002   0.0000000000000000     
  -5.2650692624967915E-003   8.5386705444958647E-002   0.0000000000000000     
  -5.2809981223889916E-003   9.1855015246857352E-002   0.0000000000000000     
  -5.3199116465069531E-003   9.8491098178601341E-002   0.0000000000000000     
  -5.3818098348506821E-003  0.10529495424019057        0.0000000000000000     
  -9.4946792247448050E-003   7.9148801018513737E-002   0.0000000000000000     
  -9.6546516129487406E-003   8.5448873650214072E-002   0.0000000000000000     
  -9.8316407706418359E-003   9.1915659374316283E-002   0.0000000000000000     
  -1.0025646697824084E-002   9.8549158190820260E-002   0.0000000000000000     
  -1.0236669394495489E-002  0.10534937009972610        0.0000000000000000     
  -1.3407615138553684E-002   7.9209512630845594E-002   0.0000000000000000     
  -1.3796182378115163E-002   8.5517708380276253E-002   0.0000000000000000     
  -1.4186158648010675E-002   9.1989461817902490E-002   0.0000000000000000     
  -1.4577543948240224E-002   9.8624772943724390E-002   0.0000000000000000     
  -1.4970338278803810E-002  0.10542364175774191        0.0000000000000000     
  -1.7010932808256995E-002   7.9268303609900725E-002   0.0000000000000000     
  -1.7689661557996051E-002   8.5593209635145107E-002   0.0000000000000000     
  -1.8344551754495512E-002   9.2076422577616099E-002   0.0000000000000000     
  -1.8975603397755371E-002   9.8717942437313744E-002   0.0000000000000000     
  -1.9582816487775639E-002  0.10551776921423799        0.0000000000000000     
  -4.0575959986938800E-004  0.10526039417913531        0.0000000000000000     
  -3.6351800922667711E-004  0.11222175434506727        0.0000000000000000     
  -3.2663891159357490E-004  0.11931949449820180        0.0000000000000000     
  -2.9512230697008296E-004  0.12655361463853892        0.0000000000000000     
  -2.6896819535620047E-004  0.13392411476607863        0.0000000000000000     
  -5.3818098348506821E-003  0.10529495424019057        0.0000000000000000     
  -5.4566022288922876E-003  0.11225172116806378        0.0000000000000000     
  -5.5341983701038848E-003  0.11934653669865963        0.0000000000000000     
  -5.6145982584854745E-003  0.12657940083197816        0.0000000000000000     
  -5.6978018940370559E-003  0.13395031356801934        0.0000000000000000     
  -1.0236669394495489E-002  0.10534937009972610        0.0000000000000000     
  -1.0454406456964476E-002  0.11230237813623996        0.0000000000000000     
  -1.0668555481539482E-002  0.11939426533556810        0.0000000000000000     
  -1.0879116468220502E-002  0.12662503169771044        0.0000000000000000     
  -1.1086089417007537E-002  0.13399467722266703        0.0000000000000000     
  -1.4970338278803810E-002  0.10542364175774191        0.0000000000000000     
  -1.5356930693443249E-002  0.11237372524959589        0.0000000000000000     
  -1.5729710245900370E-002  0.11946268040892717        0.0000000000000000     
  -1.6088676936175165E-002  0.12669050723573577        0.0000000000000000     
  -1.6433830764267639E-002  0.13405720573002169        0.0000000000000000     
  -1.9582816487775639E-002  0.10551776921423799        0.0000000000000000     
  -2.0164174938328602E-002  0.11246576250813149        0.0000000000000000     
  -2.0717662663186538E-002  0.11955178191873690        0.0000000000000000     
  -2.1243279662349464E-002  0.12677582744605417        0.0000000000000000     
  -2.1741025935817358E-002  0.13413789909008331        0.0000000000000000     
  -2.6896819535620047E-004  0.13392411476607863        0.0000000000000000     
  -2.4619562472646831E-004  0.14141869299699508        0.0000000000000000     
  -2.2482364305543255E-004  0.14902504744746251        0.0000000000000000     
  -2.0485225034309060E-004  0.15674317811748087        0.0000000000000000     
  -1.8628144658944289E-004  0.16457308500705020        0.0000000000000000     
  -5.6978018940370559E-003  0.13395031356801934        0.0000000000000000     
  -5.7796998150228610E-003  0.14144504680302483        0.0000000000000000     
  -5.8561825597071102E-003  0.14904937243323627        0.0000000000000000     
  -5.9272501280898107E-003  0.15676329045865364        0.0000000000000000     
  -5.9929025201709580E-003  0.16458680087927693        0.0000000000000000     
  -1.1086089417007537E-002  0.13399467722266703        0.0000000000000000     
  -1.1285002320449135E-002  0.14148807374186839        0.0000000000000000     
  -1.1471383171093849E-002  0.14909009308674512        0.0000000000000000     
  -1.1645231968941674E-002  0.15680073525729715        0.0000000000000000     
  -1.1806548713992612E-002  0.16462000025352447        0.0000000000000000     
  -1.6433830764267639E-002  0.13405720573002169        0.0000000000000000     
  -1.6762103141005295E-002  0.14154777381352585        0.0000000000000000     
  -1.7070425477215635E-002  0.14914720940798909        0.0000000000000000     
  -1.7358797772898678E-002  0.15685551251341145        0.0000000000000000     
  -1.7627220028054402E-002  0.16467268312979294        0.0000000000000000     
  -2.1741025935817358E-002  0.13413789909008331        0.0000000000000000     
  -2.2211002276691337E-002  0.14162414701799708        0.0000000000000000     
  -2.2653309478072491E-002  0.14922072139696818        0.0000000000000000     
  -2.3067947539960821E-002  0.15692762222699652        0.0000000000000000     
  -2.3454916462356326E-002  0.16474484950808221        0.0000000000000000     
  -1.8628144658944289E-004  0.16457308500705020        0.0000000000000000     
  -1.6998409316068335E-004  0.17250354724707209        0.0000000000000000     
  -1.5683305142300788E-004  0.18052334396844813        0.0000000000000000     
  -1.4682832137641674E-004  0.18863247517117837        0.0000000000000000     
  -1.3996990302090782E-004  0.19683094085526281        0.0000000000000000     
  -5.9929025201709580E-003  0.16458680087927693        0.0000000000000000     
  -6.0549120375744513E-003  0.17251089954900675        0.0000000000000000     
  -6.1150509819241760E-003  0.18052658232174368        0.0000000000000000     
  -6.1733193532201372E-003  0.18863384919748774        0.0000000000000000     
  -6.2297171514623358E-003  0.19683270017623888        0.0000000000000000     
  -1.1806548713992612E-002  0.16462000025352447        0.0000000000000000     
  -1.1956976053320540E-002  0.17253969162455804        0.0000000000000000     
  -1.2098156633999334E-002  0.18055161291952843        0.0000000000000000     
  -1.2230090456028995E-002  0.18865576413843579        0.0000000000000000     
  -1.2352777519409523E-002  0.19685214528128006        0.0000000000000000     
  -1.7627220028054402E-002  0.16467268312979294        0.0000000000000000     
  -1.7876176140398960E-002  0.17258992347372581        0.0000000000000000     
  -1.8106150007648484E-002  0.18059843576180237        0.0000000000000000     
  -1.8317141629802990E-002  0.18869821999402259        0.0000000000000000     
  -1.8509151006862467E-002  0.19688927617038643        0.0000000000000000     
  -2.3454916462356326E-002  0.16474484950808221        0.0000000000000000     
  -2.3812512298809700E-002  0.17266159509651025        0.0000000000000000     
  -2.4139031102871626E-002  0.18066705084856552        0.0000000000000000     
  -2.4434472874542118E-002  0.18876121676424809        0.0000000000000000     
  -2.4698837613821169E-002  0.19694409284355796        0.0000000000000000     
  -1.3996990302090782E-004  0.19683094085526281        0.0000000000000000     
  -1.3514880037066826E-004  0.20509915880033702        0.0000000000000000     
  -1.3125601743988510E-004  0.21341754678603661        0.0000000000000000     
  -1.2829155422855841E-004  0.22178610481236155        0.0000000000000000     
  -1.2625541073668731E-004  0.23020483287931187        0.0000000000000000     
  -6.2297171514623358E-003  0.19683270017623888        0.0000000000000000     
  -6.2820321166817102E-003  0.20510229359829674        0.0000000000000000     
  -6.3280519889091918E-003  0.21342178780396096        0.0000000000000000     
  -6.3677767681447851E-003  0.22179118279323151        0.0000000000000000     
  -6.4012064543884899E-003  0.23021047856610841        0.0000000000000000     
  -1.2352777519409523E-002  0.19685214528128006        0.0000000000000000     
  -1.2463932355162240E-002  0.20512011284678291        0.0000000000000000     
  -1.2561269494308469E-002  0.21343902333366585        0.0000000000000000     
  -1.2644788936848212E-002  0.22180887674192892        0.0000000000000000     
  -1.2714490682781470E-002  0.23022967307157219        0.0000000000000000     
  -1.8509151006862467E-002  0.19688927617038643        0.0000000000000000     
  -1.8680849515812264E-002  0.20515261654579547        0.0000000000000000     
  -1.8830908533637718E-002  0.21346925337515132        0.0000000000000000     
  -1.8959328060338843E-002  0.22183918665845387        0.0000000000000000     
  -1.9066108095915624E-002  0.23026241639570319        0.0000000000000000     
  -2.4698837613821169E-002  0.19694409284355796        0.0000000000000000     
  -2.4932783598631776E-002  0.20519980469533450        0.0000000000000000     
  -2.5136969106896941E-002  0.21351247792841729        0.0000000000000000     
  -2.5311394138616671E-002  0.22188211254280624        0.0000000000000000     
  -2.5456058693790959E-002  0.23030870853850138        0.0000000000000000     
  -1.2625541073668731E-004  0.23020483287931187        0.0000000000000000     
  -1.2480619340239033E-004  0.23864261262743530        0.0000000000000000     
  -1.2360250866378210E-004  0.24706832569727960        0.0000000000000000     
  -1.2264435652086924E-004  0.25548197208884471        0.0000000000000000     
  -1.2193173697364491E-004  0.26388355180213074        0.0000000000000000     
  -6.4012064543884899E-003  0.23021047856610841        0.0000000000000000     
  -6.4294439856384666E-003  0.23864920744456011        0.0000000000000000     
  -6.4535922998928859E-003  0.24707690175055497        0.0000000000000000     
  -6.4736513971517433E-003  0.25549356148409302        0.0000000000000000     
  -6.4896212774150390E-003  0.26389918664517426        0.0000000000000000     
  -1.2714490682781470E-002  0.23022967307157219        0.0000000000000000     
  -1.2773118927192153E-002  0.23867179926090429        0.0000000000000000     
  -1.2823417865164183E-002  0.24710564224823400        0.0000000000000000     
  -1.2865387496697561E-002  0.25553120203356128        0.0000000000000000     
  -1.2899027821792280E-002  0.26394847861688620        0.0000000000000000     
  -1.9066108095915624E-002  0.23026241639570319        0.0000000000000000     
  -1.9155831018063448E-002  0.23871038807646794        0.0000000000000000     
  -1.9233079204477678E-002  0.24715454719031671        0.0000000000000000     
  -1.9297852655158321E-002  0.25559489373724958        0.0000000000000000     
  -1.9350151370105369E-002  0.26403142771726662        0.0000000000000000     
  -2.5456058693790959E-002  0.23030870853850138        0.0000000000000000     
  -2.5577580258252346E-002  0.23876497389125095        0.0000000000000000     
  -2.5682576317833366E-002  0.24722361657680314        0.0000000000000000     
  -2.5771046872534016E-002  0.25568463659515800        0.0000000000000000     
  -2.5842991922354303E-002  0.26414803394631547        0.0000000000000000     
  -1.2193173697364491E-004  0.26388355180213074        0.0000000000000000     
  -1.2137720867389738E-004  0.27221285222559150        0.0000000000000000     
  -1.2089333027341643E-004  0.28040966074768076        0.0000000000000000     
  -1.2048010177219875E-004  0.28847397736839847        0.0000000000000000     
  -1.2013752317024604E-004  0.29640580208774481        0.0000000000000000     
  -6.4896212774150390E-003  0.26389918664517426        0.0000000000000000     
  -6.5051958730979386E-003  0.27223372693105213        0.0000000000000000     
  -6.5240691166156030E-003  0.28043713203898019        0.0000000000000000     
  -6.5462410079680303E-003  0.28850940196895830        0.0000000000000000     
  -6.5717115471552214E-003  0.29645053672098659        0.0000000000000000     
  -1.2899027821792280E-002  0.26394847861688620        0.0000000000000000     
  -1.2931327930303440E-002  0.27229830055586624        0.0000000000000000     
  -1.2969276912086125E-002  0.28052149640815899        0.0000000000000000     
  -1.3012874767140340E-002  0.28861806617376434        0.0000000000000000     
  -1.3062121495466081E-002  0.29658800985268235        0.0000000000000000     
  -1.9350151370105369E-002  0.26403142771726662        0.0000000000000000     
  -1.9399773380290402E-002  0.27240657310003369        0.0000000000000000     
  -1.9456516716684993E-002  0.28066275385521700        0.0000000000000000     
  -1.9520381379289131E-002  0.28879996998281648        0.0000000000000000     
  -1.9591367368102817E-002  0.29681822148283221        0.0000000000000000     
  -2.5842991922354303E-002  0.26414803394631547        0.0000000000000000     
  -2.5910532223058825E-002  0.27255854456355455        0.0000000000000000     
  -2.5985788530412186E-002  0.28086090438015432        0.0000000000000000     
  -2.6068760844414389E-002  0.28905511339611484        0.0000000000000000     
  -2.6159449165065438E-002  0.29714117161143599        0.0000000000000000     
  -1.4136342923655950E-002   5.5830302743021379E-002   0.0000000000000000     
  -1.4875989978399767E-002   6.1400113697307787E-002   0.0000000000000000     
  -1.5601637310747882E-002   6.7163050826549817E-002   0.0000000000000000     
  -1.6313284920700291E-002   7.3119114130747453E-002   0.0000000000000000     
  -1.7010932808256995E-002   7.9268303609900725E-002   0.0000000000000000     
  -1.6304279425529006E-002   5.5634135380709375E-002   0.0000000000000000     
  -1.7487550491150354E-002   6.1328725720044455E-002   0.0000000000000000     
  -1.8614901416072360E-002   6.7185491892722590E-002   0.0000000000000000     
  -1.9686332200295031E-002   7.3204433898743773E-002   0.0000000000000000     
  -2.0701842843818367E-002   7.9385551738107990E-002   0.0000000000000000     
  -1.9495057259903626E-002   5.5804089162327319E-002   0.0000000000000000     
  -2.0945174623851398E-002   6.1526821007747340E-002   0.0000000000000000     
  -2.2325630177716951E-002   6.7403989228815492E-002   0.0000000000000000     
  -2.3636423921500286E-002   7.3435593825531803E-002   0.0000000000000000     
  -2.4877555855201412E-002   7.9621634797896260E-002   0.0000000000000000     
  -2.3708676426779825E-002   5.6340164087875233E-002   0.0000000000000000     
  -2.5248862376502902E-002   6.1994399560416427E-002   0.0000000000000000     
  -2.6733823595681643E-002   6.7818542834828535E-002   0.0000000000000000     
  -2.8163560084316058E-002   7.3812593911111571E-002   0.0000000000000000     
  -2.9538071842406140E-002   7.9976552789265520E-002   0.0000000000000000     
  -2.8945136926157584E-002   5.7242360157353088E-002   0.0000000000000000     
  -3.0398613749104863E-002   6.2731461378051717E-002   0.0000000000000000     
  -3.1839481669966439E-002   6.8429152710761693E-002   0.0000000000000000     
  -3.3267740688742338E-002   7.4335434155483049E-002   0.0000000000000000     
  -3.4683390805432542E-002   8.0450305712215758E-002   0.0000000000000000     
  -1.7010932808256995E-002   7.9268303609900725E-002   0.0000000000000000     
  -1.7689661557996051E-002   8.5593209635145107E-002   0.0000000000000000     
  -1.8344551754495512E-002   9.2076422577616099E-002   0.0000000000000000     
  -1.8975603397755371E-002   9.8717942437313744E-002   0.0000000000000000     
  -1.9582816487775639E-002  0.10551776921423799        0.0000000000000000     
  -2.0701842843818367E-002   7.9385551738107990E-002   0.0000000000000000     
  -2.1665376478301437E-002   8.5724400799089925E-002   0.0000000000000000     
  -2.2580876235403315E-002   9.2216536469964194E-002   0.0000000000000000     
  -2.3448342115124008E-002   9.8861958750730825E-002   0.0000000000000000     
  -2.4267774117463510E-002  0.10566066764138980        0.0000000000000000     
  -2.4877555855201412E-002   7.9621634797896260E-002   0.0000000000000000     
  -2.6053614464741331E-002   8.5960305256379932E-002   0.0000000000000000     
  -2.7169188236041062E-002   9.2449798311453918E-002   0.0000000000000000     
  -2.8224277169100594E-002   9.9090113963118204E-002   0.0000000000000000     
  -2.9218881263919930E-002  0.10588125221137280        0.0000000000000000     
  -2.9538071842406140E-002   7.9976552789265520E-002   0.0000000000000000     
  -3.0854375517315749E-002   8.6300923007015168E-002   0.0000000000000000     
  -3.2109487756408747E-002   9.2776208102085284E-002   0.0000000000000000     
  -3.3303408559685138E-002   9.9402408074475909E-002   0.0000000000000000     
  -3.4436137927144915E-002  0.10617952292418699        0.0000000000000000     
  -3.4683390805432542E-002   8.0450305712215758E-002   0.0000000000000000     
  -3.6067659636024679E-002   8.6746254050995592E-002   0.0000000000000000     
  -3.7401774796506380E-002   9.3195765841858305E-002   0.0000000000000000     
  -3.8685736286877631E-002   9.9798841084803885E-002   0.0000000000000000     
  -3.9919544107138452E-002  0.10655547977983235        0.0000000000000000     
  -1.9582816487775639E-002  0.10551776921423799        0.0000000000000000     
  -2.0164174938328602E-002  0.11246576250813149        0.0000000000000000     
  -2.0717662663186538E-002  0.11955178191873690        0.0000000000000000     
  -2.1243279662349464E-002  0.12677582744605417        0.0000000000000000     
  -2.1741025935817358E-002  0.13413789909008331        0.0000000000000000     
  -2.4267774117463510E-002  0.10566066764138980        0.0000000000000000     
  -2.5042364016135299E-002  0.11260447236800415        0.0000000000000000     
  -2.5775303584852860E-002  0.11968518215663693        0.0000000000000000     
  -2.6466592823616190E-002  0.12690279700728815        0.0000000000000000     
  -2.7116231732425285E-002  0.13425731691995776        0.0000000000000000     
  -2.9218881263919930E-002  0.10588125221137280        0.0000000000000000     
  -3.0157722751378117E-002  0.11281583728537121        0.0000000000000000     
  -3.1045523862354190E-002  0.11988649341426702        0.0000000000000000     
  -3.1882284596848151E-002  0.12709322059806025        0.0000000000000000     
  -3.2668004954859990E-002  0.13443601883675083        0.0000000000000000     
  -3.4436137927144915E-002  0.10617952292418699        0.0000000000000000     
  -3.5510251144057051E-002  0.11309985726023265        0.0000000000000000     
  -3.6528323495690525E-002  0.12015571569162717        0.0000000000000000     
  -3.7490354982045331E-002  0.12734709821837045        0.0000000000000000     
  -3.8396345603121482E-002  0.13467400484046252        0.0000000000000000     
  -3.9919544107138452E-002  0.10655547977983235        0.0000000000000000     
  -4.1099949194172106E-002  0.11345653229258854        0.0000000000000000     
  -4.2223702484861868E-002  0.12049284898871737        0.0000000000000000     
  -4.3290803979207759E-002  0.12766442986821877        0.0000000000000000     
  -4.4301253677209766E-002  0.13497127493109284        0.0000000000000000     
  -2.1741025935817358E-002  0.13413789909008331        0.0000000000000000     
  -2.2211002276691337E-002  0.14162414701799708        0.0000000000000000     
  -2.2653309478072491E-002  0.14922072139696818        0.0000000000000000     
  -2.3067947539960821E-002  0.15692762222699652        0.0000000000000000     
  -2.3454916462356326E-002  0.16474484950808221        0.0000000000000000     
  -2.7116231732425285E-002  0.13425731691995776        0.0000000000000000     
  -2.7727458362806101E-002  0.14173628149731457        0.0000000000000000     
  -2.8303510766284585E-002  0.14932723034202741        0.0000000000000000     
  -2.8844388942860743E-002  0.15703016345409623        0.0000000000000000     
  -2.9350092892534582E-002  0.16484508083352103        0.0000000000000000     
  -3.2668004954859990E-002  0.13443601883675083        0.0000000000000000     
  -3.3407230034648419E-002  0.14190326539351072        0.0000000000000000     
  -3.4104504934472119E-002  0.14948333753151188        0.0000000000000000     
  -3.4759829654331095E-002  0.15717623525075425        0.0000000000000000     
  -3.5373204194225343E-002  0.16498195855123793        0.0000000000000000     
  -3.8396345603121482E-002  0.13467400484046252        0.0000000000000000     
  -3.9250317292218291E-002  0.14212509870658552        0.0000000000000000     
  -4.0056291982635092E-002  0.14968904296542160        0.0000000000000000     
  -4.0814269674371871E-002  0.15736583761697076        0.0000000000000000     
  -4.1524250367428649E-002  0.16515548266123301        0.0000000000000000     
  -4.4301253677209766E-002  0.13497127493109284        0.0000000000000000     
  -4.5256720135515724E-002  0.14240178143653892        0.0000000000000000     
  -4.6158871910773495E-002  0.14994434664375650        0.0000000000000000     
  -4.7007709002983074E-002  0.15759897055274560        0.0000000000000000     
  -4.7803231412144459E-002  0.16536565316350615        0.0000000000000000     
  -2.3454916462356326E-002  0.16474484950808221        0.0000000000000000     
  -2.3812512298809700E-002  0.17266159509651025        0.0000000000000000     
  -2.4139031102871626E-002  0.18066705084856552        0.0000000000000000     
  -2.4434472874542118E-002  0.18876121676424809        0.0000000000000000     
  -2.4698837613821169E-002  0.19694409284355796        0.0000000000000000     
  -2.9350092892534582E-002  0.16484508083352103        0.0000000000000000     
  -2.9816841159800954E-002  0.17275899190788474        0.0000000000000000     
  -3.0240852289154730E-002  0.18075890610477041        0.0000000000000000     
  -3.0622126280595924E-002  0.18884482342417788        0.0000000000000000     
  -3.0960663134124523E-002  0.19701674386610729        0.0000000000000000     
  -3.5373204194225343E-002  0.16498195855123793        0.0000000000000000     
  -3.5940019354620906E-002  0.17288639932282299        0.0000000000000000     
  -3.6455665935983761E-002  0.18087544945536954        0.0000000000000000     
  -3.6920143938313943E-002  0.18894910894887765        0.0000000000000000     
  -3.7333453361611438E-002  0.19710737780334725        0.0000000000000000     
  -4.1524250367428649E-002  0.16515548266123301        0.0000000000000000     
  -4.2182046883269542E-002  0.17304381734132487        0.0000000000000000     
  -4.2783472043358729E-002  0.18101668090036294        0.0000000000000000     
  -4.3328525847696184E-002  0.18907407333834725        0.0000000000000000     
  -4.3817208296281926E-002  0.19721599465527778        0.0000000000000000     
  -4.7803231412144459E-002  0.16536565316350615        0.0000000000000000     
  -4.8542923745746890E-002  0.17323124596339046        0.0000000000000000     
  -4.9224270611279625E-002  0.18118260043975065        0.0000000000000000     
  -4.9847272008742644E-002  0.18921971659258680        0.0000000000000000     
  -5.0411927938135967E-002  0.19734259442189889        0.0000000000000000     
  -2.4698837613821169E-002  0.19694409284355796        0.0000000000000000     
  -2.4932783598631776E-002  0.20519980469533450        0.0000000000000000     
  -2.5136969106896941E-002  0.21351247792841729        0.0000000000000000     
  -2.5311394138616671E-002  0.22188211254280624        0.0000000000000000     
  -2.5456058693790959E-002  0.23030870853850138        0.0000000000000000     
  -3.0960663134124523E-002  0.19701674386610729        0.0000000000000000     
  -3.1258872451070882E-002  0.20526225580093410        0.0000000000000000     
  -3.1519163832765318E-002  0.21356894759903369        0.0000000000000000     
  -3.1741537279207852E-002  0.22193681926040620        0.0000000000000000     
  -3.1925992790398469E-002  0.23036587078505161        0.0000000000000000     
  -3.7333453361611438E-002  0.19710737780334725        0.0000000000000000     
  -3.7698253920579669E-002  0.20534054836812823        0.0000000000000000     
  -3.8017205329922019E-002  0.21363891299257048        0.0000000000000000     
  -3.8290307589638514E-002  0.22200247167667383        0.0000000000000000     
  -3.8517560699729135E-002  0.23043122442043854        0.0000000000000000     
  -4.3817208296281926E-002  0.19721599465527778        0.0000000000000000     
  -4.4250928007158158E-002  0.20543468239691703        0.0000000000000000     
  -4.4631093598367061E-002  0.21372237410902747        0.0000000000000000     
  -4.4957705069908677E-002  0.22207906979160921        0.0000000000000000     
  -4.5230762421782970E-002  0.23050476944466214        0.0000000000000000     
  -5.0411927938135967E-002  0.19734259442189889        0.0000000000000000     
  -5.0916894710806321E-002  0.20554465788730039        0.0000000000000000     
  -5.1360828638100431E-002  0.21381933094840486        0.0000000000000000     
  -5.1743729720018311E-002  0.22216661360521225        0.0000000000000000     
  -5.2065597956559961E-002  0.23058650585772256        0.0000000000000000     
  -2.5456058693790959E-002  0.23030870853850138        0.0000000000000000     
  -2.5577580258252346E-002  0.23876497389125095        0.0000000000000000     
  -2.5682576317833366E-002  0.24722361657680314        0.0000000000000000     
  -2.5771046872534016E-002  0.25568463659515800        0.0000000000000000     
  -2.5842991922354303E-002  0.26414803394631547        0.0000000000000000     
  -3.1925992790398469E-002  0.23036587078505161        0.0000000000000000     
  -3.2080846145353697E-002  0.23883097938812434        0.0000000000000000     
  -3.2214413123090063E-002  0.24730702228477899        0.0000000000000000     
  -3.2326693723607559E-002  0.25579399947501552        0.0000000000000000     
  -3.2417687946906179E-002  0.26429191095883386        0.0000000000000000     
  -3.8517560699729135E-002  0.23043122442043854        0.0000000000000000     
  -3.8708108176962339E-002  0.23890382724995907        0.0000000000000000     
  -3.8871093538106569E-002  0.24739893619132994        0.0000000000000000     
  -3.9006516783161825E-002  0.25591655124455132        0.0000000000000000     
  -3.9114377912128115E-002  0.26445667240962312        0.0000000000000000     
  -4.5230762421782970E-002  0.23050476944466214        0.0000000000000000     
  -4.5459366353078262E-002  0.23898351747675492        0.0000000000000000     
  -4.5652617562882893E-002  0.24749935829645600        0.0000000000000000     
  -4.5810516051196841E-002  0.25605229190376538        0.0000000000000000     
  -4.5933061818020107E-002  0.26464231829868312        0.0000000000000000     
  -5.2065597956559961E-002  0.23058650585772256        0.0000000000000000     
  -5.2334620673701496E-002  0.23907005006851212        0.0000000000000000     
  -5.2558985197419028E-002  0.24760828860015716        0.0000000000000000     
  -5.2738691527712586E-002  0.25620122145265783        0.0000000000000000     
  -5.2873739664582128E-002  0.26484884862601393        0.0000000000000000     
  -2.5842991922354303E-002  0.26414803394631547        0.0000000000000000     
  -2.5910532223058825E-002  0.27255854456355455        0.0000000000000000     
  -2.5985788530412186E-002  0.28086090438015432        0.0000000000000000     
  -2.6068760844414389E-002  0.28905511339611484        0.0000000000000000     
  -2.6159449165065438E-002  0.29714117161143599        0.0000000000000000     
  -3.2417687946906179E-002  0.26429191095883386        0.0000000000000000     
  -3.2502251443066912E-002  0.27274787699130221        0.0000000000000000     
  -3.2595239862170729E-002  0.28110901782748826        0.0000000000000000     
  -3.2696653204217621E-002  0.28937533346739208        0.0000000000000000     
  -3.2806491469207590E-002  0.29754682391101372        0.0000000000000000     
  -3.9114377912128115E-002  0.26445667240962312        0.0000000000000000     
  -3.9213578024772891E-002  0.27296823242814988        0.0000000000000000     
  -3.9323018220863620E-002  0.28140016404173579        0.0000000000000000     
  -3.9442698500400296E-002  0.28975246725038095        0.0000000000000000     
  -3.9572618863382925E-002  0.29802514205408537        0.0000000000000000     
  -4.5933061818020107E-002  0.26464231829868312        0.0000000000000000     
  -4.6044511968176750E-002  0.27321961087409752        0.0000000000000000     
  -4.6169123606490850E-002  0.28173434302289702        0.0000000000000000     
  -4.6306896732962420E-002  0.29018651474508134        0.0000000000000000     
  -4.6457831347591447E-002  0.29857612604065087        0.0000000000000000     
  -5.2873739664582128E-002  0.26484884862601393        0.0000000000000000     
  -5.2995053273278483E-002  0.27350201232914534        0.0000000000000000     
  -5.3133556019052446E-002  0.28211155477097188        0.0000000000000000     
  -5.3289247901903994E-002  0.29067747595149357        0.0000000000000000     
  -5.3462128921833149E-002  0.29919977587071023        0.0000000000000000     
  -2.8945136926157584E-002   5.7242360157353088E-002   0.0000000000000000     
  -3.0398613749104863E-002   6.2731461378051717E-002   0.0000000000000000     
  -3.1839481669966439E-002   6.8429152710761693E-002   0.0000000000000000     
  -3.3267740688742338E-002   7.4335434155483049E-002   0.0000000000000000     
  -3.4683390805432542E-002   8.0450305712215758E-002   0.0000000000000000     
  -3.4394074587047359E-002   5.8229700597829802E-002   0.0000000000000000     
  -3.5751132529690664E-002   6.3547455050635748E-002   0.0000000000000000     
  -3.7138013199655977E-002   6.9112866223007108E-002   0.0000000000000000     
  -3.8554716596943275E-002   7.4925934114943832E-002   0.0000000000000000     
  -4.0001242721552567E-002   8.0986658726445962E-002   0.0000000000000000     
  -3.9245125238459591E-002   5.9021208636374278E-002   0.0000000000000000     
  -4.0663122506293718E-002   6.4251829168151087E-002   0.0000000000000000     
  -4.2124826983834844E-002   6.9746730737956827E-002   0.0000000000000000     
  -4.3630238671083003E-002   7.5505913345791487E-002   0.0000000000000000     
  -4.5179357568038161E-002   8.1529376991655092E-002   0.0000000000000000     
  -4.3498288880394267E-002   5.9616884272986496E-002   0.0000000000000000     
  -4.5134583678913993E-002   6.4844583730597719E-002   0.0000000000000000     
  -4.6799923022503076E-002   7.0330746255610907E-002   0.0000000000000000     
  -4.8494306911161522E-002   7.6075371848026041E-002   0.0000000000000000     
  -5.0217735344889318E-002   8.2078460507843107E-002   0.0000000000000000     
  -4.7153565512851409E-002   6.0016727507666484E-002   0.0000000000000000     
  -4.9165516047551518E-002   6.5325718737975658E-002   0.0000000000000000     
  -5.1163301315660659E-002   7.0864912775969319E-002   0.0000000000000000     
  -5.3146921317178832E-002   7.6634309621647440E-002   0.0000000000000000     
  -5.5116376052106050E-002   8.2633909275010062E-002   0.0000000000000000     
  -3.4683390805432542E-002   8.0450305712215758E-002   0.0000000000000000     
  -3.6067659636024679E-002   8.6746254050995592E-002   0.0000000000000000     
  -3.7401774796506380E-002   9.3195765841858305E-002   0.0000000000000000     
  -3.8685736286877631E-002   9.9798841084803885E-002   0.0000000000000000     
  -3.9919544107138452E-002  0.10655547977983235        0.0000000000000000     
  -4.0001242721552567E-002   8.0986658726445962E-002   0.0000000000000000     
  -4.1443781888562799E-002   8.7249632984033709E-002   0.0000000000000000     
  -4.2848524413052876E-002   9.3669449814227285E-002   0.0000000000000000     
  -4.4215470295022818E-002  0.10024610921702666        0.0000000000000000     
  -4.5544619534472607E-002  0.10697961119243188        0.0000000000000000     
  -4.5179357568038161E-002   8.1529376991655092E-002   0.0000000000000000     
  -4.6733057342624749E-002   8.7764394401841972E-002   0.0000000000000000     
  -4.8252211662767143E-002   9.4158238302646496E-002   0.0000000000000000     
  -4.9736820528465384E-002  0.10071090869406871        0.0000000000000000     
  -5.1186883939719430E-002  0.10742240557610856        0.0000000000000000     
  -5.0217735344889318E-002   8.2078460507843107E-002   0.0000000000000000     
  -5.1935485998210532E-002   8.8290538304420380E-002   0.0000000000000000     
  -5.3612836545649196E-002   9.4662131307115996E-002   0.0000000000000000     
  -5.5249786987205347E-002  0.10119323951593001        0.0000000000000000     
  -5.6846337322878929E-002  0.10788386293086237        0.0000000000000000     
  -5.5116376052106050E-002   8.2633909275010062E-002   0.0000000000000000     
  -5.7051067855320159E-002   8.8828064691768918E-002   0.0000000000000000     
  -5.8930399061699050E-002   9.5181128827635741E-002   0.0000000000000000     
  -6.0754369671242696E-002  0.10169310168261056        0.0000000000000000     
  -6.2522979683951124E-002  0.10836398325669334        0.0000000000000000     
  -3.9919544107138452E-002  0.10655547977983235        0.0000000000000000     
  -4.1099949194172106E-002  0.11345653229258854        0.0000000000000000     
  -4.2223702484861868E-002  0.12049284898871737        0.0000000000000000     
  -4.3290803979207759E-002  0.12766442986821877        0.0000000000000000     
  -4.4301253677209766E-002  0.13497127493109284        0.0000000000000000     
  -4.5544619534472607E-002  0.10697961119243188        0.0000000000000000     
  -4.6826662738678540E-002  0.11385912233757070        0.0000000000000000     
  -4.8052290514916919E-002  0.12087380924957088        0.0000000000000000     
  -4.9221502863187730E-002  0.12802367192843245        0.0000000000000000     
  -5.0334299783490979E-002  0.13530871037415534        0.0000000000000000     
  -5.1186883939719430E-002  0.10742240557610856        0.0000000000000000     
  -5.2590237614531646E-002  0.11428088735031101        0.0000000000000000     
  -5.3934717270904368E-002  0.12127451241822101        0.0000000000000000     
  -5.5220322908837598E-002  0.12840328077983859        0.0000000000000000     
  -5.6447054528331299E-002  0.13566719243516370        0.0000000000000000     
  -5.6846337322878929E-002  0.10788386293086237        0.0000000000000000     
  -5.8390673821731423E-002  0.11472182733080953        0.0000000000000000     
  -5.9870982752824209E-002  0.12169495849466783        0.0000000000000000     
  -6.1287264116157314E-002  0.12880325642243726        0.0000000000000000     
  -6.2639517911730724E-002  0.13604672111411789        0.0000000000000000     
  -6.2522979683951124E-002  0.10836398325669334        0.0000000000000000     
  -6.4227971360277858E-002  0.11518194227906622        0.0000000000000000     
  -6.5861086960676454E-002  0.12213514747891127        0.0000000000000000     
  -6.7422326485146913E-002  0.12922359885622847        0.0000000000000000     
  -6.8911689933689249E-002  0.13644729641101785        0.0000000000000000     
  -4.4301253677209766E-002  0.13497127493109284        0.0000000000000000     
  -4.5256720135515724E-002  0.14240178143653892        0.0000000000000000     
  -4.6158871910773495E-002  0.14994434664375650        0.0000000000000000     
  -4.7007709002983074E-002  0.15759897055274560        0.0000000000000000     
  -4.7803231412144459E-002  0.16536565316350615        0.0000000000000000     
  -5.0334299783490979E-002  0.13530871037415534        0.0000000000000000     
  -5.1389811167633123E-002  0.14271681842672762        0.0000000000000000     
  -5.2387166907420582E-002  0.15023588992613704        0.0000000000000000     
  -5.3326367002853363E-002  0.15786592487238377        0.0000000000000000     
  -5.4207411453931480E-002  0.16560692326546766        0.0000000000000000     
  -5.6447054528331299E-002  0.13566719243516370        0.0000000000000000     
  -5.7612962991662860E-002  0.14305371452050811        0.0000000000000000     
  -5.8716099161109557E-002  0.15055031417218362        0.0000000000000000     
  -5.9756463036671419E-002  0.15815699139019013        0.0000000000000000     
  -6.0734054618348424E-002  0.16587374617452769        0.0000000000000000     
  -6.2639517911730724E-002  0.13604672111411789        0.0000000000000000     
  -6.3926175607604940E-002  0.14341246971788055        0.0000000000000000     
  -6.5145668671840448E-002  0.15088761938189615        0.0000000000000000     
  -6.6297997104437220E-002  0.15847217010616471        0.0000000000000000     
  -6.7383160905395284E-002  0.16616612189068630        0.0000000000000000     
  -6.8911689933689249E-002  0.13644729641101785        0.0000000000000000     
  -7.0329449015459372E-002  0.14379308401884477        0.0000000000000000     
  -7.1675875439613207E-002  0.15124780555527473        0.0000000000000000     
  -7.2950969206150754E-002  0.15881146102030755        0.0000000000000000     
  -7.4154730315072026E-002  0.16648405041394337        0.0000000000000000     
  -4.7803231412144459E-002  0.16536565316350615        0.0000000000000000     
  -4.8542923745746890E-002  0.17323124596339046        0.0000000000000000     
  -4.9224270611279625E-002  0.18118260043975065        0.0000000000000000     
  -4.9847272008742644E-002  0.18921971659258680        0.0000000000000000     
  -5.0411927938135967E-002  0.19734259442189889        0.0000000000000000     
  -5.4207411453931480E-002  0.16560692326546766        0.0000000000000000     
  -5.5029599863245814E-002  0.17344711540780486        0.0000000000000000     
  -5.5792231833387232E-002  0.18137473160181131        0.0000000000000000     
  -5.6495307364355735E-002  0.18938977184748707        0.0000000000000000     
  -5.7138826456151329E-002  0.19749223614483213        0.0000000000000000     
  -6.0734054618348424E-002  0.16587374617452769        0.0000000000000000     
  -6.1649025156959206E-002  0.17368985589335326        0.0000000000000000     
  -6.2501525903322350E-002  0.18159459791482369        0.0000000000000000     
  -6.3291556857437883E-002  0.18958797223893895        0.0000000000000000     
  -6.4019118019305779E-002  0.19766997886569912        0.0000000000000000     
  -6.7383160905395284E-002  0.16616612189068630        0.0000000000000000     
  -6.8401199626887052E-002  0.17395946742003562        0.0000000000000000     
  -6.9352152821084978E-002  0.18184219937878768        0.0000000000000000     
  -7.0236020487989090E-002  0.18981431776694241        0.0000000000000000     
  -7.1052802627599346E-002  0.19787582258449984        0.0000000000000000     
  -7.4154730315072026E-002  0.16648405041394337        0.0000000000000000     
  -7.5286123273029359E-002  0.17425594998785204        0.0000000000000000     
  -7.6344112586675131E-002  0.18211753599370342        0.0000000000000000     
  -7.7328698256009326E-002  0.19006880843149745        0.0000000000000000     
  -7.8239880281031987E-002  0.19810976730123425        0.0000000000000000     
  -5.0411927938135967E-002  0.19734259442189889        0.0000000000000000     
  -5.0916894710806321E-002  0.20554465788730039        0.0000000000000000     
  -5.1360828638100431E-002  0.21381933094840486        0.0000000000000000     
  -5.1743729720018311E-002  0.22216661360521225        0.0000000000000000     
  -5.2065597956559961E-002  0.23058650585772256        0.0000000000000000     
  -5.7138826456151329E-002  0.19749223614483213        0.0000000000000000     
  -5.7718924528616211E-002  0.20567612465536370        0.0000000000000000     
  -5.8231737001592565E-002  0.21393543754059893        0.0000000000000000     
  -5.8677263875080390E-002  0.22227017480053787        0.0000000000000000     
  -5.9055505149079687E-002  0.23068033643518046        0.0000000000000000     
  -6.4019118019305779E-002  0.19766997886569912        0.0000000000000000     
  -6.4679787957679855E-002  0.20583473251719217        0.0000000000000000     
  -6.5269145241313886E-002  0.21407634791550609        0.0000000000000000     
  -6.5787189870207832E-002  0.22239482506064093        0.0000000000000000     
  -6.6233921844361721E-002  0.23079016395259661        0.0000000000000000     
  -7.1052802627599346E-002  0.19787582258449984        0.0000000000000000     
  -7.1799484997997265E-002  0.20602048147278587        0.0000000000000000     
  -7.2473053357264380E-002  0.21424206207312640        0.0000000000000000     
  -7.3073507705400609E-002  0.22254056438552144        0.0000000000000000     
  -7.3600848042406061E-002  0.23091598840997099        0.0000000000000000     
  -7.8239880281031987E-002  0.19810976730123425        0.0000000000000000     
  -7.9078015649568442E-002  0.20623337152214472        0.0000000000000000     
  -7.9843461349444034E-002  0.21443258001345974        0.0000000000000000     
  -8.0536217380658803E-002  0.22270739277517940        0.0000000000000000     
  -8.1156283743212709E-002  0.23105780980730364        0.0000000000000000     
  -5.2065597956559961E-002  0.23058650585772256        0.0000000000000000     
  -5.2334620673701496E-002  0.23907005006851212        0.0000000000000000     
  -5.2558985197419028E-002  0.24760828860015716        0.0000000000000000     
  -5.2738691527712586E-002  0.25620122145265783        0.0000000000000000     
  -5.2873739664582128E-002  0.26484884862601393        0.0000000000000000     
  -5.9055505149079687E-002  0.23068033643518046        0.0000000000000000     
  -5.9372443834158427E-002  0.23916465497280728        0.0000000000000000     
  -5.9634062940884566E-002  0.24772186294169882        0.0000000000000000     
  -5.9840362469258099E-002  0.25635196034185503        0.0000000000000000     
  -5.9991342419279024E-002  0.26505494717327605        0.0000000000000000     
  -6.6233921844361721E-002  0.23079016395259661        0.0000000000000000     
  -6.6611408529775498E-002  0.23926856213721703        0.0000000000000000     
  -6.6921717292449071E-002  0.24783621716034607        0.0000000000000000     
  -6.7164848132382438E-002  0.25649312902198368        0.0000000000000000     
  -6.7340801049575585E-002  0.26523929772212995        0.0000000000000000     
  -7.3600848042406061E-002  0.23091598840997099        0.0000000000000000     
  -7.4051514760552675E-002  0.23938177156174145        0.0000000000000000     
  -7.4421948252112527E-002  0.24795135125609905        0.0000000000000000     
  -7.4712148517085589E-002  0.25662472749304382        0.0000000000000000     
  -7.4922115555471833E-002  0.26540190027257576        0.0000000000000000     
  -8.1156283743212709E-002  0.23105780980730364        0.0000000000000000     
  -8.1692762526490020E-002  0.23950428324638046        0.0000000000000000     
  -8.2134755819874949E-002  0.24806726522895764        0.0000000000000000     
  -8.2482263623367524E-002  0.25674675575503531        0.0000000000000000     
  -8.2735285936967731E-002  0.26554275482461343        0.0000000000000000     
  -5.2873739664582128E-002  0.26484884862601393        0.0000000000000000     
  -5.2995053273278483E-002  0.27350201232914534        0.0000000000000000     
  -5.3133556019052446E-002  0.28211155477097188        0.0000000000000000     
  -5.3289247901903994E-002  0.29067747595149357        0.0000000000000000     
  -5.3462128921833149E-002  0.29919977587071023        0.0000000000000000     
  -5.9991342419279024E-002  0.26505494717327605        0.0000000000000000     
  -6.0123921802566052E-002  0.27378667404790746        0.0000000000000000     
  -6.0275019630737857E-002  0.28250299157769498        0.0000000000000000     
  -6.0444635903794466E-002  0.29120389976263883        0.0000000000000000     
  -6.0632770621735846E-002  0.29988939860273883        0.0000000000000000     
  -6.7340801049575585E-002  0.26523929772212995        0.0000000000000000     
  -6.7489837418527363E-002  0.27404483328499796        0.0000000000000000     
  -6.7652218613736589E-002  0.28287984573480102        0.0000000000000000     
  -6.7827944635203252E-002  0.29174433507153902        0.0000000000000000     
  -6.8017015482927365E-002  0.30063830129521196        0.0000000000000000     
  -7.4922115555471833E-002  0.26540190027257576        0.0000000000000000     
  -7.5092800121162470E-002  0.27427649004041704        0.0000000000000000     
  -7.5265152968048657E-002  0.28324211724228981        0.0000000000000000     
  -7.5439174096130407E-002  0.29229878187819397        0.0000000000000000     
  -7.5614863505407692E-002  0.30144648394812967        0.0000000000000000     
  -8.2735285936967731E-002  0.26554275482461343        0.0000000000000000     
  -8.2932809910471306E-002  0.27448164431416455        0.0000000000000000     
  -8.3113822693674039E-002  0.28358980610016138        0.0000000000000000     
  -8.3278324286575861E-002  0.29286724018260385        0.0000000000000000     
  -8.3426314689176828E-002  0.30231394656149191        0.0000000000000000     
  -4.7153565512851409E-002   6.0016727507666484E-002   0.0000000000000000     
  -4.9165516047551518E-002   6.5325718737975658E-002   0.0000000000000000     
  -5.1163301315660659E-002   7.0864912775969319E-002   0.0000000000000000     
  -5.3146921317178832E-002   7.6634309621647440E-002   0.0000000000000000     
  -5.5116376052106050E-002   8.2633909275010062E-002   0.0000000000000000     
  -5.0845147724487970E-002   6.0429013566258738E-002   0.0000000000000000     
  -5.3256379369868420E-002   6.5832329585449018E-002   0.0000000000000000     
  -5.5606411902891659E-002   7.1433715887947447E-002   0.0000000000000000     
  -5.7895245323557686E-002   7.7233172473754025E-002   0.0000000000000000     
  -6.0122879631866487E-002   8.3230699342868780E-002   0.0000000000000000     
  -5.5207228103960941E-002   6.1062017674607789E-002   0.0000000000000000     
  -5.7907633403526886E-002   6.6501511668181940E-002   0.0000000000000000     
  -6.0520704823780171E-002   7.2121641180460716E-002   0.0000000000000000     
  -6.3046442364720803E-002   7.7922406211444126E-002   0.0000000000000000     
  -6.5484846026348770E-002   8.3903806761132155E-002   0.0000000000000000     
  -6.0239806651270315E-002   6.1915739832713639E-002   0.0000000000000000     
  -6.3119278148526900E-002   6.7333264986174438E-002   0.0000000000000000     
  -6.5906180078326188E-002   7.2928688653509127E-002   0.0000000000000000     
  -6.8600512440668185E-002   7.8702010834717687E-002   0.0000000000000000     
  -7.1202275235552906E-002   8.4653231529800185E-002   0.0000000000000000     
  -6.5942883366416100E-002   6.2990180040576271E-002   0.0000000000000000     
  -6.8891313604868443E-002   6.8327589539426498E-002   0.0000000000000000     
  -7.1762837666529716E-002   7.3854858307092680E-002   0.0000000000000000     
  -7.4557455551399865E-002   7.9571986343574791E-002   0.0000000000000000     
  -7.7275167259478902E-002   8.5478973648872844E-002   0.0000000000000000     
  -5.5116376052106050E-002   8.2633909275010062E-002   0.0000000000000000     
  -5.7051067855320159E-002   8.8828064691768918E-002   0.0000000000000000     
  -5.8930399061699050E-002   9.5181128827635741E-002   0.0000000000000000     
  -6.0754369671242696E-002  0.10169310168261056        0.0000000000000000     
  -6.2522979683951124E-002  0.10836398325669334        0.0000000000000000     
  -6.0122879631866487E-002   8.3230699342868780E-002   0.0000000000000000     
  -6.2284146554672466E-002   8.9406401285592962E-002   0.0000000000000000     
  -6.4373877818830014E-002   9.5740383092227821E-002   0.0000000000000000     
  -6.6392073424339088E-002  0.10223264476277336        0.0000000000000000     
  -6.8338733371199750E-002  0.10888318629722959        0.0000000000000000     
  -6.5484846026348770E-002   8.3903806761132155E-002   0.0000000000000000     
  -6.7839065736986254E-002   9.0054975807597859E-002   0.0000000000000000     
  -7.0112251424955377E-002   9.6365046328914294E-002   0.0000000000000000     
  -7.2304403090256153E-002  0.10283401832508142        0.0000000000000000     
  -7.4415520732888596E-002  0.10946189179609926        0.0000000000000000     
  -7.1202275235552906E-002   8.4653231529800185E-002   0.0000000000000000     
  -7.3715825402261501E-002   9.0773788257783594E-002   0.0000000000000000     
  -7.6145519880075188E-002   9.7055118537695134E-002   0.0000000000000000     
  -7.8491358668993885E-002  0.10349722236953468        0.0000000000000000     
  -8.0753341769017675E-002  0.11010009975330230        0.0000000000000000     
  -7.7275167259478902E-002   8.5478973648872844E-002   0.0000000000000000     
  -7.9914425550498283E-002   9.1562838636150237E-002   0.0000000000000000     
  -8.2473683184189420E-002   9.7810599718570354E-002   0.0000000000000000     
  -8.4952940160552312E-002  0.10422225689613319        0.0000000000000000     
  -8.7352196479586974E-002  0.11079781016883877        0.0000000000000000     
  -6.2522979683951124E-002  0.10836398325669334        0.0000000000000000     
  -6.4227971360277858E-002  0.11518194227906622        0.0000000000000000     
  -6.5861086960676454E-002  0.12213514747891127        0.0000000000000000     
  -6.7422326485146913E-002  0.12922359885622847        0.0000000000000000     
  -6.8911689933689249E-002  0.13644729641101785        0.0000000000000000     
  -6.8338733371199750E-002  0.10888318629722959        0.0000000000000000     
  -7.0209317185991924E-002  0.11568044332735994        0.0000000000000000     
  -7.1999284395295571E-002  0.12261285148492770        0.0000000000000000     
  -7.3708634999110720E-002  0.12968041076993297        0.0000000000000000     
  -7.5337368997437371E-002  0.13688312118237575        0.0000000000000000     
  -7.4415520732888596E-002  0.10946189179609926        0.0000000000000000     
  -7.6441898254694593E-002  0.11623654160796942        0.0000000000000000     
  -7.8379829557516087E-002  0.12314584262669355        0.0000000000000000     
  -8.0229314641353092E-002  0.13018979485227158        0.0000000000000000     
  -8.1990353506205538E-002  0.13736839828470362        0.0000000000000000     
  -8.0753341769017675E-002  0.11010009975330230        0.0000000000000000     
  -8.2925714566385908E-002  0.11685023712089473        0.0000000000000000     
  -8.5002722447338003E-002  0.12373412090420877        0.0000000000000000     
  -8.6984365411873987E-002  0.13075175110324436        0.0000000000000000     
  -8.8870643459993792E-002  0.13790312771800153        0.0000000000000000     
  -8.7352196479586974E-002  0.11079781016883877        0.0000000000000000     
  -8.9660766121065813E-002  0.11752152986613587        0.0000000000000000     
  -9.1867963064761290E-002  0.12437768631747335        0.0000000000000000     
  -9.3973787310673393E-002  0.13136627952285121        0.0000000000000000     
  -9.5978238858802106E-002  0.13848730948226942        0.0000000000000000     
  -6.8911689933689249E-002  0.13644729641101785        0.0000000000000000     
  -7.0329449015459372E-002  0.14379308401884477        0.0000000000000000     
  -7.1675875439613207E-002  0.15124780555527473        0.0000000000000000     
  -7.2950969206150754E-002  0.15881146102030755        0.0000000000000000     
  -7.4154730315072026E-002  0.16648405041394337        0.0000000000000000     
  -7.5337368997437371E-002  0.13688312118237575        0.0000000000000000     
  -7.6887988647402122E-002  0.14420780361463947        0.0000000000000000     
  -7.8362996206131630E-002  0.15164127895910778        0.0000000000000000     
  -7.9762391673625921E-002  0.15918354721578062        0.0000000000000000     
  -8.1086175049884968E-002  0.16683460838465797        0.0000000000000000     
  -8.1990353506205538E-002  0.13736839828470362        0.0000000000000000     
  -8.3666999935609124E-002  0.14466887469650319        0.0000000000000000     
  -8.5263307713099465E-002  0.15207844586018393        0.0000000000000000     
  -8.6779276838676547E-002  0.15959711177574584        0.0000000000000000     
  -8.8214907312340357E-002  0.16722487244318893        0.0000000000000000     
  -8.8870643459993792E-002  0.13790312771800153        0.0000000000000000     
  -9.0666482880080376E-002  0.14517629726443590        0.0000000000000000     
  -9.2376809960516656E-002  0.15255930625850320        0.0000000000000000     
  -9.4001624701302577E-002  0.16005215470020331        0.0000000000000000     
  -9.5540927102438195E-002  0.16765484258953631        0.0000000000000000     
  -9.5978238858802106E-002  0.13848730948226942        0.0000000000000000     
  -9.7886437480815908E-002  0.14573007131843763        0.0000000000000000     
  -9.9703502948383232E-002  0.15308386015406550        0.0000000000000000     
 -0.10142943526150409       0.16054867598915298        0.0000000000000000     
 -0.10306423442017849       0.16812451882370011        0.0000000000000000     
  -7.4154730315072026E-002  0.16648405041394337        0.0000000000000000     
  -7.5286123273029359E-002  0.17425594998785204        0.0000000000000000     
  -7.6344112586675131E-002  0.18211753599370342        0.0000000000000000     
  -7.7328698256009326E-002  0.19006880843149745        0.0000000000000000     
  -7.8239880281031987E-002  0.19810976730123425        0.0000000000000000     
  -8.1086175049884968E-002  0.16683460838465797        0.0000000000000000     
  -8.2332388199112455E-002  0.17458489875065705        0.0000000000000000     
  -8.3499072985512124E-002  0.18242485459869504        0.0000000000000000     
  -8.4586229409083946E-002  0.19035447592877194        0.0000000000000000     
  -8.5593857469827936E-002  0.19837376274088778        0.0000000000000000     
  -8.8214907312340357E-002  0.16722487244318893        0.0000000000000000     
  -8.9568586508862694E-002  0.17495190886230522        0.0000000000000000     
  -9.0838701803015315E-002  0.18276840203288680        0.0000000000000000     
  -9.2025253194798234E-002  0.19067435195493368        0.0000000000000000     
  -9.3128240684211452E-002  0.19866975862844574        0.0000000000000000     
  -9.5540927102438195E-002  0.16765484258953631        0.0000000000000000     
  -9.6994718202280034E-002  0.17535698032279667        0.0000000000000000     
  -9.8362999039184704E-002  0.18314817829627872        0.0000000000000000     
  -9.9645769613152205E-002  0.19102843650998258        0.0000000000000000     
 -0.10084302992418252       0.19899775496390817        0.0000000000000000     
 -0.10306423442017849       0.16812451882370011        0.0000000000000000     
 -0.10461078327936453       0.17580011313213123        0.0000000000000000     
 -0.10607196469402030       0.18356418338887076        0.0000000000000000     
 -0.10744777866414582       0.19141672959391870        0.0000000000000000     
 -0.10873822518974111       0.19935775174727499        0.0000000000000000     
  -7.8239880281031987E-002  0.19810976730123425        0.0000000000000000     
  -7.9078015649568442E-002  0.20623337152214472        0.0000000000000000     
  -7.9843461349444034E-002  0.21443258001345974        0.0000000000000000     
  -8.0536217380658803E-002  0.22270739277517940        0.0000000000000000     
  -8.1156283743212709E-002  0.23105780980730364        0.0000000000000000     
  -8.5593857469827936E-002  0.19837376274088778        0.0000000000000000     
  -8.6525853863270510E-002  0.20647514377575760        0.0000000000000000     
  -8.7386115284937990E-002  0.21465104777409644        0.0000000000000000     
  -8.8174641734830445E-002  0.22290147473590427        0.0000000000000000     
  -8.8891433212947818E-002  0.23122642466118115        0.0000000000000000     
  -9.3128240684211452E-002  0.19866975862844574        0.0000000000000000     
  -9.4153473589980621E-002  0.20674753934411333        0.0000000000000000     
  -9.5106761230831338E-002  0.21490061139262653        0.0000000000000000     
  -9.5988103606763658E-002  0.22312897477398549        0.0000000000000000     
  -9.6797500717777568E-002  0.23143262948819010        0.0000000000000000     
 -0.10084302992418252       0.19899775496390817        0.0000000000000000     
 -0.10196087482969877       0.20705055822721188        0.0000000000000000     
 -0.10300539918712409       0.21518127086905020        0.0000000000000000     
 -0.10397660299645846       0.22338989288942307        0.0000000000000000     
 -0.10487448625770190       0.23167642428833049        0.0000000000000000     
 -0.10873822518974111       0.19935775174727499        0.0000000000000000     
 -0.10994805758242494       0.20738420042505334        0.0000000000000000     
 -0.11108202915381621       0.21549302620336735        0.0000000000000000     
 -0.11214013990391485       0.22368422908221702        0.0000000000000000     
 -0.11312238983272091       0.23195780906160232        0.0000000000000000     
  -8.1156283743212709E-002  0.23105780980730364        0.0000000000000000     
  -8.1692762526490020E-002  0.23950428324638046        0.0000000000000000     
  -8.2134755819874949E-002  0.24806726522895764        0.0000000000000000     
  -8.2482263623367524E-002  0.25674675575503531        0.0000000000000000     
  -8.2735285936967731E-002  0.26554275482461343        0.0000000000000000     
  -8.8891433212947818E-002  0.23122642466118115        0.0000000000000000     
  -8.9521902446255575E-002  0.23965125351253874        0.0000000000000000     
  -9.0051462161719123E-002  0.24820131725258854        0.0000000000000000     
  -9.0480112359338449E-002  0.25687661588133065        0.0000000000000000     
  -9.0807853039113623E-002  0.26567714939876508        0.0000000000000000     
  -9.6797500717777568E-002  0.23143262948819010        0.0000000000000000     
  -9.7525685138517462E-002  0.23983783868162087        0.0000000000000000     
  -9.8163389443627791E-002  0.24837086550065826        0.0000000000000000     
  -9.8710613633108540E-002  0.25703170994530222        0.0000000000000000     
  -9.9167357706959752E-002  0.26582037201555297        0.0000000000000000     
 -0.10487448625770190       0.23167642428833049        0.0000000000000000     
 -0.10570411060327568       0.24006403875362692        0.0000000000000000     
 -0.10647053766560097       0.24857590997316678        0.0000000000000000     
 -0.10717376744467778       0.25721203794695008        0.0000000000000000     
 -0.10781379994050615       0.26597242267497695        0.0000000000000000     
 -0.11312238983272091       0.23195780906160232        0.0000000000000000     
 -0.11405717884053021       0.24032985372855686        0.0000000000000000     
 -0.11497290682763865       0.24881645067011418        0.0000000000000000     
 -0.11586957379404617       0.25741759988627422        0.0000000000000000     
 -0.11674717973975281       0.26613330137703706        0.0000000000000000     
  -8.2735285936967731E-002  0.26554275482461343        0.0000000000000000     
  -8.2932809910471306E-002  0.27448164431416455        0.0000000000000000     
  -8.3113822693674039E-002  0.28358980610016138        0.0000000000000000     
  -8.3278324286575861E-002  0.29286724018260385        0.0000000000000000     
  -8.3426314689176828E-002  0.30231394656149191        0.0000000000000000     
  -9.0807853039113623E-002  0.26567714939876508        0.0000000000000000     
  -9.1065041036653416E-002  0.27466599114501528        0.0000000000000000     
  -9.1282033187566725E-002  0.28390621446020459        0.0000000000000000     
  -9.1458829491853605E-002  0.29339781934433312        0.0000000000000000     
  -9.1595429949514001E-002  0.30314080579740083        0.0000000000000000     
  -9.9167357706959752E-002  0.26582037201555297        0.0000000000000000     
  -9.9544667749908208E-002  0.27483522557174378        0.0000000000000000     
  -9.9853589846680815E-002  0.28417464447420832        0.0000000000000000     
 -0.10009412399727752       0.29383862872294653        0.0000000000000000     
 -0.10026627020169838       0.30382717831795841        0.0000000000000000     
 -0.10781379994050615       0.26597242267497695        0.0000000000000000     
 -0.10837169005023572       0.27498934759435006        0.0000000000000000     
 -0.10882849267101621       0.28439509614217240        0.0000000000000000     
 -0.10918420780284765       0.29418966831844401        0.0000000000000000     
 -0.10943883544572999       0.30437306412316478        0.0000000000000000     
 -0.11674717973975281       0.26613330137703706        0.0000000000000000     
 -0.11754610793763595       0.27512835721283413        0.0000000000000000     
 -0.11820674166057300       0.28456756946409700        0.0000000000000000     
 -0.11872908090856396       0.29445093813082551        0.0000000000000000     
 -0.11911312568160883       0.30477846321301982        0.0000000000000000     
 </DataArray>
 <DataArray  type="Float64" Name="stress" NumberOfComponents="3" format="ascii">
   5967723515.7805071        48629641.541056395       -22526941.410926625     
   5774353535.3925991        15446730.704354763       -9512223.4222956039     
   5584610008.9900932       -5648000.1809847355        95728.340039517963     
   5398492936.5729952       -14654551.114976168        6296913.8760941094     
   5216002318.1413012       -11572922.097621679        9091333.1858527996     
   5643024581.2374287        31658180.587097406        162493842.93651149     
   5450626357.1256046        11917760.289425850        165089086.79361749     
   5259994921.9514637       -1933363.5493264198        168736488.50346172     
   5071130275.7149916       -9895190.9291691780        173436048.06603906     
   4884032418.4161949       -11967721.850085974        179187765.48135340     
   5273197090.8576965        1148152.8821558952        353657494.83981568     
   5094510406.1048899       -1327841.9516196251        343663655.34304804     
   4915730845.2420330       -4113423.8189017773        339180897.77804255     
   4736858408.2691231       -7208592.7197155952        340209222.14480144     
   4557893095.1861467       -10613348.654052496        346748628.44331801     
   4858241044.6413088       -42900441.573791981        550964014.29899037     
   4706005682.3304539       -24290076.018775463        526211482.22599429     
   4551817778.8618078       -12188180.989725351        511428956.16379130     
   4395677334.2353792       -6594756.4866242409        506616436.11237264     
   4237584348.4511566       -7509802.5094850063        511773922.07174158     
   4398156442.5882568       -100487602.78073645        754413401.31402338     
   4285112185.8022771       -56968941.912068605        712732567.44245505     
   4168255722.8107796       -26157635.061782122        685480663.66069734     
   4047587053.6137648       -8053682.2298936844        672657689.96875060     
   3923106178.2112312       -2657083.4163947105        674263646.36661506     
   5216002318.1413012       -11572922.097621679        9091333.1858527996     
   5046019296.2732496       -961077.72742199898        2162266.1846251935     
   4874900767.4859810        5865743.5787396431        1350045.9213888759     
   4702646731.7795219        8907541.8209116459        6654672.3961496111     
   4529257189.1538544        8164316.9990823269        18076145.608895231     
   4884032418.4161949       -11967721.850085974        179187765.48135340     
   4727946078.0327482       -3041789.6728632450        172680879.58583394     
   4571210536.4194603        3720138.4049224854        171135958.60040295     
   4413825793.5763445        8318062.3832581043        174553002.52503961     
   4255791849.5033927        10751982.262149811        182932011.35975006     
   4557893095.1861467       -10613348.654052496        346748628.44331801     
   4412403773.9218426       -4363227.3794033527        341231280.29110438     
   4266751557.1170650        1343908.7603359222        339521015.22105080     
   4120936444.7718234        6508059.7651946545        341617833.23316532     
   3974958436.8861113        11129225.635154724        347521734.32744950     
   4237584348.4511566       -7509802.5094850063        511773922.07174158     
   4099392383.9405255       -4925390.8470778465        507813468.30042022     
   3961523829.5787926       -1262945.3549969196        506505215.78335106     
   3823978685.3659582        3477533.9667315483        507849164.52054316     
   3686756951.3020196        9296047.1181247234        511845314.51197934     
   3923106178.2112312       -2657083.4163947105        674263646.36661506     
   3788911908.0888004       -4728280.0758714676        672427443.61379206     
   3655527353.8046393       -4100423.9411113262        672088560.28730822     
   3522952515.3587427       -773515.01213765144        673246996.38716042     
   3391187392.7511196        5252446.7110691071        675902751.91334867     
   4529257189.1538544        8164316.9990823269        18076145.608895231     
   4332902541.9404011        29632.315059185028        13195182.334838714     
   4137352459.7873616       -5423168.8342354298        11403968.968583148     
   3942606942.6947165       -8194086.4488811493        12702505.510151593     
   3748665990.6624908       -8283120.5288107395        17090791.959526110     
   4255791849.5033927        10751982.262149811        182932011.35975006     
   4068929642.0485945        4268901.5041608810        176587594.11336988     
   3882539588.6001315       -640332.56605410576        174074164.32905605     
   3696621689.1579933       -3975719.9485046864        175391722.00680825     
   3511175943.7221951       -5737260.6431663036        180540267.14663640     
   3974958436.8861113        11129225.635154724        347521734.32744950     
   3799706490.7735705        6933095.2782835960        339326050.21231467     
   3624594287.6132855        3202774.7622556686        335702591.11350977     
   3449621827.4052567       -61735.912918806076        336651357.03103530     
   3274789110.1494765       -2860436.7472591400        342172347.96489894     
   3686756951.3020196        9296047.1181247234        511845314.51197934     
   3525233088.1153297        8022213.6374380589        501410550.63167506     
   3363516556.8268223        6106153.1506769657        496289249.32196379     
   3201607357.4364872        3547865.6578303576        496481410.58283943     
   3039505489.9443293        347351.15891146660        501987034.41430694     
   3391187392.7511196        5252446.7110691071        675902751.91334867     
   3245509434.0738788        7536256.5816462040        662841095.37145293     
   3099306396.2407365        8069802.5992066860        655834138.95440698     
   2952578279.2517033        6853084.7637958527        654881882.66220629     
   2805325083.1067638        3886103.0753663778        659984326.49486291     
   3748665990.6624908       -8283120.5288107395        17090791.959526110     
   3575521179.0213819       -2583472.6196451187        9564167.7462659627     
   3401274993.4440517       -555071.16457581520        7050309.9179237010     
   3225927433.9305596       -2197916.1633754969        9549218.4744999651     
   3049478500.4808507       -7512007.6162105799        17060893.416005645     
   3511175943.7221951       -5737260.6431663036        180540267.14663640     
   3350008746.7689962       -483751.06189799309        172024087.58785588     
   3188192353.4344163        2605770.5814449787        167811646.40282717     
   3025726763.7184572        3531304.2868564129        167902943.59154648     
   2862611977.6211190        2292850.0543389320        172297979.15401757     
   3274789110.1494765       -2860436.7472591400        342172347.96489894     
   3123573733.5665717        1339196.2109042406        333194153.54121917     
   2972161338.1570950        4882099.7471455336        327810669.48011136     
   2820551923.9210691        7768273.8615491390        326021895.78159142     
   2668745490.8584580        9997718.5540295839        327827832.44564509     
   3039505489.9443293        347351.15891146660        501987034.41430694     
   2896216139.4140925        2885369.1986634731        493074365.60633612     
   2753181947.6120939        6273916.3325426579        487047379.14978081     
   2610402914.5383520        10512992.560606599        483906075.04462701     
   2467879040.1928568        15602597.882828236        483650453.29089361     
   2805325083.1067638        3886103.0753663778        659984326.49486291     
   2667935964.3115568        4154767.9013956785        651664723.78322613     
   2531254181.7994189        6781220.3376467228        645521775.41182828     
   2395279735.5703368        11765460.384093523        641555481.38066840     
   2260012625.6243181        19107488.040752411        639765841.68975699     
   3049478500.4808507       -7512007.6162105799        17060893.416005645     
   2883956445.6387315       -9964150.6360526085        11726479.951678338     
   2719261403.0959492       -9659585.9914413691        7187163.2764692195     
   2555393372.8524780       -6598313.6824615002        3442943.3903846964     
   2392352354.9083271       -780333.70907139778        493820.29340042738     
   2862611977.6211190        2292850.0543389320        172297979.15401757     
   2700345088.1673751        990634.98511219025        165576548.33166870     
   2538517639.1632881        1153221.4147601128        160298626.10726193     
   2377129630.6088552        2780609.3432574272        156464212.48081324     
   2216181062.5040898        5872798.7706476450        154073307.45231304     
   2668745490.8584580        9997718.5540295839        327827832.44564509     
   2511586371.9611831        10401212.985816598        319267217.10731310     
   2354479121.6639109        10977602.750948548        312798522.17578363     
   2197423739.9666276        11726887.849368930        308421747.65104091     
   2040420226.8693488        12649068.281155586        306136893.53309238     
   2467879040.1928568        15602597.882828236        483650453.29089361     
   2317680297.0201678        18267583.366065741        472798486.27865058     
   2167145850.5978236        19813558.017109752        464686851.48203880     
   2016275700.9258139        20240521.835930943        459315548.90106446     
   1865069848.0041349        19548474.822525144        456684578.53572118     
   2260012625.6243181        19107488.040752411        639765841.68975699     
   2118626863.3443341        24589746.125862598        626170355.84566391     
   1976517825.9650335        27661087.213273287        615963614.02603960     
   1833685513.4864008        28321511.302893281        609145616.23088920     
   1690129925.9084384        26571018.394769847        605716362.46020770     
   2392352354.9083271       -780333.70907139778        493820.29340042738     
   2249553957.6624298        7288114.8888686895       -6586146.5469949301     
   2103408338.7205219        4199157.8334400654       -11385016.315670690     
   1953915498.0826404       -10047204.875231385       -13902789.012612762     
   1801075435.7487569       -35450973.237246156       -14139464.637822427     
   2216181062.5040898        5872798.7706476450        154073307.45231304     
   2077863567.6154826        13098049.074372649        143446094.37215629     
   1937355251.3397934        13020561.421162128        134179216.40914026     
   1794656113.6769931        5640335.8109123707        126272673.56328413     
   1649766154.6271093       -9042627.7562835217        119726465.83459175     
   2040420226.8693488        12649068.281155586        306136893.53309238     
   1903952885.8964078        18241895.758251429        293311567.90688002     
   1766451123.8452756        20386652.974703908        280925815.44323516     
   1627914940.7159235        19083339.930428565        268979636.14217973     
   1488344336.5083756        14331956.625506878        257473030.00369051     
   1865069848.0041349        19548474.822525144        456684578.53572118     
   1727821912.5052190        22719654.940516114        443010274.05715537     
   1590695956.2369814        26297432.494107783        428854780.78660321     
   1453691979.1994314        30281807.483331859        414218098.72404367     
   1316809981.3925762        34672779.908187389        399100227.86949909     
   1690129925.9084384        26571018.394769847        605716362.46020770     
   1549470647.4418814        26531326.621102810        592542212.82301664     
   1410089748.5149159        30752899.979402006        577966112.43924618     
   1271987229.1275167        39235738.469597042        561988061.30889773     
   1135163089.2797050        51979842.091739714        544608059.43198013     
   1801075435.7487569       -35450973.237246156       -14139464.637822427     
   1770453905.6336851       -16950414.781733155       -8288222.8989846250     
   1747952410.7213454        28616927.682887077       -41349937.796757273     
   1733570951.0117266        101251054.15658194       -113324609.33110705     
   1727309526.5048342        200951964.63935393       -224212237.50206730     
   1649766154.6271093       -9042627.7562835217        119726465.83459175     
   1527165013.0153873       -13998784.662970304        135465005.89016059     
   1408759194.8319519       -4970530.1420462728        124776043.43771662     
   1294548700.0768039        18042135.806491435        87659578.477247059     
   1184533528.7499185        55039213.182581067        24115611.008795463     
   1488344336.5083756        14331956.625506878        257473030.00369051     
   1309436309.4816933       -3379097.8188329339        278520037.97247267     
   1130798894.1088428       -20188113.417069316        285624997.56182110     
   952432090.38981354       -36095090.169233203        278787908.77174419     
   774335898.32460868       -51100028.075310051        258008771.60224637     
   1316809981.3925762        34672779.908187389        399100227.86949909     
   1117267795.0325978        14908645.750680566        420876873.34795129     
   914071508.55199230       -17035822.142227113        441196924.57557428     
   707221121.95076180       -61160623.770556003        460060381.55234993     
   496716635.22890508       -117465759.13431931        477467244.27827835     
   1135163089.2797050        51979842.091739714        544608059.43198013     
   950659469.66809416        40864446.045568407        562535512.01660001     
   758577038.16141582        4486343.6825004518        591491824.47896409     
   558915794.75963724       -57154464.997563064        631476996.81906366     
   351675739.46281272       -144057979.99445191        682491029.03691518     
   1727309526.5048342        200951964.63935393       -224212237.50206730     
   1456775864.3866761        184816690.00296247       -96697392.055077583     
   1154020289.8114483        61275040.509682715        60062795.439510882     
   819042802.77911627       -169672983.84063369        246068324.98165712     
   451843403.28967953       -508027383.04793197        461319196.57138669     
   1184533528.7499185        55039213.182581067        24115611.008795463     
   977560114.41962552        11911274.612633824        155475118.42103261     
   732740249.37862396       -157371499.65967524        312710858.37642360     
   450073933.62689757       -452809109.63442260        495822830.87494153     
   129561167.16446167       -874401555.31153536        704811035.91661072     
   774335898.32460868       -51100028.075310051        258008771.60224637     
   621296704.62662399       -124108438.72551331        386650979.68384552     
   424786521.96430302       -342020145.92351210        537800310.80414975     
   184805350.33764133       -704835149.66929698        711456764.96313024     
  -98646810.253364801       -1212553449.9629214        907620342.16083252     
   496716635.22890508       -117465759.13431931        477467244.27827835     
   387985635.00768954       -223242450.01142368        596830191.73334956     
   230159107.56849572       -492670898.28176665        735331152.72266090     
   23237052.911346138       -925751103.94530916        892970127.24622929     
  -232780528.96378204       -1522483067.0021112        1069747115.3040637     
   351675739.46281272       -144057979.99445191        682491029.03691518     
   277626905.56279939       -285490759.24512738        786012754.56953335     
   148858006.19119436       -609323756.73444760        905303384.13196433     
  -34630958.652008176       -1115556972.4624372        1040362917.7241983     
  -272839988.96680826       -1804190406.4290574        1191191355.3462694     
   4398156442.5882568       -100487602.78073645        754413401.31402338     
   4285112185.8022771       -56968941.912068605        712732567.44245505     
   4168255722.8107796       -26157635.061782122        685480663.66069734     
   4047587053.6137648       -8053682.2298936844        672657689.96875060     
   3923106178.2112312       -2657083.4163947105        674263646.36661506     
   3967287259.6216979       -78170913.219159126        846883060.64320028     
   3879654031.8806496       -50746749.494194031        819045300.16957688     
   3790368604.2068305       -28829918.878472090        800039669.75079930     
   3699430976.6002388       -12420421.371989012        789866169.38685763     
   3606841149.0608692       -1518256.9747617245        788524799.07775974     
   3593072487.1201925       -38857900.518064260        928970483.29126978     
   3514859431.1813087       -32325491.109637260        917495803.53380477     
   3437154181.5823917       -24100393.901309013        909256453.79620397     
   3359956738.3234477       -14182608.893074274        904252434.07847774     
   3283267101.4044766       -2572136.0849361420        902483744.38061464     
   3275512125.0837507        17451435.322550774        1000675669.2582525     
   3190728383.7042465       -1705166.7583957911        1008084077.5351336     
   3108612454.9374599       -11969060.130295277        1013131015.7969210     
   3029164338.7833915       -13340244.793135047        1015816484.0436019     
   2952384035.2420392       -5818720.7469217777        1016140482.2751808     
   3014606173.5123649        90757094.302679062        1061998618.5441338     
   2907260889.4494767        41114223.559530020        1090810122.1735771     
   2804743424.2720451        7564082.4345800877        1111663355.7529402     
   2707053777.9800768       -9893329.0721662045        1124558319.2822371     
   2614191950.5735631       -11258010.960721850        1129495012.7614539     
   3923106178.2112312       -2657083.4163947105        674263646.36661506     
   3788911908.0888004       -4728280.0758714676        672427443.61379206     
   3655527353.8046393       -4100423.9411113262        672088560.28730822     
   3522952515.3587427       -773515.01213765144        673246996.38716042     
   3391187392.7511196        5252446.7110691071        675902751.91334867     
   3606841149.0608692       -1518256.9747617245        788524799.07775974     
   3478418540.3691945       -3105317.7263526917        785564249.43738258     
   3350501280.5313025       -3007882.2986638546        785434396.26173556     
   3223089369.5471992       -1225950.6916875839        788135239.55081689     
   3096182807.4168768        2240477.0945694447        793666779.30463588     
   3283267101.4044766       -2572136.0849361420        902483744.38061464     
   3164425802.8246746       -2532166.3243163824        898043753.03745127     
   3045785486.1141772       -1822256.9993458986        897767835.19741666     
   2927346151.2729764       -442408.11005115509        901655990.86050344     
   2809107798.3010874        1607380.3436106443        909708220.02671123     
   2952384035.2420392       -5818720.7469217777        1016140482.2751808     
   2846933695.4552360       -3008825.8697466850        1009865954.4140083     
   2741379970.5532513       -543548.04317319393        1009088877.0943506     
   2635722860.5360866        1577112.7328008413        1013809250.3162113     
   2529962365.4037447        3353156.4581799507        1024027074.0795903     
   2614191950.5735631       -11258010.960721850        1129495012.7614539     
   2525942218.2608781       -4535296.3626624346        1121030853.5670407     
   2437284733.8485332        828244.56986582279        1119397521.9525356     
   2348219497.3365202        4832611.8368334770        1124595017.9179440     
   2258746508.7248554        7477805.4382952452        1136623341.4632571     
   3391187392.7511196        5252446.7110691071        675902751.91334867     
   3245509434.0738788        7536256.5816462040        662841095.37145293     
   3099306396.2407365        8069802.5992066860        655834138.95440698     
   2952578279.2517033        6853084.7637958527        654881882.66220629     
   2805325083.1067638        3886103.0753663778        659984326.49486291     
   3096182807.4168768        2240477.0945694447        793666779.30463588     
   2965159820.2875905        4864709.7094680071        782472990.17523050     
   2833890428.6968260        6667594.1194361448        776418996.86302125     
   2702374632.6445808        7649130.3244650364        775504799.36800265     
   2570612432.1308570        7809318.3245759010        779730397.69018185     
   2809107798.3010874        1607380.3436106443        909708220.02671123     
   2690125770.4121671        3787832.0105543137        900707418.78662193     
   2571176012.7561851        6075851.1206355095        895931509.05607259     
   2452258525.3331475        8471437.6738539934        895380490.83506012     
   2333373308.1430449        10974591.670202255        899054364.12358522     
   2529962365.4037447        3353156.4581799507        1024027074.0795903     
   2420407284.4476042        4305623.4849027395        1017544381.2056352     
   2311163148.4188223        6294573.6028205156        1014371675.5335671     
   2202229957.3174024        9320006.8119497299        1014508957.0633845     
   2093607711.1433394        13381923.112259746        1017956225.7950838     
   2258746508.7248554        7477805.4382952452        1136623341.4632571     
   2156004362.3938975        6418084.1324948072        1132983877.4322693     
   2053851835.6847317        7323761.5659903288        1131739496.2955089     
   1952288928.5973392        10194837.738737345        1132890198.0529726     
   1851315641.1317282        15031312.650755405        1136435982.7046647     
   2805325083.1067638        3886103.0753663778        659984326.49486291     
   2667935964.3115568        4154767.9013956785        651664723.78322613     
   2531254181.7994189        6781220.3376467228        645521775.41182828     
   2395279735.5703368        11765460.384093523        641555481.38066840     
   2260012625.6243181        19107488.040752411        639765841.68975699     
   2570612432.1308570        7809318.3245759010        779730397.69018185     
   2440062036.5162153        8715149.5499829054        771609945.01191568     
   2310009980.5865254        11282113.058556199        766426355.88629580     
   2180456264.3417768        15510208.850268602        764179630.31332564     
   2051400887.7819710        21399436.925139546        764869768.29299593     
   2333373308.1430449        10974591.670202255        899054364.12358522     
   2211833662.0301332        13169197.191359639        890889232.11422551     
   2090583359.0040474        16328279.668604136        886421172.86991501     
   1969622399.0647867        20451839.101938128        885650186.39065361     
   1848950782.2123518        25539875.491348267        888576272.67644632     
   2093607711.1433394        13381923.112259746        1017956225.7950838     
   1983250840.8533039        17516910.825502872        1009502585.0901507     
   1872974317.0519757        21919720.167772174        1005506226.3626786     
   1762778139.7393563        26590351.139060378        1005967149.6126558     
   1652662308.9154425        31528803.739375174        1010885354.8400894     
   1851315641.1317282        15031312.650755405        1136435982.7046647     
   1754313572.9857273        21758290.452428937        1127450003.9396980     
   1657182854.7303140        28056434.556057274        1123681516.3645904     
   1559923486.3654947        33925744.961664319        1125130519.9793308     
   1462535467.8912556        39366221.669205427        1131797014.7839375     
   2260012625.6243181        19107488.040752411        639765841.68975699     
   2118626863.3443341        24589746.125862598        626170355.84566391     
   1976517825.9650335        27661087.213273287        615963614.02603960     
   1833685513.4864008        28321511.302893281        609145616.23088920     
   1690129925.9084384        26571018.394769847        605716362.46020770     
   2051400887.7819710        21399436.925139546        764869768.29299593     
   1918618220.8001795        26221205.147758365        752734104.76160729     
   1785370660.6879616        29493329.602293849        743979883.55722928     
   1651658207.4453042        31215810.288707376        738607104.67988813     
   1517480861.0722358        31388647.207072139        736615768.12955379     
   1848950782.2123518        25539875.491348267        888576272.67644632     
   1724750348.5360205        29694895.253622830        878201877.08813548     
   1600343403.6981728        33161544.477486134        871201622.12940085     
   1475729947.6987915        35939823.162916601        867575507.80023527     
   1350909980.5378828        38029731.309919298        867323534.10063696     
   1652662308.9154425        31528803.739375174        1010885354.8400894     
   1537023246.5518699        35010816.443511426        1002573672.8252498     
   1421436054.9956670        38665731.838863313        997628829.74253035     
   1305900734.2468429        42493549.925491691        996050825.59193015     
   1190417284.3053844        46494270.703324616        997839660.37345314     
   1462535467.8912556        39366221.669205427        1131797014.7839375     
   1355436914.8477192        42168968.717373371        1125849491.9729514     
   1248648614.5804539        46005891.686436534        1123261506.3966308     
   1142170567.0894635        50876990.576419711        1124033058.0549822     
   1036002772.3747398        56782265.387292624        1128164146.9480014     
   1690129925.9084384        26571018.394769847        605716362.46020770     
   1549470647.4418814        26531326.621102810        592542212.82301664     
   1410089748.5149159        30752899.979402006        577966112.43924618     
   1271987229.1275167        39235738.469597042        561988061.30889773     
   1135163089.2797050        51979842.091739714        544608059.43198013     
   1517480861.0722358        31388647.207072139        736615768.12955379     
   1374910794.6811526        28853518.780616820        727467725.00667655     
   1232680248.2297189        27450123.486310005        718827665.76215696     
   1090789221.7178965        27178461.324061990        710695590.39598393     
   949237715.14572179        28038532.293945372        703071498.90815580     
   1350909980.5378828        38029731.309919298        867323534.10063696     
   1211886082.2935052        34636253.052078545        861106261.29213738     
   1072262844.3888073        29244975.926509380        857306906.98691154     
   932040266.82378924        21855899.933200657        855925471.18496966     
   791218349.59844816        12469025.072153986        856961953.88630033     
   1190417284.3053844        46494270.703324616        997839660.37345314     
   1060396510.2789155        43879529.435432613        993457821.67938733     
   928837536.99219024        36137457.300000936        993403836.11352181     
   795740364.44517958        23268054.296971947        997677703.67586386     
   661104992.63790667        5271320.4263905287        1006279424.3664052     
   1036002772.3747398        56782265.387292624        1128164146.9480014     
   920442078.63740599        56583347.930734038        1124522406.1684241     
   802404326.03984916        48127567.606760323        1127118453.1419804     
   681889514.58207023        31414924.415392935        1135952287.8686633     
   558897644.26408064        6445418.3566350043        1151023910.3484809     
   1135163089.2797050        51979842.091739714        544608059.43198013     
   950659469.66809416        40864446.045568407        562535512.01660001     
   758577038.16141582        4486343.6825004518        591491824.47896409     
   558915794.75963724       -57154464.997563064        631476996.81906366     
   351675739.46281272       -144057979.99445191        682491029.03691518     
   949237715.14572179        28038532.293945372        703071498.90815580     
   790499016.76755214        11124759.242641687        720843839.96895945     
   623101444.72709703       -34651926.016275495        748744578.33278310     
   447044999.02434701       -109291523.48285890        786773713.99961996     
   262329679.65929729       -212794033.15707991        834931246.96946740     
   791218349.59844816        12469025.072153986        856961953.88630033     
   655671822.24021018       -11014950.048330128        873319111.36154497     
   510386359.45246935       -66962043.267152488        898904203.56507182     
   355361961.23521858       -155372254.58433992        933717230.49688542     
   190598627.58846632       -276245583.99987268        977758192.15697420     
   661104992.63790667        5271320.4263905287        1006279424.3664052     
   546177886.08607864       -25554681.827339560        1019961326.1943431     
   420431782.33753616       -92444008.070106953        1041970700.1758330     
   283866681.39227051       -195396658.30195659        1072307546.3108674     
   136482583.25028524       -334412632.52287209        1110971864.5994563     
   558897644.26408064        6445418.3566350043        1151023910.3484809     
   462017208.30514944       -32494436.094378322        1160770484.4673557     
   353237713.38228863       -111097820.42517406        1177944068.1650472     
   232559159.49550217       -229364734.63571888        1202544661.4415658     
   99981546.644767076       -387295178.72609264        1234572264.2968993     
   351675739.46281272       -144057979.99445191        682491029.03691518     
   277626905.56279939       -285490759.24512738        786012754.56953335     
   148858006.19119436       -609323756.73444760        905303384.13196433     
  -34630958.652008176       -1115556972.4624372        1040362917.7241983     
  -272839988.96680826       -1804190406.4290574        1191191355.3462694     
   262329679.65929729       -212794033.15707991        834931246.96946740     
   223543813.34553891       -352683895.13121063        884531794.23404217     
   140559993.29934695       -639900269.54676449        945132739.31749117     
   13378219.520739317       -1074443156.4037011        1016734082.2197999     
  -158001507.99027777       -1656312555.7020302        1099335822.9410048     
   190598627.58846632       -276245583.99987268        977758192.15697420     
   173451425.40111175       -418679819.73544049        985713358.18254244     
   122628381.22052443       -673366862.11514139        999900415.81604934     
   38129495.046686471       -1040306711.1390052        1020319365.0574821     
  -80045233.120394349       -1519499366.8070107        1046970205.9068489     
   136482583.25028524       -334412632.52287209        1110971864.5994563     
   127349741.72953722       -483478533.05779630        1089557446.4150524     
   95063169.954714686       -709723534.43963075        1069606413.6276497     
   39622867.925829947       -1013147636.6683440        1051118766.2372333     
  -38971164.357124567       -1393750839.7439616        1034094504.2438265     
   99981546.644767076       -387295178.72609264        1234572264.2968993     
   85238762.330794126       -547080035.09832263        1196064058.9315648     
   57864359.501919895       -748970286.52022386        1154250732.7522843     
   17858338.158165216       -992965932.99174035        1109132285.7590661     
  -34779301.700492740       -1279066974.5129175        1060708717.9519005     
   3014606173.5123649        90757094.302679062        1061998618.5441338     
   2907260889.4494767        41114223.559530020        1090810122.1735771     
   2804743424.2720451        7564082.4345800877        1111663355.7529402     
   2707053777.9800768       -9893329.0721662045        1124558319.2822371     
   2614191950.5735631       -11258010.960721850        1129495012.7614539     
   2677406569.4921522        3029426.7771261930        1230491965.4185598     
   2575914100.7310424       -1026776.9556607008        1225828962.8907466     
   2474618509.2469416       -4426723.0984299183        1223106395.9504519     
   2373519795.0398483       -7170411.6511700153        1222324264.5976732     
   2272617958.1097612       -9257842.6138911247        1223482568.8324029     
   2222050017.6505556       -120145325.09484160        1418544703.5209239     
   2154692380.2986264       -70130256.985050082        1375004429.6260014     
   2082900678.6152520       -34895403.313408852        1343303296.9561820     
   2006674912.6004279       -14440764.079926491        1323441305.5114646     
   1926015082.2541604       -8766339.2845948935        1315418455.2918515     
   1648536517.9875817       -278767161.31322289        1626156832.8512266     
   1643595728.1522233       -166196216.52863359        1538336522.3793283     
   1629589932.3769674       -83841958.210373282        1472254058.7701266     
   1606519130.6618130       -31704386.358439028        1427909442.0236149     
   1574383323.0067556       -9783500.9728407264        1405302672.1397908     
   956866070.50322521       -472836081.87801892        1853328353.4094753     
   1042624144.2918371       -289224655.58641034        1715825241.1507385     
   1114686270.5320942       -151266387.78930569        1609958681.3922884     
   1173052449.2239978       -58961278.486718595        1535728674.1341183     
   1217722680.3675516       -12309327.678629696        1493135219.3762245     
   2614191950.5735631       -11258010.960721850        1129495012.7614539     
   2525942218.2608781       -4535296.3626624346        1121030853.5670407     
   2437284733.8485332        828244.56986582279        1119397521.9525356     
   2348219497.3365202        4832611.8368334770        1124595017.9179440     
   2258746508.7248554        7477805.4382952452        1136623341.4632571     
   2272617958.1097612       -9257842.6138911247        1223482568.8324029     
   2201521974.3988886       -2393348.0130999088        1212659920.1699812     
   2130235818.6402965        3837239.7619631290        1208168916.6976366     
   2058759490.8339815        9433920.7112782001        1210009558.4153812     
   1987092990.9799454        14396694.834863186        1218181845.3232083     
   1926015082.2541604       -8766339.2845948935        1315418455.2918515     
   1870646611.7456064       -2187935.3009084463        1302491160.5553377     
   1815305549.2412724        4481828.6968337297        1295396328.6190856     
   1759991894.7411568        11242952.708636999        1294133959.4830985     
   1704705648.2452562        18095436.734495878        1298704053.1473708     
   1574383323.0067556       -9783500.9728407264        1405302672.1397908     
   1533316130.3010294       -3919058.2261136174        1390524574.7231221     
   1492493925.6514571        2762011.3744620085        1381079757.7168901     
   1451916709.0580478        10259707.828912258        1376968221.1210992     
   1411584480.5207882        18574031.137197375        1378189964.9357505     
   1217722680.3675516       -12309327.678629696        1493135219.3762245     
   1189530530.0651560       -7586716.7887062430        1476760162.6733286     
   1161800947.8708522       -1322212.2051439285        1465219203.9910486     
   1134533933.7846518        6484186.0720954537        1458512343.3293810     
   1107729487.8065388        15832478.042964578        1456639580.6883326     
   2258746508.7248554        7477805.4382952452        1136623341.4632571     
   2156004362.3938975        6418084.1324948072        1132983877.4322693     
   2053851835.6847317        7323761.5659903288        1131739496.2955089     
   1952288928.5973392        10194837.738737345        1132890198.0529726     
   1851315641.1317282        15031312.650755405        1136435982.7046647     
   1987092990.9799454        14396694.834863186        1218181845.3232083     
   1891966009.8188617        12515680.522686958        1211943764.6747308     
   1797157347.4899023        11695728.984256387        1209357949.6487849     
   1702667003.9930756        11936840.219605565        1210424400.2453704     
   1608494979.3283789        13239014.228720903        1215143116.4644890     
   1704705648.2452562        18095436.734495878        1298704053.1473708     
   1620785782.9063354        16470714.611605108        1289550838.2934785     
   1536912935.6098967        15002719.296982646        1285307071.7904234     
   1453087106.3559313        13691450.790612817        1285972753.6382029     
   1369308295.1444480        12536909.092507005        1291547883.8368187     
   1411584480.5207882        18574031.137197375        1378189964.9357505     
   1342463681.6563301        18283186.399289787        1365805098.2885125     
   1273118600.0447073        17244732.504153848        1359586862.7204180     
   1203549235.6859031        15458669.451753259        1359535258.2314663     
   1133755588.5799277        12924997.242115259        1365650284.8216486     
   1107729487.8065388        15832478.042964578        1456639580.6883326     
   1056999706.0688496        17953095.885738492        1440706544.6598289     
   1005774340.7943356        18421768.605766237        1432197322.4387703     
   954053391.98299301        17238496.203031361        1431111914.0251560     
   901836859.63482511        14403278.677549005        1437450319.4189861     
   1851315641.1317282        15031312.650755405        1136435982.7046647     
   1754313572.9857273        21758290.452428937        1127450003.9396980     
   1657182854.7303140        28056434.556057274        1123681516.3645904     
   1559923486.3654947        33925744.961664319        1125130519.9793308     
   1462535467.8912556        39366221.669205427        1131797014.7839375     
   1608494979.3283789        13239014.228720903        1215143116.4644890     
   1524203612.7246211        18226764.869932473        1207317671.7570486     
   1440069561.9352210        23738901.558993161        1204453558.6985068     
   1356092826.9601610        29775424.295857608        1206550777.2888613     
   1272273407.7994483        36336333.080554605        1213609327.5281177     
   1369308295.1444480        12536909.092507005        1291547883.8368187     
   1296995745.6801972        15565867.252457559        1285216600.0979581     
   1225126477.9540544        20072431.206099868        1283590488.4670341     
   1153700491.9660158        26056600.953423977        1286669548.9440479     
   1082717787.7160838        33518376.494436681        1294453781.5289991     
   1133755588.5799277        12924997.242115259        1365650284.8216486     
   1072689971.8524430        13775597.599988461        1361146788.9624193     
   1012353602.7868137        17057023.497378111        1361092305.6701694     
   952746481.38305509        22769274.934340715        1365486834.9448941     
   893868607.64116120        30912351.910844594        1374330376.7866004     
   901836859.63482511        14403278.677549005        1437450319.4189861     
   851286291.24135327        12855955.912488788        1435108238.3504410     
   801750936.43350434        14692678.432843924        1436959010.3079157     
   753230795.21128237        19913446.238619328        1443002635.2914019     
   705725867.57468152        28518259.329798728        1453239113.3009064     
   1462535467.8912556        39366221.669205427        1131797014.7839375     
   1355436914.8477192        42168968.717373371        1125849491.9729514     
   1248648614.5804539        46005891.686436534        1123261506.3966308     
   1142170567.0894635        50876990.576419711        1124033058.0549822     
   1036002772.3747398        56782265.387292624        1128164146.9480014     
   1272273407.7994483        36336333.080554605        1213609327.5281177     
   1174975840.3223438        39072761.601452470        1208500213.6961689     
   1077665329.0513971        41766044.142879605        1207586086.5715678     
   980341873.98662007        44416180.704867780        1210866946.1542943     
   883005475.12801218        47023171.287425160        1218342792.4443669     
   1082717787.7160838        33518376.494436681        1294453781.5289991     
   997608204.29874742        36904586.036052108        1289806014.0109768     
   912162480.51746321        39170327.697852165        1290188682.6729612     
   826380616.37224984        40315601.479880959        1295601787.5149550     
   740262611.86309218        40340407.382100046        1306045328.5369585     
   893868607.64116120        30912351.910844594        1374330376.7866004     
   823334006.77692807        35664442.021171391        1369766892.9173758     
   752140068.97865808        38218742.351373672        1371069294.7008305     
   680286794.24634576        38575252.901432365        1378237582.1369648     
   607774182.57998121        36733973.671317548        1391271755.2257760     
   705725867.57468152        28518259.329798728        1453239113.3009064     
   652153247.75690460        35352329.556866139        1448382850.4153626     
   597598094.43497491        38911288.103421807        1450227922.6551664     
   542060407.60890365        39195134.969506532        1458774330.0203178     
   485540187.27868026        36203870.155084774        1474022072.5108166     
   1036002772.3747398        56782265.387292624        1128164146.9480014     
   920442078.63740599        56583347.930734038        1124522406.1684241     
   802404326.03984916        48127567.606760323        1127118453.1419804     
   681889514.58207023        31414924.415392935        1135952287.8686633     
   558897644.26408064        6445418.3566350043        1151023910.3484809     
   883005475.12801218        47023171.287425160        1218342792.4443669     
   782855731.73774946        45253500.980138183        1215364730.2237391     
   680389707.39604330        35762894.168042123        1218365938.8671167     
   575607402.10290992        18551350.851189733        1227346418.3745215     
   468508815.85833156       -6381128.9704846442        1242306168.7459285     
   740262611.86309218        40340407.382100046        1306045328.5369585     
   654785199.13672638        36778398.319167316        1303918519.1021791     
   567152283.36769617        26031379.114008993        1307512463.6423006     
   477363864.55600774        8099349.7666574717        1316827162.1573234     
   385419942.70165592       -17017689.722895592        1331862614.6472499     
   607774182.57998121        36733973.671317548        1391271755.2257760     
   536230480.83432668        31158039.947755992        1390183772.8037553     
   462692053.95478743        18933022.444583640        1394558027.4675226     
   387158901.94137114        58921.161814793944        1404394519.2170725     
   309631024.79406977       -25464263.900563061        1419693248.0524209     
   485540187.27868026        36203870.155084774        1474022072.5108166     
   427191576.83055699        28392425.865960315        1474160491.3284681     
   367009019.15732336        14467824.159798384        1479502630.3427899     
   304992514.25899094       -5569934.9633592963        1490048489.5537856     
   241142062.13555402       -31720851.503529385        1505798068.9614580     
   558897644.26408064        6445418.3566350043        1151023910.3484809     
   462017208.30514944       -32494436.094378322        1160770484.4673557     
   353237713.38228863       -111097820.42517406        1177944068.1650472     
   232559159.49550217       -229364734.63571888        1202544661.4415658     
   99981546.644767076       -387295178.72609264        1234572264.2968993     
   468508815.85833156       -6381128.9704846442        1242306168.7459285     
   390620299.79274338       -41386012.803427085        1241196919.0298328     
   302629103.09731346       -110066498.73584220        1246361758.7409973     
   204535225.77202418       -212422586.76778966        1257800687.8794365     
   96338667.816891968       -348454276.89921111        1275513706.4451442     
   385419942.70165592       -17017689.722895592        1331862614.6472499     
   323229288.95354646       -49075820.210514769        1321993315.8192773     
   252732332.90967369       -108821625.01735048        1317245186.2670188     
   173929074.57004523       -196255104.14337105        1317618225.9904721     
   86819513.934643582       -311376257.58863151        1323112434.9896486     
   309631024.79406977       -25464263.900563061        1419693248.0524209     
   259844175.78756934       -55563858.315632373        1403159674.8356781     
   203547402.81938991       -107363199.26963158        1390594350.7430930     
   140740705.88953990       -180862286.76253018        1381997275.7746766     
   71424084.998012975       -276061120.79435164        1377368449.9304249     
   241142062.13555402       -31720851.503529385        1505798068.9614580     
   200464960.29480159       -60850127.118793815        1484695996.0790431     
   155074312.82645243       -105691221.49271381        1466409252.1692343     
   104970119.73052675       -166244134.62521961        1450937837.2320437     
   50152381.006992012       -242508866.51642218        1438281751.2674603     
   99981546.644767076       -387295178.72609264        1234572264.2968993     
   85238762.330794126       -547080035.09832263        1196064058.9315648     
   57864359.501919895       -748970286.52022386        1154250732.7522843     
   17858338.158165216       -992965932.99174035        1109132285.7590661     
  -34779301.700492740       -1279066974.5129175        1060708717.9519005     
   96338667.816891968       -348454276.89921111        1275513706.4451442     
   79582123.423579067       -489673161.43623376        1221316115.6645720     
   51421095.831016511       -668906989.97075784        1164590144.4441800     
   11855585.039198518       -886155762.50280035        1105335792.7839544     
  -39114408.951865435       -1141419479.0323265        1043553060.6839037     
   86819513.934643582       -311376257.58863151        1323112434.9896486     
   70268467.673747361       -433363392.82689977        1254657116.6620994     
   43540073.529232651       -589275021.01056862        1184450158.2688420     
   6634331.5011138618       -779111142.13958228        1112491559.8098590     
  -40448758.410615146       -1002871756.2139618        1038781321.2851632     
   71424084.998012975       -276061120.79435164        1377368449.9304249     
   57297795.081272781       -378150729.27039361        1296087061.9241459     
   34221292.596575141       -510074379.63962185        1213830774.2262588     
   2194577.5439072251       -671832071.90210080        1130599586.8367934     
  -38782350.076733828       -863423806.05780125        1046393499.7556968     
   50152381.006992012       -242508866.51642218        1438281751.2674603     
   40670105.646176934       -324035170.76665395        1345605951.4506962     
   23464753.033036798       -431305065.85796094        1252731992.3164501     
  -1463676.8324352205       -564318551.79037547        1159659873.8647175     
  -34115183.950224191       -723075628.56385207        1066389596.0954815     
   956866070.50322521       -472836081.87801892        1853328353.4094753     
   1042624144.2918371       -289224655.58641034        1715825241.1507385     
   1114686270.5320942       -151266387.78930569        1609958681.3922884     
   1173052449.2239978       -58961278.486718595        1535728674.1341183     
   1217722680.3675516       -12309327.678629696        1493135219.3762245     
   466460978.57950664       -206550814.47638774        1587361137.4947970     
   579149420.30385411       -133146304.01395738        1521204140.9543695     
   688339176.93366480       -71404077.199983001        1469558624.7478864     
   794030248.46893644       -21324134.034470618        1432424588.8753443     
   896222634.90966880        17093525.482575834        1409802033.3367507     
   233024041.44576126        136824899.36224046        1269950893.0167212     
   323714073.48774743        85343860.710068464        1287036818.3907123     
   421102682.88900870        56191413.255480930        1301509151.9323103     
   525189869.64954513        49367556.998476803        1313367893.6415179     
   635975633.76935375        64872291.939048320        1322613043.5183337     
   256555259.10198802        557291059.63785863        901097619.97524357     
   276318103.84351051        366245838.58565438        1013323273.4597672     
   312976788.39812124        231520083.57707250        1105810262.9455626     
   366531312.76582080        153113794.61212173        1178558588.4326348     
   436981676.94660813        131026971.69079494        1231568249.9209816     
   537054631.54818416        1054847666.3504658        480801318.37036163     
   436961511.37114239        709559629.61279094        700063506.16153181     
   363961493.46100444        454581933.76479530        882461957.78764558     
   318054577.81776756        289914578.80647129        1027996673.2486950     
   299240764.44142824        215557564.73780465        1136667652.5446856     
   1217722680.3675516       -12309327.678629696        1493135219.3762245     
   1189530530.0651560       -7586716.7887062430        1476760162.6733286     
   1161800947.8708522       -1322212.2051439285        1465219203.9910486     
   1134533933.7846518        6484186.0720954537        1458512343.3293810     
   1107729487.8065388        15832478.042964578        1456639580.6883326     
   896222634.90966880        17093525.482575834        1409802033.3367507     
   874678129.20903814        14109872.568300128        1414141897.8339159     
   853810169.18168795        13381371.898294359        1420539605.6512525     
   833618754.82761383        14908023.472541869        1428995156.7887590     
   814103886.14682209        18689827.291060776        1439508551.2464399     
   635975633.76935375        64872291.939048320        1322613043.5183337     
   613146616.38350832        51802728.334498703        1347917469.7082758     
   591208122.23611903        41701575.524801701        1372503484.5179403     
   570160151.32719433        34568833.509987235        1396371087.9473350     
   550002703.65672839        30404502.290035605        1419520279.9964535     
   436981676.94660813        131026971.69079494        1231568249.9209816     
   404935991.58855850        105491850.50986001        1278086878.2964060     
   373994807.03415173        83638398.674400955        1321110840.5911157     
   344158123.28338391        65466616.184405304        1360640136.8051054     
   315425940.33626539        50976503.039907120        1396674766.9383788     
   299240764.44142824        215557564.73780465        1136667652.5446856     
   250046254.82419354        175177239.09440351        1204650123.5983100     
   202170223.57577780        139191841.34706411        1266361673.8707726     
   155612670.69619173        107601371.49582362        1321802303.3620734     
   110373596.18542713        80405829.540656090        1370972012.0722096     
   1107729487.8065388        15832478.042964578        1456639580.6883326     
   1056999706.0688496        17953095.885738492        1440706544.6598289     
   1005774340.7943356        18421768.605766237        1432197322.4387703     
   954053391.98299301        17238496.203031361        1431111914.0251560     
   901836859.63482511        14403278.677549005        1437450319.4189861     
   814103886.14682209        18689827.291060776        1439508551.2464399     
   779881076.97659934        19022651.336983234        1432727164.9578493     
   745616932.48974323        19217690.994131505        1431632203.8668303     
   711311452.68624532        19274946.262469649        1436223667.9733858     
   676964637.56611490        19194417.142037153        1446501557.2775114     
   550002703.65672839        30404502.290035605        1419520279.9964535     
   527322899.59719735        27460342.302089214        1422420499.7046657     
   505056008.44121683        25892558.659310371        1429269756.0005734     
   483202030.18878829        25701151.361701906        1440068048.8841813     
   461760964.83990967        26886120.409266844        1454815378.3554897     
   315425940.33626539        50976503.039907120        1396674766.9383788     
   299325173.93064278        43266168.781042740        1409786548.9002736     
   284091568.64876121        38446371.601316914        1425109978.8399980     
   269725124.49061888        36517111.500720374        1442645056.7575469     
   256225841.45621619        37478388.479258366        1462391782.6529200     
   110373596.18542713        80405829.540656090        1370972012.0722096     
   95887899.976936370        66440130.773854017        1394825312.5446799     
   82723613.112371385        56879129.820136555        1419152872.3851018     
   70880735.591734603        51722826.679514393        1443954691.5934775     
   60359267.415028006        50971221.351991475        1469230770.1698086     
   901836859.63482511        14403278.677549005        1437450319.4189861     
   851286291.24135327        12855955.912488788        1435108238.3504410     
   801750936.43350434        14692678.432843924        1436959010.3079157     
   753230795.21128237        19913446.238619328        1443002635.2914019     
   705725867.57468152        28518259.329798728        1453239113.3009064     
   676964637.56611490        19194417.142037153        1446501557.2775114     
   637674263.44526744        18053105.457603514        1448413349.5245266     
   598703654.40119624        17977677.362428367        1454700281.7827799     
   560052810.43390715        18968132.856527567        1465362354.0522823     
   521721731.54339820        21024471.939891428        1480399566.3330200     
   461760964.83990967        26886120.409266844        1454815378.3554897     
   434251604.94946986        26307065.792786479        1460169687.3244121     
   406366561.62696981        24475733.069439843        1470081423.2898002     
   378105834.87239951        21392122.239192575        1484550586.2516596     
   349469424.68577027        17056233.302080721        1503577176.2099817     
   256225841.45621619        37478388.479258366        1462391782.6529200     
   241018315.75396708        37617836.918053634        1470377251.7501018     
   224739658.11082131        34186845.553860128        1483102434.8289752     
   207389868.52676073        27185414.386616662        1500567331.8895445     
   188968947.00179741        16613543.416366547        1522771942.9318018     
   60359267.415028006        50971221.351991475        1469230770.1698086     
   57974395.858765095        51985418.833427720        1479036042.8015954     
   53822943.852759063        47111014.815718755        1493763316.4002998     
   47904911.396992594        36348009.298808396        1513412590.9659235     
   40220298.491483301        19696402.282756664        1537983866.4984670     
   705725867.57468152        28518259.329798728        1453239113.3009064     
   652153247.75690460        35352329.556866139        1448382850.4153626     
   597598094.43497491        38911288.103421807        1450227922.6551664     
   542060407.60890365        39195134.969506532        1458774330.0203178     
   485540187.27868026        36203870.155084774        1474022072.5108166     
   521721731.54339820        21024471.939891428        1480399566.3330200     
   482864857.61241841        23022782.966726989        1478451659.0155039     
   443753961.76221526        24174354.262816876        1482238165.5317674     
   404389043.99278450        24479185.828148723        1491759085.8818130     
   364770104.30412459        23937277.662716880        1507014420.0656335     
   349469424.68577027        17056233.302080721        1503577176.2099817     
   322565664.37997347        13389995.450221926        1505387554.6429026     
   296136393.73986751        11305389.817328855        1511965425.6180334     
   270181612.76545721        10802416.403421760        1523310789.1353781     
   244701321.45674080        11881075.208497182        1539423645.1949413     
   188968947.00179741        16613543.416366547        1522771942.9318018     
   171255668.05955967        6453967.0073119849        1529190537.2975564     
   154745390.36793816        304394.76697967947        1539409702.9139659     
   139438113.92692843       -1835173.3046489805        1553429439.7810133     
   125333838.73652931        35262.792427532375        1571249747.8987110     
   40220298.491483301        19696402.282756664        1537983866.4984670     
   28934868.651184678        2214697.6380270347        1549860606.9794722     
   19580951.646416698       -8828630.8882671110        1564570997.4195611     
   12158547.477185953       -13433583.296103815        1582115037.8187273     
   6667656.1434902474       -11600159.585490391        1602492728.1769681     
   485540187.27868026        36203870.155084774        1474022072.5108166     
   427191576.83055699        28392425.865960315        1474160491.3284681     
   367009019.15732336        14467824.159798384        1479502630.3427899     
   304992514.25899094       -5569934.9633592963        1490048489.5537856     
   241142062.13555402       -31720851.503529385        1505798068.9614580     
   364770104.30412459        23937277.662716880        1507014420.0656335     
   320952657.45688313        19442446.743972838        1505443261.7837250     
   275613383.77781832        9874859.7191497386        1509080829.1434209     
   228752283.26693761       -4765483.4117247760        1517927122.1447251     
   180369355.92423776       -24478582.648664631        1531982140.7876406     
   244701321.45674080        11881075.208497182        1539423645.1949413     
   215429339.48161772        10707148.041497901        1536507050.2722969     
   184947651.06796500        5500866.0794032961        1538804186.4361985     
   153256256.21577182       -3737770.6778240129        1546315053.6866407     
   120355154.92504901       -17008762.230154961        1559039652.0236225     
   125333838.73652931        35262.792427532375        1571249747.8987110     
   110621622.90476745        2186529.7585658282        1567351856.7941747     
   95011821.027756408        1345843.2405402772        1568672702.2211144     
   78504433.105494320       -2486796.7616567500        1575212284.1795266     
   61099459.137983054       -9311390.2480151281        1586970602.6694167     
   6667656.1434902474       -11600159.585490391        1602492728.1769681     
   6529507.7263222998       -6119408.1048646951        1597977681.3493676     
   5805893.6572026610       -2590208.7974112998        1598686376.4981701     
   4496813.9361049114       -1012561.6632193171        1604618813.6233859     
   2602268.5630435296       -1386466.7022373567        1615774992.7250061     
   241142062.13555402       -31720851.503529385        1505798068.9614580     
   200464960.29480159       -60850127.118793815        1484695996.0790431     
   155074312.82645243       -105691221.49271381        1466409252.1692343     
   104970119.73052675       -166244134.62521961        1450937837.2320437     
   50152381.006992012       -242508866.51642218        1438281751.2674603     
   180369355.92423776       -24478582.648664631        1531982140.7876406     
   149237791.64349020       -46644641.505136818        1506402304.4058218     
   114598360.65293463       -80503589.394307822        1483742964.0762973     
   76451062.952569038       -126055426.31617826        1464004119.7990627     
   34795898.542401023       -183300152.27071926        1447185771.5741084     
   120355154.92504901       -17008762.230154961        1559039652.0236225     
   99069605.574816123       -32121461.116681978        1530388677.5464926     
   75481868.432556078       -54908119.309967585        1504763366.2013259     
   49591943.498274274       -85368736.809991643        1482163717.9881272     
   21399830.771969654       -123503313.61675842        1462589732.9068944     
   61099459.137983054       -9311390.2480151281        1586970602.6694167     
   49960402.088771090       -17280585.953448411        1556655115.5010478     
   37724836.165320784       -28904811.239677280        1529470458.5443146     
   24392761.367621467       -44184066.106735624        1505416631.7992299     
   9964177.6956847496       -63118350.554585300        1484493635.2657940     
   2602268.5630435296       -1386466.7022373567        1615774992.7250061     
   1910181.1853636822       -2122016.0154135739        1585201618.2694743     
   1327263.8512237049       -2493665.1834555017        1557864241.1052697     
   853516.56062268314       -2501414.2063675784        1533762861.2323811     
   488939.31357177976       -2145263.0841139806        1512897478.6508200     
   50152381.006992012       -242508866.51642218        1438281751.2674603     
   40670105.646176934       -324035170.76665395        1345605951.4506962     
   23464753.033036798       -431305065.85796094        1252731992.3164501     
  -1463676.8324352205       -564318551.79037547        1159659873.8647175     
  -34115183.950224191       -723075628.56385207        1066389596.0954815     
   34795898.542401023       -183300152.27071926        1447185771.5741084     
   30370533.324716583       -243533873.87165838        1346978172.6106446     
   20118132.352587059       -323191047.98741442        1245944990.9249244     
   4038695.6259991825       -422271674.61803299        1144086226.5169489     
  -17867776.855052084       -540775753.76352382        1041401879.3867531     
   21399830.771969654       -123503313.61675842        1462589732.9068944     
   20238737.398107670       -162982244.05820403        1357062383.2108865     
   15146649.767676353       -215564488.68821204        1250082027.3878837     
   6123567.8806552738       -281250047.50685704        1141648665.4378798     
  -6830508.2629463077       -360038920.51410234        1031762297.3608634     
   9964177.6956847496       -63118350.554585300        1484493635.2657940     
   10274717.866352286       -82380281.326281980        1375858583.2514505     
   8550305.2783156782       -108425387.96032840        1265143101.7053423     
   4790939.9315518364       -141253670.45679903        1152347190.6274695     
  -1003378.1739157513       -180865128.81560990        1037470850.0178543     
   488939.31357177976       -2145263.0841139806        1512897478.6508200     
   478474.72944022284       -1727985.6759269226        1403366772.7323148     
   329098.88448635559       -1773745.8038170086        1291128213.8772883     
   40811.778684099670       -2282543.4678649199        1176181802.0857391     
  -386386.58795501548       -3254378.6680384711        1058527537.3576777     
   537054631.54818416        1054847666.3504658        480801318.37036163     
   436961511.37114239        709559629.61279094        700063506.16153181     
   363961493.46100444        454581933.76479530        882461957.78764558     
   318054577.81776756        289914578.80647129        1027996673.2486950     
   299240764.44142824        215557564.73780465        1136667652.5446856     
   494297331.22220826        636558248.57821846        960004357.83574665     
   370191042.66229880        445968482.27149040        1085525212.4272900     
   259670478.78687072        300664464.91303480        1193738534.3283942     
   162735639.59592128        200646196.50284186        1284644323.5390561     
   79386525.089453936        145913677.04092330        1358242580.0592818     
   87972171.871717826        109198473.09861673        1509356785.8700264     
  -4272418.0007126145        90069437.343935281        1525377700.0824497     
  -96438660.771083117        71201558.596123338        1543647285.0790570     
  -188526556.43939409        52594836.855174989        1564165540.8598447     
  -280536105.00564396        34249272.121099859        1586932467.4248149     
  -681920846.50328445       -527231660.08834028        2128858602.4732106     
  -686428870.61788774       -358137505.16986609        2019620969.1270244     
  -704365925.21285188       -233806785.18592846        1932188210.0396447     
  -735732010.28817618       -154239500.13652188        1866560325.2110646     
  -780527125.84386325       -119435650.02166086        1822737314.6412904     
  -1815381723.9028006       -1272732150.9826479        2818509807.6452947     
  -1676278315.1892312       -898652345.26992464        2568255019.5610094     
  -1564111314.5384414       -614360566.43313074        2359361309.2101474     
  -1478880721.9504330       -419856814.47227895        2191828676.5927110     
  -1420586537.4252045       -315141089.38735473        2065657121.7087028     
   299240764.44142824        215557564.73780465        1136667652.5446856     
   250046254.82419354        175177239.09440351        1204650123.5983100     
   202170223.57577780        139191841.34706411        1266361673.8707726     
   155612670.69619173        107601371.49582362        1321802303.3620734     
   110373596.18542713        80405829.540656090        1370972012.0722096     
   79386525.089453936        145913677.04092330        1358242580.0592818     
   27879993.128039241        121327088.21442880        1381524992.4047124     
  -23634358.547367476        96714433.674629346        1405655138.3088036     
  -75156529.936763868        72075713.421530843        1430633017.7715545     
  -126686521.04015739        47410927.455107056        1456458630.7929664     
  -280536105.00564396        34249272.121099859        1586932467.4248149     
  -314015646.91173917        31558123.831373557        1563967473.2987666     
  -348829306.61464435        24419916.218948886        1548968867.0712004     
  -384977084.11435753        12834649.283830062        1541936648.7421191     
  -422458979.41087890       -3197676.9739813805        1542870818.3115234     
  -780527125.84386325       -119435650.02166086        1822737314.6412904     
  -775640665.29514539       -94129654.054776698        1751977566.2804739     
  -773414620.62605119       -77691711.019970804        1696302860.1579652     
  -773848991.83658314       -70121820.917252004        1655713196.2737632     
  -776943778.92674160       -71419983.746621370        1630208574.6278710     
  -1420586537.4252045       -315141089.38735473        2065657121.7087028     
  -1356995062.0221748       -255736245.44400564        1945555271.3498340     
  -1297390300.5815861       -209620448.04212391        1847657117.5690956     
  -1241772253.1034443       -176793697.18173352        1771962660.3664899     
  -1190140919.5877366       -157255992.86278769        1718471899.7420146     
   110373596.18542713        80405829.540656090        1370972012.0722096     
   95887899.976936370        66440130.773854017        1394825312.5446799     
   82723613.112371385        56879129.820136555        1419152872.3851018     
   70880735.591734603        51722826.679514393        1443954691.5934775     
   60359267.415028006        50971221.351991475        1469230770.1698086     
  -126686521.04015739        47410927.455107056        1456458630.7929664     
  -135245430.75311393        36825210.299869888        1462410096.2700007     
  -143013392.58018672        28875986.097578295        1471666373.1575890     
  -149990406.52137130        23563254.848247759        1484227461.4557369     
  -156176472.57667297        20887016.551860891        1500093361.1644416     
  -422458979.41087890       -3197676.9739813805        1542870818.3115234     
  -417003811.07800519       -7977225.0525715351        1530301577.0920687     
  -411288156.31728542       -11888485.038342163        1523867699.3257785     
  -405312015.12872201       -14931456.931298986        1523569185.0126455     
  -399075387.51231182       -17106140.731436044        1529406034.1526811     
  -776943778.92674160       -71419983.746621370        1630208574.6278710     
  -749387240.99773240       -67967175.283454597        1598499755.0108829     
  -722100678.09892488       -65414283.587624848        1575756850.8896606     
  -695084090.23031187       -63761308.659110814        1561979862.2642052     
  -668337477.39189589       -63008250.497920722        1557168789.1345198     
  -1190140919.5877366       -157255992.86278769        1718471899.7420146     
  -1132395720.5123043       -143144640.39280435        1667004630.0264456     
  -1075450957.9251058       -131701409.55027246        1627333827.8492446     
  -1019306631.8261474       -122926300.33520535        1599459493.2104168     
  -963962742.21542680       -116819312.74759609        1583381626.1099586     
   60359267.415028006        50971221.351991475        1469230770.1698086     
   57974395.858765095        51985418.833427720        1479036042.8015954     
   53822943.852759063        47111014.815718755        1493763316.4002998     
   47904911.396992594        36348009.298808396        1513412590.9659235     
   40220298.491483301        19696402.282756664        1537983866.4984670     
  -156176472.57667297        20887016.551860891        1500093361.1644416     
  -145125037.93378165        23068003.698232822        1499170031.8132598     
  -135071600.47349724        21922333.569251470        1503391062.4949069     
  -126016160.19583364        17450006.164866678        1512756453.2093873     
  -117958717.10078181        9651021.4851075858        1527266203.9566948     
  -399075387.51231182       -17106140.731436044        1529406034.1526811     
  -373952335.05337638       -13567770.435058147        1518650783.2968552     
  -349058696.50991517       -10794113.190263882        1513262251.5397689     
  -324394471.88193095       -8785168.9970595837        1513240438.8814266     
  -299959661.16942441       -7540937.8554447442        1518585345.3218226     
  -668337477.39189589       -63008250.497920722        1557168789.1345198     
  -628507495.50002491       -57921903.566474408        1537478297.2523744     
  -588138344.25649476       -51038325.462827951        1523376883.5348880     
  -547230023.66130030       -42357516.186969176        1514864547.9820518     
  -505782533.71444690       -31879475.738912687        1511941290.5938723     
  -963962742.21542680       -116819312.74759609        1583381626.1099586     
  -908790519.27373016       -109994395.69601107        1555652573.6798246     
  -852310543.71323442       -98810303.248435050        1533734958.4802582     
  -794522815.53393686       -83267035.404851019        1517628780.5112548     
  -735427334.73584831       -63364592.165294349        1507334039.7728179     
   40220298.491483301        19696402.282756664        1537983866.4984670     
   28934868.651184678        2214697.6380270347        1549860606.9794722     
   19580951.646416698       -8828630.8882671110        1564570997.4195611     
   12158547.477185953       -13433583.296103815        1582115037.8187273     
   6667656.1434902474       -11600159.585490391        1602492728.1769681     
  -117958717.10078181        9651021.4851075858        1527266203.9566948     
  -117420816.00784753       -527642.41586501151        1533337655.0056272     
  -115966555.06454544       -7651773.4822796546        1543985008.9494069     
  -113595934.27088049       -11721371.714152824        1559208265.7880433     
  -110308953.62686166       -12736437.111508857        1579007425.5215194     
  -299959661.16942441       -7540937.8554447442        1518585345.3218226     
  -282620563.61248213       -8923201.3534277678        1517667161.7893209     
  -265380259.19034669       -10634775.300763905        1523067134.0874369     
  -248238747.90301815       -12675659.697456494        1534785262.2161710     
  -231196029.75049323       -15045854.543494575        1552821546.1755292     
  -505782533.71444690       -31879475.738912687        1511941290.5938723     
  -466664374.16271991       -22971979.174659848        1502849127.3305578     
  -428660160.73097730       -17777636.343683660        1501817372.8336399     
  -391769893.41921026       -16296447.245959863        1508846027.1031151     
  -355993572.22741187       -18528411.881468073        1523935090.1389737     
  -735427334.73584831       -63364592.165294349        1507334039.7728179     
  -669552247.65857267       -42673975.879603058        1488883551.6293395     
  -605806259.68644321       -29080356.611062318        1480235725.1880252     
  -544189370.81946170       -22583734.359684795        1481390560.4488714     
  -484701581.05762166       -23184109.125442207        1492348057.4118741     
   6667656.1434902474       -11600159.585490391        1602492728.1769681     
   6529507.7263222998       -6119408.1048646951        1597977681.3493676     
   5805893.6572026610       -2590208.7974112998        1598686376.4981701     
   4496813.9361049114       -1012561.6632193171        1604618813.6233859     
   2602268.5630435296       -1386466.7022373567        1615774992.7250061     
  -110308953.62686166       -12736437.111508857        1579007425.5215194     
  -97106240.189637095       -9015987.4688544236        1573035350.0051134     
  -83658922.733330593       -4480191.0959237777        1572507957.4398260     
  -69967001.257928774        870952.00732165575        1577425247.8256519     
  -56030475.763431475        7037441.8408881761        1587787221.1626017     
  -231196029.75049323       -15045854.543494575        1552821546.1755292     
  -204021194.53115821       -12896328.760562636        1546360856.5865476     
  -175771685.62166518       -7164557.3437708169        1545565790.9233971     
  -146447503.02202532        2149459.7068435624        1550436349.1860700     
  -116048646.73223110        15045722.391306333        1560972531.3745744     
  -355993572.22741187       -18528411.881468073        1523935090.1389737     
  -314215355.29821587       -17760431.979903489        1517954201.0936642     
  -270532395.00780672       -10643307.540966198        1517859876.9488912     
  -224944691.35618266        2822961.4353539944        1523652117.7046530     
  -177452244.34334791        22638374.949047647        1535330923.3609545     
  -484701581.05762166       -23184109.125442207        1492348057.4118741     
  -427688722.49082094       -23608297.126918554        1487815383.5264678     
  -367941050.89174908       -14916441.687491834        1489390215.5163043     
  -305458566.26040232        2891457.1928499043        1497072553.3813832     
  -240241268.59679514        29815399.514063179        1510862397.1217124     
   2602268.5630435296       -1386466.7022373567        1615774992.7250061     
   1910181.1853636822       -2122016.0154135739        1585201618.2694743     
   1327263.8512237049       -2493665.1834555017        1557864241.1052697     
   853516.56062268314       -2501414.2063675784        1533762861.2323811     
   488939.31357177976       -2145263.0841139806        1512897478.6508200     
  -56030475.763431475        7037441.8408881761        1587787221.1626017     
  -46027100.269396000        14211038.049417838        1557456166.3963468     
  -34826316.898762837        25375993.846604370        1530291206.0427783     
  -22428125.651531726        40532309.232452855        1506292340.1018889     
  -8832526.5277149975        59679984.206917964        1485459568.5736763     
  -116048646.73223110        15045722.391306333        1560972531.3745744     
  -95549530.876865804        30068547.368471183        1532153407.1028321     
  -72764769.311862499        52710191.377758630        1506430474.3651242     
  -47694362.037211165        82970654.419209540        1483803733.1614602     
  -20338309.052924201        120849936.49277650        1464273183.4918387     
  -177452244.34334791        22638374.949047647        1535330923.3609545     
  -146657110.63706470        45450511.941681676        1509293340.3889313     
  -112488093.38808611        79508927.409968197        1486282046.0723209     
  -74945192.596413583        124813621.35389912        1466297040.4111016     
  -34028408.262053758        181364593.77345729        1449338323.4052901     
  -240241268.59679514        29815399.514063179        1510862397.1217124     
  -199349839.54998258        60356931.769089773        1488875966.2546496     
  -153996289.12743673        105772201.94322300        1469845921.1643529     
  -104180617.32913297        166061210.03655279        1453772261.8508108     
  -49902824.155100241        241223956.04897630        1440654988.3140376     
   488939.31357177976       -2145263.0841139806        1512897478.6508200     
   478474.72944022284       -1727985.6759269226        1403366772.7323148     
   329098.88448635559       -1773745.8038170086        1291128213.8772883     
   40811.778684099670       -2282543.4678649199        1176181802.0857391     
  -386386.58795501548       -3254378.6680384711        1058527537.3576777     
  -8832526.5277149975        59679984.206917964        1485459568.5736763     
  -9297589.5751748011        79241120.191214591        1376490340.4958975     
  -7906218.9643593729        104990368.36975850        1265461460.7114265     
  -4658414.6952496395        136927728.74261951        1152372929.2202706     
   445823.23212461174        175053201.30969635        1037224746.0224479     
  -20338309.052924201        120849936.49277650        1464273183.4918387     
  -19405967.049896657        160110532.10731405        1358193335.6604142     
  -14621846.469476551        212210389.64649171        1250702037.3521359     
  -5985947.3116503060        277149509.11035705        1141799288.5670037     
   6501730.4235613495        354927890.49883831        1031485089.3050457     
  -34028408.262053758        181364593.77345729        1449338323.4052901     
  -29846657.694714785        240880250.07239628        1348475758.2258556     
  -19817783.630877033        319886318.02632701        1246849943.7994075     
  -3941786.0705119967        418382797.63535303        1144460880.1259532     
   17781334.986357003        536369688.89938790        1041308567.2054898     
  -49902824.155100241        241223956.04897630        1440654988.3140376     
  -40619661.509644508        321550274.08641839        1347337608.1922262     
  -23494030.448566347        428018153.50926232        1253905180.0532403     
   1474069.0281687677        560627594.31762838        1160357703.8970861     
   34284636.920506150        719378596.51134348        1066695179.7237705     
  -1815381723.9028006       -1272732150.9826479        2818509807.6452947     
  -1676278315.1892312       -898652345.26992464        2568255019.5610094     
  -1564111314.5384414       -614360566.43313074        2359361309.2101474     
  -1478880721.9504330       -419856814.47227895        2191828676.5927110     
  -1420586537.4252045       -315141089.38735473        2065657121.7087028     
  -2563860760.7738891       -794323265.69846058        2166753418.7370267     
  -2397478467.5989389       -597604522.25771761        2024186535.3458200     
  -2243340858.1608524       -441701391.27320093        1902171807.4080892     
  -2101447932.4596410       -326613872.74492162        1800709234.9238405     
  -1971799690.4952955       -252341966.67287081        1719798817.8930745     
  -2909631218.4559064       -195101806.65754986        1435063500.5320883     
  -2775424104.4765525       -193580344.58588433        1417324866.8808477     
  -2638769949.9081588       -183902080.55074430        1399329466.4031458     
  -2499668754.7507262       -166067014.55213273        1381077299.0989802     
  -2358120519.0042481       -140075146.59005368        1362568364.9683483     
  -2852693096.9488392        524932226.14008522        623440053.03046036     
  -2810115225.8220749        313420187.74558163        747670014.16609669     
  -2750398589.7803574        159037365.73424959        850834286.19531584     
  -2673543188.8236876        61783760.106094599        932932869.11812854     
  -2579549022.9520659        21659370.861111522        993965762.93453407     
  -2393046396.2526956        1365778832.6944430       -268116923.76783261     
  -2501551831.6355019        923397074.73666728        15221977.201564416     
  -2578226777.7774477        587116947.58176887        256686266.78460187     
  -2623071234.6785264        356938451.22975850        456275944.98128808     
  -2636085202.3387475        232861585.68060756        613991011.79162109     
  -1420586537.4252045       -315141089.38735473        2065657121.7087028     
  -1356995062.0221748       -255736245.44400564        1945555271.3498340     
  -1297390300.5815861       -209620448.04212391        1847657117.5690956     
  -1241772253.1034443       -176793697.18173352        1771962660.3664899     
  -1190140919.5877366       -157255992.86278769        1718471899.7420146     
  -1971799690.4952955       -252341966.67287081        1719798817.8930745     
  -1866097271.4350739       -207417385.04507565        1649365596.9640286     
  -1762763516.4883273       -170388350.46219480        1592463312.0352068     
  -1661798425.6550536       -141254862.92422438        1549091963.1066043     
  -1563201998.9352524       -120016922.43116426        1519251550.1782222     
  -2358120519.0042481       -140075146.59005368        1362568364.9683483     
  -2235086472.2237234       -117064622.05887675        1343691498.2929263     
  -2112803039.7077041       -96556145.076053143        1329672807.0398147     
  -1991270221.4561927       -78549715.641587615        1320512291.2090142     
  -1870488017.4691815       -63045333.755463243        1316209950.8005202     
  -2579549022.9520659        21659370.861111522        993965762.93453407     
  -2463962664.3881264        15322043.514600754        1028532975.3365262     
  -2347508870.2397227        11876168.116294503        1059285602.5829209     
  -2230187640.5068598        11321744.666194320        1086223644.6737111     
  -2111998975.1895292        13658773.164313078        1109347101.6089039     
  -2636085202.3387475        232861585.68060756        613991011.79162109     
  -2552725847.9282751        189742611.67535460        703890028.09482896     
  -2466881008.0843792        154908589.11485231        781301698.66452289     
  -2378550682.8070488        128359517.99912643        846226023.50070786     
  -2287734872.0962911        110095398.32816517        898663002.60337901     
  -1190140919.5877366       -157255992.86278769        1718471899.7420146     
  -1132395720.5123043       -143144640.39280435        1667004630.0264456     
  -1075450957.9251058       -131701409.55027246        1627333827.8492446     
  -1019306631.8261474       -122926300.33520535        1599459493.2104168     
  -963962742.21542680       -116819312.74759609        1583381626.1099586     
  -1563201998.9352524       -120016922.43116426        1519251550.1782222     
  -1479567860.2733355       -107798571.93186337        1488356936.1960480     
  -1396552466.4494169       -97642704.225884855        1466017270.1968009     
  -1314155817.4634938       -89549319.313227534        1452232552.1804805     
  -1232377913.3155637       -83518417.193877578        1447002782.1470871     
  -1870488017.4691815       -63045333.755463243        1316209950.8005202     
  -1770226423.6649141       -55498430.560096741        1306099966.1436923     
  -1670401883.0483975       -49408371.323895097        1301303409.9143457     
  -1571014395.6196332       -44775156.046877861        1301820282.1124816     
  -1472063961.3786221       -41598784.729028881        1307650582.7381001     
  -2111998975.1895292        13658773.164313078        1109347101.6089039     
  -2004371410.6870351        13755783.722517252        1120233719.8693733     
  -1896999207.7220488        13001589.155688643        1133192247.0018792     
  -1789882366.2945719        11396189.463830471        1148222683.0064228     
  -1683020886.4046061        8939584.6469389200        1165325027.8830070     
  -2287734872.0962911        110095398.32816517        898663002.60337901     
  -2182002821.3396978        99964070.915962100        930758197.37309170     
  -2076344440.4703681        89587177.212876201        961683781.45940220     
  -1970759729.4883094        78964717.218886971        991439754.86230135     
  -1865248688.3935142        68096690.934022903        1020026117.5817976     
  -963962742.21542680       -116819312.74759609        1583381626.1099586     
  -908790519.27373016       -109994395.69601107        1555652573.6798246     
  -852310543.71323442       -98810303.248435050        1533734958.4802582     
  -794522815.53393686       -83267035.404851019        1517628780.5112548     
  -735427334.73584831       -63364592.165294349        1507334039.7728179     
  -1232377913.3155637       -83518417.193877578        1447002782.1470871     
  -1164177780.6120908       -81299693.690531790        1430283937.5184836     
  -1095186714.3998556       -76444525.157978654        1418838092.4487376     
  -1025404714.6788571       -68952911.596222073        1412665246.9378471     
  -954831781.44909835       -58824853.005250454        1411765400.9858093     
  -1472063961.3786221       -41598784.729028881        1307650582.7381001     
  -1392374312.2611182       -44447772.778254151        1301338990.2826557     
  -1312410548.7448907       -46383046.165059030        1299761959.7143567     
  -1232172670.8299336       -47404604.889433146        1302919491.0332031     
  -1151660678.5162489       -47512448.951393306        1310811584.2391963     
  -1683020886.4046061        8939584.6469389200        1165325027.8830070     
  -1593380114.2208176        561367.04081588984        1168817731.9723413     
  -1503982046.7483313       -8625866.2696480751        1176506560.2771151     
  -1414826683.9871552       -18622115.284484446        1188391512.7973256     
  -1325914025.9372919       -29427380.003685534        1204472589.5329654     
  -1865248688.3935142        68096690.934022903        1020026117.5817976     
  -1767195186.4911814        53727725.766690016        1032720162.5875419     
  -1669901208.4101856        36827014.528228879        1049071894.1370124     
  -1573366754.1505408        17394557.218599200        1069081312.2302097     
  -1477591823.7122381       -4569646.1621687412        1092748416.8671296     
  -735427334.73584831       -63364592.165294349        1507334039.7728179     
  -669552247.65857267       -42673975.879603058        1488883551.6293395     
  -605806259.68644321       -29080356.611062318        1480235725.1880252     
  -544189370.81946170       -22583734.359684795        1481390560.4488714     
  -484701581.05762166       -23184109.125442207        1492348057.4118741     
  -954831781.44909835       -58824853.005250454        1411765400.9858093     
  -868555388.54646254       -44754559.303710312        1398025187.2387054     
  -783576832.09188747       -35010387.095709890        1391703390.7129834     
  -699896112.08537209       -29592336.381236792        1392800011.4086459     
  -617513228.52692747       -28500407.160333782        1401315049.3256862     
  -1151660678.5162489       -47512448.951393306        1310811584.2391963     
  -1051795106.8761837       -42106115.960350394        1302751451.3217280     
  -952396109.02709913       -38255028.939246953        1299725491.1448607     
  -853463684.96900821       -35959187.888119578        1301733703.7085950     
  -754997834.70189214       -35218592.806909740        1308776089.0129359     
  -1325914025.9372919       -29427380.003685534        1204472589.5329654     
  -1219271402.6477499       -34728645.849558890        1203062343.8783948     
  -1112264090.4921012       -38814282.141758084        1204302026.4836438     
  -1004892089.4703541       -41684288.880285442        1208191637.3487220     
  -897155399.58251512       -43338666.065179795        1214731176.4736164     
  -1477591823.7122381       -4569646.1621687412        1092748416.8671296     
  -1370984275.8611414       -22622148.971291661        1098957864.9087176     
  -1263180776.4868746       -36688146.703172386        1105432996.7293458     
  -1154181325.5894351       -46767639.357813179        1112173812.3290236     
  -1043985923.1688075       -52860626.935164034        1119180311.7077425     
  -484701581.05762166       -23184109.125442207        1492348057.4118741     
  -427688722.49082094       -23608297.126918554        1487815383.5264678     
  -367941050.89174908       -14916441.687491834        1489390215.5163043     
  -305458566.26040232        2891457.1928499043        1497072553.3813832     
  -240241268.59679514        29815399.514063179        1510862397.1217124     
  -617513228.52692747       -28500407.160333782        1401315049.3256862     
  -544644497.72589874       -28279423.435796231        1398178490.2074506     
  -469170259.92898953       -19373416.391660318        1400982364.2266099     
  -391090515.13620389       -1782386.0279370993        1409726671.3831594     
  -310405263.34754276        24493667.655376345        1424411411.6770880     
  -754997834.70189214       -35218592.806909740        1308776089.0129359     
  -666750582.34622383       -34495642.560233176        1306884787.6194224     
  -576027129.03107870       -25518689.115291715        1310766846.6254365     
  -482827474.75644201       -8287732.4720488787        1320422266.0309837     
  -387151619.52232313        17197227.369466379        1335851045.8360612     
  -897155399.58251512       -43338666.065179795        1214731176.4736164     
  -794006976.35181141       -42256954.500262976        1213934275.7623656     
  -688511658.19801092       -33352259.858371884        1218743662.7127850     
  -580669445.12111163       -16624582.139479846        1229159337.3248835     
  -470480337.12113225        7926078.6563511193        1245181299.5986507     
  -1043985923.1688075       -52860626.935164034        1119180311.7077425     
  -926413679.74264169       -51563359.255848944        1119326954.6362863     
  -806623847.42979050       -42874128.620907933        1124912812.4886539     
  -684616426.23022842       -26792935.030265391        1135937885.2648363     
  -560391416.14396977       -3319778.4839726985        1152402172.9648402     
  -240241268.59679514        29815399.514063179        1510862397.1217124     
  -199349839.54998258        60356931.769089773        1488875966.2546496     
  -153996289.12743673        105772201.94322300        1469845921.1643529     
  -104180617.32913297        166061210.03655279        1453772261.8508108     
  -49902824.155100241        241223956.04897630        1440654988.3140376     
  -310405263.34754276        24493667.655376345        1424411411.6770880     
  -260322804.47913527        55202383.015984699        1406999476.0679605     
  -203869918.83515751        107145854.29515518        1393662596.9050918     
  -141046606.41560093        180324081.49292451        1384400774.1884754     
  -71852867.220478594        274737064.60924625        1379214007.9181051     
  -387151619.52232313        17197227.369466379        1335851045.8360612     
  -324681928.91948378        49031986.409514293        1325239961.7846773     
  -253933506.14124370        108462519.36755943        1319822604.8490345     
  -174906351.18759328        195488826.24363935        1319598975.0291476     
  -87600464.058549702        310110907.03770167        1324569072.3249974     
  -470480337.12113225        7926078.6563511193        1245181299.5986507     
  -392427212.87102443        41845741.949686199        1243597423.4047999     
  -304187051.04567951        109722197.16048127        1248325944.9961898     
  -205759851.64510995        211555444.28868330        1259366864.3728209     
  -97145614.669303551        347345483.33435565        1276720181.5346851     
  -560391416.14396977       -3319778.4839726985        1152402172.9648402     
  -463558656.33375651        33643649.636513978        1162071860.9283290     
  -354630553.54848295        110924887.67386283        1179172617.3465517     
  -233607107.78814054        228523935.62811226        1203704442.2195096     
  -100488319.05274251        386440793.49921072        1235667335.5471935     
  -49902824.155100241        241223956.04897630        1440654988.3140376     
  -40619661.509644508        321550274.08641839        1347337608.1922262     
  -23494030.448566347        428018153.50926232        1253905180.0532403     
   1474069.0281687677        560627594.31762838        1160357703.8970861     
   34284636.920506150        719378596.51134348        1066695179.7237705     
  -71852867.220478594        274737064.60924625        1379214007.9181051     
  -57648058.956628591        376005932.32445323        1297499470.8702376     
  -34416382.603558749        507364360.33705407        1214852967.0049803     
  -2157838.1612588167        668812348.64708924        1131274496.3223267     
   39127574.370248854        860349897.25448632        1046764058.8222744     
  -87600464.058549702        310110907.03770167        1324569072.3249974     
  -70808063.891221374        431622108.31620550        1255839177.9702582     
  -43804395.961083651        587170868.80407941        1185360397.9979093     
  -6589460.2681340277        776757188.50132585        1113132732.4079437     
   40836743.187625051        1000381067.4079325        1039156181.2003514     
  -97145614.669303551        347345483.33435565        1276720181.5346851     
  -80099676.313427448        488398802.06166697        1222356729.4922693     
  -51658070.521142364        667437678.91034126        1165427473.0320106     
  -11820797.292464077        884462113.88032770        1105932412.1539214     
   39412143.372620106        1139472106.9716642        1043871546.8579923     
  -100488319.05274251        386440793.49921072        1235667335.5471935     
  -85522896.223242432        546336013.56084597        1197052125.4362872     
  -57977406.283737481        748164790.65583038        1155054192.1073165     
  -17851849.234250665        991927124.78408968        1109673535.5602877     
   34853774.925232887        1277623015.9456680        1060910155.7951882     
  -2393046396.2526956        1365778832.6944430       -268116923.76783261     
  -2501551831.6355019        923397074.73666728        15221977.201564416     
  -2578226777.7774477        587116947.58176887        256686266.78460187     
  -2623071234.6785264        356938451.22975850        456275944.98128808     
  -2636085202.3387475        232861585.68060756        613991011.79162109     
  -2268805571.0856395        1027052868.5346509        32442045.690281093     
  -2413533125.8853216        735493140.72980988        228427151.25726959     
  -2540635420.5827456        502684279.93250394        403618615.54695833     
  -2650112455.1779132        328626286.14273071        558016438.55933857     
  -2741964229.6708112        213319159.36050522        691620620.29441333     
  -2506688938.9864340        579689646.45449996        403475347.26564866     
  -2627407270.0342917        457021351.75320387        495533890.10186970     
  -2744705570.1184859        345753160.26410389        587879761.76983404     
  -2858583839.2390165        245885071.98720109        680512962.26954091     
  -2969042077.3958964        157417086.92249179        773433491.60098970     
  -3106696499.9550867        23689166.453993320        844982980.95828366     
  -3143174264.0823970        87981707.806860685        816542193.73536038     
  -3190437226.3846517        116323588.57657492        809469705.45323336     
  -3248485386.8618479        108714808.76315451        823765516.11189365     
  -3317318745.5139899        65155368.366579771        859429625.71134663     
  -4068828253.9915929       -640948571.46686935        1356964946.7681696     
  -3960834108.0296540       -371625791.10923457        1191452062.1577418     
  -3877830389.3812537       -185604435.13008022        1068388446.5971507     
  -3819817098.0464048       -82884503.529420853        987774100.08640134     
  -3786794234.0251007       -63465996.307243824        949609022.62548864     
  -2636085202.3387475        232861585.68060756        613991011.79162109     
  -2552725847.9282751        189742611.67535460        703890028.09482896     
  -2466881008.0843792        154908589.11485231        781301698.66452289     
  -2378550682.8070488        128359517.99912643        846226023.50070786     
  -2287734872.0962911        110095398.32816517        898663002.60337901     
  -2741964229.6708112        213319159.36050522        691620620.29441333     
  -2681501101.9742165        172964406.22024441        744883709.97461402     
  -2619372309.3347425        138161869.55624878        792383766.17803669     
  -2555577851.7523899        108911549.36850703        834120788.90468717     
  -2490117729.2271652        85213445.657021284        870094778.15456009     
  -2969042077.3958964        157417086.92249179        773433491.60098970     
  -2912262855.6796336        125590250.86730170        789104197.41920447     
  -2854637789.5110521        96582896.319854617        805736182.01737893     
  -2796166878.8901443        70395023.280160308        823329445.39551365     
  -2736850123.8169098        47026631.748214602        841883987.55361426     
  -3317318745.5139899        65155368.366579771        859429625.71134663     
  -3245011109.0445356        47620145.616505146        836551490.42859697     
  -3172677448.6133118        30171669.405678868        821358946.18254483     
  -3100317764.2203140        12809939.734084010        813851992.97319436     
  -3027932055.8655434       -4465043.3982565403        814030630.80053842     
  -3786794234.0251007       -63465996.307243824        949609022.62548864     
  -3679745862.0689163       -60945909.532128334        887225589.00279617     
  -3573491286.6415157       -61071811.186283588        839252058.67354369     
  -3468030507.7428927       -63843701.269702435        805688431.63772190     
  -3363363525.3730507       -69261579.782389641        786534707.89533615     
  -2287734872.0962911        110095398.32816517        898663002.60337901     
  -2182002821.3396978        99964070.915962100        930758197.37309170     
  -2076344440.4703681        89587177.212876201        961683781.45940220     
  -1970759729.4883094        78964717.218886971        991439754.86230135     
  -1865248688.3935142        68096690.934022903        1020026117.5817976     
  -2490117729.2271652        85213445.657021284        870094778.15456009     
  -2384560312.7499685        76012761.588590264        887597404.34933519     
  -2279041155.8590827        66684545.565802455        905920543.31787622     
  -2173560258.5545006        57228797.588666677        925064195.06018579     
  -2068117620.8362205        47645517.657181382        945028359.57625496     
  -2736850123.8169098        47026631.748214602        841883987.55361426     
  -2625781274.5986257        40462411.129704356        844835357.19123733     
  -2514715274.6656890        33888692.893370390        850597363.05979884     
  -2403652124.0181012        27305477.039216995        859170005.15929997     
  -2292591822.6558518        20712763.567252755        870553283.48973680     
  -3027932055.8655434       -4465043.3982565403        814030630.80053842     
  -2905665706.8856730       -6686980.4606994390        802472055.89880013     
  -2783366796.8901954       -8800380.8044408560        795714240.68516862     
  -2661035325.8790960       -10805244.429444551        793757185.15964627     
  -2538671293.8523774       -12701571.335739255        796600889.32224047     
  -3363363525.3730507       -69261579.782389641        786534707.89533615     
  -3224213609.6111064       -65435413.182620883        760507500.47201943     
  -3084995722.5325890       -61382675.527606368        741271176.19398391     
  -2945709864.1374936       -57103366.817339420        728825735.06123018     
  -2806356034.4258256       -52597487.051814675        723171177.07376099     
  -1865248688.3935142        68096690.934022903        1020026117.5817976     
  -1767195186.4911814        53727725.766690016        1032720162.5875419     
  -1669901208.4101856        36827014.528228879        1049071894.1370124     
  -1573366754.1505408        17394557.218599200        1069081312.2302097     
  -1477591823.7122381       -4569646.1621687412        1092748416.8671296     
  -2068117620.8362205        47645517.657181382        945028359.57625496     
  -1959335945.9222839        38054976.833753586        949268933.84660971     
  -1851181267.7191632        26374446.974259138        957001549.04126596     
  -1743653586.2268705        12603928.078688860        968226205.16022408     
  -1636752901.4453812       -3256579.8529236317        982942902.20348358     
  -2292591822.6558518        20712763.567252755        870553283.48973680     
  -2173555247.9286551        15758665.128214598        866495001.98697925     
  -2055013142.8017550        9156334.6882052422        865763115.78909862     
  -1936965507.2751546        905772.24719214439        868357624.89609575     
  -1819412341.3488455       -8993022.1947882175        874278529.30797553     
  -2538671293.8523774       -12701571.335739255        796600889.32224047     
  -2409853092.5102863       -13161209.349887848        784398367.00864482     
  -2281396833.6579599       -14827322.329939246        775356594.38050723     
  -2153302517.2954078       -17699910.275888443        769475571.43782783     
  -2025570143.4226213       -21778973.187746167        766755298.18060362     
  -2806356034.4258256       -52597487.051814675        723171177.07376099     
  -2668229479.6671791       -48704646.600575566        702979028.91161001     
  -2530332340.2877736       -45576524.080154657        685781984.81549990     
  -2392664616.2876239       -43213119.490568519        671580044.78541470     
  -2255226307.6667104       -41614432.831791520        660373208.82136405     
  -1477591823.7122381       -4569646.1621687412        1092748416.8671296     
  -1370984275.8611414       -22622148.971291661        1098957864.9087176     
  -1263180776.4868746       -36688146.703172386        1105432996.7293458     
  -1154181325.5894351       -46767639.357813179        1112173812.3290236     
  -1043985923.1688075       -52860626.935164034        1119180311.7077425     
  -1636752901.4453812       -3256579.8529236317        982942902.20348358     
  -1526755938.9540915       -17761248.921932876        982784095.43311119     
  -1415850470.5983458       -29237565.109401345        984148116.05151057     
  -1304036496.3781514       -37685528.415385306        987034964.05867755     
  -1191314016.2934918       -43105138.839817524        991444639.45461559     
  -1819412341.3488455       -8993022.1947882175        874278529.30797553     
  -1702434125.3324187       -18872305.858158946        867416114.45712960     
  -1584834849.1102631       -26681388.835758328        863333670.60478365     
  -1466614512.6823733       -32420271.127586126        862031197.75093412     
  -1347773116.0487566       -36088952.733648479        863508695.89557981     
  -2025570143.4226213       -21778973.187746167        766755298.18060362     
  -1898018834.9961305       -25955319.780017853        752853921.98077703     
  -1770133912.0226266       -29019617.882235408        742989660.38917446     
  -1641915374.5021222       -30971867.494449854        737162513.40579081     
  -1513363222.4346106       -31812068.616651237        735372481.03063631     
  -2255226307.6667104       -41614432.831791520        660373208.82136405     
  -2113510067.9452219       -39010290.687470675        639097518.00404346     
  -1971747659.3354411       -36252252.248861074        623116085.40466976     
  -1829939081.8373837       -33340317.515992403        612428911.02324772     
  -1688084335.4510436       -30274486.488840997        607035994.85977507     
  -1043985923.1688075       -52860626.935164034        1119180311.7077425     
  -926413679.74264169       -51563359.255848944        1119326954.6362863     
  -806623847.42979050       -42874128.620907933        1124912812.4886539     
  -684616426.23022842       -26792935.030265391        1135937885.2648363     
  -560391416.14396977       -3319778.4839726985        1152402172.9648402     
  -1191314016.2934918       -43105138.839817524        991444639.45461559     
  -1061156736.4997244       -39875376.253826201        989652239.59135175     
  -929653720.96753359       -32159827.873073101        991655461.64703512     
  -796804969.69691420       -19958493.697563618        997454305.62166822     
  -662610482.68786454       -3271373.7272928059        1007048771.5152518     
  -1347773116.0487566       -36088952.733648479        863508695.89557981     
  -1209726779.9012880       -32335489.245116174        858760091.23418307     
  -1071206561.1636773       -27002417.122764289        856163515.48686647     
  -932212459.83590043       -20089736.366538465        855718968.65363240     
  -792744475.91797578       -11597446.976474464        857426450.73448014     
  -1513363222.4346106       -31812068.616651237        735372481.03063631     
  -1372123809.9473450       -28943698.229756653        726650509.56478882     
  -1231282368.0182159       -27401896.369964361        718436974.00815284     
  -1090838896.6471963       -27186663.037203074        710731874.36073518     
  -950793395.83429623       -28297998.231527209        703535210.62253046     
  -1688084335.4510436       -30274486.488840997        607035994.85977507     
  -1548347826.6378975       -29700003.207775593        593323494.58316016     
  -1409881141.5311575       -33358265.614700437        578475837.21089256     
  -1272684280.1308005       -41249273.709580481        562493022.74296653     
  -1136757242.4368334       -53373027.492431700        545375051.17938900     
  -560391416.14396977       -3319778.4839726985        1152402172.9648402     
  -463558656.33375651        33643649.636513978        1162071860.9283290     
  -354630553.54848295        110924887.67386283        1179172617.3465517     
  -233607107.78814054        228523935.62811226        1203704442.2195096     
  -100488319.05274251        386440793.49921072        1235667335.5471935     
  -662610482.68786454       -3271373.7272928059        1007048771.5152518     
  -547520883.89633751        26315320.787810206        1020826578.6256012     
  -421492817.97943717        92363572.387480497        1042919362.7142435     
  -284526284.93717140        194873381.07171166        1073327123.7811801     
  -136621284.76951921        333844746.84055573        1112049861.8264072     
  -792744475.91797578       -11597446.976474464        857426450.73448014     
  -656872585.22066891        11370149.810584545        873962688.50038588     
  -511219103.24768168        66943050.849912703        899697811.76814258     
  -355784029.99902457        155121256.14148474        934631820.53775084     
  -190567365.47467008        275904765.68535852        978764714.80921710     
  -950793395.83429623       -28297998.231527209        703535210.62253046     
  -791613760.30674696       -11191863.295156747        721480190.55267453     
  -623809409.35321951        34663323.061152756        749507964.50824213     
  -447380342.97370481        109267560.83741954        787618532.48921502     
  -262326561.16819555        212620850.03365719        835811894.49560595     
  -1136757242.4368334       -53373027.492431700        545375051.17938900     
  -951744409.15459335       -41370718.529448509        563379084.78247654     
  -759263736.29605079       -4475610.9787952006        592349820.93454742     
  -559315223.86122322        57312295.159474552        632287259.63558376     
  -351898871.85008228        143992999.88546088        683191400.88560343     
  -100488319.05274251        386440793.49921072        1235667335.5471935     
  -85522896.223242432        546336013.56084597        1197052125.4362872     
  -57977406.283737481        748164790.65583038        1155054192.1073165     
  -17851849.234250665        991927124.78408968        1109673535.5602877     
   34853774.925232887        1277623015.9456680        1060910155.7951882     
  -136621284.76951921        333844746.84055573        1112049861.8264072     
  -127469986.49991772        482867121.66853869        1090434557.2320528     
  -95184329.226909399        709004026.50788605        1070238690.4789871     
  -39764312.950514495        1012255461.3585081        1051462261.5672210     
   38790062.329265177        1392621426.2204323        1034105270.4967196     
  -190567365.47467008        275904765.68535852        978764714.80921710     
  -173509731.59538677        418170433.33059990        986462656.27371371     
  -122763446.81929803        672731603.96516907        1000382196.6388499     
  -38328511.146432102        1039588277.5890235        1020523335.9046237     
   79795075.423233330        1518740454.2021770        1046886074.0710431     
  -262326561.16819555        212620850.03365719        835811894.49560595     
  -223642131.50964582        352245948.54702079        885136422.56125736     
  -140714759.06091353        639347523.02768099        945484710.58689904     
  -13544443.821989715        1073925573.4756303        1016856758.5725368     
   157868814.20712668        1655980099.8908994        1099252566.5181603     
  -351898871.85008228        143992999.88546088        683191400.88560343     
  -277867186.24271345        285093667.31777245        786455856.09470236     
  -149038265.95173365        608851783.69544840        905546232.32314003     
   34587889.022822082        1115267349.0183856        1040462529.5709279     
   273011278.68096596        1804340363.2866056        1191204747.8380620     
  -4068828253.9915929       -640948571.46686935        1356964946.7681696     
  -3960834108.0296540       -371625791.10923457        1191452062.1577418     
  -3877830389.3812537       -185604435.13008022        1068388446.5971507     
  -3819817098.0464048       -82884503.529420853        987774100.08640134     
  -3786794234.0251007       -63465996.307243824        949609022.62548864     
  -4821178394.4113226       -442874958.05974364        943347383.61705089     
  -4650753019.0858641       -266464692.72772694        835415987.34030843     
  -4496014873.6792974       -142345193.79202938        754500694.22233927     
  -4356963958.1916342       -70516461.252670288        700601504.26315379     
  -4233600272.6228752       -50978495.109649897        673718417.46274483     
  -5319166521.5030251       -168492740.65420961        481363769.22879630     
  -5130404676.5027914       -98223418.254432440        441867591.57949185     
  -4948026864.0268097       -49234204.268827677        413954351.19790357     
  -4772033084.0750780       -21525098.697392225        397624048.08403563     
  -4602423336.6476040       -15096101.540147066        392876682.23788446     
  -5562792635.2667036        182198080.74973130       -28985896.396598257     
  -5399789080.2804413        133098032.31063914        10806874.875295002     
  -5233866360.4237843        93728533.439540863        46749417.523837365     
  -5065024475.6967306        64089584.136420727        78841731.549048290     
  -4893263426.0992889        44181184.401270628        107083816.95090537     
  -5552056735.7023544        609197506.15208101       -587701613.25912416     
  -5458906230.4188118        427499658.96751142       -457766162.77228457     
  -5353533362.8702221        286543019.33307743       -347114106.79984939     
  -5235938133.0565948        186327587.24877667       -255745445.34182265     
  -5106120540.9779291        126853362.71460915       -183660178.39819068     
  -3786794234.0251007       -63465996.307243824        949609022.62548864     
  -3679745862.0689163       -60945909.532128334        887225589.00279617     
  -3573491286.6415157       -61071811.186283588        839252058.67354369     
  -3468030507.7428927       -63843701.269702435        805688431.63772190     
  -3363363525.3730507       -69261579.782389641        786534707.89533615     
  -4233600272.6228752       -50978495.109649897        673718417.46274483     
  -4096272371.5672908       -51047040.274398327        635699397.30201304     
  -3958946763.1997209       -51123227.732524633        607159795.91043103     
  -3821623447.5201674       -51207057.484040260        588099613.28799748     
  -3684302424.5286255       -51298529.528927088        578518849.43471241     
  -4602423336.6476040       -15096101.540147066        392876682.23788446     
  -4448903005.1334400       -21979408.236998558        380145496.68667257     
  -4294593462.4665151       -26232011.091341972        371963245.38032198     
  -4139494708.6468444       -27853910.103185415        368329928.31883079     
  -3983606743.6744275       -26845105.272527218        369245545.50220704     
  -4893263426.0992889        44181184.401270628        107083816.95090537     
  -4737637762.7673540        26256986.580081701        120563887.15676717     
  -4580431384.4419060        13601838.737257957        133662407.08321413     
  -4421644291.1229401        6215740.8728406429        146379376.73022512     
  -4261276482.8104620        4098692.9867863655        158714796.09782287     
  -5106120540.9779291        126853362.71460915       -183660178.39819068     
  -4962476644.4690514        93662144.176807642       -143045431.28768483     
  -4816460529.1258841        68378321.753289938       -107742718.98090312     
  -4668072194.9484386        51001895.444032192       -77752041.477812499     
  -4517311641.9367113        41532865.249062538       -53073398.778446227     
  -3363363525.3730507       -69261579.782389641        786534707.89533615     
  -3224213609.6111064       -65435413.182620883        760507500.47201943     
  -3084995722.5325890       -61382675.527606368        741271176.19398391     
  -2945709864.1374936       -57103366.817339420        728825735.06123018     
  -2806356034.4258256       -52597487.051814675        723171177.07376099     
  -3684302424.5286255       -51298529.528927088        578518849.43471241     
  -3527916897.1515207       -45959713.398392916        559657215.98080802     
  -3371719668.1678691       -41248558.579371929        546913789.19387805     
  -3215710737.5776796       -37165065.071889162        540288569.07391572     
  -3059890105.3809495       -33709232.875938892        539781555.62092948     
  -3983606743.6744275       -26845105.272527218        369245545.50220704     
  -3811907537.4773340       -20570219.449773788        357250504.68934768     
  -3640652899.3837328       -15777227.305322170        350700994.06514549     
  -3469842829.3936200       -12466128.839175224        349597013.62960678     
  -3299477327.5070114       -10636924.051347733        353938563.38272423     
  -4261276482.8104620        4098692.9867863655        158714796.09782287     
  -4076185530.5885463        10733068.663238525        153287366.59763041     
  -3891795416.1801701        15031318.294567108        152632790.80777872     
  -3708106139.5853209        16993441.880802393        156751068.72828746     
  -3525117700.8039889        16619439.421973705        165642200.35914502     
  -4517311641.9367113        41532865.249062538       -53073398.778446227     
  -4320750876.4851704        47950150.940597057       -52232198.294344537     
  -4125147218.5571895        51177078.220270157       -47290820.578205004     
  -3930500668.1527624        51213647.088079453       -38249265.630027138     
  -3736811225.2719097        48059857.543998718       -25107533.449811101     
  -2806356034.4258256       -52597487.051814675        723171177.07376099     
  -2668229479.6671791       -48704646.600575566        702979028.91161001     
  -2530332340.2877736       -45576524.080154657        685781984.81549990     
  -2392664616.2876239       -43213119.490568519        671580044.78541470     
  -2255226307.6667104       -41614432.831791520        660373208.82136405     
  -3059890105.3809495       -33709232.875938892        539781555.62092948     
  -2914697148.5504231       -33650094.013053536        524531762.43038684     
  -2769453293.8032761       -33421295.428106785        512607259.44180006     
  -2624158541.1395111       -33022837.121095657        504008046.65517002     
  -2478812890.5591264       -32454719.092020869        498734124.07049131     
  -3299477327.5070114       -10636924.051347733        353938563.38272423     
  -3146274579.6448202       -14128470.088877320        343958157.34229559     
  -2992740620.5701404       -16515978.751459718        337633227.63974369     
  -2838875450.2829809       -17799450.039090633        334963774.27507216     
  -2684679068.7833323       -17978883.951770544        335949797.24827993     
  -3525117700.8039889        16619439.421973705        165642200.35914502     
  -3362961772.9503632        9860225.1719484329        161258213.64734176     
  -3200194320.5883751        5139425.9497822523        160859889.40932852     
  -3036815343.7180390        2457041.7554445267        164447227.64513376     
  -2872824842.3393674        1813072.5889028311        172020228.35472953     
  -3736811225.2719097        48059857.543998718       -25107533.449811101     
  -3564758728.4670548        38315991.769443035       -23568068.654481124     
  -3391814393.8579836        31544918.675597429       -17712755.249440406     
  -3217978221.4446945        27746638.262481570       -7541593.2346530790     
  -3043250211.2271919        26921150.530079365        6945417.3898449903     
  -2255226307.6667104       -41614432.831791520        660373208.82136405     
  -2113510067.9452219       -39010290.687470675        639097518.00404346     
  -1971747659.3354411       -36252252.248861074        623116085.40466976     
  -1829939081.8373837       -33340317.515992403        612428911.02324772     
  -1688084335.4510436       -30274486.488840997        607035994.85977507     
  -2478812890.5591264       -32454719.092020869        498734124.07049131     
  -2325215233.3621554       -29444050.533593893        482873715.02907729     
  -2171690266.2503533       -26675682.259050727        470764785.88605070     
  -2018237989.2237144       -24149614.268408775        462407336.64142334     
  -1864858402.2822580       -21865846.561673880        457801367.29518145     
  -2684679068.7833323       -17978883.951770544        335949797.24827993     
  -2523607932.1667743       -15884070.396015882        325366001.18041241     
  -2362728344.6088295       -14427753.702329636        316990906.69137937     
  -2202040306.1094937       -13609933.870656371        310824513.78118157     
  -2041543816.6687884       -13430610.901084900        306866822.44982052     
  -2872824842.3393674        1813072.5889028311        172020228.35472953     
  -2708688164.3590727        1669649.7252682447        166574376.45805281     
  -2544861894.4108572        491533.42136931419        161794447.82065091     
  -2381346032.4947062       -1721276.3227287531        157680442.44252893     
  -2218140578.6106229       -4968779.5070819855        154232360.32368273     
  -3043250211.2271919        26921150.530079365        6945417.3898449903     
  -2880455929.9390779        23217109.830200315        6498840.8619929357     
  -2718090915.6564636        18082179.111954689        5175409.2738707745     
  -2556155168.3793645        11516358.375338197        2975122.6254640962     
  -2394648688.1078014        3519647.6202774048       -102019.08321973472     
  -1688084335.4510436       -30274486.488840997        607035994.85977507     
  -1548347826.6378975       -29700003.207775593        593323494.58316016     
  -1409881141.5311575       -33358265.614700437        578475837.21089256     
  -1272684280.1308005       -41249273.709580481        562493022.74296653     
  -1136757242.4368334       -53373027.492431700        545375051.17938900     
  -1864858402.2822580       -21865846.561673880        457801367.29518145     
  -1728007878.8776801       -24801254.573437810        443751541.95561492     
  -1591256395.0521913       -28066794.515501738        429426859.84961957     
  -1454603950.8057911       -31662466.387870848        414827320.97718543     
  -1318050546.1384926       -35588270.190555990        399952925.33831918     
  -2041543816.6687884       -13430610.901084900        306866822.44982052     
  -1905121277.7321446       -19138509.923502922        293845586.86249411     
  -1767626994.2472923       -21273927.118535638        281409794.83794349     
  -1629060966.2142305       -19836862.486208797        269559446.37618601     
  -1489423193.6329589       -14827316.026528955        258294541.47720936     
  -2218140578.6106229       -4968779.5070819855        154232360.32368273     
  -2079688023.2013011       -12711769.257976532        143605629.30377829     
  -1938992939.1164618       -12979663.423810601        134424642.17587355     
  -1796055326.3561065       -5772462.0045878887        126689398.93996894     
  -1650875184.9202380        8909834.9996708632        120399899.59607615     
  -2394648688.1078014        3519647.6202774048       -102019.08321973472     
  -2251708115.2851520       -5521032.5768451691       -6968330.7205290990     
  -2105354229.6596882       -3184003.4312626123       -11528598.136604741     
  -1955587031.2314153        10530735.057026505       -13782821.331455309     
  -1802406520.0003340        35623182.887998939       -13731000.305093290     
  -1136757242.4368334       -53373027.492431700        545375051.17938900     
  -951744409.15459335       -41370718.529448509        563379084.78247654     
  -759263736.29605079       -4475610.9787952006        592349820.93454742     
  -559315223.86122322        57312295.159474552        632287259.63558376     
  -351898871.85008228        143992999.88546088        683191400.88560343     
  -1318050546.1384926       -35588270.190555990        399952925.33831918     
  -1118202006.0123186       -15247383.972886324        421650453.92490011     
  -914774327.81297469        17023962.488672554        441869075.09137189     
  -707767511.54046667        61225769.194135994        460608788.83773631     
  -497181557.19478297        117358036.14347953        477869595.16398901     
  -1489423193.6329589       -14827316.026528955        258294541.47720936     
  -1310297832.2888157        3184481.7580375075        279148746.62696797     
  -1131482034.3746231        20164401.442756176        286078434.38753498     
  -952975799.89040637        36112443.027561843        279083604.75890285     
  -774779128.83615851        51028606.512482464        258164257.74107596     
  -1650875184.9202380        8909834.9996708632        120399899.59607615     
  -1528031887.9840801        13924878.663331330        135873962.88869339     
  -1409386855.9810119        4945705.8833978772        124977898.82303004     
  -1294940088.9110377       -18027683.340206444        87711707.399086148     
  -1184691586.7741702       -54995289.007492185        24075388.616856221     
  -1802406520.0003340        35623182.887998939       -13731000.305093290     
  -1771404173.0981264        16973806.742997169       -8173897.2899344424     
  -1748488792.6321273       -28632124.189388514       -41432531.602150343     
  -1733660378.6023707       -101194609.90923262       -113506903.24172193     
  -1726918931.0088255       -200713650.41645980       -224397012.20866922     
  -351898871.85008228        143992999.88546088        683191400.88560343     
  -277867186.24271345        285093667.31777245        786455856.09470236     
  -149038265.95173365        608851783.69544840        905546232.32314003     
   34587889.022822082        1115267349.0183856        1040462529.5709279     
   273011278.68096596        1804340363.2866056        1191204747.8380620     
  -497181557.19478297        117358036.14347953        477869595.16398901     
  -388331363.00242901        222938598.37527305        597122666.58558154     
  -230333478.31503135        492344795.59052300        735530232.48409355     
  -23187903.132607639        925576627.78918755        893092292.85952127     
   233105362.54485384        1522634094.9713001        1069808847.7118890     
  -774779128.83615851        51028606.512482464        258164257.74107596     
  -621600216.18000603        123942126.50738183        386814810.48850781     
  -424923157.21737301        341849467.52388942        537948431.17043746     
  -184747951.94829571        704750629.56190825        711565119.78687263     
   98925399.627281189        1212645612.6215703        907664876.33780944     
  -1184691586.7741702       -54995289.007492185        24075388.616856221     
  -977673745.77544165       -11895748.285850346        155532287.80347699     
  -732807302.65878773        157365799.49553138        312800828.38217312     
  -450092257.42423415        452789354.33660889        495881010.35295552     
  -129528610.07175308        874374916.23739493        704772833.71582341     
  -1726918931.0088255       -200713650.41645980       -224397012.20866922     
  -1456551951.7887273       -184575026.00446421       -96724901.469511166     
  -1153985914.6392543       -61106208.494552135        60087424.119316712     
  -819220819.56045103        169692802.11314356        246039964.55778944     
  -452256666.55225587        507822005.81877899        461132719.84594607     
 </DataArray>
 <DataArray  type="Float64" Name="VM" NumberOfComponents="1" format="ascii">
   5943685972.2495031     
   5766669222.0311031     
   5587436152.4988928     
   5405846111.9562807     
   5221822139.9131794     
   5634296186.7987137     
   5452180635.2491903     
   5269073524.5353127     
   5084966094.1532269     
   4899866467.3531294     
   5308085842.5440140     
   5129826202.6823759     
   4952754606.4506521     
   4776950132.8077698     
   4602562379.0280437     
   4972268216.5153875     
   4805422384.9488564     
   4643204793.4855995     
   4485642850.1558647     
   4332982641.4242859     
   4637160423.1048698     
   4487038371.8587427     
   4346691031.7408619     
   4215807028.5449667     
   4094519209.9211240     
   5221822139.9131794     
   5046501293.4681120     
   4871971105.1874304     
   4698213432.7614059     
   4525288862.7392101     
   4899866467.3531294     
   4738915576.9381762     
   4578955843.9459496     
   4420024784.9953709     
   4262219379.0659323     
   4602562379.0280437     
   4453975166.3851423     
   4306420798.1554785     
   4159981786.9755354     
   4014784464.0516782     
   4332982641.4242859     
   4195099145.7262282     
   4058117597.6452537     
   3922149842.2831674     
   3787340471.3726239     
   4094519209.9211240     
   3966140043.0832973     
   3838358419.7383876     
   3711294199.4523478     
   3585094291.6491094     
   4525288862.7392101     
   4332948001.4660883     
   4140113826.9025421     
   3946771689.7102647     
   3752931155.4260640     
   4262219379.0659323     
   4078282276.9858308     
   3894548193.0092001     
   3711066049.0133567     
   3527934001.6035476     
   4014784464.0516782     
   3841471106.4597325     
   3669356065.7829638     
   3498586304.5017710     
   3329394084.8595285     
   3787340471.3726239     
   3626746493.6709375     
   3468667153.6645474     
   3313370603.9185905     
   3161251479.4714303     
   3585094291.6491094     
   3439041180.7845745     
   3297136594.4004831     
   3159769300.3410645     
   3027490722.5173874     
   3752931155.4260640     
   3576851975.8220673     
   3401574482.4144750     
   3227069339.2907753     
   3053384430.9432940     
   3527934001.6035476     
   3363473839.3309660     
   3200117469.8283687     
   3037914474.1583290     
   2876986067.4696531     
   3329394084.8595285     
   3175781260.7651649     
   3023513845.1628127     
   2872722317.1436119     
   2723606863.3746924     
   3161251479.4714303     
   3018126337.4436498     
   2876529578.1732712     
   2736670608.8269858     
   2598830190.0473952     
   3027490722.5173874     
   2894963843.2502494     
   2764095478.2860627     
   2635166441.7875051     
   2508533435.3848057     
   3053384430.9432940     
   2889022805.7402759     
   2724132484.1632018     
   2558705859.6867967     
   2392742770.0691257     
   2876986067.4696531     
   2715038913.2208433     
   2553082961.8238382     
   2391147484.5788226     
   2229280950.9695354     
   2723606863.3746924     
   2566679842.1353641     
   2410679292.6593232     
   2255750782.8622804     
   2102100064.0122488     
   2598830190.0473952     
   2449541277.7983503     
   2302558675.6091962     
   2158212044.4717860     
   2016950872.6424503     
   2508533435.3848057     
   2369252179.1935472     
   2234043137.8003454     
   2103436966.1808596     
   1978133880.0432622     
   2392742770.0691257     
   2245947739.6725411     
   2101404431.4487867     
   1959106421.7950108     
   1819224875.3831303     
   2229280950.9695354     
   2086193411.8165302     
   1944814036.9242065     
   1805141069.5196323     
   1667252720.8419218     
   2102100064.0122488     
   1961818716.3968406     
   1822501331.6435406     
   1684177932.3619764     
   1546906741.2292376     
   2016950872.6424503     
   1880266878.7072797     
   1743824311.5713382     
   1607745887.1136076     
   1472201155.3291240     
   1978133880.0432622     
   1847639712.8960879     
   1716994167.7566493     
   1586529337.6232405     
   1456737917.5104206     
   1819224875.3831303     
   1779047599.2799468     
   1735299681.0445211     
   1696620621.4574015     
   1681572785.1902223     
   1667252720.8419218     
   1552050160.4570701     
   1427703273.8920829     
   1294557081.4670653     
   1158748415.4865942     
   1546906741.2292376     
   1397061134.9990878     
   1243658841.0266938     
   1084424252.1971250     
   917322986.25875747     
   1472201155.3291240     
   1327879765.3883350     
   1198062218.9153535     
   1087254839.5927241     
   1001397885.4531373     
   1456737917.5104206     
   1347558445.6540680     
   1273437767.6505826     
   1242532745.7511938     
   1261931946.7049196     
   1681572785.1902223     
   1383895874.5230107     
   1129436779.1367500     
   1010068478.9400262     
   1153364343.1801879     
   1158748415.4865942     
   1008285280.1354889     
   985063823.67329919     
   1161430605.5482125     
   1544321356.1608121     
   917322986.25875747     
   962817534.12094462     
   1144724613.4296937     
   1476385822.7858615     
   1957479652.1552992     
   1001397885.4531373     
   1164303972.9732001     
   1425210944.2385368     
   1808660758.3876858     
   2334697779.6712270     
   1261931946.7049196     
   1446129226.3835516     
   1715476469.6850195     
   2110473609.5119104     
   2663475159.7867355     
   4637160423.1048698     
   4487038371.8587427     
   4346691031.7408619     
   4215807028.5449667     
   4094519209.9211240     
   4266994037.4144778     
   4154958012.0792570     
   4049344608.5611272     
   3950133922.5003529     
   3857472691.7602744     
   3954776550.4350200     
   3872247017.4487028     
   3791792236.2573256     
   3713513265.8613195     
   3637543843.2341628     
   3698131586.5315971     
   3637979078.0437608     
   3574930095.5818338     
   3508856471.1384654     
   3439681509.4507303     
   3493710567.8832603     
   3450206755.0301623     
   3398943046.0722609     
   3338998959.1311069     
   3269684059.7290711     
   4094519209.9211240     
   3966140043.0832973     
   3838358419.7383876     
   3711294199.4523478     
   3585094291.6491094     
   3857472691.7602744     
   3736514465.3430390     
   3617549911.7751360     
   3500818390.4839592     
   3386611424.3792763     
   3637543843.2341628     
   3527188352.3582010     
   3420573637.5219421     
   3318071931.7609444     
   3220136804.2743125     
   3439681509.4507303     
   3342617864.0038123     
   3251374416.4184198     
   3166434626.0161085     
   3088386601.4016218     
   3269684059.7290711     
   3187787803.3847079     
   3114079531.4915433     
   3049090354.7530065     
   2993466068.3564668     
   3585094291.6491094     
   3439041180.7845745     
   3297136594.4004831     
   3159769300.3410645     
   3027490722.5173874     
   3386611424.3792763     
   3257999957.7258921     
   3133777842.0913401     
   3014372145.2623343     
   2900340154.2152019     
   3220136804.2743125     
   3108122073.9496684     
   3000573399.9753532     
   2897928252.2470994     
   2800721311.8221378     
   3088386601.4016218     
   2992349963.1097879     
   2900657963.6514416     
   2813727797.9781580     
   2732043275.5562630     
   2993466068.3564668     
   2912990900.1989617     
   2836515810.2359004     
   2764408314.4730253     
   2697077690.3158822     
   3027490722.5173874     
   2894963843.2502494     
   2764095478.2860627     
   2635166441.7875051     
   2508533435.3848057     
   2900340154.2152019     
   2778283447.0305109     
   2659405888.4849634     
   2544154530.9580727     
   2433080763.5039263     
   2800721311.8221378     
   2691524544.6188588     
   2587256703.7388196     
   2488508997.4087958     
   2395986787.2355108     
   2732043275.5562630     
   2637448903.7131062     
   2549624777.7505784     
   2469236854.8400030     
   2397049834.5007806     
   2697077690.3158822     
   2617890220.2824650     
   2547258916.1448088     
   2485829184.4160604     
   2434312766.8485451     
   2508533435.3848057     
   2369252179.1935472     
   2234043137.8003454     
   2103436966.1808596     
   1978133880.0432622     
   2433080763.5039263     
   2308960988.0272541     
   2190041079.2019286     
   2077020167.6967025     
   1970763838.9907658     
   2395986787.2355108     
   2288699386.4210730     
   2187716992.2167935     
   2093823025.2989514     
   2007929189.6904831     
   2397049834.5007806     
   2307664552.5902128     
   2225489716.3842564     
   2151288407.6595483     
   2085895349.2343411     
   2434312766.8485451     
   2363142253.6363020     
   2299770411.8246298     
   2244856970.5258307     
   2199082175.1459041     
   1978133880.0432622     
   1847639712.8960879     
   1716994167.7566493     
   1586529337.6232405     
   1456737917.5104206     
   1970763838.9907658     
   1854499683.8015220     
   1742571811.3803139     
   1635902958.2849965     
   1535627482.3499374     
   2007929189.6904831     
   1911126456.6153510     
   1823230641.8292425     
   1745460225.0429749     
   1679127036.0263774     
   2085895349.2343411     
   2010152183.9395702     
   1947057473.1962376     
   1897712096.4961324     
   1863168683.0686252     
   2199082175.1459041     
   2142891860.7639158     
   2102079736.5945184     
   2077426653.5680394     
   2069631348.2423954     
   1456737917.5104206     
   1347558445.6540680     
   1273437767.6505826     
   1242532745.7511938     
   1261931946.7049196     
   1535627482.3499374     
   1474810452.0239792     
   1446686960.7171974     
   1455228754.6598694     
   1503745627.8995068     
   1679127036.0263774     
   1650850650.6593482     
   1650224519.9363468     
   1679618900.1313698     
   1741644262.0971744     
   1863168683.0686252     
   1853074215.4347682     
   1865819926.3009470     
   1903616865.1945820     
   1969486292.4312463     
   2069631348.2423954     
   2066807473.0435560     
   2083031500.2618613     
   2120937010.4624488     
   2184312766.8501530     
   1261931946.7049196     
   1446129226.3835516     
   1715476469.6850195     
   2110473609.5119104     
   2663475159.7867355     
   1503745627.8995068     
   1612571720.6455839     
   1788575279.1178322     
   2066452465.3016422     
   2476338755.5024395     
   1741644262.0971744     
   1786866327.8056605     
   1884260349.2595198     
   2060706942.1333759     
   2341387776.5546942     
   1969486292.4312463     
   1967980335.7956741     
   2003094284.0552526     
   2093498006.3412158     
   2257830461.5297542     
   2184312766.8501530     
   2155203548.5536127     
   2145816330.0440631     
   2166692471.8737140     
   2228911353.5383534     
   3493710567.8832603     
   3450206755.0301623     
   3398943046.0722609     
   3338998959.1311069     
   3269684059.7290711     
   3420926123.0711122     
   3338554977.3277259     
   3259245093.6596255     
   3183221099.7218862     
   3110730849.6976614     
   3354954147.1520000     
   3235836550.4903359     
   3134608082.0782652     
   3051298301.8588638     
   2986213687.0995088     
   3344861695.4804025     
   3178305406.9375663     
   3049888009.9712920     
   2957975441.4748025     
   2901518282.9675655     
   3449070222.1786137     
   3210052552.7175121     
   3034785401.7739844     
   2919602855.6642156     
   2861179432.2182655     
   3269684059.7290711     
   3187787803.3847079     
   3114079531.4915433     
   3049090354.7530065     
   2993466068.3564668     
   3110730849.6976614     
   3043617253.5453782     
   2984754853.5289230     
   2934540315.0286794     
   2893447644.7741942     
   2986213687.0995088     
   2931359080.1585422     
   2884679077.4694386     
   2846446641.5448971     
   2816983857.2070942     
   2901518282.9675655     
   2856179029.4691176     
   2818788277.4590211     
   2789515297.7447619     
   2768559131.4860272     
   2861179432.2182655     
   2822503641.3880348     
   2791401312.1270175     
   2767964510.1371179     
   2752303360.2434740     
   2993466068.3564668     
   2912990900.1989617     
   2836515810.2359004     
   2764408314.4730253     
   2697077690.3158822     
   2893447644.7741942     
   2821778844.7417440     
   2756180728.3941388     
   2697086323.5713124     
   2644967837.7207704     
   2816983857.2070942     
   2754876845.1719508     
   2700983410.9557014     
   2655735772.4688888     
   2619596017.7774053     
   2768559131.4860272     
   2715560567.7793045     
   2672939032.7354918     
   2641055247.1505513     
   2620289507.5992365     
   2752303360.2434740     
   2706566148.9577999     
   2673380024.4606943     
   2652981817.9031391     
   2645622427.8258028     
   2697077690.3158822     
   2617890220.2824650     
   2547258916.1448088     
   2485829184.4160604     
   2434312766.8485451     
   2644967837.7207704     
   2582362377.5039706     
   2528300483.3830843     
   2483302322.8045669     
   2447920138.1110821     
   2619596017.7774053     
   2572468954.9990015     
   2533685092.6625123     
   2503636923.1213584     
   2482728765.7933798     
   2620289507.5992365     
   2587322620.1439128     
   2562342641.7244153     
   2545626414.1297255     
   2537454833.8720717     
   2645622427.8258028     
   2625360259.7686844     
   2612622085.5865469     
   2607589609.5098629     
   2610449765.7022266     
   2434312766.8485451     
   2363142253.6363020     
   2299770411.8246298     
   2244856970.5258307     
   2199082175.1459041     
   2447920138.1110821     
   2391151114.9768510     
   2343691450.6013994     
   2306099787.3118038     
   2278917639.9647942     
   2482728765.7933798     
   2439378285.8108540     
   2406575474.1649694     
   2384736089.1037698     
   2374240254.9526157     
   2537454833.8720717     
   2505707707.2134418     
   2485542705.4741988     
   2477226763.1109314     
   2480992577.9168477     
   2610449765.7022266     
   2587844113.0332184     
   2577764019.8702679     
   2580346343.2344179     
   2595708914.8301582     
   2199082175.1459041     
   2142891860.7639158     
   2102079736.5945184     
   2077426653.5680394     
   2069631348.2423954     
   2278917639.9647942     
   2238485714.9103212     
   2212040487.0629673     
   2200028961.4446921     
   2202840142.9142051     
   2374240254.9526157     
   2346619881.8933072     
   2331596473.8487501     
   2329415559.0472507     
   2340292965.3952713     
   2480992577.9168477     
   2463663700.2210360     
   2457653049.7634635     
   2463095837.3138266     
   2480119166.9101467     
   2595708914.8301582     
   2586622746.0855551     
   2587736311.0831470     
   2599131345.2888074     
   2620894582.3057289     
   2069631348.2423954     
   2066807473.0435560     
   2083031500.2618613     
   2120937010.4624488     
   2184312766.8501530     
   2202840142.9142051     
   2189103152.6225271     
   2190265106.0852880     
   2208301072.5406785     
   2246124838.2104549     
   2340292965.3952713     
   2316408282.8920188     
   2304044956.9316001     
   2304616069.0911751     
   2320216775.2167239     
   2480119166.9101467     
   2447777666.0195556     
   2424060611.2631459     
   2409921826.4750614     
   2406753019.2937379     
   2620894582.3057289     
   2582451133.8866796     
   2550034696.8005333     
   2524236186.9651656     
   2505883356.5866218     
   2184312766.8501530     
   2155203548.5536127     
   2145816330.0440631     
   2166692471.8737140     
   2228911353.5383534     
   2246124838.2104549     
   2181724435.5133829     
   2133843301.2691147     
   2112160062.5288482     
   2127611662.6870177     
   2320216775.2167239     
   2223889995.1490541     
   2140926060.9378672     
   2079696968.2379680     
   2050371391.8306499     
   2406753019.2937379     
   2281988876.0960188     
   2167707964.5560064     
   2070652992.1384032     
   1999584257.8462706     
   2505883356.5866218     
   2356225270.1628089     
   2214657412.5677595     
   2086160266.9522023     
   1977598205.9818521     
   3449070222.1786137     
   3210052552.7175121     
   3034785401.7739844     
   2919602855.6642156     
   2861179432.2182655     
   2813493046.2028136     
   2715223694.1854930     
   2647048779.9027691     
   2608331146.5505743     
   2598232652.2255993     
   2208950786.6811581     
   2248074438.8959112     
   2288798987.9571004     
   2329622262.5538735     
   2369669177.8989401     
   1633814168.1659236     
   1785989787.9719448     
   1935857592.8706954     
   2066075767.3187099     
   2168212565.7147040     
   1236175624.6266556     
   1361846804.9710922     
   1584259986.4105299     
   1806469484.6968815     
   1986843362.0671380     
   2861179432.2182655     
   2822503641.3880348     
   2791401312.1270175     
   2767964510.1371179     
   2752303360.2434740     
   2598232652.2255993     
   2598520972.1891847     
   2602219058.4920068     
   2609367038.9535594     
   2620010227.7260933     
   2369669177.8989401     
   2407802762.6203094     
   2444976318.9201989     
   2481153859.9675965     
   2516310458.8444543     
   2168212565.7147040     
   2243413124.2678952     
   2313350109.6960106     
   2377861343.6337886     
   2436824579.2629189     
   1986843362.0671380     
   2098321601.4087584     
   2200709519.5549002     
   2293585230.4110684     
   2376650062.8519797     
   2752303360.2434740     
   2706566148.9577999     
   2673380024.4606943     
   2652981817.9031391     
   2645622427.8258028     
   2620010227.7260933     
   2598434593.6164913     
   2586638203.4022026     
   2584732150.4539709     
   2592827774.8703995     
   2516310458.8444543     
   2516780339.5315385     
   2524105962.5510011     
   2538328950.0959086     
   2559491052.2442622     
   2436824579.2629189     
   2457846864.2277799     
   2482756373.1098485     
   2511555263.0052209     
   2544252848.6219254     
   2376650062.8519797     
   2417405827.1773953     
   2459137615.1087413     
   2501809071.7719169     
   2545404071.8577952     
   2645622427.8258028     
   2625360259.7686844     
   2612622085.5865469     
   2607589609.5098629     
   2610449765.7022266     
   2592827774.8703995     
   2586338352.4577999     
   2587752826.4884305     
   2597163119.7221589     
   2614653953.7148523     
   2559491052.2442622     
   2564006470.3336849     
   2576665460.9654660     
   2597499660.9123836     
   2626536147.9149723     
   2544252848.6219254     
   2556651350.8649402     
   2577357563.6573853     
   2606380359.3124609     
   2643737694.9106240     
   2545404071.8577952     
   2562360735.4966145     
   2587772640.6634603     
   2621665085.7105289     
   2664093944.7255478     
   2610449765.7022266     
   2587844113.0332184     
   2577764019.8702679     
   2580346343.2344179     
   2595708914.8301582     
   2614653953.7148523     
   2603848987.6662607     
   2603433204.5557566     
   2613477783.6856136     
   2634041762.3575053     
   2626536147.9149723     
   2626496490.7758431     
   2634880449.4623303     
   2651720849.3127251     
   2677048385.8202453     
   2643737694.9106240     
   2653966084.4069490     
   2670813700.9320312     
   2694277513.8645134     
   2724368085.1841679     
   2664093944.7255478     
   2684582230.5760283     
   2710033477.5210047     
   2740393329.9754038     
   2775645005.9033790     
   2595708914.8301582     
   2586622746.0855551     
   2587736311.0831470     
   2599131345.2888074     
   2620894582.3057289     
   2634041762.3575053     
   2626066784.2734213     
   2627796311.2339950     
   2639270481.8890748     
   2660536662.1845560     
   2677048385.8202453     
   2669602883.5966935     
   2671511462.3530383     
   2682786801.7256508     
   2703448846.0610352     
   2724368085.1841679     
   2716942321.0448337     
   2718658368.8453789     
   2729513798.3596301     
   2749511929.0546961     
   2775645005.9033790     
   2767800218.3360901     
   2769016043.1572347     
   2779285953.4456801     
   2798606578.8882837     
   2620894582.3057289     
   2582451133.8866796     
   2550034696.8005333     
   2524236186.9651656     
   2505883356.5866218     
   2660536662.1845560     
   2615177334.8060946     
   2575523003.5623293     
   2541907943.8935289     
   2514801734.9721036     
   2703448846.0610352     
   2653355865.4247351     
   2608791932.3415766     
   2569904403.7508550     
   2536899712.5737052     
   2749511929.0546961     
   2696884026.2972140     
   2649752579.2655015     
   2608153123.5299182     
   2572134559.6427541     
   2798606578.8882837     
   2745651965.7217445     
   2698302108.8993216     
   2656556919.0305753     
   2620416423.5561566     
   2505883356.5866218     
   2356225270.1628089     
   2214657412.5677595     
   2086160266.9522023     
   1977598205.9818521     
   2514801734.9721036     
   2347483325.4185247     
   2183688612.0186348     
   2026532749.8290560     
   1880597999.5687978     
   2536899712.5737052     
   2356931545.2481427     
   2176712607.3943954     
   1997735309.5322263     
   1822310551.4902329     
   2572134559.6427541     
   2384680070.3757048     
   2194200867.2907600     
   2001090810.9364452     
   1805981455.9892023     
   2620416423.5561566     
   2430703383.4051781     
   2236300523.6836772     
   2037207942.1349981     
   1833426062.0107837     
   1236175624.6266556     
   1361846804.9710922     
   1584259986.4105299     
   1806469484.6968815     
   1986843362.0671380     
   1760599986.7197385     
   1925079405.6989622     
   2086813182.2178493     
   2232716419.8457289     
   2355945279.6252213     
   2616205401.6959419     
   2643642743.4717646     
   2677644017.1145773     
   2718099615.6258931     
   2764877148.2208261     
   3738927099.0910029     
   3548269679.8073463     
   3403845659.5268865     
   3302083405.9453835     
   3239965842.1959796     
   5141688035.3329458     
   4679625532.5467892     
   4308446606.2473564     
   4019302007.5773520     
   3804012731.4401093     
   1986843362.0671380     
   2098321601.4087584     
   2200709519.5549002     
   2293585230.4110684     
   2376650062.8519797     
   2355945279.6252213     
   2395401609.7269096     
   2437169906.2127256     
   2481207945.2527294     
   2527472814.0472555     
   2764877148.2208261     
   2729009757.9460888     
   2707159074.2642279     
   2699262679.9877372     
   2705269305.0903096     
   3239965842.1959796     
   3121817455.2954049     
   3029265332.1053491     
   2962035481.9714651     
   2919930329.3056588     
   3804012731.4401093     
   3593794616.4145403     
   3420045798.0118275     
   3282266266.0814409     
   3180164315.6322584     
   2376650062.8519797     
   2417405827.1773953     
   2459137615.1087413     
   2501809071.7719169     
   2545404071.8577952     
   2527472814.0472555     
   2537825394.5258141     
   2553981606.7103438     
   2575923151.6524649     
   2603637781.1138678     
   2705269305.0903096     
   2682554385.6324306     
   2670379745.5897312     
   2668752154.7862878     
   2677681011.0869222     
   2919930329.3056588     
   2860222271.1236420     
   2815581943.1601224     
   2786078103.0166268     
   2771796919.2725348     
   3180164315.6322584     
   3078543062.4406571     
   2996155499.7873616     
   2933190976.2414222     
   2889905461.5779843     
   2545404071.8577952     
   2562360735.4966145     
   2587772640.6634603     
   2621665085.7105289     
   2664093944.7255478     
   2603637781.1138678     
   2601436815.9158850     
   2608110440.7240124     
   2623676774.7376738     
   2648163891.5508499     
   2677681011.0869222     
   2655908759.4786177     
   2643497424.4765635     
   2640482715.3236256     
   2646899136.7234216     
   2771796919.2725348     
   2730108205.1511259     
   2698244876.6346045     
   2676288353.2211633     
   2664321224.8111658     
   2889905461.5779843     
   2828109244.8868651     
   2776510119.6033792     
   2735257518.1299286     
   2704521418.9312181     
   2664093944.7255478     
   2684582230.5760283     
   2710033477.5210047     
   2740393329.9754038     
   2775645005.9033790     
   2648163891.5508499     
   2658401599.2716193     
   2676618868.1434622     
   2702795067.1429386     
   2736917735.0783005     
   2646899136.7234216     
   2643363949.2556176     
   2650833454.9344740     
   2669332119.0449429     
   2698881935.7055173     
   2664321224.8111658     
   2642583895.3966475     
   2634921493.5808206     
   2641441607.6635957     
   2662257163.9214993     
   2704521418.9312181     
   2659299064.6094117     
   2631258869.0046759     
   2620670953.3895369     
   2627840163.4479532     
   2775645005.9033790     
   2767800218.3360901     
   2769016043.1572347     
   2779285953.4456801     
   2798606578.8882837     
   2736917735.0783005     
   2726161410.9157653     
   2724883099.9033985     
   2733087688.8889012     
   2750779531.3471074     
   2698881935.7055173     
   2685675992.1970983     
   2682537703.7881804     
   2689484131.3823771     
   2706537535.1195703     
   2662257163.9214993     
   2646888926.9967856     
   2642369678.0386572     
   2648733739.1340418     
   2666034913.1568069     
   2627840163.4479532     
   2610394958.4257741     
   2604796419.7151742     
   2611106127.0769238     
   2629426413.4402509     
   2798606578.8882837     
   2745651965.7217445     
   2698302108.8993216     
   2656556919.0305753     
   2620416423.5561566     
   2750779531.3471074     
   2698144486.7117290     
   2651059050.9627171     
   2609560268.3565755     
   2573701076.0157752     
   2706537535.1195703     
   2656198233.3171778     
   2611495135.5749974     
   2572573938.6316733     
   2539638577.6332088     
   2666034913.1568069     
   2619950163.6332035     
   2579732933.8081536     
   2545708238.3916030     
   2518326294.1800127     
   2629426413.4402509     
   2589530921.0506120     
   2555881890.5128403     
   2529049555.4382443     
   2509816214.6965346     
   2620416423.5561566     
   2430703383.4051781     
   2236300523.6836772     
   2037207942.1349981     
   1833426062.0107837     
   2573701076.0157752     
   2385640233.5955052     
   2194560021.5596523     
   2000824548.4971857     
   1805012825.5907547     
   2539638577.6332088     
   2358640813.0226893     
   2177410552.5405822     
   1997404198.0632417     
   1820876959.8368099     
   2518326294.1800127     
   2349737049.0734067     
   2184711373.5922556     
   2026346711.9262896     
   1879213092.3170276     
   2509816214.6965346     
   2358826337.4622087     
   2215996837.1873479     
   2086329089.9560175     
   1976748134.3852098     
   5141688035.3329458     
   4679625532.5467892     
   4308446606.2473564     
   4019302007.5773520     
   3804012731.4401093     
   4387739546.9190807     
   4118772096.5108943     
   3884786262.0086780     
   3682941654.8916292     
   3511015038.1159554     
   3756935717.6593428     
   3637253646.6184702     
   3519377843.6704745     
   3403370847.7902031     
   3289349023.6066632     
   3328199931.5641513     
   3248500883.2378039     
   3193612121.1724834     
   3150860704.8508019     
   3110356492.8733950     
   3328070768.8605480     
   3069372003.0969391     
   2950143010.4990058     
   2927242039.5384822     
   2957696329.9100676     
   3804012731.4401093     
   3593794616.4145403     
   3420045798.0118275     
   3282266266.0814409     
   3180164315.6322584     
   3511015038.1159554     
   3361472980.5757880     
   3231691699.0549326     
   3121834006.7130699     
   3032287861.7062988     
   3289349023.6066632     
   3188132155.1450100     
   3094082251.3750887     
   3007685418.5115275     
   2929505162.9952989     
   3110356492.8733950     
   3046758927.7364931     
   2984137448.7009058     
   2922115693.7294736     
   2860336785.0229769     
   2957696329.9100676     
   2919444450.1647277     
   2884950028.7723770     
   2850891892.7721400     
   2814339443.0124288     
   3180164315.6322584     
   3078543062.4406571     
   2996155499.7873616     
   2933190976.2414222     
   2889905461.5779843     
   3032287861.7062988     
   2947348875.0772748     
   2875960646.3515601     
   2818560091.7977834     
   2775654075.9176054     
   2929505162.9952989     
   2855911105.6313276     
   2791115098.9371319     
   2735682140.1408548     
   2690226167.6390295     
   2860336785.0229769     
   2794644241.1490383     
   2734193308.0419950     
   2679450052.9366503     
   2630899464.0152974     
   2814339443.0124288     
   2754665765.2991853     
   2698101744.1347041     
   2644732157.5630240     
   2594641966.4311104     
   2889905461.5779843     
   2828109244.8868651     
   2776510119.6033792     
   2735257518.1299286     
   2704521418.9312181     
   2775654075.9176054     
   2721104311.4643941     
   2675978563.8591490     
   2640525325.0024948     
   2615003039.6291575     
   2690226167.6390295     
   2638037792.7136593     
   2594579482.7139111     
   2560250696.5200319     
   2535457071.2547178     
   2630899464.0152974     
   2576462622.7302074     
   2530131679.1084743     
   2492500235.9777484     
   2464175005.1054382     
   2594641966.4311104     
   2533840104.7963133     
   2480540116.2078285     
   2435561144.4177613     
   2399759095.2130342     
   2704521418.9312181     
   2659299064.6094117     
   2631258869.0046759     
   2620670953.3895369     
   2627840163.4479532     
   2615003039.6291575     
   2565334849.9499550     
   2529486120.5294299     
   2507926300.4011383     
   2501117167.3022628     
   2535457071.2547178     
   2480976198.3694839     
   2437200630.2337708     
   2404690285.6425509     
   2383979167.6710114     
   2464175005.1054382     
   2405735271.6362286     
   2355100069.2645159     
   2312755624.1303816     
   2279166520.0235415     
   2399759095.2130342     
   2339277709.5272226     
   2283982106.6129622     
   2234084862.9658680     
   2189796523.3297672     
   2627840163.4479532     
   2610394958.4257741     
   2604796419.7151742     
   2611106127.0769238     
   2629426413.4402509     
   2501117167.3022628     
   2479262873.0645218     
   2469749255.6699510     
   2472700094.5700517     
   2488251984.7828369     
   2383979167.6710114     
   2355119921.1467805     
   2339249490.3886166     
   2336607453.9467406     
   2347410084.6548376     
   2279166520.0235415     
   2240444083.1313977     
   2215447043.6415806     
   2204608360.6711440     
   2208296411.5148411     
   2189796523.3297672     
   2138179267.2201216     
   2100995819.7643907     
   2078975532.9351504     
   2072747328.9364927     
   2629426413.4402509     
   2589530921.0506120     
   2555881890.5128403     
   2529049555.4382443     
   2509816214.6965346     
   2488251984.7828369     
   2454409966.1119623     
   2429356560.1932340     
   2414030142.7318926     
   2409787910.5710506     
   2347410084.6548376     
   2322181121.1698136     
   2308589122.4486294     
   2308034816.6485758     
   2322597286.9640689     
   2208296411.5148411     
   2193575903.8387632     
   2193831759.5052681     
   2211026263.2156696     
   2248081962.8156924     
   2072747328.9364927     
   2069504133.3437285     
   2085365363.4395578     
   2122944520.7737980     
   2186066894.5193310     
   2509816214.6965346     
   2358826337.4622087     
   2215996837.1873479     
   2086329089.9560175     
   1976748134.3852098     
   2409787910.5710506     
   2284052189.1421332     
   2168794116.9689031     
   2070773710.6852114     
   1998803265.1361387     
   2322597286.9640689     
   2225594274.5471172     
   2141879300.7396207     
   2079833407.1219864     
   2049662001.8099568     
   2248081962.8156924     
   2183240219.5733986     
   2134779552.7543685     
   2112374850.7916639     
   2126980108.1772466     
   2186066894.5193310     
   2156692564.2560530     
   2146843997.0723464     
   2167042202.9704752     
   2228361830.4646325     
   3328070768.8605480     
   3069372003.0969391     
   2950143010.4990058     
   2927242039.5384822     
   2957696329.9100676     
   2921584680.1130209     
   2880584360.7007480     
   2910907293.7875752     
   2989336868.2947273     
   3095771899.2625661     
   2925920063.0586848     
   3008252018.9410858     
   3104634017.4375920     
   3213119637.2260962     
   3331961441.7286949     
   3444954003.2164998     
   3487699892.1119256     
   3539670548.5399780     
   3599083711.5170374     
   3666176189.2835779     
   4458960683.2846565     
   4314283080.6936483     
   4216234888.4596281     
   4148296262.0951638     
   4099850939.0239172     
   2957696329.9100676     
   2919444450.1647277     
   2884950028.7723770     
   2850891892.7721400     
   2814339443.0124288     
   3095771899.2625661     
   3057568366.4877543     
   3020879585.6733389     
   2984701709.8477926     
   2948106836.1656737     
   3331961441.7286949     
   3275798525.1651778     
   3222053186.3792987     
   3170797223.6340504     
   3122110006.5101056     
   3666176189.2835779     
   3575800311.2654076     
   3490903758.7860990     
   3411585323.1029606     
   3338084814.2548509     
   4099850939.0239172     
   3959985642.9329653     
   3829929791.8701005     
   3709083615.0889411     
   3597216985.2909884     
   2814339443.0124288     
   2754665765.2991853     
   2698101744.1347041     
   2644732157.5630240     
   2594641966.4311104     
   2948106836.1656737     
   2869956497.2724342     
   2795090040.5777836     
   2723832019.0260606     
   2656530241.6492329     
   3122110006.5101056     
   3023880006.2995291     
   2929284791.8789349     
   2838739382.8162537     
   2752722516.7906494     
   3338084814.2548509     
   3217979488.3695531     
   3101966625.1411448     
   2990422048.5961227     
   2883832013.8688025     
   3597216985.2909884     
   3453110542.5092492     
   3313615852.7244921     
   3178964973.6246128     
   3049544731.0163636     
   2594641966.4311104     
   2533840104.7963133     
   2480540116.2078285     
   2435561144.4177613     
   2399759095.2130342     
   2656530241.6492329     
   2572613950.9408402     
   2494784053.6196465     
   2423808887.9358239     
   2360544576.1848626     
   2752722516.7906494     
   2647882898.8495407     
   2547668848.5082917     
   2452697604.7900572     
   2363698154.8328481     
   2883832013.8688025     
   2760741016.1689243     
   2640965335.1085296     
   2524913804.7823048     
   2413096548.7561474     
   3049544731.0163636     
   2911082972.0531116     
   2774928109.1783204     
   2641283041.8999691     
   2510419451.1870174     
   2399759095.2130342     
   2339277709.5272226     
   2283982106.6129622     
   2234084862.9658680     
   2189796523.3297672     
   2360544576.1848626     
   2280740187.2043405     
   2206747360.4767270     
   2139042341.6384580     
   2078129640.2408240     
   2363698154.8328481     
   2263568290.1931262     
   2169369235.7491317     
   2081767162.8540635     
   2001523636.6913772     
   2413096548.7561474     
   2292215647.4336448     
   2176912607.6448126     
   2067901806.5900970     
   1966076065.0658441     
   2510419451.1870174     
   2368825633.2032304     
   2232138824.5449014     
   2100948686.4642591     
   1976086404.7120783     
   2189796523.3297672     
   2138179267.2201216     
   2100995819.7643907     
   2078975532.9351504     
   2072747328.9364927     
   2078129640.2408240     
   2005882425.9917269     
   1945644997.3293977     
   1898456939.1082077     
   1865298204.5133018     
   2001523636.6913772     
   1907294953.9815965     
   1821629862.6707592     
   1745697747.3680205     
   1680751274.9085960     
   1966076065.0658441     
   1851461595.3767323     
   1741126853.1421225     
   1635980359.0726635     
   1537136521.6496623     
   1976086404.7120783     
   1846178608.5587885     
   1716318531.1113427     
   1586860006.1631727     
   1458319365.6021519     
   2072747328.9364927     
   2069504133.3437285     
   2085365363.4395578     
   2122944520.7737980     
   2186066894.5193310     
   1865298204.5133018     
   1855031135.3165751     
   1867661692.8366666     
   1905379433.2240210     
   1971216039.4630556     
   1680751274.9085960     
   1652426081.8245676     
   1651792168.3758421     
   1681203279.0959332     
   1743260997.5838726     
   1537136521.6496623     
   1476319398.5052347     
   1448188385.1323061     
   1456709163.8811667     
   1505172254.5696740     
   1458319365.6021519     
   1349200721.2259340     
   1275044396.9985814     
   1243999756.4746253     
   1263126773.1195779     
   2186066894.5193310     
   2156692564.2560530     
   2146843997.0723464     
   2167042202.9704752     
   2228361830.4646325     
   1971216039.4630556     
   1969289945.8801591     
   2003862620.6932535     
   2093612338.7786109     
   2257210748.9525337     
   1743260997.5838726     
   1787974970.3467040     
   1884812760.8310206     
   2060694632.8678081     
   2340868037.3853416     
   1505172254.5696740     
   1613465061.7959731     
   1788953757.1270564     
   2066407103.2316663     
   2476052029.7448821     
   1263126773.1195779     
   1446805165.9588788     
   1715720562.8873606     
   2110480908.4372995     
   2663546562.1857491     
   4458960683.2846565     
   4314283080.6936483     
   4216234888.4596281     
   4148296262.0951638     
   4099850939.0239172     
   4896369371.1282549     
   4749211010.1083994     
   4615434939.7214355     
   4489253526.7546196     
   4367131440.9584160     
   5302906238.7436247     
   5139310752.0060949     
   4975525731.3450670     
   4810858473.6098089     
   4645008727.0443468     
   5656315826.7489309     
   5467585286.4708357     
   5281975128.5910044     
   5099200308.1258602     
   4919000908.6771736     
   5967824919.8553619     
   5739751155.0676231     
   5535152083.9637852     
   5349914300.3156309     
   5180490372.4517918     
   4099850939.0239172     
   3959985642.9329653     
   3829929791.8701005     
   3709083615.0889411     
   3597216985.2909884     
   4367131440.9584160     
   4217261164.8853831     
   4071781916.3871398     
   3930561958.7103648     
   3793648478.0821419     
   4645008727.0443468     
   4486531910.5149174     
   4329738476.0130014     
   4174672679.1476793     
   4021433802.0346479     
   4919000908.6771736     
   4755407873.6067266     
   4593085660.4071217     
   4432013248.3551950     
   4272181045.5285802     
   5180490372.4517918     
   5016087044.0351963     
   4854599323.5040703     
   4695712499.7665129     
   4539151539.8760386     
   3597216985.2909884     
   3453110542.5092492     
   3313615852.7244921     
   3178964973.6246128     
   3049544731.0163636     
   3793648478.0821419     
   3636731565.1797304     
   3482593927.8762455     
   3331426106.7350054     
   3183552984.4213219     
   4021433802.0346479     
   3851692381.6601644     
   3683223670.6551108     
   3516157472.7414966     
   3350729026.5093846     
   4272181045.5285802     
   4090188835.2497339     
   3908284358.1369448     
   3726535401.4567709     
   3545085119.7103291     
   4539151539.8760386     
   4345866152.7873535     
   4151780451.2175727     
   3956910743.6306062     
   3761322860.7882738     
   3049544731.0163636     
   2911082972.0531116     
   2774928109.1783204     
   2641283041.8999691     
   2510419451.1870174     
   3183552984.4213219     
   3037089506.8999429     
   2892529761.3225460     
   2750038859.7258897     
   2609851462.9544983     
   3350729026.5093846     
   3195264142.4306779     
   3041271074.4499564     
   2888875630.9551272     
   2738273946.8540339     
   3545085119.7103291     
   3379464647.7065020     
   3214863135.0374942     
   3051367516.8748684     
   2889136095.5930114     
   3761322860.7882738     
   3584302796.2335477     
   3407834458.8006325     
   3231967266.8762822     
   3056823369.1179333     
   2510419451.1870174     
   2368825633.2032304     
   2232138824.5449014     
   2100948686.4642591     
   1976086404.7120783     
   2609851462.9544983     
   2457342091.1091313     
   2307352885.0034981     
   2160229096.8813787     
   2016468334.4444206     
   2738273946.8540339     
   2578052217.6855388     
   2418688535.6838350     
   2260316958.3458886     
   2103131973.0844033     
   2889136095.5930114     
   2724840910.6947427     
   2560489312.2097116     
   2396101479.5945339     
   2231706460.6957326     
   3056823369.1179333     
   2892156282.9477530     
   2727191697.0280185     
   2561937943.1181984     
   2396410456.9451294     
   1976086404.7120783     
   1846178608.5587885     
   1716318531.1113427     
   1586860006.1631727     
   1458319365.6021519     
   2016468334.4444206     
   1880030813.9354422     
   1743974047.2175546     
   1608435244.4114292     
   1473602271.8665934     
   2103131973.0844033     
   1962760268.0170057     
   1823438460.9332416     
   1685201637.7216125     
   1548116714.3060892     
   2231706460.6957326     
   2088227736.3707948     
   1946510870.0306680     
   1806552243.0673070     
   1668432106.5947146     
   2396410456.9451294     
   2248985068.2658572     
   2103858797.7470150     
   1961018918.9550827     
   1820634876.2745965     
   1458319365.6021519     
   1349200721.2259340     
   1275044396.9985814     
   1243999756.4746253     
   1263126773.1195779     
   1473602271.8665934     
   1329257638.4991329     
   1199341406.1613555     
   1088346647.2470901     
   1002191952.9550238     
   1548116714.3060892     
   1398154225.3984637     
   1244586866.0038743     
   1085147106.7712603     
   917806552.81338501     
   1668432106.5947146     
   1552977209.4107156     
   1428364312.1651402     
   1294963355.5482190     
   1158924093.4583621     
   1820634876.2745965     
   1780008079.8899288     
   1735834056.6615934     
   1696771352.5791314     
   1681362786.0722466     
   1263126773.1195779     
   1446805165.9588788     
   1715720562.8873606     
   2110480908.4372995     
   2663546562.1857491     
   1002191952.9550238     
   1164793266.1037335     
   1425438377.1214936     
   1808738091.7765577     
   2334800084.8922200     
   917806552.81338501     
   963155244.46933305     
   1144921851.8377054     
   1476475956.5108907     
   1957524137.2404315     
   1158924093.4583621     
   1008428569.0462091     
   985201715.10696280     
   1161504262.3730814     
   1544240902.1864438     
   1681362786.0722466     
   1383775824.9798636     
   1129483621.6672368     
   1010218425.4851726     
   1153262903.9060464     
 </DataArray>
 <DataArray  type="Float64" Name="strain" NumberOfComponents="3" format="ascii">
   9.9218910388636505E-002  -2.9028123553218266E-002  -9.7616746114015385E-004
   9.6161991936354885E-002  -2.8614322165223749E-002  -4.1219634829947616E-004
   9.3105073484073153E-002  -2.8017183381300215E-002   4.1482280683791117E-006
   9.0048155031791477E-002  -2.7236707201447913E-002   2.7286626796407809E-004
   8.6991236579509801E-002  -2.6272893625666871E-002   3.9395777138695465E-004
   9.3892118784354994E-002  -2.7687486563068853E-002   7.0413998605821648E-003
   9.0784183817312958E-002  -2.7054502447470929E-002   7.1538604277234241E-003
   8.7676248850271032E-002  -2.6332197335579427E-002   7.3119145018166742E-003
   8.4568313883229052E-002  -2.5520571227394449E-002   7.5155620828616931E-003
   8.1460378916187015E-002  -2.4619624122915740E-002   7.7648031708586474E-003
   8.7880877416550818E-002  -2.6346849572919218E-002   1.5325158109725345E-002
   8.4915145978172929E-002  -2.5494682729718110E-002   1.4892091731532081E-002
   8.1949414539795068E-002  -2.4647211289858528E-002   1.4697838903715177E-002
   7.8983683101417290E-002  -2.3804435253340875E-002   1.4742399626274730E-002
   7.6017951663039374E-002  -2.2966354620164942E-002   1.5025773899210448E-002
   8.1185186285224115E-002  -2.5006212582769749E-002   2.3875107286289582E-002
   7.8554878418934770E-002  -2.3934863011965193E-002   2.2802497563126418E-002
   7.5924570552645426E-002  -2.2962225244137796E-002   2.2161921433764289E-002
   7.3294262686356110E-002  -2.2088299279287300E-002   2.1953378898202813E-002
   7.0663954820066696E-002  -2.1313085117413866E-002   2.2176869956442136E-002
   7.3805045390374635E-002  -2.3665575592620225E-002   3.2691247390274347E-002
   7.1703381139598288E-002  -2.2375043294212527E-002   3.0885077922506388E-002
   6.9601716888821913E-002  -2.1277239198416939E-002   2.9704162091963554E-002
   6.7500052638045552E-002  -2.0372163305233722E-002   2.9148499898645860E-002
   6.5398388387269163E-002  -1.9659815614662735E-002   2.9218091342553321E-002
   8.6991236579509801E-002  -2.6272893625666871E-002   3.9395777138695465E-004
   8.4105126993191281E-002  -2.5246114443489953E-002   9.3698201333758391E-005
   8.1219017406872651E-002  -2.4276741444450911E-002   5.8501989926851294E-005
   7.8332907820554132E-002  -2.3364774628549079E-002   2.8836913716648316E-004
   7.5446798234235501E-002  -2.2510213995784567E-002   7.8329964305212663E-004
   8.1460378916187015E-002  -2.4619624122915740E-002   7.7648031708586474E-003
   7.8814310248910113E-002  -2.3690426884711457E-002   7.4828381153861367E-003
   7.6168241581633073E-002  -2.2794050375348596E-002   7.4158915393507940E-003
   7.3522172914356115E-002  -2.1930494594827418E-002   7.5639634427517172E-003
   7.0876104247079130E-002  -2.1099759543147800E-002   7.9270538255891698E-003
   7.6017951663039374E-002  -2.2966354620164942E-002   1.5025773899210448E-002
   7.3561879035594385E-002  -2.2134739325932601E-002   1.4786688812614524E-002
   7.1105806408149397E-002  -2.1311359306246391E-002   1.4712577326245535E-002
   6.8649733780704408E-002  -2.0496214561105869E-002   1.4803439440103830E-002
   6.6193661153259420E-002  -1.9689305090511311E-002   1.5059275154189478E-002
   7.0663954820066696E-002  -2.1313085117413866E-002   2.2176869956442136E-002
   6.8347833353244153E-002  -2.0579051767153925E-002   2.2005250293018211E-002
   6.6031711886421526E-002  -1.9828668237143909E-002   2.1948559350611879E-002
   6.3715590419598983E-002  -1.9061934527384264E-002   2.2006797129223536E-002
   6.1399468952776370E-002  -1.8278850637874683E-002   2.2179963628852439E-002
   6.5398388387269163E-002  -1.9659815614662735E-002   2.9218091342553321E-002
   6.3172173201859361E-002  -1.9023364208375193E-002   2.9138522556597657E-002
   6.0945958016449545E-002  -1.8345977168041719E-002   2.9123837612450021E-002
   5.8719742831039735E-002  -1.7627654493662676E-002   2.9174036510110288E-002
   5.6493527645629982E-002  -1.6868396185237777E-002   2.9289119249578444E-002
   7.5446798234235501E-002  -2.2510213995784567E-002   7.8329964305212663E-004
   7.2214894204098046E-002  -2.1664018837784349E-002   5.7179123450967761E-004
   6.8982990173960534E-002  -2.0777148446174065E-002   4.9417198863860312E-004
   6.5751086143823023E-002  -1.9849602820954937E-002   5.5044190543990235E-004
   6.2519182113685567E-002  -1.8881381962125965E-002   7.4060098491279813E-004
   7.0876104247079130E-002  -2.1099759543147800E-002   7.9270538255891698E-003
   6.7794149526622438E-002  -2.0273499851840293E-002   7.6521290782460283E-003
   6.4712194806165801E-002  -1.9423370152434893E-002   7.5432137875924288E-003
   6.1630240085709082E-002  -1.8549370444931712E-002   7.6003079536283574E-003
   5.8548285365252417E-002  -1.7651500729330416E-002   7.8234115763542444E-003
   6.6193661153259420E-002  -1.9689305090511311E-002   1.5059275154189478E-002
   6.3293776036501423E-002  -1.8882980865896459E-002   1.4704128842533637E-002
   6.0393890919743481E-002  -1.8069591858695500E-002   1.4547112281585423E-002
   5.7494005802985540E-002  -1.7249138068908265E-002   1.4588225471344862E-002
   5.4594120686227571E-002  -1.6421619496535034E-002   1.4827468411812289E-002
   6.1399468952776370E-002  -1.8278850637874683E-002   2.2179963628852439E-002
   5.8713773733734972E-002  -1.7492461879952681E-002   2.1727790527372587E-002
   5.6028078514693651E-002  -1.6715813564956161E-002   2.1505867470618431E-002
   5.3342383295652301E-002  -1.5948905692885262E-002   2.1514194458589708E-002
   5.0656688076610931E-002  -1.5191738263739790E-002   2.1752771491286634E-002
   5.6493527645629982E-002  -1.6868396185237777E-002   2.9289119249578444E-002
   5.4054142618323087E-002  -1.6101942894008625E-002   2.8723114132762961E-002
   5.1614757591016247E-002  -1.5362035271216906E-002   2.8419479354690969E-002
   4.9175372563709407E-002  -1.4648673316861920E-002   2.8378214915362271E-002
   4.6735987536402568E-002  -1.3961857030944380E-002   2.8599320814777396E-002
   6.2519182113685567E-002  -1.8881381962125965E-002   7.4060098491279813E-004
   5.9604937013454595E-002  -1.7920663772100998E-002   4.1444726900485840E-004
   5.6690691913223734E-002  -1.7015626153296520E-002   3.0551342977669371E-004
   5.3776446812992873E-002  -1.6166269105709057E-002   4.1379946722833183E-004
   5.0862201712761901E-002  -1.5372592629341097E-002   7.3930538136024460E-004
   5.8548285365252417E-002  -1.7651500729330416E-002   7.8234115763542444E-003
   5.5835897868126094E-002  -1.6758106251543281E-002   7.4543771288070881E-003
   5.3123510370999716E-002  -1.5897532257481334E-002   7.2718380107891778E-003
   5.0411122873873337E-002  -1.5069778747144678E-002   7.2757942223003469E-003
   4.7698735376746959E-002  -1.4274845720533280E-002   7.4662457633407620E-003
   5.4594120686227571E-002  -1.6421619496535034E-002   1.4827468411812289E-002
   5.2052866245055007E-002  -1.5595548730984454E-002   1.4438413320119498E-002
   4.9511611803882527E-002  -1.4779438361666383E-002   1.4205129010804826E-002
   4.6970357362710075E-002  -1.3973288388579527E-002   1.4127615483868962E-002
   4.4429102921537483E-002  -1.3177098811725130E-002   1.4205872739311287E-002
   5.0656688076610931E-002  -1.5191738263739790E-002   2.1752771491286634E-002
   4.8255842144241556E-002  -1.4432991210426072E-002   2.1366555842941233E-002
   4.5854996211872188E-002  -1.3661344465851426E-002   2.1105386429823837E-002
   4.3454150279502834E-002  -1.2876798030014984E-002   2.0969263251933837E-002
   4.1053304347133467E-002  -1.2079351902917146E-002   2.0958186309272056E-002
   4.6735987536402568E-002  -1.3961857030944380E-002   2.8599320814777396E-002
   4.4444825565685631E-002  -1.3270433689867855E-002   2.8238804697273134E-002
   4.2153663594968749E-002  -1.2543250570036316E-002   2.7972610267845893E-002
   3.9862501624251812E-002  -1.1780307671450125E-002   2.7800737526495631E-002
   3.7571339653534874E-002  -1.0981604994109051E-002   2.7723186473222805E-002
   5.0862201712761901E-002  -1.5372592629341097E-002   7.3930538136024460E-004
   4.8115761513825794E-002  -1.4585851405461203E-002   5.0814746457272797E-004
   4.5369321314889688E-002  -1.3757300115337101E-002   3.1144374198033287E-004
   4.2622881115953609E-002  -1.2886938758970082E-002   1.4919421358333684E-004
   3.9876440917017475E-002  -1.1974767336359493E-002   2.1398879380685187E-005
   4.7698735376746959E-002  -1.4274845720533280E-002   7.4662457633407620E-003
   4.5000798294530686E-002  -1.3485214857751671E-002   7.1749837610389777E-003
   4.2302861212314330E-002  -1.2673367838903771E-002   6.9462737979813505E-003
   3.9604924130097960E-002  -1.1839304663989983E-002   6.7801158741685741E-003
   3.6906987047881590E-002  -1.0983025333009655E-002   6.6765099896002322E-003
   4.4429102921537483E-002  -1.3177098811725130E-002   1.4205872739311287E-002
   4.1807766801090634E-002  -1.2384578310042305E-002   1.3834912741316902E-002
   3.9186430680643772E-002  -1.1589435562470413E-002   1.3554602627617290E-002
   3.6565094560196944E-002  -1.0791670569010321E-002   1.3364942398211774E-002
   3.3943758439750032E-002  -9.9912833296608161E-003   1.3265932053100671E-002
   4.1053304347133467E-002  -1.2079351902917146E-002   2.0958186309272056E-002
   3.8536667033505799E-002  -1.1283941762333077E-002   2.0487934405408192E-002
   3.6020029719878180E-002  -1.0505503286037290E-002   2.0136430230888347E-002
   3.3503392406250575E-002  -9.7440364740302189E-003   1.9903673785712794E-002
   3.0986755092622956E-002  -8.9995413263119217E-003   1.9789665069881252E-002
   3.7571339653534874E-002  -1.0981604994109051E-002   2.7723186473222805E-002
   3.5187498991776256E-002  -1.0183305214623961E-002   2.7134048753312101E-002
   3.2803658330017527E-002  -9.4215710096039462E-003   2.6691756607795047E-002
   3.0419817668258881E-002  -8.6964023790504497E-003   2.6396310036671866E-002
   2.8035977006500123E-002  -8.0077993229626943E-003   2.6247709039942335E-002
   3.9876440917017475E-002  -1.1974767336359493E-002   2.1398879380685187E-005
   3.7456125386596151E-002  -1.1126301206831002E-002  -2.8539968370311364E-004
   3.5035809856174827E-002  -1.0447055729711940E-002  -4.9335070701239658E-004
   3.2615494325753502E-002  -9.9370309050003935E-003  -6.0245419054655303E-004
   3.0195178795332178E-002  -9.5962267326978878E-003  -6.1271013430563848E-004
   3.6906987047881590E-002  -1.0983025333009655E-002   6.6765099896002322E-003
   3.4565569214886183E-002  -1.0171017020171202E-002   6.2159974227934400E-003
   3.2224151381890748E-002  -9.4697668996795992E-003   5.8144327110627447E-003
   2.9882733548895327E-002  -8.8792749715364272E-003   5.4718158544089790E-003
   2.7541315715899906E-002  -8.3995412357402710E-003   5.1881468528323094E-003
   3.3943758439750032E-002  -9.9912833296608161E-003   1.3265932053100671E-002
   3.1641338619482207E-002  -9.2157328335111810E-003   1.2710167942631467E-002
   2.9338918799214408E-002  -8.4924780696479796E-003   1.2173452002540192E-002
   2.7036498978946583E-002  -7.8215190380724747E-003   1.1655784232827787E-002
   2.4734079158678729E-002  -7.2028557387834313E-003   1.1157164633493255E-002
   3.0986755092622956E-002  -8.9995413263119217E-003   1.9789665069881252E-002
   2.8683433600384403E-002  -8.2604486468508265E-003   1.9197111875810066E-002
   2.6380112108145816E-002  -7.5151892396164433E-003   1.8583707167419472E-002
   2.4076790615907197E-002  -6.7637631046082933E-003   1.7949450944708560E-002
   2.1773469123668669E-002  -6.0061702418264251E-003   1.7294343207678295E-002
   2.8035977006500123E-002  -8.0077993229626943E-003   2.6247709039942335E-002
   2.5691854157592509E-002  -7.3051644601910271E-003   2.5676829222330722E-002
   2.3347731308684921E-002  -6.5379004095845461E-003   2.5045198205700669E-002
   2.1003608459777293E-002  -5.7060071711442992E-003   2.4352815990052235E-002
   1.8659485610869719E-002  -4.8094847448695299E-003   2.3599682575385805E-002
   3.0195178795332178E-002  -9.5962267326978878E-003  -6.1271013430563848E-004
   2.9592317167803417E-002  -9.1347764411973120E-003  -3.5915632562266708E-004
   2.8989455540274656E-002  -8.2628132588919434E-003  -1.7918306378594817E-003
   2.8386593912745867E-002  -6.9803371857822677E-003  -4.9107330710146391E-003
   2.7783732285217133E-002  -5.2873482218682710E-003  -9.7158636250895825E-003
   2.7541315715899906E-002  -8.3995412357402710E-003   5.1881468528323094E-003
   2.5522744140237974E-002  -7.8691381427931084E-003   5.8701502552402918E-003
   2.3504172564576098E-002  -7.1266381431938641E-003   5.4069618823010535E-003
   2.1485600988914277E-002  -6.1720412369424965E-003   3.7985817340140393E-003
   1.9467029413252401E-002  -5.0053474240399076E-003   1.0450098103811367E-003
   2.4734079158678729E-002  -7.2028557387834313E-003   1.1157164633493255E-002
   2.1840833980455721E-002  -6.6034998443890158E-003   1.2069201645473815E-002
   1.8947588802232726E-002  -5.9904630274953685E-003   1.2377083227678914E-002
   1.6054343624009725E-002  -5.3637452881029543E-003   1.2080809380108914E-002
   1.3161098445786695E-002  -4.7233466262115442E-003   1.1180380102764009E-002
   2.1773469123668669E-002  -6.0061702418264251E-003   1.7294343207678295E-002
   1.8546586688456559E-002  -5.3378615459849788E-003   1.8237997845077888E-002
   1.5319704253244342E-002  -4.8542879117970811E-003   1.9118533398274885E-002
   1.2092821818032144E-002  -4.5554493392630756E-003   1.9935949867268498E-002
   8.8659393828200150E-003  -4.4413458283831808E-003   2.0690247252058730E-002
   1.8659485610869719E-002  -4.8094847448695299E-003   2.3599682575385805E-002
   1.5640002264240394E-002  -4.0722232475809972E-003   2.4376538854052665E-002
   1.2620518917611095E-002  -3.7181127960987381E-003   2.5631312394088446E-002
   9.6010355709817696E-003  -3.7471533904242377E-003   2.7364003195492759E-002
   6.5815522243524716E-003  -4.1593450305549284E-003   2.9574611258266326E-002
   2.7783732285217133E-002  -5.2873482218682710E-003  -9.7158636250895825E-003
   2.3355514289763124E-002  -4.2036011552173402E-003  -4.1902203223866952E-003
   1.8927296294309059E-002  -4.7488507738958630E-003   2.6027211357121383E-003
   1.4499078298855106E-002  -6.9230970779061429E-003   1.0662960749205141E-002
   1.0070860303400986E-002  -1.0726340067247264E-002   1.9990498518093425E-002
   1.9467029413252401E-002  -5.0053474240399076E-003   1.0450098103811367E-003
   1.6233112200597255E-002  -4.6892793285542300E-003   6.7372551315780793E-003
   1.2999194987942109E-002  -6.2865595745543734E-003   1.3550803862978356E-002
   9.7652777752870734E-003  -9.7971881620415313E-003   2.1485656004580800E-002
   6.5313605626320381E-003  -1.5221165091014566E-002   3.0541811556386467E-002
   1.3161098445786695E-002  -4.7233466262115442E-003   1.1180380102764009E-002
   1.0975487270737966E-002  -5.1749575018916749E-003   1.6754875786299972E-002
   8.7898760956892780E-003  -7.8242683752133835E-003   2.3304680134846489E-002
   6.6042649206405069E-003  -1.2671279246176489E-002   3.0829793148402312E-002
   4.4186537455918606E-003  -1.9715990114781867E-002   3.9330214826969412E-002
   8.8659393828200150E-003  -4.4413458283831808E-003   2.0690247252058730E-002
   7.5826395001852773E-003  -5.6606356752288423E-003   2.5862641641778483E-002
   6.2993396175504285E-003  -9.3619771758719217E-003   3.1864349951315304E-002
   5.0160397349156491E-003  -1.5545370330311885E-002   3.8695372180669936E-002
   3.7327398522808558E-003  -2.4210815138549613E-002   4.6355708329842760E-002
   6.5815522243524716E-003  -4.1593450305549284E-003   2.9574611258266326E-002
   6.0545688889389604E-003  -6.1463138485661206E-003   3.4060552698013113E-002
   5.5275855535254770E-003  -1.0899685976530099E-002   3.9229813312385120E-002
   5.0006022181120491E-003  -1.8419461414447245E-002   4.5082393101381929E-002
   4.4736188826984824E-003  -2.8705640162316914E-002   5.1618292065005011E-002
   7.3805045390374635E-002  -2.3665575592620225E-002   3.2691247390274347E-002
   7.1703381139598288E-002  -2.2375043294212527E-002   3.0885077922506388E-002
   6.9601716888821913E-002  -2.1277239198416939E-002   2.9704162091963554E-002
   6.7500052638045552E-002  -2.0372163305233722E-002   2.9148499898645860E-002
   6.5398388387269163E-002  -1.9659815614662735E-002   2.9218091342553321E-002
   6.6512308893124095E-002  -2.1139284851761142E-002   3.6698265961205345E-002
   6.4914634278815136E-002  -2.0244049317639817E-002   3.5491963007348332E-002
   6.3316959664506206E-002  -1.9432341669008688E-002   3.4668385689201303E-002
   6.1719285050197262E-002  -1.8704161905867680E-002   3.4227534006763830E-002
   6.0121610435888290E-002  -1.8059510028217041E-002   3.4169407960036258E-002
   6.0078830954593529E-002  -1.8612994110902031E-002   4.0255387609288359E-002
   5.8742617975236666E-002  -1.8113055341067164E-002   3.9758151486464874E-002
   5.7406404995879741E-002  -1.7587444139600443E-002   3.9401112997835504E-002
   5.6070192016522830E-002  -1.7036160506501807E-002   3.9184272143400700E-002
   5.4733979037165960E-002  -1.6459204441771319E-002   3.9107628923159971E-002
   5.4504611574783091E-002  -1.6086703370042907E-002   4.3362612334524278E-002
   5.3187332228862752E-002  -1.5982061364494496E-002   4.3683643359855792E-002
   5.1870052882942476E-002  -1.5742546610192223E-002   4.3902344017866579E-002
   5.0552773537022200E-002  -1.5368159107135876E-002   4.4018714308556084E-002
   4.9235494191101924E-002  -1.4858898855325556E-002   4.4032754231924501E-002
   4.9789650753692682E-002  -1.3560412629183838E-002   4.6019940136912463E-002
   4.8248777039693630E-002  -1.3851067387921884E-002   4.7268438627521669E-002
   4.6707903325694522E-002  -1.3897649080783891E-002   4.8172078749294078E-002
   4.5167029611695442E-002  -1.3700157707769819E-002   4.8730860502230272E-002
   4.3626155897696334E-002  -1.3258593268879848E-002   4.8944783886329668E-002
   6.5398388387269163E-002  -1.9659815614662735E-002   2.9218091342553321E-002
   6.3172173201859361E-002  -1.9023364208375193E-002   2.9138522556597657E-002
   6.0945958016449545E-002  -1.8345977168041719E-002   2.9123837612450021E-002
   5.8719742831039735E-002  -1.7627654493662676E-002   2.9174036510110288E-002
   5.6493527645629982E-002  -1.6868396185237777E-002   2.9289119249578444E-002
   6.0121610435888290E-002  -1.8059510028217041E-002   3.4169407960036258E-002
   5.7989168928118340E-002  -1.7443847997285183E-002   3.4041117475619914E-002
   5.5856727420348362E-002  -1.6802637774300910E-002   3.4035490504675206E-002
   5.3724285912578426E-002  -1.6135879359264124E-002   3.4152527047202064E-002
   5.1591844404808435E-002  -1.5443572752174894E-002   3.4392227103200890E-002
   5.4733979037165960E-002  -1.6459204441771319E-002   3.9107628923159971E-002
   5.2753090878699491E-002  -1.5864331786195313E-002   3.8915229298289555E-002
   5.0772202720233015E-002  -1.5259298380559984E-002   3.8903272858554723E-002
   4.8791314561766531E-002  -1.4644104224865737E-002   3.9071759603955147E-002
   4.6810426403300076E-002  -1.4018749319111928E-002   3.9420689534490821E-002
   4.9235494191101924E-002  -1.4858898855325556E-002   4.4032754231924501E-002
   4.7463939053602661E-002  -1.4284815575105289E-002   4.3760858024607024E-002
   4.5692383916103391E-002  -1.3715958986819144E-002   4.3727184674088523E-002
   4.3920828778604107E-002  -1.3152329090467086E-002   4.3931734180369157E-002
   4.2149273641104851E-002  -1.2593925886049059E-002   4.4374506543448912E-002
   4.3626155897696334E-002  -1.3258593268879848E-002   4.8944783886329668E-002
   4.2121713452827947E-002  -1.2705299364015432E-002   4.8578003654571766E-002
   4.0617271007959560E-002  -1.2172619593078235E-002   4.8507225951276545E-002
   3.9112828563091173E-002  -1.1660553956068711E-002   4.8732450776444239E-002
   3.7608386118222786E-002  -1.1169102452986024E-002   4.9253678130074474E-002
   5.6493527645629982E-002  -1.6868396185237777E-002   2.9289119249578444E-002
   5.4054142618323087E-002  -1.6101942894008625E-002   2.8723114132762961E-002
   5.1614757591016247E-002  -1.5362035271216906E-002   2.8419479354690969E-002
   4.9175372563709407E-002  -1.4648673316861920E-002   2.8378214915362271E-002
   4.6735987536402568E-002  -1.3961857030944380E-002   2.8599320814777396E-002
   5.1591844404808435E-002  -1.5443572752174894E-002   3.4392227103200890E-002
   4.9395006789579171E-002  -1.4744720606280154E-002   3.3907162907593325E-002
   4.7198169174349922E-002  -1.4058325574826863E-002   3.3644823197397589E-002
   4.5001331559120693E-002  -1.3384387657815154E-002   3.3605207972613446E-002
   4.2804493943891408E-002  -1.2722906855244687E-002   3.3788317233241216E-002
   4.6810426403300076E-002  -1.4018749319111928E-002   3.9420689534490821E-002
   4.4816490346816687E-002  -1.3387498318551599E-002   3.9030654814086949E-002
   4.2822554290333242E-002  -1.2754615878437001E-002   3.8823698725763148E-002
   4.0828618233849853E-002  -1.2120101998768170E-002   3.8799821269519273E-002
   3.8834682177366409E-002  -1.1483956679545188E-002   3.8959022445355360E-002
   4.2149273641104851E-002  -1.2593925886049059E-002   4.4374506543448912E-002
   4.0318593290035558E-002  -1.2030276030822976E-002   4.4093589852244194E-002
   3.8487912938966272E-002  -1.1450906182047103E-002   4.3956105939787909E-002
   3.6657232587896958E-002  -1.0855816339721184E-002   4.3962054806079995E-002
   3.4826552236827693E-002  -1.0245006503845702E-002   4.4111436451120298E-002
   3.7608386118222786E-002  -1.1169102452986024E-002   4.9253678130074474E-002
   3.5901315619235818E-002  -1.0673053743094574E-002   4.9095968022065006E-002
   3.4194245120248906E-002  -1.0147196485657151E-002   4.9042044839472054E-002
   3.2487174621261966E-002  -9.5915306806744066E-003   4.9091908582295479E-002
   3.0780104122275026E-002  -9.0060563281460504E-003   4.9245559250535476E-002
   4.6735987536402568E-002  -1.3961857030944380E-002   2.8599320814777396E-002
   4.4444825565685631E-002  -1.3270433689867855E-002   2.8238804697273134E-002
   4.2153663594968749E-002  -1.2543250570036316E-002   2.7972610267845893E-002
   3.9862501624251812E-002  -1.1780307671450125E-002   2.7800737526495631E-002
   3.7571339653534874E-002  -1.0981604994109051E-002   2.7723186473222805E-002
   4.2804493943891408E-002  -1.2722906855244687E-002   3.3788317233241216E-002
   4.0624124860853678E-002  -1.2055057690081361E-002   3.3436430950516349E-002
   3.8443755777815974E-002  -1.1362014685290023E-002   3.3211808755072819E-002
   3.6263386694778271E-002  -1.0643777840871074E-002   3.3114450646910779E-002
   3.4083017611740485E-002  -9.9003471568241963E-003   3.3144356626029825E-002
   3.8834682177366409E-002  -1.1483956679545188E-002   3.8959022445355360E-002
   3.6798048381212090E-002  -1.0839681690294672E-002   3.8605200058283107E-002
   3.4761414585057770E-002  -1.0180778800543501E-002   3.8411584157696320E-002
   3.2724780788903424E-002  -9.5072480102916333E-003   3.8378174743594992E-002
   3.0688146992749119E-002  -8.8190893195392861E-003   3.8504971815979339E-002
   3.4826552236827693E-002  -1.0245006503845702E-002   4.4111436451120298E-002
   3.2966596126760880E-002  -9.6243056905081364E-003   4.3745112020573199E-002
   3.1106640016694068E-002  -8.9995429157970104E-003   4.3571936475716076E-002
   2.9246683906627303E-002  -8.3707181797124421E-003   4.3591909816548417E-002
   2.7386727796560498E-002  -7.7378314822542926E-003   4.3805032043070541E-002
   3.0780104122275026E-002  -9.0060563281460504E-003   4.9245559250535476E-002
   2.9129768097499981E-002  -8.4089296907214894E-003   4.8856166837386916E-002
   2.7479432072724949E-002  -7.8183070310506170E-003   4.8692865709132255E-002
   2.5829096047949925E-002  -7.2341883491330687E-003   4.8755655865771005E-002
   2.4178760023174900E-002  -6.6565736449695212E-003   4.9044537307303959E-002
   3.7571339653534874E-002  -1.0981604994109051E-002   2.7723186473222805E-002
   3.5187498991776256E-002  -1.0183305214623961E-002   2.7134048753312101E-002
   3.2803658330017527E-002  -9.4215710096039462E-003   2.6691756607795047E-002
   3.0419817668258881E-002  -8.6964023790504497E-003   2.6396310036671866E-002
   2.8035977006500123E-002  -8.0077993229626943E-003   2.6247709039942335E-002
   3.4083017611740485E-002  -9.9003471568241963E-003   3.3144356626029825E-002
   3.1845864320930867E-002  -9.1560710182049254E-003   3.2618477873002982E-002
   2.9608711030121221E-002  -8.4352978100682430E-003   3.2239128287479935E-002
   2.7371557739311533E-002  -7.7380275324147318E-003   3.2006307869461820E-002
   2.5134404448501901E-002  -7.0642601852433096E-003   3.1920016618947333E-002
   3.0688146992749119E-002  -8.8190893195392861E-003   3.8504971815979339E-002
   2.8597364665998895E-002  -8.1288368217863893E-003   3.8055414673819205E-002
   2.6506582339248783E-002  -7.4490246105327618E-003   3.7752070292274037E-002
   2.4415800012498608E-002  -6.7796526857786810E-003   3.7594938671343531E-002
   2.2325017685748447E-002  -6.1207210475240914E-003   3.7584019811027602E-002
   2.7386727796560498E-002  -7.7378314822542926E-003   4.3805032043070541E-002
   2.5442000026980275E-002  -7.1016026253674924E-003   4.3444859155760823E-002
   2.3497272257400136E-002  -6.4627514109972806E-003   4.3230582622176314E-002
   2.1552544487819920E-002  -5.8212778391426856E-003   4.3162202442316971E-002
   1.9607816718239784E-002  -5.1771819098048455E-003   4.3239718616182969E-002
   2.4178760023174900E-002  -6.6565736449695212E-003   4.9044537307303959E-002
   2.2379770403875121E-002  -6.0743684289490396E-003   4.8786811318827894E-002
   2.0580780784575384E-002  -5.4764782114616606E-003   4.8674665277187334E-002
   1.8781791165275626E-002  -4.8629029925069886E-003   4.8708099182382558E-002
   1.6982801545975867E-002  -4.2336427720854886E-003   4.8887113034413399E-002
   2.8035977006500123E-002  -8.0077993229626943E-003   2.6247709039942335E-002
   2.5691854157592509E-002  -7.3051644601910271E-003   2.5676829222330722E-002
   2.3347731308684921E-002  -6.5379004095845461E-003   2.5045198205700669E-002
   2.1003608459777293E-002  -5.7060071711442992E-003   2.4352815990052235E-002
   1.8659485610869719E-002  -4.8094847448695299E-003   2.3599682575385805E-002
   2.5134404448501901E-002  -7.0642601852433096E-003   3.1920016618947333E-002
   2.2770912317449460E-002  -6.3936619937288164E-003   3.1523601416955982E-002
   2.0407420186397102E-002  -5.7058991830434280E-003   3.1149198849693471E-002
   1.8043928055344632E-002  -5.0009717531884490E-003   3.0796808917159302E-002
   1.5680435924292302E-002  -4.2788797041628523E-003   3.0466431619353418E-002
   2.2325017685748447E-002  -6.1207210475240914E-003   3.7584019811027602E-002
   2.0024920106298028E-002  -5.4821595272662171E-003   3.7314604655992623E-002
   1.7724822526847574E-002  -4.8738979565022128E-003   3.7149965969432833E-002
   1.5424724947397151E-002  -4.2959363352322692E-003   3.7090103751348684E-002
   1.3124627367946701E-002  -3.7482746634563413E-003   3.7135018001739684E-002
   1.9607816718239784E-002  -5.1771819098048455E-003   4.3239718616182969E-002
   1.7453877524138097E-002  -4.5706570608040342E-003   4.3049838939440116E-002
   1.5299938330036499E-002  -4.0418967299609351E-003   4.3047499564919281E-002
   1.3145999135934800E-002  -3.5909009172763653E-003   4.3232700492620769E-002
   1.0992059941833159E-002  -3.2176696227496915E-003   4.3605441722544228E-002
   1.6982801545975867E-002  -4.2336427720854886E-003   4.8887113034413399E-002
   1.5057784570969762E-002  -3.6591545943414627E-003   4.8729304267298379E-002
   1.3132767595963685E-002  -3.2098955034199073E-003   4.8841799636152483E-002
   1.1207750620957538E-002  -2.8858654993204683E-003   4.9224599140975406E-002
   9.2827336459515020E-003  -2.6870645820431527E-003   4.9877702781767508E-002
   1.8659485610869719E-002  -4.8094847448695299E-003   2.3599682575385805E-002
   1.5640002264240394E-002  -4.0722232475809972E-003   2.4376538854052665E-002
   1.2620518917611095E-002  -3.7181127960987381E-003   2.5631312394088446E-002
   9.6010355709817696E-003  -3.7471533904242377E-003   2.7364003195492759E-002
   6.5815522243524716E-003  -4.1593450305549284E-003   2.9574611258266326E-002
   1.5680435924292302E-002  -4.2788797041628523E-003   3.0466431619353418E-002
   1.3119359816579329E-002  -3.7670824297937333E-003   3.1236566398654908E-002
   1.0558283708866328E-002  -3.6930393239067438E-003   3.2445598394420599E-002
   7.9972076011534110E-003  -4.0567503865027166E-003   3.4093527606650201E-002
   5.4361314934403548E-003  -4.8582156175811519E-003   3.6180354035343587E-002
   1.3124627367946701E-002  -3.7482746634563413E-003   3.7135018001739684E-002
   1.0982938454245153E-002  -3.4619416120065527E-003   3.7843828159000281E-002
   8.8412495405435845E-003  -3.6679658517148883E-003   3.8952515487819778E-002
   6.6995606268420091E-003  -4.3663473825817575E-003   4.0461079988198367E-002
   4.5578717131404684E-003  -5.5570862046068759E-003   4.2369521660135551E-002
   1.0992059941833159E-002  -3.2176696227496915E-003   4.3605441722544228E-002
   9.2307381772380077E-003  -3.1568007942193860E-003   4.4198324135088202E-002
   7.4694164126428049E-003  -3.6428923795227969E-003   4.5152063674286098E-002
   5.7080946480476246E-003  -4.6759443786606285E-003   4.6466660340137592E-002
   3.9467728834524478E-003  -6.2559567916326275E-003   4.8142114132643112E-002
   9.2827336459515020E-003  -2.6870645820431527E-003   4.9877702781767508E-002
   7.8627589855577162E-003  -2.8516599764320527E-003   5.0300054326918753E-002
   6.4427843251640138E-003  -3.6178189073310107E-003   5.1044242953818708E-002
   5.0228096647702974E-003  -4.9855413747394925E-003   5.2110268662467846E-002
   3.6028350043765811E-003  -6.9548273786587123E-003   5.3498131452865638E-002
   6.5815522243524716E-003  -4.1593450305549284E-003   2.9574611258266326E-002
   6.0545688889389604E-003  -6.1463138485661206E-003   3.4060552698013113E-002
   5.5275855535254770E-003  -1.0899685976530099E-002   3.9229813312385120E-002
   5.0006022181120491E-003  -1.8419461414447245E-002   4.5082393101381929E-002
   4.4736188826984824E-003  -2.8705640162316914E-002   5.1618292065005011E-002
   5.4361314934403548E-003  -4.8582156175811519E-003   3.6180354035343587E-002
   5.4891496980817023E-003  -6.9957839855812054E-003   3.8329711083475160E-002
   5.5421679027229387E-003  -1.1367804458942810E-002   4.0955752037091286E-002
   5.5951861073641612E-003  -1.7974277037665382E-002   4.4058476896191329E-002
   5.6482043120055225E-003  -2.6815201721749116E-002   4.7637885660776869E-002
   4.5578717131404684E-003  -5.5570862046068759E-003   4.2369521660135551E-002
   4.9842561886957321E-003  -7.8452541225962347E-003   4.2714245521243505E-002
   5.4106406642511137E-003  -1.1835922941354979E-002   4.3329018018695473E-002
   5.8370251398064676E-003  -1.7529092660883521E-002   4.4213839152490893E-002
   6.2634096153618146E-003  -2.4924763281181539E-002   4.5368708922630119E-002
   3.9467728834524478E-003  -6.2559567916326275E-003   4.8142114132643112E-002
   4.5398883607812683E-003  -8.6947242596109586E-003   4.7214156011318939E-002
   5.1330038381100646E-003  -1.2304041423767419E-002   4.6349611257198151E-002
   5.7261193154388851E-003  -1.7083908284101550E-002   4.5548479870280108E-002
   6.3192347927677334E-003  -2.3034324840613740E-002   4.4810761850565817E-002
   3.6028350043765811E-003  -6.9548273786587123E-003   5.3498131452865638E-002
   4.1560462143381827E-003  -9.5441943966260157E-003   5.1829442553701144E-002
   4.7092574242997842E-003  -1.2772159906179997E-002   5.0017531752598987E-002
   5.2624686342614552E-003  -1.6638723907319831E-002   4.8062399049559529E-002
   5.8156798442230428E-003  -2.1143886400046163E-002   4.5964044444582353E-002
   4.9789650753692682E-002  -1.3560412629183838E-002   4.6019940136912463E-002
   4.8248777039693630E-002  -1.3851067387921884E-002   4.7268438627521669E-002
   4.6707903325694522E-002  -1.3897649080783891E-002   4.8172078749294078E-002
   4.5167029611695442E-002  -1.3700157707769819E-002   4.8730860502230272E-002
   4.3626155897696334E-002  -1.3258593268879848E-002   4.8944783886329668E-002
   4.4608295690983568E-002  -1.3336542401175322E-002   5.3321318501470927E-002
   4.2937035563629017E-002  -1.2896683452916224E-002   5.3119255058599019E-002
   4.1265775436274507E-002  -1.2446871264541873E-002   5.3001277157852911E-002
   3.9594515308919991E-002  -1.1987105836052076E-002   5.2967384799232506E-002
   3.7923255181565474E-002  -1.1517387167446991E-002   5.3017577982737457E-002
   3.7634893586316803E-002  -1.3112672173166806E-002   6.1470270485906697E-002
   3.6262190956569025E-002  -1.1942299517910634E-002   5.9583525283793390E-002
   3.4889488326821247E-002  -1.0996093448299743E-002   5.8209809534767884E-002
   3.3516785697073434E-002  -1.0274053964334250E-002   5.7349123238830138E-002
   3.2144083067325649E-002  -9.7761810660140502E-003   5.7001466395980235E-002
   2.8869444439692478E-002  -1.2888801945158290E-002   7.0466796090219816E-002
   2.8224243218513557E-002  -1.0987915582905010E-002   6.6661249303104228E-002
   2.7579041997334654E-002  -9.5453156320577243E-003   6.3797675880038818E-002
   2.6933840776155744E-002  -8.5610020926163814E-003   6.1876075821023307E-002
   2.6288639554976796E-002  -8.0349749645811236E-003   6.0896449126057600E-002
   1.8311948251110516E-002  -1.2664931717149774E-002   8.0310895314410602E-002
   1.8823192349462670E-002  -1.0033531647899357E-002   7.4352427116532005E-002
   1.9334436447814768E-002  -8.0945378158155668E-003   6.9764876193665837E-002
   1.9845680546166887E-002  -6.8479502208986312E-003   6.6548242545811792E-002
   2.0356924644519006E-002  -6.2937688631482525E-003   6.4702526172969732E-002
   4.3626155897696334E-002  -1.3258593268879848E-002   4.8944783886329668E-002
   4.2121713452827947E-002  -1.2705299364015432E-002   4.8578003654571766E-002
   4.0617271007959560E-002  -1.2172619593078235E-002   4.8507225951276545E-002
   3.9112828563091173E-002  -1.1660553956068711E-002   4.8732450776444239E-002
   3.7608386118222786E-002  -1.1169102452986024E-002   4.9253678130074474E-002
   3.7923255181565474E-002  -1.1517387167446991E-002   5.3017577982737457E-002
   3.6703999646713642E-002  -1.1047499005546108E-002   5.2548596540699183E-002
   3.5484744111861796E-002  -1.0587225097168765E-002   5.2353986390230922E-002
   3.4265488577009971E-002  -1.0136565442315271E-002   5.2433747531333189E-002
   3.3046233042158105E-002  -9.6955200409853393E-003   5.2787879964005691E-002
   3.2144083067325649E-002  -9.7761810660140502E-003   5.7001466395980235E-002
   3.1188383205597983E-002  -9.3896986470765054E-003   5.6441283624064628E-002
   3.0232683343870373E-002  -9.0018306012591351E-003   5.6133840906827041E-002
   2.9276983482142763E-002  -8.6125769285618336E-003   5.6079138244267607E-002
   2.8321283620415125E-002  -8.2219376289846824E-003   5.6277175636386068E-002
   2.6288639554976796E-002  -8.0349749645811236E-003   6.0896449126057600E-002
   2.5574864129481061E-002  -7.7318982886070420E-003   6.0256064904668630E-002
   2.4861088703985307E-002  -7.4164361053495852E-003   5.9846789501065242E-002
   2.4147313278489568E-002  -7.0885884148083672E-003   5.9668622915247639E-002
   2.3433537852993815E-002  -6.7483552169839839E-003   5.9721565147215855E-002
   2.0356924644519006E-002  -6.2937688631482525E-003   6.4702526172969732E-002
   1.9863442418362798E-002  -6.0740979301375508E-003   6.3992940382510910E-002
   1.9369960192206589E-002  -5.8310416094399936E-003   6.3492832172945435E-002
   1.8876477966050388E-002  -5.5645999010550014E-003   6.3202201544273182E-002
   1.8382995739894159E-002  -5.2747728049832854E-003   6.3121048496494414E-002
   3.7608386118222786E-002  -1.1169102452986024E-002   4.9253678130074474E-002
   3.5901315619235818E-002  -1.0673053743094574E-002   4.9095968022065006E-002
   3.4194245120248906E-002  -1.0147196485657151E-002   4.9042044839472054E-002
   3.2487174621261966E-002  -9.5915306806744066E-003   4.9091908582295479E-002
   3.0780104122275026E-002  -9.0060563281460504E-003   4.9245559250535476E-002
   3.3046233042158105E-002  -9.6955200409853393E-003   5.2787879964005691E-002
   3.1470188427700926E-002  -9.2512353737161934E-003   5.2517563135904999E-002
   2.9894143813243755E-002  -8.7908579210452392E-003   5.2405511151447343E-002
   2.8318099198786566E-002  -8.3143876829719528E-003   5.2451724010632722E-002
   2.6742054584329378E-002  -7.8218246594965457E-003   5.2656201713461193E-002
   2.8321283620415125E-002  -8.2219376289846824E-003   5.6277175636386068E-002
   2.6930742808714228E-002  -7.8294170043382572E-003   5.5880536326050737E-002
   2.5540201997013366E-002  -7.4345193564331058E-003   5.5696639777585016E-002
   2.4149661185312459E-002  -7.0372446852694434E-003   5.5725485990988796E-002
   2.2759120373611601E-002  -6.6375929908471243E-003   5.5967074966262145E-002
   2.3433537852993815E-002  -6.7483552169839839E-003   5.9721565147215855E-002
   2.2282978762275720E-002  -6.4075986349601544E-003   5.9184887592502206E-002
   2.1132419671557684E-002  -6.0781807918209724E-003   5.8915430717884777E-002
   1.9981860580839620E-002  -5.7601016875669618E-003   5.8913194523363535E-002
   1.8831301490121549E-002  -5.4533613221977167E-003   5.9178179008938112E-002
   1.8382995739894159E-002  -5.2747728049832854E-003   6.3121048496494414E-002
   1.7526896288385468E-002  -4.9857802655819405E-003   6.2430616935259253E-002
   1.6670796836876764E-002  -4.7218422272089083E-003   6.2061883972346715E-002
   1.5814697385368059E-002  -4.4829586898644420E-003   6.2014849607756758E-002
   1.4958597933859341E-002  -4.2691296535483092E-003   6.2289513841489397E-002
   3.0780104122275026E-002  -9.0060563281460504E-003   4.9245559250535476E-002
   2.9129768097499981E-002  -8.4089296907214894E-003   4.8856166837386916E-002
   2.7479432072724949E-002  -7.8183070310506170E-003   4.8692865709132255E-002
   2.5829096047949925E-002  -7.2341883491330687E-003   4.8755655865771005E-002
   2.4178760023174900E-002  -6.6565736449695212E-003   4.9044537307303959E-002
   2.6742054584329378E-002  -7.8218246594965457E-003   5.2656201713461193E-002
   2.5312259721060687E-002  -7.3172386491242303E-003   5.2317099109472104E-002
   2.3882464857792052E-002  -6.8046994503595526E-003   5.2192987543601965E-002
   2.2452669994523396E-002  -6.2842070632031788E-003   5.2283867015850652E-002
   2.1022875131254698E-002  -5.7557614876546648E-003   5.2589737526218427E-002
   2.2759120373611601E-002  -6.6375929908471243E-003   5.5967074966262145E-002
   2.1538766425074331E-002  -6.2255476075266936E-003   5.5692719337578189E-002
   2.0318412476537071E-002  -5.7910918696686062E-003   5.5622254500238145E-002
   1.9098058527999812E-002  -5.3342257772730130E-003   5.5755680454242076E-002
   1.7877704579462549E-002  -4.8549493303398084E-003   5.6092997199589961E-002
   1.8831301490121549E-002  -5.4533613221977167E-003   5.9178179008938112E-002
   1.7809288209540773E-002  -5.1338565659290736E-003   5.8983027521704839E-002
   1.6787274928960004E-002  -4.7774842889777673E-003   5.8980666579040671E-002
   1.5765261648379214E-002  -4.3842444913429297E-003   5.9171096180945411E-002
   1.4743248367798464E-002  -3.9541371730250630E-003   5.9554316327419345E-002
   1.4958597933859341E-002  -4.2691296535483092E-003   6.2289513841489397E-002
   1.4123825074460111E-002  -4.0421655243319532E-003   6.2188023661852443E-002
   1.3289052215060854E-002  -3.7638767082867897E-003   6.2268223780009679E-002
   1.2454279355661610E-002  -3.4342632054127561E-003   6.2530114195960745E-002
   1.1619506496262366E-002  -3.0533250157100955E-003   6.2973694909705946E-002
   2.4178760023174900E-002  -6.6565736449695212E-003   4.9044537307303959E-002
   2.2379770403875121E-002  -6.0743684289490396E-003   4.8786811318827894E-002
   2.0580780784575384E-002  -5.4764782114616606E-003   4.8674665277187334E-002
   1.8781791165275626E-002  -4.8629029925069886E-003   4.8708099182382558E-002
   1.6982801545975867E-002  -4.2336427720854886E-003   4.8887113034413399E-002
   2.1022875131254698E-002  -5.7557614876546648E-003   5.2589737526218427E-002
   1.9387566864031799E-002  -5.2236665082541767E-003   5.2368342593500650E-002
   1.7752258596808887E-002  -4.6922259095423247E-003   5.2328730418101266E-002
   1.6116950329585995E-002  -4.1614396915186369E-003   5.2470901000019415E-002
   1.4481642062363076E-002  -3.6313078541829746E-003   5.2794854339255903E-002
   1.7877704579462549E-002  -4.8549493303398084E-003   5.6092997199589961E-002
   1.6442280474798864E-002  -4.3729645875595358E-003   5.5891593940475659E-002
   1.5006856370135126E-002  -3.9079736076231136E-003   5.5908176249161654E-002
   1.3571432265471426E-002  -3.4599763905299001E-003   5.6142744125648049E-002
   1.2136008160807704E-002  -3.0289729362804607E-003   5.6595297569934866E-002
   1.4743248367798464E-002  -3.9541371730250630E-003   5.9554316327419345E-002
   1.3543911236176277E-002  -3.5222626668651169E-003   5.9356565359752950E-002
   1.2344574104554099E-002  -3.1237213057037291E-003   5.9413002770369316E-002
   1.1145236972931934E-002  -2.7585130895411893E-003   5.9723628559268473E-002
   9.9458998413097660E-003  -2.4266380183779468E-003   6.0288442726450293E-002
   1.1619506496262366E-002  -3.0533250157100955E-003   6.2973694909705946E-002
   1.0692459148164080E-002  -2.6715607461700874E-003   6.2763256851332383E-002
   9.7654118000658069E-003  -2.3394690037845112E-003   6.2843209981723880E-002
   8.8383644519675272E-003  -2.0570497885527422E-003   6.3213554300880437E-002
   7.9113171038692476E-003  -1.8243031004753218E-003   6.3874289808802054E-002
   1.6982801545975867E-002  -4.2336427720854886E-003   4.8887113034413399E-002
   1.5057784570969762E-002  -3.6591545943414627E-003   4.8729304267298379E-002
   1.3132767595963685E-002  -3.2098955034199073E-003   4.8841799636152483E-002
   1.1207750620957538E-002  -2.8858654993204683E-003   4.9224599140975406E-002
   9.2827336459515020E-003  -2.6870645820431527E-003   4.9877702781767508E-002
   1.4481642062363076E-002  -3.6313078541829746E-003   5.2794854339255903E-002
   1.2821328024061801E-002  -3.1600536423531111E-003   5.2665804976362030E-002
   1.1161013985760512E-002  -2.8059003008461814E-003   5.2795857350908387E-002
   9.5006999474592166E-003  -2.5688478296613873E-003   5.3185011462895934E-002
   7.8403859091579486E-003  -2.4488962287997351E-003   5.3833267312323574E-002
   1.2136008160807704E-002  -3.0289729362804607E-003   5.6595297569934866E-002
   1.0729194660682936E-002  -2.6609526903641767E-003   5.6503135827761092E-002
   9.3223811605582241E-003  -2.4019050982716644E-003   5.6658873424499698E-002
   7.9155676604335083E-003  -2.2518301600024139E-003   5.7062510360150677E-002
   6.5087541603087440E-003  -2.2107278755565396E-003   5.7714046634714161E-002
   9.9458998413097660E-003  -2.4266380183779468E-003   6.0288442726450293E-002
   8.7813844808333312E-003  -2.1618517383757002E-003   6.0241296821496058E-002
   7.6168691203568721E-003  -1.9979098956975430E-003   6.0430847856925984E-002
   6.4523537598804451E-003  -1.9348124903432757E-003   6.0857095832739808E-002
   5.2878383994039782E-003  -1.9725595223130665E-003   6.1520040748938236E-002
   7.9113171038692476E-003  -1.8243031004753218E-003   6.3874289808802054E-002
   6.9778974845128156E-003  -1.6627507863867796E-003   6.3880287957566950E-002
   6.0444778651563974E-003  -1.5939146931233106E-003   6.4111780648187566E-002
   5.1110582457999792E-003  -1.6177948206842763E-003   6.4568767880664041E-002
   4.1776386264435472E-003  -1.7343911690699265E-003   6.5251249654996513E-002
   9.2827336459515020E-003  -2.6870645820431527E-003   4.9877702781767508E-002
   7.8627589855577162E-003  -2.8516599764320527E-003   5.0300054326918753E-002
   6.4427843251640138E-003  -3.6178189073310107E-003   5.1044242953818708E-002
   5.0228096647702974E-003  -4.9855413747394925E-003   5.2110268662467846E-002
   3.6028350043765811E-003  -6.9548273786587123E-003   5.3498131452865638E-002
   7.8403859091579486E-003  -2.4488962287997351E-003   5.3833267312323574E-002
   6.7172683938961919E-003  -2.6428683790208352E-003   5.3785199824626095E-002
   5.5941508786344352E-003  -3.3475871610839369E-003   5.4009009545443215E-002
   4.4710333633726854E-003  -4.5630525749899495E-003   5.4504696474775585E-002
   3.3479158481109217E-003  -6.2892646207379777E-003   5.5272260612622914E-002
   6.5087541603087440E-003  -2.2107278755565396E-003   5.7714046634714161E-002
   5.6325339169450150E-003  -2.4340767816096454E-003   5.7286377018835349E-002
   4.7563136735813139E-003  -3.0773554148375432E-003   5.7080624738237482E-002
   3.8800934302176092E-003  -4.1405637752397438E-003   5.7096789792920453E-002
   3.0038731868538837E-003  -5.6237018628170765E-003   5.7334872182884772E-002
   5.2878383994039782E-003  -1.9725595223130665E-003   6.1520040748938236E-002
   4.6085555547043175E-003  -2.2252851841983862E-003   6.0803585909546050E-002
   3.9292727100046568E-003  -2.8071236685908094E-003   6.0259088532200702E-002
   3.2499898653049831E-003  -3.7180749754898695E-003   5.9886548616902652E-002
   2.5707070206053076E-003  -4.9581391048959256E-003   5.9685966163651745E-002
   4.1776386264435472E-003  -1.7343911690699265E-003   6.5251249654996513E-002
   3.6453333071739952E-003  -2.0164935867872380E-003   6.4336826496758537E-002
   3.1130279879044431E-003  -2.5368919223441588E-003   6.3544400927333489E-002
   2.5807226686348772E-003  -3.2955861757396274E-003   6.2873972946721896E-002
   2.0484173493653113E-003  -4.2925763469753297E-003   6.2325542554923286E-002
   3.6028350043765811E-003  -6.9548273786587123E-003   5.3498131452865638E-002
   4.1560462143381827E-003  -9.5441943966260157E-003   5.1829442553701144E-002
   4.7092574242997842E-003  -1.2772159906179997E-002   5.0017531752598987E-002
   5.2624686342614552E-003  -1.6638723907319831E-002   4.8062399049559529E-002
   5.8156798442230428E-003  -2.1143886400046163E-002   4.5964044444582353E-002
   3.3479158481109217E-003  -6.2892646207379777E-003   5.5272260612622914E-002
   3.7747345309074865E-003  -8.5591299743884575E-003   5.2923698345464787E-002
   4.2015532137040651E-003  -1.1405555312001048E-002   5.0465572925914470E-002
   4.6283718965006437E-003  -1.4828540633575998E-002   4.7897884353971354E-002
   5.0551905792972085E-003  -1.8828085939112782E-002   4.5220632629635826E-002
   3.0038731868538837E-003  -5.6237018628170765E-003   5.7334872182884772E-002
   3.3379580920302881E-003  -7.5740655521503997E-003   5.4368475055357635E-002
   3.6720429972067203E-003  -1.0038950717822306E-002   5.1326173524983157E-002
   4.0061279023831421E-003  -1.3018357359831940E-002   4.8207967591760555E-002
   4.3402128075595570E-003  -1.6512285478179622E-002   4.5013857255690404E-002
   2.5707070206053076E-003  -4.9581391048959256E-003   5.9685966163651745E-002
   2.8457168977065149E-003  -6.5890011299129247E-003   5.6163772683379659E-002
   3.1207267748076944E-003  -8.6723461236432389E-003   5.2599333549804547E-002
   3.3957366519089581E-003  -1.1208174086087883E-002   4.8992648762927714E-002
   3.6707465290101091E-003  -1.4196485017246352E-002   4.5343718322746862E-002
   2.0484173493653113E-003  -4.2925763469753297E-003   6.2325542554923286E-002
   2.2980109479362187E-003  -5.6039367076751168E-003   5.8309591229530167E-002
   2.5476045465070846E-003  -7.3057415294645323E-003   5.4285053000379502E-002
   2.7971981450779573E-003  -9.3979908123440828E-003   5.0251927867471097E-002
   3.0467917436488579E-003  -1.1880684556313081E-002   4.6210215830804202E-002
   1.8311948251110516E-002  -1.2664931717149774E-002   8.0310895314410602E-002
   1.8823192349462670E-002  -1.0033531647899357E-002   7.4352427116532005E-002
   1.9334436447814768E-002  -8.0945378158155668E-003   6.9764876193665837E-002
   1.9845680546166887E-002  -6.8479502208986312E-003   6.6548242545811792E-002
   2.0356924644519006E-002  -6.2937688631482525E-003   6.4702526172969732E-002
   8.8071037153737153E-003  -5.7748184675039949E-003   6.8785649291441209E-002
   1.0318221858467355E-002  -5.1148521684185599E-003   6.5918846108022677E-002
   1.1829340001560995E-002  -4.6317638380013737E-003   6.3680873739075078E-002
   1.3340458144654628E-002  -4.3255534762525263E-003   6.2071732184598258E-002
   1.4851576287748268E-002  -4.1962210831720803E-003   6.1091421444592536E-002
   3.1996095272848191E-003   1.1152947821418679E-003   5.5031205364057922E-002
   4.9685152545787814E-003  -1.9617268893759587E-004   5.5771595463597529E-002
   6.7374209818727403E-003  -1.1689898601870280E-003   5.6398729917066778E-002
   8.5063267091667026E-003  -1.8031567316064458E-003   5.6912608724465776E-002
   1.0275232436460655E-002  -2.0986733031959637E-003   5.7313231885794458E-002
   1.4894656868438411E-003   8.0054080317877030E-003   3.9047563532260555E-002
   2.7740725377969032E-003   4.7225067905433543E-003   4.3910675183256580E-002
   4.0586793887499913E-003   2.2937841176272691E-003   4.7918444727641049E-002
   5.3432862397030717E-003   7.1924001303959144E-004   5.1070872165414172E-002
   6.6278930906561607E-003  -1.1255232197915355E-006   5.3367957496575871E-002
   3.6766721940507396E-003   1.4895521281433510E-002   2.0834723796049004E-002
   3.7348937081217518E-003   9.6411862700241380E-003   3.0336085266999713E-002
   3.7931152221927639E-003   5.7565580954415663E-003   3.8240018170797974E-002
   3.8513367362637690E-003   3.2416367576856842E-003   4.4546522507443453E-002
   3.9095582503347812E-003   2.0964222567562696E-003   4.9255598276936374E-002
   2.0356924644519006E-002  -6.2937688631482525E-003   6.4702526172969732E-002
   1.9863442418362798E-002  -6.0740979301375508E-003   6.3992940382510910E-002
   1.9369960192206589E-002  -5.8310416094399936E-003   6.3492832172945435E-002
   1.8876477966050388E-002  -5.5645999010550014E-003   6.3202201544273182E-002
   1.8382995739894159E-002  -5.2747728049832854E-003   6.3121048496494414E-002
   1.4851576287748268E-002  -4.1962210831720803E-003   6.1091421444592536E-002
   1.4507419457309136E-002  -4.1382261032401890E-003   6.1279482239469690E-002
   1.4163262626869993E-002  -4.0460279809368671E-003   6.1556716244887608E-002
   1.3819105796430855E-002  -3.9196267162623713E-003   6.1923123460846226E-002
   1.3474948965991732E-002  -3.7590223092164310E-003   6.2378703887345732E-002
   1.0275232436460655E-002  -2.0986733031959637E-003   5.7313231885794458E-002
   9.9600966313859798E-003  -2.2023542763425635E-003   5.8409757020691955E-002
   9.6449608263113086E-003  -2.2610143524339002E-003   5.9475150995777416E-002
   9.3298250212366356E-003  -2.2746535314695174E-003   6.0509413811051183E-002
   9.0146892161619627E-003  -2.2432718134497154E-003   6.1512545466512983E-002
   6.6278930906561607E-003  -1.1255232197915355E-006   5.3367957496575871E-002
   6.2214739405933410E-003  -2.6648244944512539E-004   5.5383764726177599E-002
   5.8150547905305239E-003  -4.7600072393074247E-004   5.7248136425615014E-002
   5.4086356404677051E-003  -6.2968034667683099E-004   5.8961072594887906E-002
   5.0022164904048871E-003  -7.2752131768287487E-004   6.0522573233996416E-002
   3.9095582503347812E-003   2.0964222567562696E-003   4.9255598276936374E-002
   3.2915513849312086E-003   1.6693893774524238E-003   5.2201505355926769E-002
   2.6735445195276430E-003   1.3090129045721793E-003   5.4875672534400149E-002
   2.0555376541240775E-003   1.0152928381161018E-003   5.7278099812356514E-002
   1.4375307887205049E-003   7.8822917808379911E-004   5.9408787189795753E-002
   1.8382995739894159E-002  -5.2747728049832854E-003   6.3121048496494414E-002
   1.7526896288385468E-002  -4.9857802655819405E-003   6.2430616935259253E-002
   1.6670796836876764E-002  -4.7218422272089083E-003   6.2061883972346715E-002
   1.5814697385368059E-002  -4.4829586898644420E-003   6.2014849607756758E-002
   1.4958597933859341E-002  -4.2691296535483092E-003   6.2289513841489397E-002
   1.3474948965991732E-002  -3.7590223092164310E-003   6.2378703887345732E-002
   1.2902904692925071E-002  -3.5823611959332757E-003   6.2084843814840140E-002
   1.2330860419858397E-002  -3.4077898125465245E-003   6.2037395500895987E-002
   1.1758816146791740E-002  -3.2353081590567323E-003   6.2236358945513381E-002
   1.1186771873725063E-002  -3.0649162354632886E-003   6.2681734148692159E-002
   9.0146892161619627E-003  -2.2432718134497154E-003   6.1512545466512983E-002
   8.6514132817761755E-003  -2.1789421262844999E-003   6.1638221653868841E-002
   8.2881373473903952E-003  -2.0937373978842447E-003   6.1935022760024848E-002
   7.9248614130046288E-003  -1.9876576282489098E-003   6.2402948784981191E-002
   7.5615854786188277E-003  -1.8607028173784346E-003   6.3041999728737891E-002
   5.0022164904048871E-003  -7.2752131768287487E-004   6.0522573233996416E-002
   4.7724220549388331E-003  -7.7552305663583510E-004   6.1090750452345188E-002
   4.5426276194727687E-003  -7.7968498322185734E-004   6.1754765749733244E-002
   4.3128331840067129E-003  -7.4000709744108818E-004   6.2514619126160367E-002
   4.0830387485406450E-003  -6.5648939929344174E-004   6.3370310581626538E-002
   1.4375307887205049E-003   7.8822917808379911E-004   5.9408787189795753E-002
   1.2659310124130026E-003   6.2789601301288522E-004   6.0442430210269460E-002
   1.0943312361055071E-003   5.3436743144041898E-004   6.1496624470021077E-002
   9.2273145979800478E-004   5.0764343336656692E-004   6.2571369969050689E-002
   7.5113168349050935E-004   5.4772401879138455E-004   6.3666666707358377E-002
   1.4958597933859341E-002  -4.2691296535483092E-003   6.2289513841489397E-002
   1.4123825074460111E-002  -4.0421655243319532E-003   6.2188023661852443E-002
   1.3289052215060854E-002  -3.7638767082867897E-003   6.2268223780009679E-002
   1.2454279355661610E-002  -3.4342632054127561E-003   6.2530114195960745E-002
   1.1619506496262366E-002  -3.0533250157100955E-003   6.2973694909705946E-002
   1.1186771873725063E-002  -3.0649162354632886E-003   6.2681734148692159E-002
   1.0537638863466439E-002  -2.8874862262662782E-003   6.2764578479396149E-002
   9.8885058532077949E-003  -2.6938903159655081E-003   6.3037012210587134E-002
   9.2393728429491472E-003  -2.4841285045607425E-003   6.3499035342265572E-002
   8.5902398326905133E-003  -2.2582007920521341E-003   6.4150647874430866E-002
   7.5615854786188277E-003  -1.8607028173784346E-003   6.3041999728737891E-002
   7.1059914201938995E-003  -1.7328069282009084E-003   6.3274019784057861E-002
   6.6503973617689643E-003  -1.6239039236441849E-003   6.3703528342558005E-002
   6.1948033033440292E-003  -1.5339938037087879E-003   6.4330525404238587E-002
   5.7392092449191009E-003  -1.4630765683941727E-003   6.5155010969099203E-002
   4.0830387485406450E-003  -6.5648939929344174E-004   6.3370310581626538E-002
   3.8288827446425165E-003  -5.7812763013560808E-004   6.3716347575837745E-002
   3.5747267407443880E-003  -5.5391753132310456E-004   6.4267772175922264E-002
   3.3205707368462621E-003  -5.8385910285685926E-004   6.5024584381880260E-002
   3.0664147329481240E-003  -6.6795234473621123E-004   6.5986784193711415E-002
   7.5113168349050935E-004   5.4772401879138455E-004   6.3666666707358377E-002
   7.0631283681227980E-004   5.7655166792996981E-004   6.4091561854735801E-002
   6.6149399013405719E-004   5.1606886099818394E-004   6.4729743710679660E-002
   6.1667514345583457E-004   3.6627559799517692E-004   6.5581212275190023E-002
   5.7185629677760502E-004   1.2717187892186121E-004   6.6645967548266905E-002
   1.1619506496262366E-002  -3.0533250157100955E-003   6.2973694909705946E-002
   1.0692459148164080E-002  -2.6715607461700874E-003   6.2763256851332383E-002
   9.7654118000658069E-003  -2.3394690037845112E-003   6.2843209981723880E-002
   8.8383644519675272E-003  -2.0570497885527422E-003   6.3213554300880437E-002
   7.9113171038692476E-003  -1.8243031004753218E-003   6.3874289808802054E-002
   8.5902398326905133E-003  -2.2582007920521341E-003   6.4150647874430866E-002
   7.9326337120400048E-003  -2.0306112386166419E-003   6.4066238557338506E-002
   7.2750275913895032E-003  -1.8158639044307950E-003   6.4230320506376587E-002
   6.6174214707389982E-003  -1.6139587894947773E-003   6.4642893721545233E-002
   5.9598153500884932E-003  -1.4248958938086753E-003   6.5303958202844126E-002
   5.7392092449191009E-003  -1.4630765683941727E-003   6.5155010969099203E-002
   5.3091444290817823E-003  -1.3896617310628356E-003   6.5233460701192444E-002
   4.8790796132444809E-003  -1.2922588050771899E-003   6.5518501776781451E-002
   4.4490147974071779E-003  -1.1708677904369233E-003   6.6010134195866391E-002
   4.0189499815698609E-003  -1.0254886871420843E-003   6.6708357958447456E-002
   3.0664147329481240E-003  -6.6795234473621123E-004   6.5986784193711415E-002
   2.8219912992894346E-003  -7.4871222350926525E-004   6.6264923282894114E-002
   2.5775678656307375E-003  -7.6865370572336278E-004   6.6707753792938529E-002
   2.3331444319720520E-003  -7.2777679137879178E-004   6.7315275723843909E-002
   2.0887209983133509E-003  -6.2608148047552103E-004   6.8087489075610810E-002
   5.7185629677760502E-004   1.2717187892186121E-004   6.6645967548266905E-002
   4.7117432266294279E-004  -1.0776271595547282E-004   6.7160626302443793E-002
   3.7049234854828056E-004  -2.4504860636986869E-004   6.7798076554847653E-002
   2.6981037443361833E-004  -2.8468579232099334E-004   6.8558318305478178E-002
   1.6912840031895610E-004  -2.2667427380895777E-004   6.9441351554335284E-002
   7.9113171038692476E-003  -1.8243031004753218E-003   6.3874289808802054E-002
   6.9778974845128156E-003  -1.6627507863867796E-003   6.3880287957566950E-002
   6.0444778651563974E-003  -1.5939146931233106E-003   6.4111780648187566E-002
   5.1110582457999792E-003  -1.6177948206842763E-003   6.4568767880664041E-002
   4.1776386264435472E-003  -1.7343911690699265E-003   6.5251249654996513E-002
   5.9598153500884932E-003  -1.4248958938086753E-003   6.5303958202844126E-002
   5.2519987238948546E-003  -1.2807225082182017E-003   6.5235874677294747E-002
   4.5441820977012229E-003  -1.2134859235699291E-003   6.5393502596214903E-002
   3.8363654715075843E-003  -1.2231861398634344E-003   6.5776841959604759E-002
   3.1285488453139526E-003  -1.3098231570989327E-003   6.6385892767464427E-002
   4.0189499815698609E-003  -1.0254886871420843E-003   6.6708357958447456E-002
   3.5369532511528058E-003  -8.9869423004979021E-004   6.6581972178466203E-002
   3.0549565207357333E-003  -8.3305715401643665E-004   6.6681514745568604E-002
   2.5729597903186505E-003  -8.2857745904259261E-004   6.7006985659754437E-002
   2.0909630599015919E-003  -8.8525514512782788E-004   6.7558384921023645E-002
   2.0887209983133509E-003  -6.2608148047552103E-004   6.8087489075610810E-002
   1.8327610662866286E-003  -5.1666595188107345E-004   6.7918580461080902E-002
   1.5768011342599053E-003  -4.5262838446311071E-004   6.7975817096248295E-002
   1.3208412022331891E-003  -4.3396877822175078E-004   6.8259198981112823E-002
   1.0648812702064598E-003  -4.6068713315683407E-004   6.8768726115674722E-002
   1.6912840031895610E-004  -2.2667427380895777E-004   6.9441351554335284E-002
   1.3942216929636181E-004  -1.3463767371268975E-004   6.9245699525139259E-002
   1.0971593827376752E-004  -7.2199614909534970E-005   6.9276409648254045E-002
   8.0009707251178439E-005  -3.9360097400846505E-005   6.9533481923680057E-002
   5.0303476228578947E-005  -3.6119121185840264E-005   7.0016916351416936E-002
   4.1776386264435472E-003  -1.7343911690699265E-003   6.5251249654996513E-002
   3.6453333071739952E-003  -2.0164935867872380E-003   6.4336826496758537E-002
   3.1130279879044431E-003  -2.5368919223441588E-003   6.3544400927333489E-002
   2.5807226686348772E-003  -3.2955861757396274E-003   6.2873972946721896E-002
   2.0484173493653113E-003  -4.2925763469753297E-003   6.2325542554923286E-002
   3.1285488453139526E-003  -1.3098231570989327E-003   6.6385892767464427E-002
   2.7205197349171872E-003  -1.5235996499697313E-003   6.5277433190918943E-002
   2.3124906245204496E-003  -1.9147182931698037E-003   6.4295528443306216E-002
   1.9044615141237085E-003  -2.4831790866991499E-003   6.3440178524626051E-002
   1.4964324037269466E-003  -3.2289820305573258E-003   6.2711383434878032E-002
   2.0909630599015919E-003  -8.8525514512782788E-004   6.7558384921023645E-002
   1.8117673984970120E-003  -1.0307057131521136E-003   6.6316842693681349E-002
   1.5325717370924391E-003  -1.2925446639955734E-003   6.5206412535390793E-002
   1.2533760756878627E-003  -1.6707719976578987E-003   6.4227094446152183E-002
   9.7418041428328633E-004  -2.1653877141391553E-003   6.3378888425965424E-002
   1.0648812702064598E-003  -4.6068713315683407E-004   6.8768726115674722E-002
   9.1907629791342701E-004  -5.3781177633466237E-004   6.7455055005045408E-002
   7.7327132562039942E-004  -6.7037103482122523E-004   6.6277053203586969E-002
   6.2746635332736923E-004  -8.5836490861703439E-004   6.5234720711299959E-002
   4.8166138103433905E-004  -1.1017933977215122E-003   6.4328057528184407E-002
   5.0303476228578947E-005  -3.6119121185840264E-005   7.0016916351416936E-002
   4.2446433166462572E-005  -4.4917839517044644E-005   6.8692070125010551E-002
   3.4589390104339257E-005  -4.8197405647043556E-005   6.7507450447895023E-002
   2.6732347042215943E-005  -4.5957819575906389E-005   6.6463057320069852E-002
   1.8875303980099567E-005  -3.8199081303091909E-005   6.5558890741535536E-002
   2.0484173493653113E-003  -4.2925763469753297E-003   6.2325542554923286E-002
   2.2980109479362187E-003  -5.6039367076751168E-003   5.8309591229530167E-002
   2.5476045465070846E-003  -7.3057415294645323E-003   5.4285053000379502E-002
   2.7971981450779573E-003  -9.3979908123440828E-003   5.0251927867471097E-002
   3.0467917436488579E-003  -1.1880684556313081E-002   4.6210215830804202E-002
   1.4964324037269466E-003  -3.2289820305573258E-003   6.2711383434878032E-002
   1.7238449247702348E-003  -4.2107505644845555E-003   5.8369054146461263E-002
   1.9512574458135229E-003  -5.4871081282198420E-003   5.3990949606746719E-002
   2.1786699668568180E-003  -7.0580547217638789E-003   4.9577069815734454E-002
   2.4060824879000853E-003  -8.9235903451168053E-003   4.5127414773425967E-002
   9.7418041428328633E-004  -2.1653877141391553E-003   6.3378888425965424E-002
   1.1522235102594813E-003  -2.8175644212939388E-003   5.8806036605805079E-002
   1.3302666062356659E-003  -3.6684747269752488E-003   5.4170221186808296E-002
   1.5083097022118731E-003  -4.7181186311842267E-003   4.9471442168974790E-002
   1.6863527981880733E-003  -5.9664961339203071E-003   4.4709699552304083E-002
   4.8166138103433905E-004  -1.1017933977215122E-003   6.4328057528184407E-002
   5.8314670440394803E-004  -1.4243782781031278E-003   5.9620538607562862E-002
   6.8463202777357002E-004  -1.8498413257303850E-003   5.4822867740564829E-002
   7.8611735114319245E-004  -2.3781825406044097E-003   4.9935044927190343E-002
   8.8760267451278713E-004  -3.0094019227239199E-003   4.4957070167440355E-002
   1.8875303980099567E-005  -3.8199081303091909E-005   6.5558890741535536E-002
   1.6614507203638329E-005  -3.1192134912649827E-005   6.0812560151733641E-002
   1.4353710427190969E-005  -3.1207924486048588E-005   5.5948889268015833E-002
   1.2092913650726261E-005  -3.8246450024502499E-005   5.0967878090382029E-002
   9.8321168742754317E-006  -5.2307711527532774E-005   4.5869526618832701E-002
   3.6766721940507396E-003   1.4895521281433510E-002   2.0834723796049004E-002
   3.7348937081217518E-003   9.6411862700241380E-003   3.0336085266999713E-002
   3.7931152221927639E-003   5.7565580954415663E-003   3.8240018170797974E-002
   3.8513367362637690E-003   3.2416367576856842E-003   4.4546522507443453E-002
   3.9095582503347812E-003   2.0964222567562696E-003   4.9255598276936374E-002
   5.0554976108123789E-003   8.1378174868592668E-003   4.1600188839549024E-002
   3.9400082996808618E-003   5.5818528245466792E-003   4.7039425871849228E-002
   2.8245189885493377E-003   3.7127220212828937E-003   5.1728669820897077E-002
   1.7090296774178119E-003   2.5304250770677578E-003   5.5667920686692435E-002
   5.9354036628628259E-004   2.0349619919014517E-003   5.8857178469235549E-002
   9.2021049903554669E-004   1.3801136922850232E-003   6.5405460721034481E-002
  -5.2155415339821994E-004   1.5225193790691510E-003   6.6099700336906153E-002
  -1.9633188058320022E-003   1.6688859471241380E-003   6.6891382353425802E-002
  -3.4050834582657766E-003   1.8192133964498869E-003   6.7780506770593274E-002
  -4.8468481106995649E-003   1.9735017270465505E-003   6.8767073588408653E-002
  -8.7291891412797067E-003  -5.3775901022892481E-003   9.2250539440505791E-002
  -9.6497936511154656E-003  -2.5368140664083286E-003   8.7516908662171058E-002
  -1.0570398160951223E-002  -3.7495012703454844E-004   8.3728155768384604E-002
  -1.1491002670786994E-002   1.1080017158321825E-003   8.0884280759146138E-002
  -1.2411607180622751E-002   1.9120414621916354E-003   7.8985283634455922E-002
  -2.3892701310133435E-002  -1.2135293896863464E-002  0.12213542499796276     
  -2.3444710193470900E-002  -6.5961475118859192E-003  0.11129105084764374     
  -2.2996719076808371E-002  -2.4187862011933042E-003  0.10223899006577306     
  -2.2548727960145825E-002   3.9679003521418330E-004   9.4979242652350818E-002
  -2.2100736843483300E-002   1.8505811973367758E-003   8.9511808607377119E-002
   3.9095582503347812E-003   2.0964222567562696E-003   4.9255598276936374E-002
   3.2915513849312086E-003   1.6693893774524238E-003   5.2201505355926769E-002
   2.6735445195276430E-003   1.3090129045721793E-003   5.4875672534400149E-002
   2.0555376541240775E-003   1.0152928381161018E-003   5.7278099812356514E-002
   1.4375307887205049E-003   7.8822917808379911E-004   5.9408787189795753E-002
   5.9354036628628259E-004   2.0349619919014517E-003   5.8857178469235549E-002
  -1.4196888893815672E-004   1.8827181712669505E-003   5.9866083004204207E-002
  -8.7747814416260471E-004   1.7300790206473265E-003   6.0911722660048156E-002
  -1.6129873993870518E-003   1.5770445400426665E-003   6.1994097436767356E-002
  -2.3484966546114920E-003   1.4236147294525714E-003   6.3113207334361876E-002
  -4.8468481106995649E-003   1.9735017270465505E-003   6.8767073588408653E-002
  -5.3913847343525206E-003   2.0960469650815883E-003   6.7771923842946558E-002
  -5.9359213580054832E-003   2.1511451367223697E-003   6.7121984239752019E-002
  -6.4804579816584423E-003   2.1387962419689554E-003   6.6817254778825164E-002
  -7.0249946053114083E-003   2.0590002808213714E-003   6.6857735460166018E-002
  -1.2411607180622751E-002   1.9120414621916354E-003   7.8985283634455922E-002
  -1.2456696151311872E-002   2.3093757588961150E-003   7.5919027872153877E-002
  -1.2501785122000999E-002   2.5722112527974093E-003   7.3506457273511822E-002
  -1.2546874092690126E-002   2.7005479438953822E-003   7.1747571838529742E-002
  -1.2591963063379254E-002   2.6943858321900188E-003   7.0642371567207748E-002
  -2.2100736843483300E-002   1.8505811973367758E-003   8.9511808607377119E-002
  -2.1337903139816219E-002   2.5227045527107805E-003   8.4307395091826137E-002
  -2.0575069436149149E-002   2.9932773688725323E-003   8.0065141761327480E-002
  -1.9812235732482072E-002   3.2622996458216633E-003   7.6785048615881230E-002
  -1.9049402028815006E-002   3.3297713835588882E-003   7.4467115655487304E-002
   1.4375307887205049E-003   7.8822917808379911E-004   5.9408787189795753E-002
   1.2659310124130026E-003   6.2789601301288522E-004   6.0442430210269460E-002
   1.0943312361055071E-003   5.3436743144041898E-004   6.1496624470021077E-002
   9.2273145979800478E-004   5.0764343336656692E-004   6.2571369969050689E-002
   7.5113168349050935E-004   5.4772401879138455E-004   6.3666666707358377E-002
  -2.3484966546114920E-003   1.4236147294525714E-003   6.3113207334361876E-002
  -2.4382165640512484E-003   1.2899806587634011E-003   6.3371104171700027E-002
  -2.5279364734910031E-003   1.1963333978605717E-003   6.3772209503495519E-002
  -2.6176563829307603E-003   1.1426729467443192E-003   6.4316523329748604E-002
  -2.7073762923705211E-003   1.1289993054143799E-003   6.5004045650459141E-002
  -7.0249946053114083E-003   2.0590002808213714E-003   6.6857735460166018E-002
  -6.9101773927038954E-003   1.9520653045138336E-003   6.6313068340656312E-002
  -6.7953601800963791E-003   1.8582993642807244E-003   6.6034266970783739E-002
  -6.6805429674888723E-003   1.7777024601219604E-003   6.6021331350547968E-002
  -6.5657257548813498E-003   1.7102745920376250E-003   6.6274261479949512E-002
  -1.2591963063379254E-002   2.6943858321900188E-003   7.0642371567207748E-002
  -1.2149951473544933E-002   2.6141499502644189E-003   6.9268322717138259E-002
  -1.1707939883710624E-002   2.5202653307008771E-003   6.8282796871885293E-002
  -1.1265928293876310E-002   2.4127319734997127E-003   6.7685794031448893E-002
  -1.0823916704041994E-002   2.2915498786608007E-003   6.7477314195829197E-002
  -1.9049402028815006E-002   3.3297713835588882E-003   7.4467115655487304E-002
  -1.8157538806574381E-002   3.2762345960147821E-003   7.2236867301145979E-002
  -1.7265675584333735E-002   3.1822312971209882E-003   7.0517799206800597E-002
  -1.6373812362093100E-002   3.0477614868773158E-003   6.9309911372451391E-002
  -1.5481949139852465E-002   2.8728251652838654E-003   6.8613203798098210E-002
   7.5113168349050935E-004   5.4772401879138455E-004   6.3666666707358377E-002
   7.0631283681227980E-004   5.7655166792996981E-004   6.4091561854735801E-002
   6.6149399013405719E-004   5.1606886099818394E-004   6.4729743710679660E-002
   6.1667514345583457E-004   3.6627559799517692E-004   6.5581212275190023E-002
   5.7185629677760502E-004   1.2717187892186121E-004   6.6645967548266905E-002
  -2.7073762923705211E-003   1.1289993054143799E-003   6.5004045650459141E-002
  -2.5340906507208584E-003   1.1100919179727886E-003   6.4964034711907925E-002
  -2.3608050090712113E-003   1.0407302285216774E-003   6.5146946041445969E-002
  -2.1875193674215608E-003   9.2091423706027950E-004   6.5552779639073452E-002
  -2.0142337257719016E-003   7.5064394358903552E-004   6.6181535504790112E-002
  -6.5657257548813498E-003   1.7102745920376250E-003   6.6274261479949512E-002
  -6.1647000653809823E-003   1.6436321680159127E-003   6.5808200609530396E-002
  -5.7636743758806000E-003   1.5653915960451778E-003   6.5574697566723322E-002
  -5.3626486863802177E-003   1.4755528761253283E-003   6.5573752351528486E-002
  -4.9616229968798501E-003   1.3741160082563764E-003   6.5805364963945651E-002
  -1.0823916704041994E-002   2.2915498786608007E-003   6.7477314195829197E-002
  -1.0185515407168043E-002   2.1771724180588842E-003   6.6624059547602893E-002
  -9.5471141102941061E-003   2.0900529635686747E-003   6.6012998286511818E-002
  -8.9087128134201585E-003   2.0301915151903485E-003   6.5644130412555582E-002
  -8.2703115165462179E-003   1.9975880729236895E-003   6.5517455925734464E-002
  -1.5481949139852465E-002   2.8728251652838654E-003   6.8613203798098210E-002
  -1.4596536676082114E-002   2.7107126681018001E-003   6.7411611526125736E-002
  -1.3711124212311732E-002   2.6147143310922549E-003   6.6461848200811191E-002
  -1.2825711748541359E-002   2.5848301542555005E-003   6.5763913822154380E-002
  -1.1940299284771000E-002   2.6210601375910025E-003   6.5317808390155441E-002
   5.7185629677760502E-004   1.2717187892186121E-004   6.6645967548266905E-002
   4.7117432266294279E-004  -1.0776271595547282E-004   6.7160626302443793E-002
   3.7049234854828056E-004  -2.4504860636986869E-004   6.7798076554847653E-002
   2.6981037443361833E-004  -2.8468579232099334E-004   6.8558318305478178E-002
   1.6912840031895610E-004  -2.2667427380895777E-004   6.9441351554335284E-002
  -2.0142337257719016E-003   7.5064394358903552E-004   6.6181535504790112E-002
  -1.9543753880514672E-003   5.7831003977482087E-004   6.6444631716910507E-002
  -1.8945170503310259E-003   4.5230321728473299E-004   6.6906017054474298E-002
  -1.8346587126105776E-003   3.7262347611852209E-004   6.7565691517481874E-002
  -1.7748003748901502E-003   3.3927081627582734E-004   6.8423655105932513E-002
  -4.9616229968798501E-003   1.3741160082563764E-003   6.5805364963945651E-002
  -4.6657267201075632E-003   1.2643827955052811E-003   6.5765577010870574E-002
  -4.3698304433352920E-003   1.1496550409390016E-003   6.5999575810455596E-002
  -4.0739341665630199E-003   1.0299327445574824E-003   6.6507361362700745E-002
  -3.7780378897907477E-003   9.0521590636089000E-004   6.7288933667606271E-002
  -8.2703115165462179E-003   1.9975880729236895E-003   6.5517455925734464E-002
  -7.6628796735053661E-003   1.9504555512359356E-003   6.5123462184324174E-002
  -7.0554478304645368E-003   1.8470068645934923E-003   6.5078752822791061E-002
  -6.4480159874237050E-003   1.6872420129967203E-003   6.5383327841134986E-002
  -5.8405841443828575E-003   1.4711609964459249E-003   6.6037187239355533E-002
  -1.1940299284771000E-002   2.6210601375910025E-003   6.5317808390155441E-002
  -1.0945834248244864E-002   2.6365283069661460E-003   6.4518287237271377E-002
  -9.9513692117187413E-003   2.5443586882478442E-003   6.4143548091481095E-002
  -8.9569041751926051E-003   2.3445512814358957E-003   6.4193590952784430E-002
  -7.9624391386664828E-003   2.0371060865307378E-003   6.4668415821181213E-002
   1.6912840031895610E-004  -2.2667427380895777E-004   6.9441351554335284E-002
   1.3942216929636181E-004  -1.3463767371268975E-004   6.9245699525139259E-002
   1.0971593827376752E-004  -7.2199614909534970E-005   6.9276409648254045E-002
   8.0009707251178439E-005  -3.9360097400846505E-005   6.9533481923680057E-002
   5.0303476228578947E-005  -3.6119121185840264E-005   7.0016916351416936E-002
  -1.7748003748901502E-003   3.3927081627582734E-004   6.8423655105932513E-002
  -1.5733573991496795E-003   3.3526474313394505E-004   6.8164865166888244E-002
  -1.3719144234092245E-003   3.4362476206792336E-004   6.8142011489059129E-002
  -1.1704714476687547E-003   3.6435087307833819E-004   6.8355094072444916E-002
  -9.6902847192829877E-004   3.9744307616529362E-004   6.8804112917046079E-002
  -3.7780378897907477E-003   9.0521590636089000E-004   6.7288933667606271E-002
  -3.3358715983831571E-003   8.0516715997974719E-004   6.7008970452083733E-002
  -2.8937053069755655E-003   7.5944913904547884E-004   6.6974517606680536E-002
  -2.4515390155679735E-003   7.6806184355751941E-004   6.7185575131396363E-002
  -2.0093727241603833E-003   8.3100527351626097E-004   6.7642143026231560E-002
  -5.8405841443828575E-003   1.4711609964459249E-003   6.6037187239355533E-002
  -5.1481204284040804E-003   1.2750695768260212E-003   6.5778015380725446E-002
  -4.4556567124252808E-003   1.1752735160229302E-003   6.5773928001118614E-002
  -3.7631929964464812E-003   1.1717728140368134E-003   6.6024925100534967E-002
  -3.0707292804677032E-003   1.2645674708675336E-003   6.6531006678974700E-002
  -7.9624391386664828E-003   2.0371060865307378E-003   6.4668415821181213E-002
  -7.0101038892124226E-003   1.7449719936721286E-003   6.4471999952813608E-002
  -6.0577686397583590E-003   1.5910978930005482E-003   6.4540242672373183E-002
  -5.1054333903042884E-003   1.5754837845161768E-003   6.4873143979859937E-002
  -4.1530981408502352E-003   1.6981296682183622E-003   6.5470703875274205E-002
   5.0303476228578947E-005  -3.6119121185840264E-005   7.0016916351416936E-002
   4.2446433166462572E-005  -4.4917839517044644E-005   6.8692070125010551E-002
   3.4589390104339257E-005  -4.8197405647043556E-005   6.7507450447895023E-002
   2.6732347042215943E-005  -4.5957819575906389E-005   6.6463057320069852E-002
   1.8875303980099567E-005  -3.8199081303091909E-005   6.5558890741535536E-002
  -9.6902847192829877E-004   3.9744307616529362E-004   6.8804112917046079E-002
  -8.3817352807035589E-004   4.6698613550394397E-004   6.7489767210508367E-002
  -7.0731858421240260E-004   5.9706481527055377E-004   6.6312618928520389E-002
  -5.7646364035445971E-004   7.8767911546520630E-004   6.5272668071081855E-002
  -4.4560869649650642E-004   1.0388290360872077E-003   6.4369914638192638E-002
  -2.0093727241603833E-003   8.3100527351626097E-004   6.7642143026231560E-002
  -1.7428349181234527E-003   9.7889011052551544E-004   6.6393314307789386E-002
  -1.4762971120865012E-003   1.2423270361886229E-003   6.5278653889155380E-002
  -1.2097593060495671E-003   1.6213160505062149E-003   6.4298161770329945E-002
  -9.4322150001261915E-004   2.1158571534775628E-003   6.3451837951313012E-002
  -3.0707292804677032E-003   1.2645674708675336E-003   6.6531006678974700E-002
  -2.6715377369928195E-003   1.4907940855466845E-003   6.5402711416853693E-002
  -2.2723461935179427E-003   1.8875892571065672E-003   6.4405555329800579E-002
  -1.8731546500430555E-003   2.4549529855470535E-003   6.3539538417814401E-002
  -1.4739631065681822E-003   3.1928852708678901E-003   6.2804660680895907E-002
  -4.1530981408502352E-003   1.6981296682183622E-003   6.5470703875274205E-002
  -3.6242819846784916E-003   2.0026980605680755E-003   6.4517958537701481E-002
  -3.0954658285067271E-003   2.5328514780242339E-003   6.3693323250455292E-002
  -2.5666496723349801E-003   3.2885899205882113E-003   6.2996798013535138E-002
  -2.0378335161632191E-003   4.2699133882584395E-003   6.2428382826941631E-002
   1.8875303980099567E-005  -3.8199081303091909E-005   6.5558890741535536E-002
   1.6614507203638329E-005  -3.1192134912649827E-005   6.0812560151733641E-002
   1.4353710427190969E-005  -3.1207924486048588E-005   5.5948889268015833E-002
   1.2092913650726261E-005  -3.8246450024502499E-005   5.0967878090382029E-002
   9.8321168742754317E-006  -5.2307711527532774E-005   4.5869526618832701E-002
  -4.4560869649650642E-004   1.0388290360872077E-003   6.4369914638192638E-002
  -5.5116542720898623E-004   1.3671732843961171E-003   5.9647914754822229E-002
  -6.5672215792144870E-004   1.7893705676511051E-003   5.4836663297495147E-002
  -7.6227888863392504E-004   2.3054208858532405E-003   4.9936160266211727E-002
  -8.6783561934640485E-004   2.9153242390009826E-003   4.4946405660972744E-002
  -9.4322150001261915E-004   2.1158571534775628E-003   6.3451837951313012E-002
  -1.1239854447015144E-003   2.7655387037047174E-003   5.8855044545284618E-002
  -1.3047493893904010E-003   3.6099490597889111E-003   5.4197088285259223E-002
  -1.4855133340792902E-003   4.6490882217308689E-003   4.9477969171236834E-002
  -1.6662772787681690E-003   5.8829561895294979E-003   4.4697687203218650E-002
  -1.4739631065681822E-003   3.1928852708678901E-003   6.2804660680895907E-002
  -1.7018455452738946E-003   4.1639041230135121E-003   5.8433949523120407E-002
  -1.9297279839795858E-003   5.4305275519265020E-003   5.4030164231307659E-002
  -2.1576104226852981E-003   6.9927555576084436E-003   4.9593304805457976E-002
  -2.3854928613909893E-003   8.8505881400580133E-003   4.5123371245571225E-002
  -2.0378335161632191E-003   4.2699133882584395E-003   6.2428382826941631E-002
  -2.2847457289261672E-003   5.5622695423218627E-003   5.8384629688329803E-002
  -2.5316579416890840E-003   7.2511060440638708E-003   5.4335891135640413E-002
  -2.7785701544519956E-003   9.3364228934862958E-003   5.0282167168873737E-002
  -3.0254823672149489E-003   1.1818220090586529E-002   4.6223457788030053E-002
  -2.3892701310133435E-002  -1.2135293896863464E-002  0.12213542499796276     
  -2.3444710193470900E-002  -6.5961475118859192E-003  0.11129105084764374     
  -2.2996719076808371E-002  -2.4187862011933042E-003  0.10223899006577306     
  -2.2548727960145825E-002   3.9679003521418330E-004   9.4979242652350818E-002
  -2.2100736843483300E-002   1.8505811973367758E-003   8.9511808607377119E-002
  -3.8759396351072520E-002  -4.1941729110489545E-004   9.3892648145271151E-002
  -3.6969951848693727E-002   2.0273169670327329E-003   8.7714749864985536E-002
  -3.5180507346314872E-002   3.8550144362509142E-003   8.2427444987683868E-002
  -3.3391062843936073E-002   5.0636751165495097E-003   7.8030733513366424E-002
  -3.1601618341557239E-002   5.6532990079286305E-003   7.4524615442033232E-002
  -4.7518344607644022E-002   1.1296459314653701E-002   6.2186085023057155E-002
  -4.5289166685013121E-002   1.0650781445951357E-002   6.1417410898170072E-002
  -4.3059988762382262E-002   1.0128815073695056E-002   6.0637610210802988E-002
  -4.0830810839751444E-002   9.7305601978847547E-003   5.9846682960955813E-002
  -3.8601632917120536E-002   9.4560168185203464E-003   5.9044629148628430E-002
  -5.0169546079847742E-002   2.3012335920412283E-002   2.7015735631319950E-002
  -4.8402354702429151E-002   1.9274245924870065E-002   3.2399033947197522E-002
  -4.6635163325010533E-002   1.6402615711139278E-002   3.6869485735130353E-002
  -4.4867971947591928E-002   1.4397445279220013E-002   4.0427090995118903E-002
  -4.3100780570173323E-002   1.3258734629112187E-002   4.3071849727163145E-002
  -4.6713000767683810E-002   3.4728212526170865E-002  -1.1618400029939413E-002
  -4.6309515900941706E-002   2.7897710403788634E-002   6.5961901206779139E-004
  -4.5906031034199643E-002   2.2676416348583389E-002   1.1123071560666081E-002
  -4.5502546167457573E-002   1.9064330360555277E-002   1.9771957615855817E-002
  -4.5099061300715490E-002   1.7061452439703861E-002   2.6606277177636917E-002
  -2.2100736843483300E-002   1.8505811973367758E-003   8.9511808607377119E-002
  -2.1337903139816219E-002   2.5227045527107805E-003   8.4307395091826137E-002
  -2.0575069436149149E-002   2.9932773688725323E-003   8.0065141761327480E-002
  -1.9812235732482072E-002   3.2622996458216633E-003   7.6785048615881230E-002
  -1.9049402028815006E-002   3.3297713835588882E-003   7.4467115655487304E-002
  -3.1601618341557239E-002   5.6532990079286305E-003   7.4524615442033232E-002
  -3.0064534265359186E-002   5.8735299397574409E-003   7.1472509201774573E-002
  -2.8527450189161148E-002   5.9740117414050567E-003   6.9006743521525624E-002
  -2.6990366112963106E-002   5.9547444128715283E-003   6.7127318401286190E-002
  -2.5453282036765050E-002   5.8157279541568574E-003   6.5834233841056300E-002
  -3.8601632917120536E-002   9.4560168185203464E-003   5.9044629148628430E-002
  -3.6666118093434341E-002   9.2243553268040041E-003   5.8226631592693472E-002
  -3.4730603269748139E-002   8.9547461139376366E-003   5.7619154971725303E-002
  -3.2795088446061944E-002   8.6471891799211713E-003   5.7222199285723953E-002
  -3.0859573622375711E-002   8.3016845247548543E-003   5.7035764534689212E-002
  -4.3100780570173323E-002   1.3258734629112187E-002   4.3071849727163145E-002
  -4.1142654624041777E-002   1.2575180713850644E-002   4.4569762264582799E-002
  -3.9184528677910190E-002   1.1935480486470189E-002   4.5902376111926574E-002
  -3.7226402731778629E-002   1.1339633946970870E-002   4.7069691269194150E-002
  -3.5268276785647056E-002   1.0787641095352865E-002   4.8071707736385832E-002
  -4.5099061300715490E-002   1.7061452439703861E-002   2.6606277177636917E-002
  -4.3494143857181353E-002   1.5926006100897283E-002   3.0501901217442590E-002
  -4.1889226413647250E-002   1.4916214859002769E-002   3.3856406942129325E-002
  -4.0284308970113120E-002   1.4032078714020686E-002   3.6669794351697343E-002
  -3.8679391526579010E-002   1.3273597665950876E-002   3.8942063446146424E-002
  -1.9049402028815006E-002   3.3297713835588882E-003   7.4467115655487304E-002
  -1.8157538806574381E-002   3.2762345960147821E-003   7.2236867301145979E-002
  -1.7265675584333735E-002   3.1822312971209882E-003   7.0517799206800597E-002
  -1.6373812362093100E-002   3.0477614868773158E-003   6.9309911372451391E-002
  -1.5481949139852465E-002   2.8728251652838654E-003   6.8613203798098210E-002
  -2.5453282036765050E-002   5.8157279541568574E-003   6.5834233841056300E-002
  -2.4120471478229606E-002   5.6011964358356203E-003   6.4495467235162085E-002
  -2.2787660919694194E-002   5.3553839284823379E-003   6.3527415041861379E-002
  -2.1454850361158760E-002   5.0782904320970101E-003   6.2930077261154155E-002
  -2.0122039802623341E-002   4.7699159466798591E-003   6.2703453893040439E-002
  -3.0859573622375711E-002   8.3016845247548543E-003   5.7035764534689212E-002
  -2.9226281574948085E-002   7.9261582756562921E-003   5.6597665199559999E-002
  -2.7592989527520484E-002   7.5285365598437362E-003   5.6389814429621647E-002
  -2.5959697480092834E-002   7.1088193773168693E-003   5.6412212224874206E-002
  -2.4326405432665225E-002   6.6670067280759637E-003   5.6664858585317668E-002
  -3.5268276785647056E-002   1.0787641095352865E-002   4.8071707736385832E-002
  -3.3474969096729840E-002   1.0251120115477130E-002   4.8543461194339513E-002
  -3.1681661407812589E-002   9.7016891912050547E-003   4.9104997370081435E-002
  -2.9888353718895349E-002   9.1393483225367007E-003   4.9756316263611655E-002
  -2.8095046029978130E-002   8.5640975094720129E-003   5.0497417874930305E-002
  -3.8679391526579010E-002   1.3273597665950876E-002   3.8942063446146424E-002
  -3.6866534043574775E-002   1.2576081955297858E-002   4.0332855219500641E-002
  -3.5053676560570513E-002   1.1874841822566443E-002   4.1672963863240764E-002
  -3.3240819077566257E-002   1.1169877267756329E-002   4.2962389377366392E-002
  -3.1427961594562015E-002   1.0461188290867951E-002   4.4201131761877899E-002
  -1.5481949139852465E-002   2.8728251652838654E-003   6.8613203798098210E-002
  -1.4596536676082114E-002   2.7107126681018001E-003   6.7411611526125736E-002
  -1.3711124212311732E-002   2.6147143310922549E-003   6.6461848200811191E-002
  -1.2825711748541359E-002   2.5848301542555005E-003   6.5763913822154380E-002
  -1.1940299284771000E-002   2.6210601375910025E-003   6.5317808390155441E-002
  -2.0122039802623341E-002   4.7699159466798591E-003   6.2703453893040439E-002
  -1.8996464541748855E-002   4.4658940082182574E-003   6.1978970625800961E-002
  -1.7870889280874366E-002   4.2018581526996335E-003   6.1482984006111963E-002
  -1.6745314019999843E-002   3.9778083801239178E-003   6.1215494033973375E-002
  -1.5619738759125389E-002   3.7937446904913186E-003   6.1176500709385073E-002
  -2.4326405432665225E-002   6.6670067280759637E-003   5.6664858585317668E-002
  -2.2983999673794029E-002   6.2210753483346870E-003   5.6391356245581753E-002
  -2.1641593914922885E-002   5.7890019743068039E-003   5.6323018254288787E-002
  -2.0299188156051730E-002   5.3707866059924496E-003   5.6459844611438804E-002
  -1.8956782397180516E-002   4.9664292433913571E-003   5.6801835317031840E-002
  -2.8095046029978130E-002   8.5640975094720129E-003   5.0497417874930305E-002
  -2.6559142072217705E-002   7.9762566884510194E-003   5.0648768385468126E-002
  -2.5023238114457284E-002   7.3761457959141893E-003   5.0981950945341650E-002
  -2.3487334156696831E-002   6.7637648318610352E-003   5.1496965554550779E-002
  -2.1951430198936438E-002   6.1391137962917008E-003   5.2193812213095166E-002
  -3.1427961594562015E-002   1.0461188290867951E-002   4.4201131761877899E-002
  -2.9721891737019807E-002   9.7314380285674074E-003   4.4751207045460151E-002
  -2.8015821879477570E-002   8.9632896175214083E-003   4.5459782079270539E-002
  -2.6309752021935341E-002   8.1567430577293570E-003   4.6326856863309090E-002
  -2.4603682164393126E-002   7.3117983491917116E-003   4.7352431397575612E-002
  -1.1940299284771000E-002   2.6210601375910025E-003   6.5317808390155441E-002
  -1.0945834248244864E-002   2.6365283069661460E-003   6.4518287237271377E-002
  -9.9513692117187413E-003   2.5443586882478442E-003   6.4143548091481095E-002
  -8.9569041751926051E-003   2.3445512814358957E-003   6.4193590952784430E-002
  -7.9624391386664828E-003   2.0371060865307378E-003   6.4668415821181213E-002
  -1.5619738759125389E-002   3.7937446904913186E-003   6.1176500709385073E-002
  -1.4252150345922490E-002   3.5968676210038075E-003   6.0581091447010571E-002
  -1.2884561932719574E-002   3.3343777088642723E-003   6.0307146930895950E-002
  -1.1516973519516685E-002   3.0062749540729142E-003   6.0354667161041320E-002
  -1.0149385106313788E-002   2.6125593566290739E-003   6.0723652137446404E-002
  -1.8956782397180516E-002   4.9664292433913571E-003   5.6801835317031840E-002
  -1.7319387868134646E-002   4.5572069350417466E-003   5.6452562890608210E-002
  -1.5681993339088752E-002   4.1243967294813805E-003   5.6321437949610628E-002
  -1.4044598810042871E-002   3.6679986267097141E-003   5.6408460494039116E-002
  -1.2407204280996988E-002   3.1880126267276321E-003   5.6713630523893888E-002
  -2.1951430198936438E-002   6.1391137962917008E-003   5.2193812213095166E-002
  -2.0147546814881373E-002   5.5175462490794358E-003   5.2132701568063773E-002
  -1.8343663430826228E-002   4.9144157500978711E-003   5.2186421147624562E-002
  -1.6539780046771139E-002   4.3297222993470118E-003   5.2354970951777949E-002
  -1.4735896662716019E-002   3.7634658968262458E-003   5.2638350980523371E-002
  -2.4603682164393126E-002   7.3117983491917116E-003   4.7352431397575612E-002
  -2.2736627186162567E-002   6.4778855631175136E-003   4.7621507479377767E-002
  -2.0869572207932049E-002   5.7044347707148335E-003   4.7902096524938320E-002
  -1.9002517229701518E-002   4.9914459719836227E-003   4.8194198534257687E-002
  -1.7135462251470973E-002   4.3389191669246374E-003   4.8497813507335508E-002
  -7.9624391386664828E-003   2.0371060865307378E-003   6.4668415821181213E-002
  -7.0101038892124226E-003   1.7449719936721286E-003   6.4471999952813608E-002
  -6.0577686397583590E-003   1.5910978930005482E-003   6.4540242672373183E-002
  -5.1054333903042884E-003   1.5754837845161768E-003   6.4873143979859937E-002
  -4.1530981408502352E-003   1.6981296682183622E-003   6.5470703875274205E-002
  -1.0149385106313788E-002   2.6125593566290739E-003   6.0723652137446404E-002
  -8.9360111782526633E-003   2.2518987646995559E-003   6.0587734575656194E-002
  -7.7226372501915247E-003   2.0229610264506093E-003   6.0709235783153098E-002
  -6.5092633221303792E-003   1.9257461418820676E-003   6.1088155759936910E-002
  -5.2958893940692614E-003   1.9602541109939864E-003   6.1724494506007144E-002
  -1.2407204280996988E-002   3.1880126267276321E-003   5.6713630523893888E-002
  -1.0940031492969231E-002   2.7588255357272329E-003   5.6631674130174975E-002
  -9.4728587049415190E-003   2.4548241599005316E-003   5.6799896687102253E-002
  -8.0056859169137899E-003   2.2760084992480625E-003   5.7218298194675957E-002
  -6.5385131288860504E-003   2.2223785537693885E-003   5.7886878652895990E-002
  -1.4735896662716019E-002   3.7634658968262458E-003   5.2638350980523371E-002
  -1.3022164833362208E-002   3.2657523067546740E-003   5.2603818616369175E-002
  -1.1308433004008323E-002   2.8866872933505233E-003   5.2812225384220680E-002
  -9.5947011746544617E-003   2.6262708566142275E-003   5.3263571284078284E-002
  -7.8809693453006265E-003   2.4845029965448462E-003   5.3957856315941535E-002
  -1.7135462251470973E-002   4.3389191669246374E-003   4.8497813507335508E-002
  -1.5182411199431450E-002   3.7726790777823926E-003   4.8504168034239070E-002
  -1.3229360147391969E-002   3.3185504268004873E-003   4.8746221874508333E-002
  -1.1276309095352481E-002   2.9765332139800524E-003   4.9223975028142908E-002
  -9.3232580433129653E-003   2.7466274393203038E-003   4.9937427495143072E-002
  -4.1530981408502352E-003   1.6981296682183622E-003   6.5470703875274205E-002
  -3.6242819846784916E-003   2.0026980605680755E-003   6.4517958537701481E-002
  -3.0954658285067271E-003   2.5328514780242339E-003   6.3693323250455292E-002
  -2.5666496723349801E-003   3.2885899205882113E-003   6.2996798013535138E-002
  -2.0378335161632191E-003   4.2699133882584395E-003   6.2428382826941631E-002
  -5.2958893940692614E-003   1.9602541109939864E-003   6.1724494506007144E-002
  -4.6147253230655119E-003   2.2216537393287550E-003   6.0969977296278288E-002
  -3.9335612520617347E-003   2.8051138324283742E-003   6.0392045865887312E-002
  -3.2523971810579713E-003   3.7106343902934130E-003   5.9990700214833936E-002
  -2.5712331100542080E-003   4.9382154129231637E-003   5.9765940343117885E-002
  -6.5385131288860504E-003   2.2223785537693885E-003   5.7886878652895990E-002
  -5.6565254140389671E-003   2.4406094180893234E-003   5.7427065010669354E-002
  -4.7745376991918595E-003   3.0773761868322091E-003   5.7192312876791496E-002
  -3.8925499843447510E-003   4.1326788599986217E-003   5.7182622251263068E-002
  -3.0105622694976703E-003   5.6065174375877769E-003   5.7397993134083225E-002
  -7.8809693453006265E-003   2.4845029965448462E-003   5.3957856315941535E-002
  -6.7496822575988380E-003   2.6595650968498918E-003   5.3889221680874663E-002
  -5.6183951698970652E-003   3.3496385412364188E-003   5.4094124283168225E-002
  -4.4871080821952489E-003   4.5547233297036048E-003   5.4572564122822242E-002
  -3.3558209944935043E-003   6.2748194622524456E-003   5.5324541199836361E-002
  -9.3232580433129653E-003   2.7466274393203038E-003   4.9937427495143072E-002
  -7.8941958537451784E-003   2.8785207756106823E-003   5.0356447306894259E-002
  -6.4651336641773638E-003   3.6219008956401288E-003   5.1097480085017244E-002
  -5.0360714746095700E-003   4.9767677994092402E-003   5.2160525829512083E-002
  -3.6070092850417623E-003   6.9431214869172253E-003   5.3545584540378388E-002
  -2.0378335161632191E-003   4.2699133882584395E-003   6.2428382826941631E-002
  -2.2847457289261672E-003   5.5622695423218627E-003   5.8384629688329803E-002
  -2.5316579416890840E-003   7.2511060440638708E-003   5.4335891135640413E-002
  -2.7785701544519956E-003   9.3364228934862958E-003   5.0282167168873737E-002
  -3.0254823672149489E-003   1.1818220090586529E-002   4.6223457788030053E-002
  -2.5712331100542080E-003   4.9382154129231637E-003   5.9765940343117885E-002
  -2.8408306442327426E-003   6.5550058335240302E-003   5.6224977071043625E-002
  -3.1104281784112495E-003   8.6281545853020281E-003   5.2643628570215817E-002
  -3.3800257125897598E-003   1.1157661668257782E-002   4.9021894840634156E-002
  -3.6496232467682840E-003   1.4143527082390195E-002   4.5359775882298559E-002
  -3.0105622694976703E-003   5.6065174375877769E-003   5.7397993134083225E-002
  -3.3382449397680505E-003   7.5477421247261978E-003   5.4419697712044524E-002
  -3.6659276100384575E-003   1.0005203126540074E-002   5.1365617246576067E-002
  -3.9936102803088628E-003   1.2978900443029434E-002   4.8235751737677565E-002
  -4.3212929505792447E-003   1.6468834074194083E-002   4.5030101185348559E-002
  -3.3558209944935043E-003   6.2748194622524456E-003   5.5324541199836361E-002
  -3.7769886155321255E-003   8.5404784159282543E-003   5.2968791611331667E-002
  -4.1981562365707454E-003   1.1382251667778065E-002   5.0501857164720457E-002
  -4.6193238576093731E-003   1.4800139217801114E-002   4.7923737860003257E-002
  -5.0404914786479869E-003   1.8794141065997971E-002   4.5234433697179666E-002
  -3.6070092850417623E-003   6.9431214869172253E-003   5.3545584540378388E-002
  -4.1570616715249364E-003   9.5332147071303108E-003   5.1872258768905777E-002
  -4.7071140580081106E-003   1.2759300209015861E-002   5.0052348324650386E-002
  -5.2571664444912916E-003   1.6621377992572746E-002   4.8085853207612467E-002
  -5.8072188309744588E-003   2.1119448057801637E-002   4.5972773417791490E-002
  -4.6713000767683810E-002   3.4728212526170865E-002  -1.1618400029939413E-002
  -4.6309515900941706E-002   2.7897710403788634E-002   6.5961901206779139E-004
  -4.5906031034199643E-002   2.2676416348583389E-002   1.1123071560666081E-002
  -4.5502546167457573E-002   1.9064330360555277E-002   1.9771957615855817E-002
  -4.5099061300715490E-002   1.7061452439703861E-002   2.6606277177636917E-002
  -4.2948690527433914E-002   2.8461575664339045E-002   1.4058219799121807E-003
  -4.3903017801737741E-002   2.4325884641590106E-002   9.8985098878150157E-003
  -4.4857345076041617E-002   2.1081248435122130E-002   1.7490140007034860E-002
  -4.5811672350345542E-002   1.8727667044935080E-002   2.4180712337571339E-002
  -4.6765999624649383E-002   1.7265140471029145E-002   2.9970226879424577E-002
  -4.4676597215379733E-002   2.2194938802507169E-002   1.7483931714844775E-002
  -4.6075227926004214E-002   2.0754058879391524E-002   2.1473135237747687E-002
  -4.7473858636628619E-002   1.9486080521660828E-002   2.5474789676692811E-002
  -4.8872489347252947E-002   1.8391003729315101E-002   2.9488895031680104E-002
  -5.0271120057877400E-002   1.7468828502354344E-002   3.3515451302709554E-002
  -5.1896720831521408E-002   1.5928301940675321E-002   3.6615929174858959E-002
  -5.2826146273740923E-002   1.7182233117192997E-002   3.5383495061865618E-002
  -5.3755571715960404E-002   1.7890912608199507E-002   3.5077020569640113E-002
  -5.4684997158179906E-002   1.8054340413695150E-002   3.5696505698182057E-002
  -5.5614422600399400E-002   1.7672516533679614E-002   3.7241950447491685E-002
  -6.4609061375858867E-002   9.6616650788434733E-003   5.8801814359954019E-002
  -6.4155772844948056E-002   1.3610407354994358E-002   5.1629589360168815E-002
  -6.3702484314037161E-002   1.6295744694738268E-002   4.6296832685876532E-002
  -6.3249195783126308E-002   1.7717677098075008E-002   4.2803544337077393E-002
  -6.2795907252215455E-002   1.7876204565004772E-002   4.1149724313771174E-002
  -4.5099061300715490E-002   1.7061452439703861E-002   2.6606277177636917E-002
  -4.3494143857181353E-002   1.5926006100897283E-002   3.0501901217442590E-002
  -4.1889226413647250E-002   1.4916214859002769E-002   3.3856406942129325E-002
  -4.0284308970113120E-002   1.4032078714020686E-002   3.6669794351697343E-002
  -3.8679391526579010E-002   1.3273597665950876E-002   3.8942063446146424E-002
  -4.6765999624649383E-002   1.7265140471029145E-002   2.9970226879424577E-002
  -4.5556507064004825E-002   1.6290245613541823E-002   3.2278294098899943E-002
  -4.4347014503360288E-002   1.5399559372611192E-002   3.4336629867714921E-002
  -4.3137521942715702E-002   1.4593081748237069E-002   3.6145234185869776E-002
  -4.1928029382071193E-002   1.3870812740419514E-002   3.7704107053364272E-002
  -5.0271120057877400E-002   1.7468828502354344E-002   3.3515451302709554E-002
  -4.9165665515663731E-002   1.6654485126186530E-002   3.4194515221498863E-002
  -4.8060210973450146E-002   1.5882903886219504E-002   3.4915234554086419E-002
  -4.6954756431236547E-002   1.5154084782453395E-002   3.5677609300472257E-002
  -4.5849301889022899E-002   1.4468027814888124E-002   3.6481639460656620E-002
  -5.5614422600399400E-002   1.7672516533679614E-002   3.7241950447491685E-002
  -5.4321619212158126E-002   1.7018724638831098E-002   3.6250564585239203E-002
  -5.3028815823916921E-002   1.6366248399827872E-002   3.5592221001243610E-002
  -5.1736012435675653E-002   1.5715087816669637E-002   3.5266919695505092E-002
  -5.0443209047434441E-002   1.5065242889356775E-002   3.5274660668023330E-002
  -6.2795907252215455E-002   1.7876204565004772E-002   4.1149724313771174E-002
  -6.1024368153487968E-002   1.7382964151475777E-002   3.8446442190121166E-002
  -5.9252829054760509E-002   1.6849592913436184E-002   3.6367589209186896E-002
  -5.7481289956033035E-002   1.6276090850886091E-002   3.4913165370967947E-002
  -5.5709750857305562E-002   1.5662457963825427E-002   3.4083170675464569E-002
  -3.8679391526579010E-002   1.3273597665950876E-002   3.8942063446146424E-002
  -3.6866534043574775E-002   1.2576081955297858E-002   4.0332855219500641E-002
  -3.5053676560570513E-002   1.1874841822566443E-002   4.1672963863240764E-002
  -3.3240819077566257E-002   1.1169877267756329E-002   4.2962389377366392E-002
  -3.1427961594562015E-002   1.0461188290867951E-002   4.4201131761877899E-002
  -4.1928029382071193E-002   1.3870812740419514E-002   3.7704107053364272E-002
  -4.0122735687109098E-002   1.3189680923559682E-002   3.8462554188471193E-002
  -3.8317441992147053E-002   1.2506614872058786E-002   3.9256556877107968E-002
  -3.6512148297185014E-002   1.1821614585916948E-002   4.0086115119274721E-002
  -3.4706854602222920E-002   1.1134680065134128E-002   4.0951228914971050E-002
  -4.5849301889022899E-002   1.4468027814888124E-002   3.6481639460656620E-002
  -4.3965333298958950E-002   1.3803279891821535E-002   3.6609532144953619E-002
  -4.2081364708895008E-002   1.3138387921551288E-002   3.6859219065924619E-002
  -4.0197396118831101E-002   1.2473351904077454E-002   3.7230700223569668E-002
  -3.8313427528767131E-002   1.1808171839400139E-002   3.7723975617888594E-002
  -5.0443209047434441E-002   1.5065242889356775E-002   3.5274660668023330E-002
  -4.8394326879124386E-002   1.4416878860083374E-002   3.4773789088948008E-002
  -4.6345444710814379E-002   1.3770160971043627E-002   3.4480950429690641E-002
  -4.4296562542504379E-002   1.3125089222238071E-002   3.4396144690251339E-002
  -4.2247680374194262E-002   1.2481663613666233E-002   3.4519371870630422E-002
  -5.5709750857305562E-002   1.5662457963825427E-002   3.4083170675464569E-002
  -5.3409716427605336E-002   1.5030477828345185E-002   3.2955325020454174E-002
  -5.1109681997905124E-002   1.4401934020536175E-002   3.2121750968405971E-002
  -4.8809647568204863E-002   1.3776826540398478E-002   3.1582448519319975E-002
  -4.6509613138504685E-002   1.3155155387932216E-002   3.1337417673196311E-002
  -3.1427961594562015E-002   1.0461188290867951E-002   4.4201131761877899E-002
  -2.9721891737019807E-002   9.7314380285674074E-003   4.4751207045460151E-002
  -2.8015821879477570E-002   8.9632896175214083E-003   4.5459782079270539E-002
  -2.6309752021935341E-002   8.1567430577293570E-003   4.6326856863309090E-002
  -2.4603682164393126E-002   7.3117983491917116E-003   4.7352431397575612E-002
  -3.4706854602222920E-002   1.1134680065134128E-002   4.0951228914971050E-002
  -3.2845873982873496E-002   1.0430929343507311E-002   4.1134987133353090E-002
  -3.0984893363524016E-002   9.6954804548334689E-003   4.1470067125121524E-002
  -2.9123912744174620E-002   8.9283333991125001E-003   4.1956468890276377E-002
  -2.7262932124825071E-002   8.1294881763448457E-003   4.2594192428817623E-002
  -3.8313427528767131E-002   1.1808171839400139E-002   3.7723975617888594E-002
  -3.6304714124451999E-002   1.1130420658446855E-002   3.7548116752769103E-002
  -3.4296000720136943E-002   1.0427671292145529E-002   3.7516401684194275E-002
  -3.2287287315821873E-002   9.6999237404956432E-003   3.7628830412164152E-002
  -3.0278573911506818E-002   8.9471780034977577E-003   3.7885402936678941E-002
  -4.2247680374194262E-002   1.2481663613666233E-002   3.4519371870630422E-002
  -4.0098412161755331E-002   1.1829911973386634E-002   3.3990595903707940E-002
  -3.7949143949316304E-002   1.1159862129457479E-002   3.3598785756488649E-002
  -3.5799875736877353E-002   1.0471514081878897E-002   3.3343941428972540E-002
  -3.3650607524438290E-002   9.7648678306506698E-003   3.3226062921159490E-002
  -4.6509613138504685E-002   1.3155155387932216E-002   3.1337417673196311E-002
  -4.4226968094783436E-002   1.2529403288326302E-002   3.0462424586169767E-002
  -4.1944323051062118E-002   1.1892052966769623E-002   2.9717219342004997E-002
  -3.9661678007340891E-002   1.1243104423261978E-002   2.9101801940701305E-002
  -3.7379032963619552E-002   1.0582557657803693E-002   2.8616172382259109E-002
  -2.4603682164393126E-002   7.3117983491917116E-003   4.7352431397575612E-002
  -2.2736627186162567E-002   6.4778855631175136E-003   4.7621507479377767E-002
  -2.0869572207932049E-002   5.7044347707148335E-003   4.7902096524938320E-002
  -1.9002517229701518E-002   4.9914459719836227E-003   4.8194198534257687E-002
  -1.7135462251470973E-002   4.3389191669246374E-003   4.8497813507335508E-002
  -2.7262932124825071E-002   8.1294881763448457E-003   4.2594192428817623E-002
  -2.5357126071291862E-002   7.3377588794049098E-003   4.2587310802101486E-002
  -2.3451320017758757E-002   6.5919596011683734E-003   4.2646418362232125E-002
  -2.1545513964225597E-002   5.8920903416343345E-003   4.2771515109209360E-002
  -1.9639707910692444E-002   5.2381511008038339E-003   4.2962601043033344E-002
  -3.0278573911506818E-002   8.9471780034977577E-003   3.7885402936678941E-002
  -2.8279540559582851E-002   8.1976321956927778E-003   3.7588031626475615E-002
  -2.6280507207658926E-002   7.4794844316220105E-003   3.7411125726207292E-002
  -2.4281473855734960E-002   6.7927347112854315E-003   3.7354685235873812E-002
  -2.2282440503811035E-002   6.1373830346829750E-003   3.7418710155475127E-002
  -3.3650607524438290E-002   9.7648678306506698E-003   3.3226062921159490E-002
  -3.1503870651035416E-002   9.0575055119803544E-003   3.2623669952500337E-002
  -2.9357133777632601E-002   8.3670092620758765E-003   3.2196218616864225E-002
  -2.7210396904229786E-002   7.6933790809364470E-003   3.1943708914250933E-002
  -2.5063660030826919E-002   7.0366149685621993E-003   3.1866140844660905E-002
  -3.7379032963619552E-002   1.0582557657803693E-002   2.8616172382259109E-002
  -3.5030116345649676E-002   9.9173788282682640E-003   2.7694225780175219E-002
  -3.2681199727679716E-002   9.2545340925295205E-003   2.7001697034202354E-002
  -3.0332283109709771E-002   8.5940234505870461E-003   2.6538586144340737E-002
  -2.7983366491739853E-002   7.9358469024412015E-003   2.6304893110590255E-002
  -1.7135462251470973E-002   4.3389191669246374E-003   4.8497813507335508E-002
  -1.5182411199431450E-002   3.7726790777823926E-003   4.8504168034239070E-002
  -1.3229360147391969E-002   3.3185504268004873E-003   4.8746221874508333E-002
  -1.1276309095352481E-002   2.9765332139800524E-003   4.9223975028142908E-002
  -9.3232580433129653E-003   2.7466274393203038E-003   4.9937427495143072E-002
  -1.9639707910692444E-002   5.2381511008038339E-003   4.2962601043033344E-002
  -1.7486568727059608E-002   4.6411940782681849E-003   4.2884930382291908E-002
  -1.5333429543426862E-002   4.1122714736197830E-003   4.2971736671371524E-002
  -1.3180290359794084E-002   3.6513832868585103E-003   4.3223019910272290E-002
  -1.1027151176161279E-002   3.2585295179844431E-003   4.3638780098994245E-002
  -2.2282440503811035E-002   6.1373830346829750E-003   3.7418710155475127E-002
  -2.0000435552129221E-002   5.5097090787545044E-003   3.7212937286814601E-002
  -1.7718430600447466E-002   4.9059925204389815E-003   3.7100419004430882E-002
  -1.5436425648765647E-002   4.3262333597371937E-003   3.7081155308324072E-002
  -1.3154420697083891E-002   3.7704315966486379E-003   3.7155146198494138E-002
  -2.5063660030826919E-002   7.0366149685621993E-003   3.1866140844660905E-002
  -2.2724011674640304E-002   6.3782240792407824E-003   3.1488188747807518E-002
  -2.0384363318453776E-002   5.6997135672583396E-003   3.1132268873686624E-002
  -1.8044714962267259E-002   5.0010834326159308E-003   3.0798381222298526E-002
  -1.5705066606080634E-002   4.2823336753126939E-003   3.0486525793642985E-002
  -2.7983366491739853E-002   7.9358469024412015E-003   2.6304893110590255E-002
  -2.5657297094592746E-002   7.2467390797265607E-003   2.5710684765270275E-002
  -2.3331227697445792E-002   6.4934346140774479E-003   2.5067286279138679E-002
  -2.1005158300298775E-002   5.6759335054943280E-003   2.4374697652195215E-002
  -1.8679088903151730E-002   4.7942357539769720E-003   2.3632918884440191E-002
  -9.3232580433129653E-003   2.7466274393203038E-003   4.9937427495143072E-002
  -7.8941958537451784E-003   2.8785207756106823E-003   5.0356447306894259E-002
  -6.4651336641773638E-003   3.6219008956401288E-003   5.1097480085017244E-002
  -5.0360714746095700E-003   4.9767677994092402E-003   5.2160525829512083E-002
  -3.6070092850417623E-003   6.9431214869172253E-003   5.3545584540378388E-002
  -1.1027151176161279E-002   3.2585295179844431E-003   4.3638780098994245E-002
  -9.2569246688780082E-003   3.1761930992785237E-003   4.4235818407109384E-002
  -7.4866981615946890E-003   3.6468569630218606E-003   4.5193172384283886E-002
  -5.7164716543114148E-003   4.6705211092143845E-003   4.6510842030517807E-002
  -3.9462451470280990E-003   6.2471855378568586E-003   4.8188827345810981E-002
  -1.3154420697083891E-002   3.7704315966486379E-003   3.7155146198494138E-002
  -1.1004727169397405E-002   3.4738654229464205E-003   3.7871716501683389E-002
  -8.8550336417109257E-003   3.6718130304036201E-003   3.8986905176619513E-002
  -6.7053401140245005E-003   4.3642744190198687E-003   4.0500712223302537E-002
  -4.5556465863379608E-003   5.5512495887959923E-003   4.2413137641732740E-002
  -1.5705066606080634E-002   4.2823336753126939E-003   3.0486525793642985E-002
  -1.3137603355303333E-002   3.7715377466144562E-003   3.1264141590615899E-002
  -1.0570140104526088E-002   3.6967690977853102E-003   3.2478678462023826E-002
  -8.0026768537488444E-003   4.0580277288255161E-003   3.4130136407865982E-002
  -5.4352136029715455E-003   4.8553136397352648E-003   3.6218515428142924E-002
  -1.8679088903151730E-002   4.7942357539769720E-003   2.3632918884440191E-002
  -1.5655553226595981E-002   4.0692100702821588E-003   2.4413093673907316E-002
  -1.2632017550040203E-002   3.7217251651670002E-003   2.5668492240497054E-002
  -9.6084818734844257E-003   3.7517810386306916E-003   2.7399114584208628E-002
  -6.5849461969286760E-003   4.1593776906747593E-003   2.9604960705042815E-002
  -3.6070092850417623E-003   6.9431214869172253E-003   5.3545584540378388E-002
  -4.1570616715249364E-003   9.5332147071303108E-003   5.1872258768905777E-002
  -4.7071140580081106E-003   1.2759300209015861E-002   5.0052348324650386E-002
  -5.2571664444912916E-003   1.6621377992572746E-002   4.8085853207612467E-002
  -5.8072188309744588E-003   2.1119448057801637E-002   4.5972773417791490E-002
  -3.9462451470280990E-003   6.2471855378568586E-003   4.8188827345810981E-002
  -4.5388353833413220E-003   8.6851352936418991E-003   4.7252164146722286E-002
  -5.1314256196545865E-003   1.2292655421265980E-002   4.6377009920756107E-002
  -5.7240158559677817E-003   1.7069745920727707E-002   4.5563364667912915E-002
  -6.3166060922810741E-003   2.3016406792027544E-002   4.4811228388191182E-002
  -4.5556465863379608E-003   5.5512495887959923E-003   4.2413137641732740E-002
  -4.9826810265761121E-003   7.8370558801535983E-003   4.2746715105194261E-002
  -5.4097154668141453E-003   1.1826010633515974E-002   4.3349895187683493E-002
  -5.8367499070523191E-003   1.7518113848882553E-002   4.4222677889200361E-002
  -6.2637843472903298E-003   2.4913365526253450E-002   4.5365063209745204E-002
  -5.4352136029715455E-003   4.8553136397352648E-003   3.6218515428142924E-002
  -5.4885986012292009E-003   6.9889764666652421E-003   3.8355911644321151E-002
  -5.5419835994869647E-003   1.1359365845765919E-002   4.0971004125432295E-002
  -5.5953685977446471E-003   1.7966481777037122E-002   4.4063792871476597E-002
  -5.6487535960023857E-003   2.6810324260479357E-002   4.7634277882453613E-002
  -6.5849461969286760E-003   4.1593776906747593E-003   2.9604960705042815E-002
  -6.0565881073007533E-003   6.1408970531764417E-003   3.4079753764103771E-002
  -5.5282300176728028E-003   1.0892721058016142E-002   3.9240336734002734E-002
  -4.9998719280448939E-003   1.8414849705192318E-002   4.5086709614740206E-002
  -4.4715138384169295E-003   2.8707282994705263E-002   5.1618872406316019E-002
  -6.4609061375858867E-002   9.6616650788434733E-003   5.8801814359954019E-002
  -6.4155772844948056E-002   1.3610407354994358E-002   5.1629589360168815E-002
  -6.3702484314037161E-002   1.6295744694738268E-002   4.6296832685876532E-002
  -6.3249195783126308E-002   1.7717677098075008E-002   4.2803544337077393E-002
  -6.2795907252215455E-002   1.7876204565004772E-002   4.1149724313771174E-002
  -7.8138598449889990E-002   1.6724642671060885E-002   4.0878386623405538E-002
  -7.6180226854459104E-002   1.8812686883300539E-002   3.6201359451413367E-002
  -7.4221855259028149E-002   2.0107654471862663E-002   3.2695030082968035E-002
  -7.2263483663597222E-002   2.0609545436747000E-002   3.0359398518069999E-002
  -7.0305112068166337E-002   2.0318359777953543E-002   2.9194464756718941E-002
  -8.7810311655112702E-002   2.3787620263278297E-002   2.0859096666581173E-002
  -8.5015627517107686E-002   2.4014966411606747E-002   1.9147595635111314E-002
  -8.2220943379102684E-002   2.3919564248986919E-002   1.7938021885242489E-002
  -7.9426259241097669E-002   2.3501413775418853E-002   1.7230375416974877E-002
  -7.6631575103092653E-002   2.2760514990902231E-002   1.7024656230308327E-002
  -9.3624200991527060E-002   3.0850597855495709E-002  -1.2560555105192578E-003
  -9.0661974832893885E-002   2.9217245939912859E-002   4.6829791126278345E-004
  -8.7699748674260780E-002   2.7731474026111272E-002   2.0258080926996193E-003
  -8.4737522515627620E-002   2.6393282114090665E-002   3.4164750337920928E-003
  -8.1775296356994515E-002   2.5202670203850960E-002   4.6402987345392326E-003
  -9.5580266459132979E-002   3.7913575447713121E-002  -2.5467069907895379E-002
  -9.3119268801817756E-002   3.4419525468219248E-002  -1.9836533720132332E-002
  -9.0658271144502423E-002   3.1543383803235736E-002  -1.5041611294660140E-002
  -8.8197273487187144E-002   2.9285150452762587E-002  -1.1082302631478982E-002
  -8.5736275829871866E-002   2.7644825416799801E-002  -7.9586077305882630E-003
  -6.2795907252215455E-002   1.7876204565004772E-002   4.1149724313771174E-002
  -6.1024368153487968E-002   1.7382964151475777E-002   3.8446442190121166E-002
  -5.9252829054760509E-002   1.6849592913436184E-002   3.6367589209186896E-002
  -5.7481289956033035E-002   1.6276090850886091E-002   3.4913165370967947E-002
  -5.5709750857305562E-002   1.5662457963825427E-002   3.4083170675464569E-002
  -7.0305112068166337E-002   2.0318359777953543E-002   2.9194464756718941E-002
  -6.8015970991416194E-002   1.9630577853263151E-002   2.7546973883087231E-002
  -6.5726829914666066E-002   1.8942680020456529E-002   2.6310257822785343E-002
  -6.3437688837915923E-002   1.8254666279533500E-002   2.5484316575813223E-002
  -6.1148547761165795E-002   1.7566536630494345E-002   2.5069150142170871E-002
  -7.6631575103092653E-002   2.2760514990902231E-002   1.7024656230308327E-002
  -7.4038486377705659E-002   2.1878191555050552E-002   1.6472971523089144E-002
  -7.1445397652318540E-002   2.1035767127476873E-002   1.6118407299813953E-002
  -6.8852308926931477E-002   2.0233241708181131E-002   1.5960963560482669E-002
  -6.6259220201544483E-002   1.9470615297163346E-002   1.6000640305095640E-002
  -8.1775296356994515E-002   2.5202670203850960E-002   4.6402987345392326E-003
  -7.9091914312356307E-002   2.4125805256838134E-002   5.2244351101265775E-003
  -7.6408532267718057E-002   2.3128854234497162E-002   5.7920376402726126E-003
  -7.3725150223079863E-002   2.2211817136828706E-002   6.3431063249764219E-003
  -7.1041768178441628E-002   2.1374693963832084E-002   6.8776411642389908E-003
  -8.5736275829871866E-002   2.7644825416799801E-002  -7.9586077305882630E-003
  -8.3176254795368221E-002   2.6373418958625383E-002  -6.1986353557996754E-003
  -8.0616233760864520E-002   2.5221941341517590E-002  -4.6688511558391349E-003
  -7.8056212726360819E-002   2.4190392565476067E-002  -3.3692551307052086E-003
  -7.5496191691857173E-002   2.3278772630501265E-002  -2.2998472803993364E-003
  -5.5709750857305562E-002   1.5662457963825427E-002   3.4083170675464569E-002
  -5.3409716427605336E-002   1.5030477828345185E-002   3.2955325020454174E-002
  -5.1109681997905124E-002   1.4401934020536175E-002   3.2121750968405971E-002
  -4.8809647568204863E-002   1.3776826540398478E-002   3.1582448519319975E-002
  -4.6509613138504685E-002   1.3155155387932216E-002   3.1337417673196311E-002
  -6.1148547761165795E-002   1.7566536630494345E-002   2.5069150142170871E-002
  -5.8568816385533379E-002   1.6873589262451055E-002   2.4251812692501679E-002
  -5.5989085009900963E-002   1.6171122364516483E-002   2.3699597531734715E-002
  -5.3409353634268547E-002   1.5459135936690245E-002   2.3412504659869680E-002
  -5.0829622258636131E-002   1.4737629978972433E-002   2.3390534076906944E-002
  -6.6259220201544483E-002   1.9470615297163346E-002   1.6000640305095640E-002
  -6.3428941194040037E-002   1.8716700696557106E-002   1.5480855203205066E-002
  -6.0598662186535604E-002   1.7940310708496630E-002   1.5197043076156304E-002
  -5.7768383179031123E-002   1.7141445332981849E-002   1.5149203923949629E-002
  -5.4938104171526787E-002   1.6320104570012595E-002   1.5337337746584717E-002
  -7.1041768178441628E-002   2.1374693963832084E-002   6.8776411642389908E-003
  -6.7990090853125296E-002   2.0559812130663373E-002   6.6424525525639842E-003
  -6.4938413527809005E-002   1.9709499052476969E-002   6.6140876016704108E-003
  -6.1886736202492694E-002   1.8823754729273310E-002   6.7925463115591231E-003
  -5.8835058877176355E-002   1.7902579161052840E-002   7.1778286822296172E-003
  -7.5496191691857173E-002   2.3278772630501265E-002  -2.2998472803993364E-003
  -7.2252265362789170E-002   2.2402923564769139E-002  -2.2633952594215967E-003
  -6.9008339033721167E-002   2.1478687396457113E-002  -2.0492688917222168E-003
  -6.5764412704653108E-002   2.0506064125565139E-002  -1.6574681773011760E-003
  -6.2520486375585160E-002   1.9485053752092862E-002  -1.0879931161584810E-003
  -4.6509613138504685E-002   1.3155155387932216E-002   3.1337417673196311E-002
  -4.4226968094783436E-002   1.2529403288326302E-002   3.0462424586169767E-002
  -4.1944323051062118E-002   1.1892052966769623E-002   2.9717219342004997E-002
  -3.9661678007340891E-002   1.1243104423261978E-002   2.9101801940701305E-002
  -3.7379032963619552E-002   1.0582557657803693E-002   2.8616172382259109E-002
  -5.0829622258636131E-002   1.4737629978972433E-002   2.3390534076906944E-002
  -4.8410035339108454E-002   1.4012650842534558E-002   2.2729709705316764E-002
  -4.5990448419580734E-002   1.3290244878547935E-002   2.2212981242478003E-002
  -4.3570861500053043E-002   1.2570412087012629E-002   2.1840348688390701E-002
  -4.1151274580525338E-002   1.1853152467928618E-002   2.1611812043054623E-002
  -5.4938104171526787E-002   1.6320104570012595E-002   1.5337337746584717E-002
  -5.2367267310302619E-002   1.5495898396742813E-002   1.4904853484832808E-002
  -4.9796430449078374E-002   1.4688436790326373E-002   1.4630773197722227E-002
  -4.7225593587854234E-002   1.3897719750763395E-002   1.4515096885253126E-002
  -4.4654756726630024E-002   1.3123747278053821E-002   1.4557824547425463E-002
  -5.8835058877176355E-002   1.7902579161052840E-002   7.1778286822296172E-003
  -5.6098664008365794E-002   1.6979145950950958E-002   6.9878559247181435E-003
  -5.3362269139555163E-002   1.6086628702104915E-002   6.9705952077375698E-003
  -5.0625874270744539E-002   1.5225027414514270E-002   7.1260465312891295E-003
  -4.7889479401933971E-002   1.4394342088178552E-002   7.4542098953716135E-003
  -6.2520486375585160E-002   1.9485053752092862E-002  -1.0879931161584810E-003
  -5.9604225433298130E-002   1.8462393505159325E-002  -1.0212829750275154E-003
  -5.6687964491011045E-002   1.7484820613883206E-002  -7.6755272747575098E-004
  -5.3771703548723987E-002   1.6552335078264833E-002  -3.2680237350163344E-004
  -5.0855442606436929E-002   1.5664936898303949E-002   3.0096808689328292E-004
  -3.7379032963619552E-002   1.0582557657803693E-002   2.8616172382259109E-002
  -3.5030116345649676E-002   9.9173788282682640E-003   2.7694225780175219E-002
  -3.2681199727679716E-002   9.2545340925295205E-003   2.7001697034202354E-002
  -3.0332283109709771E-002   8.5940234505870461E-003   2.6538586144340737E-002
  -2.7983366491739853E-002   7.9358469024412015E-003   2.6304893110590255E-002
  -4.1151274580525338E-002   1.1853152467928618E-002   2.1611812043054623E-002
  -3.8606366970034625E-002   1.1135341991250880E-002   2.0924527651260016E-002
  -3.6061459359543968E-002   1.0413856626934254E-002   2.0399807388395530E-002
  -3.3516551749053200E-002   9.6886963749784269E-003   2.0037651254461677E-002
  -3.0971644138562598E-002   8.9598612353833929E-003   1.9838059249457862E-002
  -4.4654756726630024E-002   1.3123747278053821E-002   1.4557824547425463E-002
  -4.1980711850799490E-002   1.2353305154233607E-002   1.4099193384484537E-002
  -3.9306666974968846E-002   1.1573179161338654E-002   1.3736272623293105E-002
  -3.6632622099138284E-002   1.0783369299369863E-002   1.3469062263851202E-002
  -3.3958577223307716E-002   9.9838755683258618E-003   1.3297562306158889E-002
  -4.7889479401933971E-002   1.4394342088178552E-002   7.4542098953716135E-003
  -4.5153150987944216E-002   1.3571268317216501E-002   7.2182229798489553E-003
  -4.2416822573954467E-002   1.2732501695743775E-002   7.0110927388948724E-003
  -3.9680494159964788E-002   1.1878042223761383E-002   6.8328191725095869E-003
  -3.6944165745974970E-002   1.1007889901268414E-002   6.6834022806929183E-003
  -5.0855442606436929E-002   1.5664936898303949E-002   3.0096808689328292E-004
  -4.8123684381468967E-002   1.4789231480198728E-002   2.8161643735302722E-004
  -4.5391926156500839E-002   1.3891824230148231E-002   2.2426773520106691E-004
  -4.2660167931532766E-002   1.2972715148152458E-002   1.2892198043677749E-004
  -3.9928409706564749E-002   1.2031904234210300E-002  -4.4208269395218380E-006
  -2.7983366491739853E-002   7.9358469024412015E-003   2.6304893110590255E-002
  -2.5657297094592746E-002   7.2467390797265607E-003   2.5710684765270275E-002
  -2.3331227697445792E-002   6.4934346140774479E-003   2.5067286279138679E-002
  -2.1005158300298775E-002   5.6759335054943280E-003   2.4374697652195215E-002
  -1.8679088903151730E-002   4.7942357539769720E-003   2.3632918884440191E-002
  -3.0971644138562598E-002   8.9598612353833929E-003   1.9838059249457862E-002
  -2.8676125041760814E-002   8.2266851514977701E-003   1.9229233484743313E-002
  -2.6380605944959015E-002   7.4885020666692614E-003   1.8608497260150181E-002
  -2.4085086848157168E-002   6.7453119808977766E-003   1.7975850575678035E-002
  -2.1789567751355432E-002   5.9971148941831975E-003   1.7331293431327166E-002
  -3.3958577223307716E-002   9.9838755683258618E-003   1.3297562306158889E-002
  -3.1656328745918227E-002   9.2066312232690073E-003   1.2733308764041412E-002
  -2.9354080268528860E-002   8.4835695192608668E-003   1.2194424442977553E-002
  -2.7051831791139465E-002   7.8146904563010065E-003   1.1680909342968060E-002
  -2.4749583313750004E-002   7.1999940343893121E-003   1.1192763464012406E-002
  -3.6944165745974970E-002   1.1007889901268414E-002   6.6834022806929183E-003
  -3.4597908207065139E-002   1.0186577295040231E-002   6.2229106031637255E-003
  -3.2251650668155309E-002   9.4786369718521321E-003   5.8250678276211866E-003
  -2.9905393129245502E-002   8.8840689317040682E-003   5.4898739540653208E-003
  -2.7559135590335654E-002   8.4028731745957042E-003   5.2173289824966329E-003
  -3.9928409706564749E-002   1.2031904234210300E-002  -4.4208269395218380E-006
  -3.7500863425201647E-002   1.1166523366811676E-002  -3.0196099788959430E-004
  -3.5073317143838489E-002   1.0473704424444064E-002  -4.9957258591953879E-004
  -3.2645770862475387E-002   9.9534474071075185E-003  -5.9725559102973003E-004
  -3.0218224581112230E-002   9.6057523148016521E-003  -5.9501001322070923E-004
  -1.8679088903151730E-002   4.7942357539769720E-003   2.3632918884440191E-002
  -1.5655553226595981E-002   4.0692100702821588E-003   2.4413093673907316E-002
  -1.2632017550040203E-002   3.7217251651670002E-003   2.5668492240497054E-002
  -9.6084818734844257E-003   3.7517810386306916E-003   2.7399114584208628E-002
  -6.5849461969286760E-003   4.1593776906747593E-003   2.9604960705042815E-002
  -2.1789567751355432E-002   5.9971148941831975E-003   1.7331293431327166E-002
  -1.8560463180340880E-002   5.3368869638468208E-003   1.8271519670079006E-002
  -1.5331358609326273E-002   4.8576043472094155E-003   1.9147659920626114E-002
  -1.2102254038311791E-002   4.5592670442712660E-003   1.9959714182968574E-002
  -8.8731494672971145E-003   4.4418750550319075E-003   2.0707682457106191E-002
  -2.4749583313750004E-002   7.1999940343893121E-003   1.1192763464012406E-002
  -2.1854219613603787E-002   6.6045638574113719E-003   1.2096445687168611E-002
  -1.8958855913457501E-002   5.9934835292523858E-003   1.2396732156793183E-002
  -1.6063492213311249E-002   5.3667530499113963E-003   1.2093622872885790E-002
  -1.3168128513165053E-002   4.7243724193888337E-003   1.1187117835446625E-002
  -2.7559135590335654E-002   8.4028731745957042E-003   5.2173289824966329E-003
  -2.5536822526384659E-002   7.8722407509759229E-003   5.8878717251767132E-003
  -2.3514509462433851E-002   7.1293627112950231E-003   5.4157089489979687E-003
  -2.1492196398482932E-002   6.1742390555517487E-003   3.8008406539603995E-003
  -1.9469883334532045E-002   5.0068697837459819E-003   1.0432668400637696E-003
  -3.0218224581112230E-002   9.6057523148016521E-003  -5.9501001322070923E-004
  -2.9608271918683760E-002   9.1399176445405850E-003  -3.5420221589715917E-004
  -2.8998319256255178E-002   8.2652418933374938E-003  -1.7954097027598481E-003
  -2.8388366593826680E-002   6.9817250611913101E-003  -4.9186324738079504E-003
  -2.7778413931398127E-002   5.2893671481031301E-003  -9.7238705290423333E-003
  -6.5849461969286760E-003   4.1593776906747593E-003   2.9604960705042815E-002
  -6.0565881073007533E-003   6.1408970531764417E-003   3.4079753764103771E-002
  -5.5282300176728028E-003   1.0892721058016142E-002   3.9240336734002734E-002
  -4.9998719280448939E-003   1.8414849705192318E-002   4.5086709614740206E-002
  -4.4715138384169295E-003   2.8707282994705263E-002   5.1618872406316019E-002
  -8.8731494672971145E-003   4.4418750550319075E-003   2.0707682457106191E-002
  -7.5868823752501813E-003   5.6573001212666951E-003   2.5875315552041867E-002
  -6.3006152832031370E-003   9.3574139847505400E-003   3.1872976740977388E-002
  -5.0143481911560650E-003   1.5542216645482831E-002   3.8700666023912589E-002
  -3.7280810991089375E-003   2.4211708103464069E-002   4.6358383400848524E-002
  -1.3168128513165053E-002   4.7243724193888337E-003   1.1187117835446625E-002
  -1.0979714235537008E-002   5.1737031893563934E-003   1.6761975121168671E-002
  -8.7912999579089976E-003   7.8221069114850217E-003   2.3311098684052289E-002
  -6.6028856802811363E-003   1.2669583585773282E-002   3.0834488524097814E-002
  -4.4144714026531640E-003   1.9716133212223097E-002   3.9332144641305078E-002
  -1.9469883334532045E-002   5.0068697837459819E-003   1.0432668400637696E-003
  -1.6235083688161442E-002   4.6901062574463692E-003   6.7397324714840029E-003
  -1.3000284041790785E-002   6.2867998382194618E-003   1.3554702563227501E-002
  -9.7654843954202812E-003   9.7969505260646524E-003   2.1488177115294740E-002
  -6.5306847490495257E-003   1.5220558320982014E-002   3.0540156127685680E-002
  -2.7778413931398127E-002   5.2893671481031301E-003  -9.7238705290423333E-003
  -2.3352990733123136E-002   4.2065093255359010E-003  -4.1914123970121508E-003
  -1.8927567534848144E-002   4.7514927649537353E-003   2.6037883785037241E-003
  -1.4502144336573236E-002   6.9243174663546486E-003   1.0661731797504209E-002
  -1.0076721138298161E-002   1.0724983429740931E-002   1.9982417859990997E-002
 </DataArray>
 </PointData>
 </Piece>
 </UnstructuredGrid>
 </VTKFile>
