 <VTKFile type="UnstructuredGrid"  version="0.1"   >
 <UnstructuredGrid>
 <Piece  NumberOfPoints="          1600 "  NumberOfCells="         1024 ">
 <Points>
 <DataArray  type="Float64" NumberOfComponents="3"  format="ascii" >
   0.0000000000000000        0.0000000000000000        0.0000000000000000     
   3.1250000000000000E-002   0.0000000000000000        0.0000000000000000     
   6.2500000000000000E-002   0.0000000000000000        0.0000000000000000     
   9.3750000000000000E-002   0.0000000000000000        0.0000000000000000     
  0.12500000000000000        0.0000000000000000        0.0000000000000000     
   0.0000000000000000        3.1250000000000000E-002   0.0000000000000000     
   3.1250000000000000E-002   3.1250000000000000E-002   0.0000000000000000     
   6.2500000000000000E-002   3.1250000000000000E-002   0.0000000000000000     
   9.3750000000000000E-002   3.1250000000000000E-002   0.0000000000000000     
  0.12500000000000000        3.1250000000000000E-002   0.0000000000000000     
   0.0000000000000000        6.2500000000000000E-002   0.0000000000000000     
   3.1250000000000000E-002   6.2500000000000000E-002   0.0000000000000000     
   6.2500000000000000E-002   6.2500000000000000E-002   0.0000000000000000     
   9.3750000000000000E-002   6.2500000000000000E-002   0.0000000000000000     
  0.12500000000000000        6.2500000000000000E-002   0.0000000000000000     
   0.0000000000000000        9.3750000000000000E-002   0.0000000000000000     
   3.1250000000000000E-002   9.3750000000000000E-002   0.0000000000000000     
   6.2500000000000000E-002   9.3750000000000000E-002   0.0000000000000000     
   9.3750000000000000E-002   9.3750000000000000E-002   0.0000000000000000     
  0.12500000000000000        9.3750000000000000E-002   0.0000000000000000     
   0.0000000000000000       0.12500000000000000        0.0000000000000000     
   3.1250000000000000E-002  0.12500000000000000        0.0000000000000000     
   6.2500000000000000E-002  0.12500000000000000        0.0000000000000000     
   9.3750000000000000E-002  0.12500000000000000        0.0000000000000000     
  0.12500000000000000       0.12500000000000000        0.0000000000000000     
  0.12500000000000000        0.0000000000000000        0.0000000000000000     
  0.15625000000000000        0.0000000000000000        0.0000000000000000     
  0.18750000000000000        0.0000000000000000        0.0000000000000000     
  0.21875000000000000        0.0000000000000000        0.0000000000000000     
  0.25000000000000000        0.0000000000000000        0.0000000000000000     
  0.12500000000000000        3.1250000000000000E-002   0.0000000000000000     
  0.15625000000000000        3.1250000000000000E-002   0.0000000000000000     
  0.18750000000000000        3.1250000000000000E-002   0.0000000000000000     
  0.21875000000000000        3.1250000000000000E-002   0.0000000000000000     
  0.25000000000000000        3.1250000000000000E-002   0.0000000000000000     
  0.12500000000000000        6.2500000000000000E-002   0.0000000000000000     
  0.15625000000000000        6.2500000000000000E-002   0.0000000000000000     
  0.18750000000000000        6.2500000000000000E-002   0.0000000000000000     
  0.21875000000000000        6.2500000000000000E-002   0.0000000000000000     
  0.25000000000000000        6.2500000000000000E-002   0.0000000000000000     
  0.12500000000000000        9.3750000000000000E-002   0.0000000000000000     
  0.15625000000000000        9.3750000000000000E-002   0.0000000000000000     
  0.18750000000000000        9.3750000000000000E-002   0.0000000000000000     
  0.21875000000000000        9.3750000000000000E-002   0.0000000000000000     
  0.25000000000000000        9.3750000000000000E-002   0.0000000000000000     
  0.12500000000000000       0.12500000000000000        0.0000000000000000     
  0.15625000000000000       0.12500000000000000        0.0000000000000000     
  0.18750000000000000       0.12500000000000000        0.0000000000000000     
  0.21875000000000000       0.12500000000000000        0.0000000000000000     
  0.25000000000000000       0.12500000000000000        0.0000000000000000     
  0.25000000000000000        0.0000000000000000        0.0000000000000000     
  0.28125000000000000        0.0000000000000000        0.0000000000000000     
  0.31250000000000000        0.0000000000000000        0.0000000000000000     
  0.34375000000000000        0.0000000000000000        0.0000000000000000     
  0.37500000000000000        0.0000000000000000        0.0000000000000000     
  0.25000000000000000        3.1250000000000000E-002   0.0000000000000000     
  0.28125000000000000        3.1250000000000000E-002   0.0000000000000000     
  0.31250000000000000        3.1250000000000000E-002   0.0000000000000000     
  0.34375000000000000        3.1250000000000000E-002   0.0000000000000000     
  0.37500000000000000        3.1250000000000000E-002   0.0000000000000000     
  0.25000000000000000        6.2500000000000000E-002   0.0000000000000000     
  0.28125000000000000        6.2500000000000000E-002   0.0000000000000000     
  0.31250000000000000        6.2500000000000000E-002   0.0000000000000000     
  0.34375000000000000        6.2500000000000000E-002   0.0000000000000000     
  0.37500000000000000        6.2500000000000000E-002   0.0000000000000000     
  0.25000000000000000        9.3750000000000000E-002   0.0000000000000000     
  0.28125000000000000        9.3750000000000000E-002   0.0000000000000000     
  0.31250000000000000        9.3750000000000000E-002   0.0000000000000000     
  0.34375000000000000        9.3750000000000000E-002   0.0000000000000000     
  0.37500000000000000        9.3750000000000000E-002   0.0000000000000000     
  0.25000000000000000       0.12500000000000000        0.0000000000000000     
  0.28125000000000000       0.12500000000000000        0.0000000000000000     
  0.31250000000000000       0.12500000000000000        0.0000000000000000     
  0.34375000000000000       0.12500000000000000        0.0000000000000000     
  0.37500000000000000       0.12500000000000000        0.0000000000000000     
  0.37500000000000000        0.0000000000000000        0.0000000000000000     
  0.40625000000000000        0.0000000000000000        0.0000000000000000     
  0.43750000000000000        0.0000000000000000        0.0000000000000000     
  0.46875000000000000        0.0000000000000000        0.0000000000000000     
  0.50000000000000000        0.0000000000000000        0.0000000000000000     
  0.37500000000000000        3.1250000000000000E-002   0.0000000000000000     
  0.40625000000000000        3.1250000000000000E-002   0.0000000000000000     
  0.43750000000000000        3.1250000000000000E-002   0.0000000000000000     
  0.46875000000000000        3.1250000000000000E-002   0.0000000000000000     
  0.50000000000000000        3.1250000000000000E-002   0.0000000000000000     
  0.37500000000000000        6.2500000000000000E-002   0.0000000000000000     
  0.40625000000000000        6.2500000000000000E-002   0.0000000000000000     
  0.43750000000000000        6.2500000000000000E-002   0.0000000000000000     
  0.46875000000000000        6.2500000000000000E-002   0.0000000000000000     
  0.50000000000000000        6.2500000000000000E-002   0.0000000000000000     
  0.37500000000000000        9.3750000000000000E-002   0.0000000000000000     
  0.40625000000000000        9.3750000000000000E-002   0.0000000000000000     
  0.43750000000000000        9.3750000000000000E-002   0.0000000000000000     
  0.46875000000000000        9.3750000000000000E-002   0.0000000000000000     
  0.50000000000000000        9.3750000000000000E-002   0.0000000000000000     
  0.37500000000000000       0.12500000000000000        0.0000000000000000     
  0.40625000000000000       0.12500000000000000        0.0000000000000000     
  0.43750000000000000       0.12500000000000000        0.0000000000000000     
  0.46875000000000000       0.12500000000000000        0.0000000000000000     
  0.50000000000000000       0.12500000000000000        0.0000000000000000     
  0.50000000000000000        0.0000000000000000        0.0000000000000000     
  0.53125000000000000        0.0000000000000000        0.0000000000000000     
  0.56250000000000000        0.0000000000000000        0.0000000000000000     
  0.59375000000000000        0.0000000000000000        0.0000000000000000     
  0.62500000000000000        0.0000000000000000        0.0000000000000000     
  0.50000000000000000        3.1250000000000000E-002   0.0000000000000000     
  0.53125000000000000        3.1250000000000000E-002   0.0000000000000000     
  0.56250000000000000        3.1250000000000000E-002   0.0000000000000000     
  0.59375000000000000        3.1250000000000000E-002   0.0000000000000000     
  0.62500000000000000        3.1250000000000000E-002   0.0000000000000000     
  0.50000000000000000        6.2500000000000000E-002   0.0000000000000000     
  0.53125000000000000        6.2500000000000000E-002   0.0000000000000000     
  0.56250000000000000        6.2500000000000000E-002   0.0000000000000000     
  0.59375000000000000        6.2500000000000000E-002   0.0000000000000000     
  0.62500000000000000        6.2500000000000000E-002   0.0000000000000000     
  0.50000000000000000        9.3750000000000000E-002   0.0000000000000000     
  0.53125000000000000        9.3750000000000000E-002   0.0000000000000000     
  0.56250000000000000        9.3750000000000000E-002   0.0000000000000000     
  0.59375000000000000        9.3750000000000000E-002   0.0000000000000000     
  0.62500000000000000        9.3750000000000000E-002   0.0000000000000000     
  0.50000000000000000       0.12500000000000000        0.0000000000000000     
  0.53125000000000000       0.12500000000000000        0.0000000000000000     
  0.56250000000000000       0.12500000000000000        0.0000000000000000     
  0.59375000000000000       0.12500000000000000        0.0000000000000000     
  0.62500000000000000       0.12500000000000000        0.0000000000000000     
  0.62500000000000000        0.0000000000000000        0.0000000000000000     
  0.65625000000000000        0.0000000000000000        0.0000000000000000     
  0.68750000000000000        0.0000000000000000        0.0000000000000000     
  0.71875000000000000        0.0000000000000000        0.0000000000000000     
  0.75000000000000000        0.0000000000000000        0.0000000000000000     
  0.62500000000000000        3.1250000000000000E-002   0.0000000000000000     
  0.65625000000000000        3.1250000000000000E-002   0.0000000000000000     
  0.68750000000000000        3.1250000000000000E-002   0.0000000000000000     
  0.71875000000000000        3.1250000000000000E-002   0.0000000000000000     
  0.75000000000000000        3.1250000000000000E-002   0.0000000000000000     
  0.62500000000000000        6.2500000000000000E-002   0.0000000000000000     
  0.65625000000000000        6.2500000000000000E-002   0.0000000000000000     
  0.68750000000000000        6.2500000000000000E-002   0.0000000000000000     
  0.71875000000000000        6.2500000000000000E-002   0.0000000000000000     
  0.75000000000000000        6.2500000000000000E-002   0.0000000000000000     
  0.62500000000000000        9.3750000000000000E-002   0.0000000000000000     
  0.65625000000000000        9.3750000000000000E-002   0.0000000000000000     
  0.68750000000000000        9.3750000000000000E-002   0.0000000000000000     
  0.71875000000000000        9.3750000000000000E-002   0.0000000000000000     
  0.75000000000000000        9.3750000000000000E-002   0.0000000000000000     
  0.62500000000000000       0.12500000000000000        0.0000000000000000     
  0.65625000000000000       0.12500000000000000        0.0000000000000000     
  0.68750000000000000       0.12500000000000000        0.0000000000000000     
  0.71875000000000000       0.12500000000000000        0.0000000000000000     
  0.75000000000000000       0.12500000000000000        0.0000000000000000     
  0.75000000000000000        0.0000000000000000        0.0000000000000000     
  0.78125000000000000        0.0000000000000000        0.0000000000000000     
  0.81250000000000000        0.0000000000000000        0.0000000000000000     
  0.84375000000000000        0.0000000000000000        0.0000000000000000     
  0.87500000000000000        0.0000000000000000        0.0000000000000000     
  0.75000000000000000        3.1250000000000000E-002   0.0000000000000000     
  0.78125000000000000        3.1250000000000000E-002   0.0000000000000000     
  0.81250000000000000        3.1250000000000000E-002   0.0000000000000000     
  0.84375000000000000        3.1250000000000000E-002   0.0000000000000000     
  0.87500000000000000        3.1250000000000000E-002   0.0000000000000000     
  0.75000000000000000        6.2500000000000000E-002   0.0000000000000000     
  0.78125000000000000        6.2500000000000000E-002   0.0000000000000000     
  0.81250000000000000        6.2500000000000000E-002   0.0000000000000000     
  0.84375000000000000        6.2500000000000000E-002   0.0000000000000000     
  0.87500000000000000        6.2500000000000000E-002   0.0000000000000000     
  0.75000000000000000        9.3750000000000000E-002   0.0000000000000000     
  0.78125000000000000        9.3750000000000000E-002   0.0000000000000000     
  0.81250000000000000        9.3750000000000000E-002   0.0000000000000000     
  0.84375000000000000        9.3750000000000000E-002   0.0000000000000000     
  0.87500000000000000        9.3750000000000000E-002   0.0000000000000000     
  0.75000000000000000       0.12500000000000000        0.0000000000000000     
  0.78125000000000000       0.12500000000000000        0.0000000000000000     
  0.81250000000000000       0.12500000000000000        0.0000000000000000     
  0.84375000000000000       0.12500000000000000        0.0000000000000000     
  0.87500000000000000       0.12500000000000000        0.0000000000000000     
  0.87500000000000000        0.0000000000000000        0.0000000000000000     
  0.90625000000000000        0.0000000000000000        0.0000000000000000     
  0.93750000000000000        0.0000000000000000        0.0000000000000000     
  0.96875000000000000        0.0000000000000000        0.0000000000000000     
   1.0000000000000000        0.0000000000000000        0.0000000000000000     
  0.87500000000000000        3.1250000000000000E-002   0.0000000000000000     
  0.90625000000000000        3.1250000000000000E-002   0.0000000000000000     
  0.93750000000000000        3.1250000000000000E-002   0.0000000000000000     
  0.96875000000000000        3.1250000000000000E-002   0.0000000000000000     
   1.0000000000000000        3.1250000000000000E-002   0.0000000000000000     
  0.87500000000000000        6.2500000000000000E-002   0.0000000000000000     
  0.90625000000000000        6.2500000000000000E-002   0.0000000000000000     
  0.93750000000000000        6.2500000000000000E-002   0.0000000000000000     
  0.96875000000000000        6.2500000000000000E-002   0.0000000000000000     
   1.0000000000000000        6.2500000000000000E-002   0.0000000000000000     
  0.87500000000000000        9.3750000000000000E-002   0.0000000000000000     
  0.90625000000000000        9.3750000000000000E-002   0.0000000000000000     
  0.93750000000000000        9.3750000000000000E-002   0.0000000000000000     
  0.96875000000000000        9.3750000000000000E-002   0.0000000000000000     
   1.0000000000000000        9.3750000000000000E-002   0.0000000000000000     
  0.87500000000000000       0.12500000000000000        0.0000000000000000     
  0.90625000000000000       0.12500000000000000        0.0000000000000000     
  0.93750000000000000       0.12500000000000000        0.0000000000000000     
  0.96875000000000000       0.12500000000000000        0.0000000000000000     
   1.0000000000000000       0.12500000000000000        0.0000000000000000     
   0.0000000000000000       0.12500000000000000        0.0000000000000000     
   3.1250000000000000E-002  0.12500000000000000        0.0000000000000000     
   6.2500000000000000E-002  0.12500000000000000        0.0000000000000000     
   9.3750000000000000E-002  0.12500000000000000        0.0000000000000000     
  0.12500000000000000       0.12500000000000000        0.0000000000000000     
   0.0000000000000000       0.15625000000000000        0.0000000000000000     
   3.1250000000000000E-002  0.15625000000000000        0.0000000000000000     
   6.2500000000000000E-002  0.15625000000000000        0.0000000000000000     
   9.3750000000000000E-002  0.15625000000000000        0.0000000000000000     
  0.12500000000000000       0.15625000000000000        0.0000000000000000     
   0.0000000000000000       0.18750000000000000        0.0000000000000000     
   3.1250000000000000E-002  0.18750000000000000        0.0000000000000000     
   6.2500000000000000E-002  0.18750000000000000        0.0000000000000000     
   9.3750000000000000E-002  0.18750000000000000        0.0000000000000000     
  0.12500000000000000       0.18750000000000000        0.0000000000000000     
   0.0000000000000000       0.21875000000000000        0.0000000000000000     
   3.1250000000000000E-002  0.21875000000000000        0.0000000000000000     
   6.2500000000000000E-002  0.21875000000000000        0.0000000000000000     
   9.3750000000000000E-002  0.21875000000000000        0.0000000000000000     
  0.12500000000000000       0.21875000000000000        0.0000000000000000     
   0.0000000000000000       0.25000000000000000        0.0000000000000000     
   3.1250000000000000E-002  0.25000000000000000        0.0000000000000000     
   6.2500000000000000E-002  0.25000000000000000        0.0000000000000000     
   9.3750000000000000E-002  0.25000000000000000        0.0000000000000000     
  0.12500000000000000       0.25000000000000000        0.0000000000000000     
  0.12500000000000000       0.12500000000000000        0.0000000000000000     
  0.15625000000000000       0.12500000000000000        0.0000000000000000     
  0.18750000000000000       0.12500000000000000        0.0000000000000000     
  0.21875000000000000       0.12500000000000000        0.0000000000000000     
  0.25000000000000000       0.12500000000000000        0.0000000000000000     
  0.12500000000000000       0.15625000000000000        0.0000000000000000     
  0.15625000000000000       0.15625000000000000        0.0000000000000000     
  0.18750000000000000       0.15625000000000000        0.0000000000000000     
  0.21875000000000000       0.15625000000000000        0.0000000000000000     
  0.25000000000000000       0.15625000000000000        0.0000000000000000     
  0.12500000000000000       0.18750000000000000        0.0000000000000000     
  0.15625000000000000       0.18750000000000000        0.0000000000000000     
  0.18750000000000000       0.18750000000000000        0.0000000000000000     
  0.21875000000000000       0.18750000000000000        0.0000000000000000     
  0.25000000000000000       0.18750000000000000        0.0000000000000000     
  0.12500000000000000       0.21875000000000000        0.0000000000000000     
  0.15625000000000000       0.21875000000000000        0.0000000000000000     
  0.18750000000000000       0.21875000000000000        0.0000000000000000     
  0.21875000000000000       0.21875000000000000        0.0000000000000000     
  0.25000000000000000       0.21875000000000000        0.0000000000000000     
  0.12500000000000000       0.25000000000000000        0.0000000000000000     
  0.15625000000000000       0.25000000000000000        0.0000000000000000     
  0.18750000000000000       0.25000000000000000        0.0000000000000000     
  0.21875000000000000       0.25000000000000000        0.0000000000000000     
  0.25000000000000000       0.25000000000000000        0.0000000000000000     
  0.25000000000000000       0.12500000000000000        0.0000000000000000     
  0.28125000000000000       0.12500000000000000        0.0000000000000000     
  0.31250000000000000       0.12500000000000000        0.0000000000000000     
  0.34375000000000000       0.12500000000000000        0.0000000000000000     
  0.37500000000000000       0.12500000000000000        0.0000000000000000     
  0.25000000000000000       0.15625000000000000        0.0000000000000000     
  0.28125000000000000       0.15625000000000000        0.0000000000000000     
  0.31250000000000000       0.15625000000000000        0.0000000000000000     
  0.34375000000000000       0.15625000000000000        0.0000000000000000     
  0.37500000000000000       0.15625000000000000        0.0000000000000000     
  0.25000000000000000       0.18750000000000000        0.0000000000000000     
  0.28125000000000000       0.18750000000000000        0.0000000000000000     
  0.31250000000000000       0.18750000000000000        0.0000000000000000     
  0.34375000000000000       0.18750000000000000        0.0000000000000000     
  0.37500000000000000       0.18750000000000000        0.0000000000000000     
  0.25000000000000000       0.21875000000000000        0.0000000000000000     
  0.28125000000000000       0.21875000000000000        0.0000000000000000     
  0.31250000000000000       0.21875000000000000        0.0000000000000000     
  0.34375000000000000       0.21875000000000000        0.0000000000000000     
  0.37500000000000000       0.21875000000000000        0.0000000000000000     
  0.25000000000000000       0.25000000000000000        0.0000000000000000     
  0.28125000000000000       0.25000000000000000        0.0000000000000000     
  0.31250000000000000       0.25000000000000000        0.0000000000000000     
  0.34375000000000000       0.25000000000000000        0.0000000000000000     
  0.37500000000000000       0.25000000000000000        0.0000000000000000     
  0.37500000000000000       0.12500000000000000        0.0000000000000000     
  0.40625000000000000       0.12500000000000000        0.0000000000000000     
  0.43750000000000000       0.12500000000000000        0.0000000000000000     
  0.46875000000000000       0.12500000000000000        0.0000000000000000     
  0.50000000000000000       0.12500000000000000        0.0000000000000000     
  0.37500000000000000       0.15625000000000000        0.0000000000000000     
  0.40625000000000000       0.15625000000000000        0.0000000000000000     
  0.43750000000000000       0.15625000000000000        0.0000000000000000     
  0.46875000000000000       0.15625000000000000        0.0000000000000000     
  0.50000000000000000       0.15625000000000000        0.0000000000000000     
  0.37500000000000000       0.18750000000000000        0.0000000000000000     
  0.40625000000000000       0.18750000000000000        0.0000000000000000     
  0.43750000000000000       0.18750000000000000        0.0000000000000000     
  0.46875000000000000       0.18750000000000000        0.0000000000000000     
  0.50000000000000000       0.18750000000000000        0.0000000000000000     
  0.37500000000000000       0.21875000000000000        0.0000000000000000     
  0.40625000000000000       0.21875000000000000        0.0000000000000000     
  0.43750000000000000       0.21875000000000000        0.0000000000000000     
  0.46875000000000000       0.21875000000000000        0.0000000000000000     
  0.50000000000000000       0.21875000000000000        0.0000000000000000     
  0.37500000000000000       0.25000000000000000        0.0000000000000000     
  0.40625000000000000       0.25000000000000000        0.0000000000000000     
  0.43750000000000000       0.25000000000000000        0.0000000000000000     
  0.46875000000000000       0.25000000000000000        0.0000000000000000     
  0.50000000000000000       0.25000000000000000        0.0000000000000000     
  0.50000000000000000       0.12500000000000000        0.0000000000000000     
  0.53125000000000000       0.12500000000000000        0.0000000000000000     
  0.56250000000000000       0.12500000000000000        0.0000000000000000     
  0.59375000000000000       0.12500000000000000        0.0000000000000000     
  0.62500000000000000       0.12500000000000000        0.0000000000000000     
  0.50000000000000000       0.15625000000000000        0.0000000000000000     
  0.53125000000000000       0.15625000000000000        0.0000000000000000     
  0.56250000000000000       0.15625000000000000        0.0000000000000000     
  0.59375000000000000       0.15625000000000000        0.0000000000000000     
  0.62500000000000000       0.15625000000000000        0.0000000000000000     
  0.50000000000000000       0.18750000000000000        0.0000000000000000     
  0.53125000000000000       0.18750000000000000        0.0000000000000000     
  0.56250000000000000       0.18750000000000000        0.0000000000000000     
  0.59375000000000000       0.18750000000000000        0.0000000000000000     
  0.62500000000000000       0.18750000000000000        0.0000000000000000     
  0.50000000000000000       0.21875000000000000        0.0000000000000000     
  0.53125000000000000       0.21875000000000000        0.0000000000000000     
  0.56250000000000000       0.21875000000000000        0.0000000000000000     
  0.59375000000000000       0.21875000000000000        0.0000000000000000     
  0.62500000000000000       0.21875000000000000        0.0000000000000000     
  0.50000000000000000       0.25000000000000000        0.0000000000000000     
  0.53125000000000000       0.25000000000000000        0.0000000000000000     
  0.56250000000000000       0.25000000000000000        0.0000000000000000     
  0.59375000000000000       0.25000000000000000        0.0000000000000000     
  0.62500000000000000       0.25000000000000000        0.0000000000000000     
  0.62500000000000000       0.12500000000000000        0.0000000000000000     
  0.65625000000000000       0.12500000000000000        0.0000000000000000     
  0.68750000000000000       0.12500000000000000        0.0000000000000000     
  0.71875000000000000       0.12500000000000000        0.0000000000000000     
  0.75000000000000000       0.12500000000000000        0.0000000000000000     
  0.62500000000000000       0.15625000000000000        0.0000000000000000     
  0.65625000000000000       0.15625000000000000        0.0000000000000000     
  0.68750000000000000       0.15625000000000000        0.0000000000000000     
  0.71875000000000000       0.15625000000000000        0.0000000000000000     
  0.75000000000000000       0.15625000000000000        0.0000000000000000     
  0.62500000000000000       0.18750000000000000        0.0000000000000000     
  0.65625000000000000       0.18750000000000000        0.0000000000000000     
  0.68750000000000000       0.18750000000000000        0.0000000000000000     
  0.71875000000000000       0.18750000000000000        0.0000000000000000     
  0.75000000000000000       0.18750000000000000        0.0000000000000000     
  0.62500000000000000       0.21875000000000000        0.0000000000000000     
  0.65625000000000000       0.21875000000000000        0.0000000000000000     
  0.68750000000000000       0.21875000000000000        0.0000000000000000     
  0.71875000000000000       0.21875000000000000        0.0000000000000000     
  0.75000000000000000       0.21875000000000000        0.0000000000000000     
  0.62500000000000000       0.25000000000000000        0.0000000000000000     
  0.65625000000000000       0.25000000000000000        0.0000000000000000     
  0.68750000000000000       0.25000000000000000        0.0000000000000000     
  0.71875000000000000       0.25000000000000000        0.0000000000000000     
  0.75000000000000000       0.25000000000000000        0.0000000000000000     
  0.75000000000000000       0.12500000000000000        0.0000000000000000     
  0.78125000000000000       0.12500000000000000        0.0000000000000000     
  0.81250000000000000       0.12500000000000000        0.0000000000000000     
  0.84375000000000000       0.12500000000000000        0.0000000000000000     
  0.87500000000000000       0.12500000000000000        0.0000000000000000     
  0.75000000000000000       0.15625000000000000        0.0000000000000000     
  0.78125000000000000       0.15625000000000000        0.0000000000000000     
  0.81250000000000000       0.15625000000000000        0.0000000000000000     
  0.84375000000000000       0.15625000000000000        0.0000000000000000     
  0.87500000000000000       0.15625000000000000        0.0000000000000000     
  0.75000000000000000       0.18750000000000000        0.0000000000000000     
  0.78125000000000000       0.18750000000000000        0.0000000000000000     
  0.81250000000000000       0.18750000000000000        0.0000000000000000     
  0.84375000000000000       0.18750000000000000        0.0000000000000000     
  0.87500000000000000       0.18750000000000000        0.0000000000000000     
  0.75000000000000000       0.21875000000000000        0.0000000000000000     
  0.78125000000000000       0.21875000000000000        0.0000000000000000     
  0.81250000000000000       0.21875000000000000        0.0000000000000000     
  0.84375000000000000       0.21875000000000000        0.0000000000000000     
  0.87500000000000000       0.21875000000000000        0.0000000000000000     
  0.75000000000000000       0.25000000000000000        0.0000000000000000     
  0.78125000000000000       0.25000000000000000        0.0000000000000000     
  0.81250000000000000       0.25000000000000000        0.0000000000000000     
  0.84375000000000000       0.25000000000000000        0.0000000000000000     
  0.87500000000000000       0.25000000000000000        0.0000000000000000     
  0.87500000000000000       0.12500000000000000        0.0000000000000000     
  0.90625000000000000       0.12500000000000000        0.0000000000000000     
  0.93750000000000000       0.12500000000000000        0.0000000000000000     
  0.96875000000000000       0.12500000000000000        0.0000000000000000     
   1.0000000000000000       0.12500000000000000        0.0000000000000000     
  0.87500000000000000       0.15625000000000000        0.0000000000000000     
  0.90625000000000000       0.15625000000000000        0.0000000000000000     
  0.93750000000000000       0.15625000000000000        0.0000000000000000     
  0.96875000000000000       0.15625000000000000        0.0000000000000000     
   1.0000000000000000       0.15625000000000000        0.0000000000000000     
  0.87500000000000000       0.18750000000000000        0.0000000000000000     
  0.90625000000000000       0.18750000000000000        0.0000000000000000     
  0.93750000000000000       0.18750000000000000        0.0000000000000000     
  0.96875000000000000       0.18750000000000000        0.0000000000000000     
   1.0000000000000000       0.18750000000000000        0.0000000000000000     
  0.87500000000000000       0.21875000000000000        0.0000000000000000     
  0.90625000000000000       0.21875000000000000        0.0000000000000000     
  0.93750000000000000       0.21875000000000000        0.0000000000000000     
  0.96875000000000000       0.21875000000000000        0.0000000000000000     
   1.0000000000000000       0.21875000000000000        0.0000000000000000     
  0.87500000000000000       0.25000000000000000        0.0000000000000000     
  0.90625000000000000       0.25000000000000000        0.0000000000000000     
  0.93750000000000000       0.25000000000000000        0.0000000000000000     
  0.96875000000000000       0.25000000000000000        0.0000000000000000     
   1.0000000000000000       0.25000000000000000        0.0000000000000000     
   0.0000000000000000       0.25000000000000000        0.0000000000000000     
   3.1250000000000000E-002  0.25000000000000000        0.0000000000000000     
   6.2500000000000000E-002  0.25000000000000000        0.0000000000000000     
   9.3750000000000000E-002  0.25000000000000000        0.0000000000000000     
  0.12500000000000000       0.25000000000000000        0.0000000000000000     
   0.0000000000000000       0.28125000000000000        0.0000000000000000     
   3.1250000000000000E-002  0.28125000000000000        0.0000000000000000     
   6.2500000000000000E-002  0.28125000000000000        0.0000000000000000     
   9.3750000000000000E-002  0.28125000000000000        0.0000000000000000     
  0.12500000000000000       0.28125000000000000        0.0000000000000000     
   0.0000000000000000       0.31250000000000000        0.0000000000000000     
   3.1250000000000000E-002  0.31250000000000000        0.0000000000000000     
   6.2500000000000000E-002  0.31250000000000000        0.0000000000000000     
   9.3750000000000000E-002  0.31250000000000000        0.0000000000000000     
  0.12500000000000000       0.31250000000000000        0.0000000000000000     
   0.0000000000000000       0.34375000000000000        0.0000000000000000     
   3.1250000000000000E-002  0.34375000000000000        0.0000000000000000     
   6.2500000000000000E-002  0.34375000000000000        0.0000000000000000     
   9.3750000000000000E-002  0.34375000000000000        0.0000000000000000     
  0.12500000000000000       0.34375000000000000        0.0000000000000000     
   0.0000000000000000       0.37500000000000000        0.0000000000000000     
   3.1250000000000000E-002  0.37500000000000000        0.0000000000000000     
   6.2500000000000000E-002  0.37500000000000000        0.0000000000000000     
   9.3750000000000000E-002  0.37500000000000000        0.0000000000000000     
  0.12500000000000000       0.37500000000000000        0.0000000000000000     
  0.12500000000000000       0.25000000000000000        0.0000000000000000     
  0.15625000000000000       0.25000000000000000        0.0000000000000000     
  0.18750000000000000       0.25000000000000000        0.0000000000000000     
  0.21875000000000000       0.25000000000000000        0.0000000000000000     
  0.25000000000000000       0.25000000000000000        0.0000000000000000     
  0.12500000000000000       0.28125000000000000        0.0000000000000000     
  0.15625000000000000       0.28125000000000000        0.0000000000000000     
  0.18750000000000000       0.28125000000000000        0.0000000000000000     
  0.21875000000000000       0.28125000000000000        0.0000000000000000     
  0.25000000000000000       0.28125000000000000        0.0000000000000000     
  0.12500000000000000       0.31250000000000000        0.0000000000000000     
  0.15625000000000000       0.31250000000000000        0.0000000000000000     
  0.18750000000000000       0.31250000000000000        0.0000000000000000     
  0.21875000000000000       0.31250000000000000        0.0000000000000000     
  0.25000000000000000       0.31250000000000000        0.0000000000000000     
  0.12500000000000000       0.34375000000000000        0.0000000000000000     
  0.15625000000000000       0.34375000000000000        0.0000000000000000     
  0.18750000000000000       0.34375000000000000        0.0000000000000000     
  0.21875000000000000       0.34375000000000000        0.0000000000000000     
  0.25000000000000000       0.34375000000000000        0.0000000000000000     
  0.12500000000000000       0.37500000000000000        0.0000000000000000     
  0.15625000000000000       0.37500000000000000        0.0000000000000000     
  0.18750000000000000       0.37500000000000000        0.0000000000000000     
  0.21875000000000000       0.37500000000000000        0.0000000000000000     
  0.25000000000000000       0.37500000000000000        0.0000000000000000     
  0.25000000000000000       0.25000000000000000        0.0000000000000000     
  0.28125000000000000       0.25000000000000000        0.0000000000000000     
  0.31250000000000000       0.25000000000000000        0.0000000000000000     
  0.34375000000000000       0.25000000000000000        0.0000000000000000     
  0.37500000000000000       0.25000000000000000        0.0000000000000000     
  0.25000000000000000       0.28125000000000000        0.0000000000000000     
  0.28125000000000000       0.28125000000000000        0.0000000000000000     
  0.31250000000000000       0.28125000000000000        0.0000000000000000     
  0.34375000000000000       0.28125000000000000        0.0000000000000000     
  0.37500000000000000       0.28125000000000000        0.0000000000000000     
  0.25000000000000000       0.31250000000000000        0.0000000000000000     
  0.28125000000000000       0.31250000000000000        0.0000000000000000     
  0.31250000000000000       0.31250000000000000        0.0000000000000000     
  0.34375000000000000       0.31250000000000000        0.0000000000000000     
  0.37500000000000000       0.31250000000000000        0.0000000000000000     
  0.25000000000000000       0.34375000000000000        0.0000000000000000     
  0.28125000000000000       0.34375000000000000        0.0000000000000000     
  0.31250000000000000       0.34375000000000000        0.0000000000000000     
  0.34375000000000000       0.34375000000000000        0.0000000000000000     
  0.37500000000000000       0.34375000000000000        0.0000000000000000     
  0.25000000000000000       0.37500000000000000        0.0000000000000000     
  0.28125000000000000       0.37500000000000000        0.0000000000000000     
  0.31250000000000000       0.37500000000000000        0.0000000000000000     
  0.34375000000000000       0.37500000000000000        0.0000000000000000     
  0.37500000000000000       0.37500000000000000        0.0000000000000000     
  0.37500000000000000       0.25000000000000000        0.0000000000000000     
  0.40625000000000000       0.25000000000000000        0.0000000000000000     
  0.43750000000000000       0.25000000000000000        0.0000000000000000     
  0.46875000000000000       0.25000000000000000        0.0000000000000000     
  0.50000000000000000       0.25000000000000000        0.0000000000000000     
  0.37500000000000000       0.28125000000000000        0.0000000000000000     
  0.40625000000000000       0.28125000000000000        0.0000000000000000     
  0.43750000000000000       0.28125000000000000        0.0000000000000000     
  0.46875000000000000       0.28125000000000000        0.0000000000000000     
  0.50000000000000000       0.28125000000000000        0.0000000000000000     
  0.37500000000000000       0.31250000000000000        0.0000000000000000     
  0.40625000000000000       0.31250000000000000        0.0000000000000000     
  0.43750000000000000       0.31250000000000000        0.0000000000000000     
  0.46875000000000000       0.31250000000000000        0.0000000000000000     
  0.50000000000000000       0.31250000000000000        0.0000000000000000     
  0.37500000000000000       0.34375000000000000        0.0000000000000000     
  0.40625000000000000       0.34375000000000000        0.0000000000000000     
  0.43750000000000000       0.34375000000000000        0.0000000000000000     
  0.46875000000000000       0.34375000000000000        0.0000000000000000     
  0.50000000000000000       0.34375000000000000        0.0000000000000000     
  0.37500000000000000       0.37500000000000000        0.0000000000000000     
  0.40625000000000000       0.37500000000000000        0.0000000000000000     
  0.43750000000000000       0.37500000000000000        0.0000000000000000     
  0.46875000000000000       0.37500000000000000        0.0000000000000000     
  0.50000000000000000       0.37500000000000000        0.0000000000000000     
  0.50000000000000000       0.25000000000000000        0.0000000000000000     
  0.53125000000000000       0.25000000000000000        0.0000000000000000     
  0.56250000000000000       0.25000000000000000        0.0000000000000000     
  0.59375000000000000       0.25000000000000000        0.0000000000000000     
  0.62500000000000000       0.25000000000000000        0.0000000000000000     
  0.50000000000000000       0.28125000000000000        0.0000000000000000     
  0.53125000000000000       0.28125000000000000        0.0000000000000000     
  0.56250000000000000       0.28125000000000000        0.0000000000000000     
  0.59375000000000000       0.28125000000000000        0.0000000000000000     
  0.62500000000000000       0.28125000000000000        0.0000000000000000     
  0.50000000000000000       0.31250000000000000        0.0000000000000000     
  0.53125000000000000       0.31250000000000000        0.0000000000000000     
  0.56250000000000000       0.31250000000000000        0.0000000000000000     
  0.59375000000000000       0.31250000000000000        0.0000000000000000     
  0.62500000000000000       0.31250000000000000        0.0000000000000000     
  0.50000000000000000       0.34375000000000000        0.0000000000000000     
  0.53125000000000000       0.34375000000000000        0.0000000000000000     
  0.56250000000000000       0.34375000000000000        0.0000000000000000     
  0.59375000000000000       0.34375000000000000        0.0000000000000000     
  0.62500000000000000       0.34375000000000000        0.0000000000000000     
  0.50000000000000000       0.37500000000000000        0.0000000000000000     
  0.53125000000000000       0.37500000000000000        0.0000000000000000     
  0.56250000000000000       0.37500000000000000        0.0000000000000000     
  0.59375000000000000       0.37500000000000000        0.0000000000000000     
  0.62500000000000000       0.37500000000000000        0.0000000000000000     
  0.62500000000000000       0.25000000000000000        0.0000000000000000     
  0.65625000000000000       0.25000000000000000        0.0000000000000000     
  0.68750000000000000       0.25000000000000000        0.0000000000000000     
  0.71875000000000000       0.25000000000000000        0.0000000000000000     
  0.75000000000000000       0.25000000000000000        0.0000000000000000     
  0.62500000000000000       0.28125000000000000        0.0000000000000000     
  0.65625000000000000       0.28125000000000000        0.0000000000000000     
  0.68750000000000000       0.28125000000000000        0.0000000000000000     
  0.71875000000000000       0.28125000000000000        0.0000000000000000     
  0.75000000000000000       0.28125000000000000        0.0000000000000000     
  0.62500000000000000       0.31250000000000000        0.0000000000000000     
  0.65625000000000000       0.31250000000000000        0.0000000000000000     
  0.68750000000000000       0.31250000000000000        0.0000000000000000     
  0.71875000000000000       0.31250000000000000        0.0000000000000000     
  0.75000000000000000       0.31250000000000000        0.0000000000000000     
  0.62500000000000000       0.34375000000000000        0.0000000000000000     
  0.65625000000000000       0.34375000000000000        0.0000000000000000     
  0.68750000000000000       0.34375000000000000        0.0000000000000000     
  0.71875000000000000       0.34375000000000000        0.0000000000000000     
  0.75000000000000000       0.34375000000000000        0.0000000000000000     
  0.62500000000000000       0.37500000000000000        0.0000000000000000     
  0.65625000000000000       0.37500000000000000        0.0000000000000000     
  0.68750000000000000       0.37500000000000000        0.0000000000000000     
  0.71875000000000000       0.37500000000000000        0.0000000000000000     
  0.75000000000000000       0.37500000000000000        0.0000000000000000     
  0.75000000000000000       0.25000000000000000        0.0000000000000000     
  0.78125000000000000       0.25000000000000000        0.0000000000000000     
  0.81250000000000000       0.25000000000000000        0.0000000000000000     
  0.84375000000000000       0.25000000000000000        0.0000000000000000     
  0.87500000000000000       0.25000000000000000        0.0000000000000000     
  0.75000000000000000       0.28125000000000000        0.0000000000000000     
  0.78125000000000000       0.28125000000000000        0.0000000000000000     
  0.81250000000000000       0.28125000000000000        0.0000000000000000     
  0.84375000000000000       0.28125000000000000        0.0000000000000000     
  0.87500000000000000       0.28125000000000000        0.0000000000000000     
  0.75000000000000000       0.31250000000000000        0.0000000000000000     
  0.78125000000000000       0.31250000000000000        0.0000000000000000     
  0.81250000000000000       0.31250000000000000        0.0000000000000000     
  0.84375000000000000       0.31250000000000000        0.0000000000000000     
  0.87500000000000000       0.31250000000000000        0.0000000000000000     
  0.75000000000000000       0.34375000000000000        0.0000000000000000     
  0.78125000000000000       0.34375000000000000        0.0000000000000000     
  0.81250000000000000       0.34375000000000000        0.0000000000000000     
  0.84375000000000000       0.34375000000000000        0.0000000000000000     
  0.87500000000000000       0.34375000000000000        0.0000000000000000     
  0.75000000000000000       0.37500000000000000        0.0000000000000000     
  0.78125000000000000       0.37500000000000000        0.0000000000000000     
  0.81250000000000000       0.37500000000000000        0.0000000000000000     
  0.84375000000000000       0.37500000000000000        0.0000000000000000     
  0.87500000000000000       0.37500000000000000        0.0000000000000000     
  0.87500000000000000       0.25000000000000000        0.0000000000000000     
  0.90625000000000000       0.25000000000000000        0.0000000000000000     
  0.93750000000000000       0.25000000000000000        0.0000000000000000     
  0.96875000000000000       0.25000000000000000        0.0000000000000000     
   1.0000000000000000       0.25000000000000000        0.0000000000000000     
  0.87500000000000000       0.28125000000000000        0.0000000000000000     
  0.90625000000000000       0.28125000000000000        0.0000000000000000     
  0.93750000000000000       0.28125000000000000        0.0000000000000000     
  0.96875000000000000       0.28125000000000000        0.0000000000000000     
   1.0000000000000000       0.28125000000000000        0.0000000000000000     
  0.87500000000000000       0.31250000000000000        0.0000000000000000     
  0.90625000000000000       0.31250000000000000        0.0000000000000000     
  0.93750000000000000       0.31250000000000000        0.0000000000000000     
  0.96875000000000000       0.31250000000000000        0.0000000000000000     
   1.0000000000000000       0.31250000000000000        0.0000000000000000     
  0.87500000000000000       0.34375000000000000        0.0000000000000000     
  0.90625000000000000       0.34375000000000000        0.0000000000000000     
  0.93750000000000000       0.34375000000000000        0.0000000000000000     
  0.96875000000000000       0.34375000000000000        0.0000000000000000     
   1.0000000000000000       0.34375000000000000        0.0000000000000000     
  0.87500000000000000       0.37500000000000000        0.0000000000000000     
  0.90625000000000000       0.37500000000000000        0.0000000000000000     
  0.93750000000000000       0.37500000000000000        0.0000000000000000     
  0.96875000000000000       0.37500000000000000        0.0000000000000000     
   1.0000000000000000       0.37500000000000000        0.0000000000000000     
   0.0000000000000000       0.37500000000000000        0.0000000000000000     
   3.1250000000000000E-002  0.37500000000000000        0.0000000000000000     
   6.2500000000000000E-002  0.37500000000000000        0.0000000000000000     
   9.3750000000000000E-002  0.37500000000000000        0.0000000000000000     
  0.12500000000000000       0.37500000000000000        0.0000000000000000     
   0.0000000000000000       0.40625000000000000        0.0000000000000000     
   3.1250000000000000E-002  0.40625000000000000        0.0000000000000000     
   6.2500000000000000E-002  0.40625000000000000        0.0000000000000000     
   9.3750000000000000E-002  0.40625000000000000        0.0000000000000000     
  0.12500000000000000       0.40625000000000000        0.0000000000000000     
   0.0000000000000000       0.43750000000000000        0.0000000000000000     
   3.1250000000000000E-002  0.43750000000000000        0.0000000000000000     
   6.2500000000000000E-002  0.43750000000000000        0.0000000000000000     
   9.3750000000000000E-002  0.43750000000000000        0.0000000000000000     
  0.12500000000000000       0.43750000000000000        0.0000000000000000     
   0.0000000000000000       0.46875000000000000        0.0000000000000000     
   3.1250000000000000E-002  0.46875000000000000        0.0000000000000000     
   6.2500000000000000E-002  0.46875000000000000        0.0000000000000000     
   9.3750000000000000E-002  0.46875000000000000        0.0000000000000000     
  0.12500000000000000       0.46875000000000000        0.0000000000000000     
   0.0000000000000000       0.50000000000000000        0.0000000000000000     
   3.1250000000000000E-002  0.50000000000000000        0.0000000000000000     
   6.2500000000000000E-002  0.50000000000000000        0.0000000000000000     
   9.3750000000000000E-002  0.50000000000000000        0.0000000000000000     
  0.12500000000000000       0.50000000000000000        0.0000000000000000     
  0.12500000000000000       0.37500000000000000        0.0000000000000000     
  0.15625000000000000       0.37500000000000000        0.0000000000000000     
  0.18750000000000000       0.37500000000000000        0.0000000000000000     
  0.21875000000000000       0.37500000000000000        0.0000000000000000     
  0.25000000000000000       0.37500000000000000        0.0000000000000000     
  0.12500000000000000       0.40625000000000000        0.0000000000000000     
  0.15625000000000000       0.40625000000000000        0.0000000000000000     
  0.18750000000000000       0.40625000000000000        0.0000000000000000     
  0.21875000000000000       0.40625000000000000        0.0000000000000000     
  0.25000000000000000       0.40625000000000000        0.0000000000000000     
  0.12500000000000000       0.43750000000000000        0.0000000000000000     
  0.15625000000000000       0.43750000000000000        0.0000000000000000     
  0.18750000000000000       0.43750000000000000        0.0000000000000000     
  0.21875000000000000       0.43750000000000000        0.0000000000000000     
  0.25000000000000000       0.43750000000000000        0.0000000000000000     
  0.12500000000000000       0.46875000000000000        0.0000000000000000     
  0.15625000000000000       0.46875000000000000        0.0000000000000000     
  0.18750000000000000       0.46875000000000000        0.0000000000000000     
  0.21875000000000000       0.46875000000000000        0.0000000000000000     
  0.25000000000000000       0.46875000000000000        0.0000000000000000     
  0.12500000000000000       0.50000000000000000        0.0000000000000000     
  0.15625000000000000       0.50000000000000000        0.0000000000000000     
  0.18750000000000000       0.50000000000000000        0.0000000000000000     
  0.21875000000000000       0.50000000000000000        0.0000000000000000     
  0.25000000000000000       0.50000000000000000        0.0000000000000000     
  0.25000000000000000       0.37500000000000000        0.0000000000000000     
  0.28125000000000000       0.37500000000000000        0.0000000000000000     
  0.31250000000000000       0.37500000000000000        0.0000000000000000     
  0.34375000000000000       0.37500000000000000        0.0000000000000000     
  0.37500000000000000       0.37500000000000000        0.0000000000000000     
  0.25000000000000000       0.40625000000000000        0.0000000000000000     
  0.28125000000000000       0.40625000000000000        0.0000000000000000     
  0.31250000000000000       0.40625000000000000        0.0000000000000000     
  0.34375000000000000       0.40625000000000000        0.0000000000000000     
  0.37500000000000000       0.40625000000000000        0.0000000000000000     
  0.25000000000000000       0.43750000000000000        0.0000000000000000     
  0.28125000000000000       0.43750000000000000        0.0000000000000000     
  0.31250000000000000       0.43750000000000000        0.0000000000000000     
  0.34375000000000000       0.43750000000000000        0.0000000000000000     
  0.37500000000000000       0.43750000000000000        0.0000000000000000     
  0.25000000000000000       0.46875000000000000        0.0000000000000000     
  0.28125000000000000       0.46875000000000000        0.0000000000000000     
  0.31250000000000000       0.46875000000000000        0.0000000000000000     
  0.34375000000000000       0.46875000000000000        0.0000000000000000     
  0.37500000000000000       0.46875000000000000        0.0000000000000000     
  0.25000000000000000       0.50000000000000000        0.0000000000000000     
  0.28125000000000000       0.50000000000000000        0.0000000000000000     
  0.31250000000000000       0.50000000000000000        0.0000000000000000     
  0.34375000000000000       0.50000000000000000        0.0000000000000000     
  0.37500000000000000       0.50000000000000000        0.0000000000000000     
  0.37500000000000000       0.37500000000000000        0.0000000000000000     
  0.40625000000000000       0.37500000000000000        0.0000000000000000     
  0.43750000000000000       0.37500000000000000        0.0000000000000000     
  0.46875000000000000       0.37500000000000000        0.0000000000000000     
  0.50000000000000000       0.37500000000000000        0.0000000000000000     
  0.37500000000000000       0.40625000000000000        0.0000000000000000     
  0.40625000000000000       0.40625000000000000        0.0000000000000000     
  0.43750000000000000       0.40625000000000000        0.0000000000000000     
  0.46875000000000000       0.40625000000000000        0.0000000000000000     
  0.50000000000000000       0.40625000000000000        0.0000000000000000     
  0.37500000000000000       0.43750000000000000        0.0000000000000000     
  0.40625000000000000       0.43750000000000000        0.0000000000000000     
  0.43750000000000000       0.43750000000000000        0.0000000000000000     
  0.46875000000000000       0.43750000000000000        0.0000000000000000     
  0.50000000000000000       0.43750000000000000        0.0000000000000000     
  0.37500000000000000       0.46875000000000000        0.0000000000000000     
  0.40625000000000000       0.46875000000000000        0.0000000000000000     
  0.43750000000000000       0.46875000000000000        0.0000000000000000     
  0.46875000000000000       0.46875000000000000        0.0000000000000000     
  0.50000000000000000       0.46875000000000000        0.0000000000000000     
  0.37500000000000000       0.50000000000000000        0.0000000000000000     
  0.40625000000000000       0.50000000000000000        0.0000000000000000     
  0.43750000000000000       0.50000000000000000        0.0000000000000000     
  0.46875000000000000       0.50000000000000000        0.0000000000000000     
  0.50000000000000000       0.50000000000000000        0.0000000000000000     
  0.50000000000000000       0.37500000000000000        0.0000000000000000     
  0.53125000000000000       0.37500000000000000        0.0000000000000000     
  0.56250000000000000       0.37500000000000000        0.0000000000000000     
  0.59375000000000000       0.37500000000000000        0.0000000000000000     
  0.62500000000000000       0.37500000000000000        0.0000000000000000     
  0.50000000000000000       0.40625000000000000        0.0000000000000000     
  0.53125000000000000       0.40625000000000000        0.0000000000000000     
  0.56250000000000000       0.40625000000000000        0.0000000000000000     
  0.59375000000000000       0.40625000000000000        0.0000000000000000     
  0.62500000000000000       0.40625000000000000        0.0000000000000000     
  0.50000000000000000       0.43750000000000000        0.0000000000000000     
  0.53125000000000000       0.43750000000000000        0.0000000000000000     
  0.56250000000000000       0.43750000000000000        0.0000000000000000     
  0.59375000000000000       0.43750000000000000        0.0000000000000000     
  0.62500000000000000       0.43750000000000000        0.0000000000000000     
  0.50000000000000000       0.46875000000000000        0.0000000000000000     
  0.53125000000000000       0.46875000000000000        0.0000000000000000     
  0.56250000000000000       0.46875000000000000        0.0000000000000000     
  0.59375000000000000       0.46875000000000000        0.0000000000000000     
  0.62500000000000000       0.46875000000000000        0.0000000000000000     
  0.50000000000000000       0.50000000000000000        0.0000000000000000     
  0.53125000000000000       0.50000000000000000        0.0000000000000000     
  0.56250000000000000       0.50000000000000000        0.0000000000000000     
  0.59375000000000000       0.50000000000000000        0.0000000000000000     
  0.62500000000000000       0.50000000000000000        0.0000000000000000     
  0.62500000000000000       0.37500000000000000        0.0000000000000000     
  0.65625000000000000       0.37500000000000000        0.0000000000000000     
  0.68750000000000000       0.37500000000000000        0.0000000000000000     
  0.71875000000000000       0.37500000000000000        0.0000000000000000     
  0.75000000000000000       0.37500000000000000        0.0000000000000000     
  0.62500000000000000       0.40625000000000000        0.0000000000000000     
  0.65625000000000000       0.40625000000000000        0.0000000000000000     
  0.68750000000000000       0.40625000000000000        0.0000000000000000     
  0.71875000000000000       0.40625000000000000        0.0000000000000000     
  0.75000000000000000       0.40625000000000000        0.0000000000000000     
  0.62500000000000000       0.43750000000000000        0.0000000000000000     
  0.65625000000000000       0.43750000000000000        0.0000000000000000     
  0.68750000000000000       0.43750000000000000        0.0000000000000000     
  0.71875000000000000       0.43750000000000000        0.0000000000000000     
  0.75000000000000000       0.43750000000000000        0.0000000000000000     
  0.62500000000000000       0.46875000000000000        0.0000000000000000     
  0.65625000000000000       0.46875000000000000        0.0000000000000000     
  0.68750000000000000       0.46875000000000000        0.0000000000000000     
  0.71875000000000000       0.46875000000000000        0.0000000000000000     
  0.75000000000000000       0.46875000000000000        0.0000000000000000     
  0.62500000000000000       0.50000000000000000        0.0000000000000000     
  0.65625000000000000       0.50000000000000000        0.0000000000000000     
  0.68750000000000000       0.50000000000000000        0.0000000000000000     
  0.71875000000000000       0.50000000000000000        0.0000000000000000     
  0.75000000000000000       0.50000000000000000        0.0000000000000000     
  0.75000000000000000       0.37500000000000000        0.0000000000000000     
  0.78125000000000000       0.37500000000000000        0.0000000000000000     
  0.81250000000000000       0.37500000000000000        0.0000000000000000     
  0.84375000000000000       0.37500000000000000        0.0000000000000000     
  0.87500000000000000       0.37500000000000000        0.0000000000000000     
  0.75000000000000000       0.40625000000000000        0.0000000000000000     
  0.78125000000000000       0.40625000000000000        0.0000000000000000     
  0.81250000000000000       0.40625000000000000        0.0000000000000000     
  0.84375000000000000       0.40625000000000000        0.0000000000000000     
  0.87500000000000000       0.40625000000000000        0.0000000000000000     
  0.75000000000000000       0.43750000000000000        0.0000000000000000     
  0.78125000000000000       0.43750000000000000        0.0000000000000000     
  0.81250000000000000       0.43750000000000000        0.0000000000000000     
  0.84375000000000000       0.43750000000000000        0.0000000000000000     
  0.87500000000000000       0.43750000000000000        0.0000000000000000     
  0.75000000000000000       0.46875000000000000        0.0000000000000000     
  0.78125000000000000       0.46875000000000000        0.0000000000000000     
  0.81250000000000000       0.46875000000000000        0.0000000000000000     
  0.84375000000000000       0.46875000000000000        0.0000000000000000     
  0.87500000000000000       0.46875000000000000        0.0000000000000000     
  0.75000000000000000       0.50000000000000000        0.0000000000000000     
  0.78125000000000000       0.50000000000000000        0.0000000000000000     
  0.81250000000000000       0.50000000000000000        0.0000000000000000     
  0.84375000000000000       0.50000000000000000        0.0000000000000000     
  0.87500000000000000       0.50000000000000000        0.0000000000000000     
  0.87500000000000000       0.37500000000000000        0.0000000000000000     
  0.90625000000000000       0.37500000000000000        0.0000000000000000     
  0.93750000000000000       0.37500000000000000        0.0000000000000000     
  0.96875000000000000       0.37500000000000000        0.0000000000000000     
   1.0000000000000000       0.37500000000000000        0.0000000000000000     
  0.87500000000000000       0.40625000000000000        0.0000000000000000     
  0.90625000000000000       0.40625000000000000        0.0000000000000000     
  0.93750000000000000       0.40625000000000000        0.0000000000000000     
  0.96875000000000000       0.40625000000000000        0.0000000000000000     
   1.0000000000000000       0.40625000000000000        0.0000000000000000     
  0.87500000000000000       0.43750000000000000        0.0000000000000000     
  0.90625000000000000       0.43750000000000000        0.0000000000000000     
  0.93750000000000000       0.43750000000000000        0.0000000000000000     
  0.96875000000000000       0.43750000000000000        0.0000000000000000     
   1.0000000000000000       0.43750000000000000        0.0000000000000000     
  0.87500000000000000       0.46875000000000000        0.0000000000000000     
  0.90625000000000000       0.46875000000000000        0.0000000000000000     
  0.93750000000000000       0.46875000000000000        0.0000000000000000     
  0.96875000000000000       0.46875000000000000        0.0000000000000000     
   1.0000000000000000       0.46875000000000000        0.0000000000000000     
  0.87500000000000000       0.50000000000000000        0.0000000000000000     
  0.90625000000000000       0.50000000000000000        0.0000000000000000     
  0.93750000000000000       0.50000000000000000        0.0000000000000000     
  0.96875000000000000       0.50000000000000000        0.0000000000000000     
   1.0000000000000000       0.50000000000000000        0.0000000000000000     
   0.0000000000000000       0.50000000000000000        0.0000000000000000     
   3.1250000000000000E-002  0.50000000000000000        0.0000000000000000     
   6.2500000000000000E-002  0.50000000000000000        0.0000000000000000     
   9.3750000000000000E-002  0.50000000000000000        0.0000000000000000     
  0.12500000000000000       0.50000000000000000        0.0000000000000000     
   0.0000000000000000       0.53125000000000000        0.0000000000000000     
   3.1250000000000000E-002  0.53125000000000000        0.0000000000000000     
   6.2500000000000000E-002  0.53125000000000000        0.0000000000000000     
   9.3750000000000000E-002  0.53125000000000000        0.0000000000000000     
  0.12500000000000000       0.53125000000000000        0.0000000000000000     
   0.0000000000000000       0.56250000000000000        0.0000000000000000     
   3.1250000000000000E-002  0.56250000000000000        0.0000000000000000     
   6.2500000000000000E-002  0.56250000000000000        0.0000000000000000     
   9.3750000000000000E-002  0.56250000000000000        0.0000000000000000     
  0.12500000000000000       0.56250000000000000        0.0000000000000000     
   0.0000000000000000       0.59375000000000000        0.0000000000000000     
   3.1250000000000000E-002  0.59375000000000000        0.0000000000000000     
   6.2500000000000000E-002  0.59375000000000000        0.0000000000000000     
   9.3750000000000000E-002  0.59375000000000000        0.0000000000000000     
  0.12500000000000000       0.59375000000000000        0.0000000000000000     
   0.0000000000000000       0.62500000000000000        0.0000000000000000     
   3.1250000000000000E-002  0.62500000000000000        0.0000000000000000     
   6.2500000000000000E-002  0.62500000000000000        0.0000000000000000     
   9.3750000000000000E-002  0.62500000000000000        0.0000000000000000     
  0.12500000000000000       0.62500000000000000        0.0000000000000000     
  0.12500000000000000       0.50000000000000000        0.0000000000000000     
  0.15625000000000000       0.50000000000000000        0.0000000000000000     
  0.18750000000000000       0.50000000000000000        0.0000000000000000     
  0.21875000000000000       0.50000000000000000        0.0000000000000000     
  0.25000000000000000       0.50000000000000000        0.0000000000000000     
  0.12500000000000000       0.53125000000000000        0.0000000000000000     
  0.15625000000000000       0.53125000000000000        0.0000000000000000     
  0.18750000000000000       0.53125000000000000        0.0000000000000000     
  0.21875000000000000       0.53125000000000000        0.0000000000000000     
  0.25000000000000000       0.53125000000000000        0.0000000000000000     
  0.12500000000000000       0.56250000000000000        0.0000000000000000     
  0.15625000000000000       0.56250000000000000        0.0000000000000000     
  0.18750000000000000       0.56250000000000000        0.0000000000000000     
  0.21875000000000000       0.56250000000000000        0.0000000000000000     
  0.25000000000000000       0.56250000000000000        0.0000000000000000     
  0.12500000000000000       0.59375000000000000        0.0000000000000000     
  0.15625000000000000       0.59375000000000000        0.0000000000000000     
  0.18750000000000000       0.59375000000000000        0.0000000000000000     
  0.21875000000000000       0.59375000000000000        0.0000000000000000     
  0.25000000000000000       0.59375000000000000        0.0000000000000000     
  0.12500000000000000       0.62500000000000000        0.0000000000000000     
  0.15625000000000000       0.62500000000000000        0.0000000000000000     
  0.18750000000000000       0.62500000000000000        0.0000000000000000     
  0.21875000000000000       0.62500000000000000        0.0000000000000000     
  0.25000000000000000       0.62500000000000000        0.0000000000000000     
  0.25000000000000000       0.50000000000000000        0.0000000000000000     
  0.28125000000000000       0.50000000000000000        0.0000000000000000     
  0.31250000000000000       0.50000000000000000        0.0000000000000000     
  0.34375000000000000       0.50000000000000000        0.0000000000000000     
  0.37500000000000000       0.50000000000000000        0.0000000000000000     
  0.25000000000000000       0.53125000000000000        0.0000000000000000     
  0.28125000000000000       0.53125000000000000        0.0000000000000000     
  0.31250000000000000       0.53125000000000000        0.0000000000000000     
  0.34375000000000000       0.53125000000000000        0.0000000000000000     
  0.37500000000000000       0.53125000000000000        0.0000000000000000     
  0.25000000000000000       0.56250000000000000        0.0000000000000000     
  0.28125000000000000       0.56250000000000000        0.0000000000000000     
  0.31250000000000000       0.56250000000000000        0.0000000000000000     
  0.34375000000000000       0.56250000000000000        0.0000000000000000     
  0.37500000000000000       0.56250000000000000        0.0000000000000000     
  0.25000000000000000       0.59375000000000000        0.0000000000000000     
  0.28125000000000000       0.59375000000000000        0.0000000000000000     
  0.31250000000000000       0.59375000000000000        0.0000000000000000     
  0.34375000000000000       0.59375000000000000        0.0000000000000000     
  0.37500000000000000       0.59375000000000000        0.0000000000000000     
  0.25000000000000000       0.62500000000000000        0.0000000000000000     
  0.28125000000000000       0.62500000000000000        0.0000000000000000     
  0.31250000000000000       0.62500000000000000        0.0000000000000000     
  0.34375000000000000       0.62500000000000000        0.0000000000000000     
  0.37500000000000000       0.62500000000000000        0.0000000000000000     
  0.37500000000000000       0.50000000000000000        0.0000000000000000     
  0.40625000000000000       0.50000000000000000        0.0000000000000000     
  0.43750000000000000       0.50000000000000000        0.0000000000000000     
  0.46875000000000000       0.50000000000000000        0.0000000000000000     
  0.50000000000000000       0.50000000000000000        0.0000000000000000     
  0.37500000000000000       0.53125000000000000        0.0000000000000000     
  0.40625000000000000       0.53125000000000000        0.0000000000000000     
  0.43750000000000000       0.53125000000000000        0.0000000000000000     
  0.46875000000000000       0.53125000000000000        0.0000000000000000     
  0.50000000000000000       0.53125000000000000        0.0000000000000000     
  0.37500000000000000       0.56250000000000000        0.0000000000000000     
  0.40625000000000000       0.56250000000000000        0.0000000000000000     
  0.43750000000000000       0.56250000000000000        0.0000000000000000     
  0.46875000000000000       0.56250000000000000        0.0000000000000000     
  0.50000000000000000       0.56250000000000000        0.0000000000000000     
  0.37500000000000000       0.59375000000000000        0.0000000000000000     
  0.40625000000000000       0.59375000000000000        0.0000000000000000     
  0.43750000000000000       0.59375000000000000        0.0000000000000000     
  0.46875000000000000       0.59375000000000000        0.0000000000000000     
  0.50000000000000000       0.59375000000000000        0.0000000000000000     
  0.37500000000000000       0.62500000000000000        0.0000000000000000     
  0.40625000000000000       0.62500000000000000        0.0000000000000000     
  0.43750000000000000       0.62500000000000000        0.0000000000000000     
  0.46875000000000000       0.62500000000000000        0.0000000000000000     
  0.50000000000000000       0.62500000000000000        0.0000000000000000     
  0.50000000000000000       0.50000000000000000        0.0000000000000000     
  0.53125000000000000       0.50000000000000000        0.0000000000000000     
  0.56250000000000000       0.50000000000000000        0.0000000000000000     
  0.59375000000000000       0.50000000000000000        0.0000000000000000     
  0.62500000000000000       0.50000000000000000        0.0000000000000000     
  0.50000000000000000       0.53125000000000000        0.0000000000000000     
  0.53125000000000000       0.53125000000000000        0.0000000000000000     
  0.56250000000000000       0.53125000000000000        0.0000000000000000     
  0.59375000000000000       0.53125000000000000        0.0000000000000000     
  0.62500000000000000       0.53125000000000000        0.0000000000000000     
  0.50000000000000000       0.56250000000000000        0.0000000000000000     
  0.53125000000000000       0.56250000000000000        0.0000000000000000     
  0.56250000000000000       0.56250000000000000        0.0000000000000000     
  0.59375000000000000       0.56250000000000000        0.0000000000000000     
  0.62500000000000000       0.56250000000000000        0.0000000000000000     
  0.50000000000000000       0.59375000000000000        0.0000000000000000     
  0.53125000000000000       0.59375000000000000        0.0000000000000000     
  0.56250000000000000       0.59375000000000000        0.0000000000000000     
  0.59375000000000000       0.59375000000000000        0.0000000000000000     
  0.62500000000000000       0.59375000000000000        0.0000000000000000     
  0.50000000000000000       0.62500000000000000        0.0000000000000000     
  0.53125000000000000       0.62500000000000000        0.0000000000000000     
  0.56250000000000000       0.62500000000000000        0.0000000000000000     
  0.59375000000000000       0.62500000000000000        0.0000000000000000     
  0.62500000000000000       0.62500000000000000        0.0000000000000000     
  0.62500000000000000       0.50000000000000000        0.0000000000000000     
  0.65625000000000000       0.50000000000000000        0.0000000000000000     
  0.68750000000000000       0.50000000000000000        0.0000000000000000     
  0.71875000000000000       0.50000000000000000        0.0000000000000000     
  0.75000000000000000       0.50000000000000000        0.0000000000000000     
  0.62500000000000000       0.53125000000000000        0.0000000000000000     
  0.65625000000000000       0.53125000000000000        0.0000000000000000     
  0.68750000000000000       0.53125000000000000        0.0000000000000000     
  0.71875000000000000       0.53125000000000000        0.0000000000000000     
  0.75000000000000000       0.53125000000000000        0.0000000000000000     
  0.62500000000000000       0.56250000000000000        0.0000000000000000     
  0.65625000000000000       0.56250000000000000        0.0000000000000000     
  0.68750000000000000       0.56250000000000000        0.0000000000000000     
  0.71875000000000000       0.56250000000000000        0.0000000000000000     
  0.75000000000000000       0.56250000000000000        0.0000000000000000     
  0.62500000000000000       0.59375000000000000        0.0000000000000000     
  0.65625000000000000       0.59375000000000000        0.0000000000000000     
  0.68750000000000000       0.59375000000000000        0.0000000000000000     
  0.71875000000000000       0.59375000000000000        0.0000000000000000     
  0.75000000000000000       0.59375000000000000        0.0000000000000000     
  0.62500000000000000       0.62500000000000000        0.0000000000000000     
  0.65625000000000000       0.62500000000000000        0.0000000000000000     
  0.68750000000000000       0.62500000000000000        0.0000000000000000     
  0.71875000000000000       0.62500000000000000        0.0000000000000000     
  0.75000000000000000       0.62500000000000000        0.0000000000000000     
  0.75000000000000000       0.50000000000000000        0.0000000000000000     
  0.78125000000000000       0.50000000000000000        0.0000000000000000     
  0.81250000000000000       0.50000000000000000        0.0000000000000000     
  0.84375000000000000       0.50000000000000000        0.0000000000000000     
  0.87500000000000000       0.50000000000000000        0.0000000000000000     
  0.75000000000000000       0.53125000000000000        0.0000000000000000     
  0.78125000000000000       0.53125000000000000        0.0000000000000000     
  0.81250000000000000       0.53125000000000000        0.0000000000000000     
  0.84375000000000000       0.53125000000000000        0.0000000000000000     
  0.87500000000000000       0.53125000000000000        0.0000000000000000     
  0.75000000000000000       0.56250000000000000        0.0000000000000000     
  0.78125000000000000       0.56250000000000000        0.0000000000000000     
  0.81250000000000000       0.56250000000000000        0.0000000000000000     
  0.84375000000000000       0.56250000000000000        0.0000000000000000     
  0.87500000000000000       0.56250000000000000        0.0000000000000000     
  0.75000000000000000       0.59375000000000000        0.0000000000000000     
  0.78125000000000000       0.59375000000000000        0.0000000000000000     
  0.81250000000000000       0.59375000000000000        0.0000000000000000     
  0.84375000000000000       0.59375000000000000        0.0000000000000000     
  0.87500000000000000       0.59375000000000000        0.0000000000000000     
  0.75000000000000000       0.62500000000000000        0.0000000000000000     
  0.78125000000000000       0.62500000000000000        0.0000000000000000     
  0.81250000000000000       0.62500000000000000        0.0000000000000000     
  0.84375000000000000       0.62500000000000000        0.0000000000000000     
  0.87500000000000000       0.62500000000000000        0.0000000000000000     
  0.87500000000000000       0.50000000000000000        0.0000000000000000     
  0.90625000000000000       0.50000000000000000        0.0000000000000000     
  0.93750000000000000       0.50000000000000000        0.0000000000000000     
  0.96875000000000000       0.50000000000000000        0.0000000000000000     
   1.0000000000000000       0.50000000000000000        0.0000000000000000     
  0.87500000000000000       0.53125000000000000        0.0000000000000000     
  0.90625000000000000       0.53125000000000000        0.0000000000000000     
  0.93750000000000000       0.53125000000000000        0.0000000000000000     
  0.96875000000000000       0.53125000000000000        0.0000000000000000     
   1.0000000000000000       0.53125000000000000        0.0000000000000000     
  0.87500000000000000       0.56250000000000000        0.0000000000000000     
  0.90625000000000000       0.56250000000000000        0.0000000000000000     
  0.93750000000000000       0.56250000000000000        0.0000000000000000     
  0.96875000000000000       0.56250000000000000        0.0000000000000000     
   1.0000000000000000       0.56250000000000000        0.0000000000000000     
  0.87500000000000000       0.59375000000000000        0.0000000000000000     
  0.90625000000000000       0.59375000000000000        0.0000000000000000     
  0.93750000000000000       0.59375000000000000        0.0000000000000000     
  0.96875000000000000       0.59375000000000000        0.0000000000000000     
   1.0000000000000000       0.59375000000000000        0.0000000000000000     
  0.87500000000000000       0.62500000000000000        0.0000000000000000     
  0.90625000000000000       0.62500000000000000        0.0000000000000000     
  0.93750000000000000       0.62500000000000000        0.0000000000000000     
  0.96875000000000000       0.62500000000000000        0.0000000000000000     
   1.0000000000000000       0.62500000000000000        0.0000000000000000     
   0.0000000000000000       0.62500000000000000        0.0000000000000000     
   3.1250000000000000E-002  0.62500000000000000        0.0000000000000000     
   6.2500000000000000E-002  0.62500000000000000        0.0000000000000000     
   9.3750000000000000E-002  0.62500000000000000        0.0000000000000000     
  0.12500000000000000       0.62500000000000000        0.0000000000000000     
   0.0000000000000000       0.65625000000000000        0.0000000000000000     
   3.1250000000000000E-002  0.65625000000000000        0.0000000000000000     
   6.2500000000000000E-002  0.65625000000000000        0.0000000000000000     
   9.3750000000000000E-002  0.65625000000000000        0.0000000000000000     
  0.12500000000000000       0.65625000000000000        0.0000000000000000     
   0.0000000000000000       0.68750000000000000        0.0000000000000000     
   3.1250000000000000E-002  0.68750000000000000        0.0000000000000000     
   6.2500000000000000E-002  0.68750000000000000        0.0000000000000000     
   9.3750000000000000E-002  0.68750000000000000        0.0000000000000000     
  0.12500000000000000       0.68750000000000000        0.0000000000000000     
   0.0000000000000000       0.71875000000000000        0.0000000000000000     
   3.1250000000000000E-002  0.71875000000000000        0.0000000000000000     
   6.2500000000000000E-002  0.71875000000000000        0.0000000000000000     
   9.3750000000000000E-002  0.71875000000000000        0.0000000000000000     
  0.12500000000000000       0.71875000000000000        0.0000000000000000     
   0.0000000000000000       0.75000000000000000        0.0000000000000000     
   3.1250000000000000E-002  0.75000000000000000        0.0000000000000000     
   6.2500000000000000E-002  0.75000000000000000        0.0000000000000000     
   9.3750000000000000E-002  0.75000000000000000        0.0000000000000000     
  0.12500000000000000       0.75000000000000000        0.0000000000000000     
  0.12500000000000000       0.62500000000000000        0.0000000000000000     
  0.15625000000000000       0.62500000000000000        0.0000000000000000     
  0.18750000000000000       0.62500000000000000        0.0000000000000000     
  0.21875000000000000       0.62500000000000000        0.0000000000000000     
  0.25000000000000000       0.62500000000000000        0.0000000000000000     
  0.12500000000000000       0.65625000000000000        0.0000000000000000     
  0.15625000000000000       0.65625000000000000        0.0000000000000000     
  0.18750000000000000       0.65625000000000000        0.0000000000000000     
  0.21875000000000000       0.65625000000000000        0.0000000000000000     
  0.25000000000000000       0.65625000000000000        0.0000000000000000     
  0.12500000000000000       0.68750000000000000        0.0000000000000000     
  0.15625000000000000       0.68750000000000000        0.0000000000000000     
  0.18750000000000000       0.68750000000000000        0.0000000000000000     
  0.21875000000000000       0.68750000000000000        0.0000000000000000     
  0.25000000000000000       0.68750000000000000        0.0000000000000000     
  0.12500000000000000       0.71875000000000000        0.0000000000000000     
  0.15625000000000000       0.71875000000000000        0.0000000000000000     
  0.18750000000000000       0.71875000000000000        0.0000000000000000     
  0.21875000000000000       0.71875000000000000        0.0000000000000000     
  0.25000000000000000       0.71875000000000000        0.0000000000000000     
  0.12500000000000000       0.75000000000000000        0.0000000000000000     
  0.15625000000000000       0.75000000000000000        0.0000000000000000     
  0.18750000000000000       0.75000000000000000        0.0000000000000000     
  0.21875000000000000       0.75000000000000000        0.0000000000000000     
  0.25000000000000000       0.75000000000000000        0.0000000000000000     
  0.25000000000000000       0.62500000000000000        0.0000000000000000     
  0.28125000000000000       0.62500000000000000        0.0000000000000000     
  0.31250000000000000       0.62500000000000000        0.0000000000000000     
  0.34375000000000000       0.62500000000000000        0.0000000000000000     
  0.37500000000000000       0.62500000000000000        0.0000000000000000     
  0.25000000000000000       0.65625000000000000        0.0000000000000000     
  0.28125000000000000       0.65625000000000000        0.0000000000000000     
  0.31250000000000000       0.65625000000000000        0.0000000000000000     
  0.34375000000000000       0.65625000000000000        0.0000000000000000     
  0.37500000000000000       0.65625000000000000        0.0000000000000000     
  0.25000000000000000       0.68750000000000000        0.0000000000000000     
  0.28125000000000000       0.68750000000000000        0.0000000000000000     
  0.31250000000000000       0.68750000000000000        0.0000000000000000     
  0.34375000000000000       0.68750000000000000        0.0000000000000000     
  0.37500000000000000       0.68750000000000000        0.0000000000000000     
  0.25000000000000000       0.71875000000000000        0.0000000000000000     
  0.28125000000000000       0.71875000000000000        0.0000000000000000     
  0.31250000000000000       0.71875000000000000        0.0000000000000000     
  0.34375000000000000       0.71875000000000000        0.0000000000000000     
  0.37500000000000000       0.71875000000000000        0.0000000000000000     
  0.25000000000000000       0.75000000000000000        0.0000000000000000     
  0.28125000000000000       0.75000000000000000        0.0000000000000000     
  0.31250000000000000       0.75000000000000000        0.0000000000000000     
  0.34375000000000000       0.75000000000000000        0.0000000000000000     
  0.37500000000000000       0.75000000000000000        0.0000000000000000     
  0.37500000000000000       0.62500000000000000        0.0000000000000000     
  0.40625000000000000       0.62500000000000000        0.0000000000000000     
  0.43750000000000000       0.62500000000000000        0.0000000000000000     
  0.46875000000000000       0.62500000000000000        0.0000000000000000     
  0.50000000000000000       0.62500000000000000        0.0000000000000000     
  0.37500000000000000       0.65625000000000000        0.0000000000000000     
  0.40625000000000000       0.65625000000000000        0.0000000000000000     
  0.43750000000000000       0.65625000000000000        0.0000000000000000     
  0.46875000000000000       0.65625000000000000        0.0000000000000000     
  0.50000000000000000       0.65625000000000000        0.0000000000000000     
  0.37500000000000000       0.68750000000000000        0.0000000000000000     
  0.40625000000000000       0.68750000000000000        0.0000000000000000     
  0.43750000000000000       0.68750000000000000        0.0000000000000000     
  0.46875000000000000       0.68750000000000000        0.0000000000000000     
  0.50000000000000000       0.68750000000000000        0.0000000000000000     
  0.37500000000000000       0.71875000000000000        0.0000000000000000     
  0.40625000000000000       0.71875000000000000        0.0000000000000000     
  0.43750000000000000       0.71875000000000000        0.0000000000000000     
  0.46875000000000000       0.71875000000000000        0.0000000000000000     
  0.50000000000000000       0.71875000000000000        0.0000000000000000     
  0.37500000000000000       0.75000000000000000        0.0000000000000000     
  0.40625000000000000       0.75000000000000000        0.0000000000000000     
  0.43750000000000000       0.75000000000000000        0.0000000000000000     
  0.46875000000000000       0.75000000000000000        0.0000000000000000     
  0.50000000000000000       0.75000000000000000        0.0000000000000000     
  0.50000000000000000       0.62500000000000000        0.0000000000000000     
  0.53125000000000000       0.62500000000000000        0.0000000000000000     
  0.56250000000000000       0.62500000000000000        0.0000000000000000     
  0.59375000000000000       0.62500000000000000        0.0000000000000000     
  0.62500000000000000       0.62500000000000000        0.0000000000000000     
  0.50000000000000000       0.65625000000000000        0.0000000000000000     
  0.53125000000000000       0.65625000000000000        0.0000000000000000     
  0.56250000000000000       0.65625000000000000        0.0000000000000000     
  0.59375000000000000       0.65625000000000000        0.0000000000000000     
  0.62500000000000000       0.65625000000000000        0.0000000000000000     
  0.50000000000000000       0.68750000000000000        0.0000000000000000     
  0.53125000000000000       0.68750000000000000        0.0000000000000000     
  0.56250000000000000       0.68750000000000000        0.0000000000000000     
  0.59375000000000000       0.68750000000000000        0.0000000000000000     
  0.62500000000000000       0.68750000000000000        0.0000000000000000     
  0.50000000000000000       0.71875000000000000        0.0000000000000000     
  0.53125000000000000       0.71875000000000000        0.0000000000000000     
  0.56250000000000000       0.71875000000000000        0.0000000000000000     
  0.59375000000000000       0.71875000000000000        0.0000000000000000     
  0.62500000000000000       0.71875000000000000        0.0000000000000000     
  0.50000000000000000       0.75000000000000000        0.0000000000000000     
  0.53125000000000000       0.75000000000000000        0.0000000000000000     
  0.56250000000000000       0.75000000000000000        0.0000000000000000     
  0.59375000000000000       0.75000000000000000        0.0000000000000000     
  0.62500000000000000       0.75000000000000000        0.0000000000000000     
  0.62500000000000000       0.62500000000000000        0.0000000000000000     
  0.65625000000000000       0.62500000000000000        0.0000000000000000     
  0.68750000000000000       0.62500000000000000        0.0000000000000000     
  0.71875000000000000       0.62500000000000000        0.0000000000000000     
  0.75000000000000000       0.62500000000000000        0.0000000000000000     
  0.62500000000000000       0.65625000000000000        0.0000000000000000     
  0.65625000000000000       0.65625000000000000        0.0000000000000000     
  0.68750000000000000       0.65625000000000000        0.0000000000000000     
  0.71875000000000000       0.65625000000000000        0.0000000000000000     
  0.75000000000000000       0.65625000000000000        0.0000000000000000     
  0.62500000000000000       0.68750000000000000        0.0000000000000000     
  0.65625000000000000       0.68750000000000000        0.0000000000000000     
  0.68750000000000000       0.68750000000000000        0.0000000000000000     
  0.71875000000000000       0.68750000000000000        0.0000000000000000     
  0.75000000000000000       0.68750000000000000        0.0000000000000000     
  0.62500000000000000       0.71875000000000000        0.0000000000000000     
  0.65625000000000000       0.71875000000000000        0.0000000000000000     
  0.68750000000000000       0.71875000000000000        0.0000000000000000     
  0.71875000000000000       0.71875000000000000        0.0000000000000000     
  0.75000000000000000       0.71875000000000000        0.0000000000000000     
  0.62500000000000000       0.75000000000000000        0.0000000000000000     
  0.65625000000000000       0.75000000000000000        0.0000000000000000     
  0.68750000000000000       0.75000000000000000        0.0000000000000000     
  0.71875000000000000       0.75000000000000000        0.0000000000000000     
  0.75000000000000000       0.75000000000000000        0.0000000000000000     
  0.75000000000000000       0.62500000000000000        0.0000000000000000     
  0.78125000000000000       0.62500000000000000        0.0000000000000000     
  0.81250000000000000       0.62500000000000000        0.0000000000000000     
  0.84375000000000000       0.62500000000000000        0.0000000000000000     
  0.87500000000000000       0.62500000000000000        0.0000000000000000     
  0.75000000000000000       0.65625000000000000        0.0000000000000000     
  0.78125000000000000       0.65625000000000000        0.0000000000000000     
  0.81250000000000000       0.65625000000000000        0.0000000000000000     
  0.84375000000000000       0.65625000000000000        0.0000000000000000     
  0.87500000000000000       0.65625000000000000        0.0000000000000000     
  0.75000000000000000       0.68750000000000000        0.0000000000000000     
  0.78125000000000000       0.68750000000000000        0.0000000000000000     
  0.81250000000000000       0.68750000000000000        0.0000000000000000     
  0.84375000000000000       0.68750000000000000        0.0000000000000000     
  0.87500000000000000       0.68750000000000000        0.0000000000000000     
  0.75000000000000000       0.71875000000000000        0.0000000000000000     
  0.78125000000000000       0.71875000000000000        0.0000000000000000     
  0.81250000000000000       0.71875000000000000        0.0000000000000000     
  0.84375000000000000       0.71875000000000000        0.0000000000000000     
  0.87500000000000000       0.71875000000000000        0.0000000000000000     
  0.75000000000000000       0.75000000000000000        0.0000000000000000     
  0.78125000000000000       0.75000000000000000        0.0000000000000000     
  0.81250000000000000       0.75000000000000000        0.0000000000000000     
  0.84375000000000000       0.75000000000000000        0.0000000000000000     
  0.87500000000000000       0.75000000000000000        0.0000000000000000     
  0.87500000000000000       0.62500000000000000        0.0000000000000000     
  0.90625000000000000       0.62500000000000000        0.0000000000000000     
  0.93750000000000000       0.62500000000000000        0.0000000000000000     
  0.96875000000000000       0.62500000000000000        0.0000000000000000     
   1.0000000000000000       0.62500000000000000        0.0000000000000000     
  0.87500000000000000       0.65625000000000000        0.0000000000000000     
  0.90625000000000000       0.65625000000000000        0.0000000000000000     
  0.93750000000000000       0.65625000000000000        0.0000000000000000     
  0.96875000000000000       0.65625000000000000        0.0000000000000000     
   1.0000000000000000       0.65625000000000000        0.0000000000000000     
  0.87500000000000000       0.68750000000000000        0.0000000000000000     
  0.90625000000000000       0.68750000000000000        0.0000000000000000     
  0.93750000000000000       0.68750000000000000        0.0000000000000000     
  0.96875000000000000       0.68750000000000000        0.0000000000000000     
   1.0000000000000000       0.68750000000000000        0.0000000000000000     
  0.87500000000000000       0.71875000000000000        0.0000000000000000     
  0.90625000000000000       0.71875000000000000        0.0000000000000000     
  0.93750000000000000       0.71875000000000000        0.0000000000000000     
  0.96875000000000000       0.71875000000000000        0.0000000000000000     
   1.0000000000000000       0.71875000000000000        0.0000000000000000     
  0.87500000000000000       0.75000000000000000        0.0000000000000000     
  0.90625000000000000       0.75000000000000000        0.0000000000000000     
  0.93750000000000000       0.75000000000000000        0.0000000000000000     
  0.96875000000000000       0.75000000000000000        0.0000000000000000     
   1.0000000000000000       0.75000000000000000        0.0000000000000000     
   0.0000000000000000       0.75000000000000000        0.0000000000000000     
   3.1250000000000000E-002  0.75000000000000000        0.0000000000000000     
   6.2500000000000000E-002  0.75000000000000000        0.0000000000000000     
   9.3750000000000000E-002  0.75000000000000000        0.0000000000000000     
  0.12500000000000000       0.75000000000000000        0.0000000000000000     
   0.0000000000000000       0.78125000000000000        0.0000000000000000     
   3.1250000000000000E-002  0.78125000000000000        0.0000000000000000     
   6.2500000000000000E-002  0.78125000000000000        0.0000000000000000     
   9.3750000000000000E-002  0.78125000000000000        0.0000000000000000     
  0.12500000000000000       0.78125000000000000        0.0000000000000000     
   0.0000000000000000       0.81250000000000000        0.0000000000000000     
   3.1250000000000000E-002  0.81250000000000000        0.0000000000000000     
   6.2500000000000000E-002  0.81250000000000000        0.0000000000000000     
   9.3750000000000000E-002  0.81250000000000000        0.0000000000000000     
  0.12500000000000000       0.81250000000000000        0.0000000000000000     
   0.0000000000000000       0.84375000000000000        0.0000000000000000     
   3.1250000000000000E-002  0.84375000000000000        0.0000000000000000     
   6.2500000000000000E-002  0.84375000000000000        0.0000000000000000     
   9.3750000000000000E-002  0.84375000000000000        0.0000000000000000     
  0.12500000000000000       0.84375000000000000        0.0000000000000000     
   0.0000000000000000       0.87500000000000000        0.0000000000000000     
   3.1250000000000000E-002  0.87500000000000000        0.0000000000000000     
   6.2500000000000000E-002  0.87500000000000000        0.0000000000000000     
   9.3750000000000000E-002  0.87500000000000000        0.0000000000000000     
  0.12500000000000000       0.87500000000000000        0.0000000000000000     
  0.12500000000000000       0.75000000000000000        0.0000000000000000     
  0.15625000000000000       0.75000000000000000        0.0000000000000000     
  0.18750000000000000       0.75000000000000000        0.0000000000000000     
  0.21875000000000000       0.75000000000000000        0.0000000000000000     
  0.25000000000000000       0.75000000000000000        0.0000000000000000     
  0.12500000000000000       0.78125000000000000        0.0000000000000000     
  0.15625000000000000       0.78125000000000000        0.0000000000000000     
  0.18750000000000000       0.78125000000000000        0.0000000000000000     
  0.21875000000000000       0.78125000000000000        0.0000000000000000     
  0.25000000000000000       0.78125000000000000        0.0000000000000000     
  0.12500000000000000       0.81250000000000000        0.0000000000000000     
  0.15625000000000000       0.81250000000000000        0.0000000000000000     
  0.18750000000000000       0.81250000000000000        0.0000000000000000     
  0.21875000000000000       0.81250000000000000        0.0000000000000000     
  0.25000000000000000       0.81250000000000000        0.0000000000000000     
  0.12500000000000000       0.84375000000000000        0.0000000000000000     
  0.15625000000000000       0.84375000000000000        0.0000000000000000     
  0.18750000000000000       0.84375000000000000        0.0000000000000000     
  0.21875000000000000       0.84375000000000000        0.0000000000000000     
  0.25000000000000000       0.84375000000000000        0.0000000000000000     
  0.12500000000000000       0.87500000000000000        0.0000000000000000     
  0.15625000000000000       0.87500000000000000        0.0000000000000000     
  0.18750000000000000       0.87500000000000000        0.0000000000000000     
  0.21875000000000000       0.87500000000000000        0.0000000000000000     
  0.25000000000000000       0.87500000000000000        0.0000000000000000     
  0.25000000000000000       0.75000000000000000        0.0000000000000000     
  0.28125000000000000       0.75000000000000000        0.0000000000000000     
  0.31250000000000000       0.75000000000000000        0.0000000000000000     
  0.34375000000000000       0.75000000000000000        0.0000000000000000     
  0.37500000000000000       0.75000000000000000        0.0000000000000000     
  0.25000000000000000       0.78125000000000000        0.0000000000000000     
  0.28125000000000000       0.78125000000000000        0.0000000000000000     
  0.31250000000000000       0.78125000000000000        0.0000000000000000     
  0.34375000000000000       0.78125000000000000        0.0000000000000000     
  0.37500000000000000       0.78125000000000000        0.0000000000000000     
  0.25000000000000000       0.81250000000000000        0.0000000000000000     
  0.28125000000000000       0.81250000000000000        0.0000000000000000     
  0.31250000000000000       0.81250000000000000        0.0000000000000000     
  0.34375000000000000       0.81250000000000000        0.0000000000000000     
  0.37500000000000000       0.81250000000000000        0.0000000000000000     
  0.25000000000000000       0.84375000000000000        0.0000000000000000     
  0.28125000000000000       0.84375000000000000        0.0000000000000000     
  0.31250000000000000       0.84375000000000000        0.0000000000000000     
  0.34375000000000000       0.84375000000000000        0.0000000000000000     
  0.37500000000000000       0.84375000000000000        0.0000000000000000     
  0.25000000000000000       0.87500000000000000        0.0000000000000000     
  0.28125000000000000       0.87500000000000000        0.0000000000000000     
  0.31250000000000000       0.87500000000000000        0.0000000000000000     
  0.34375000000000000       0.87500000000000000        0.0000000000000000     
  0.37500000000000000       0.87500000000000000        0.0000000000000000     
  0.37500000000000000       0.75000000000000000        0.0000000000000000     
  0.40625000000000000       0.75000000000000000        0.0000000000000000     
  0.43750000000000000       0.75000000000000000        0.0000000000000000     
  0.46875000000000000       0.75000000000000000        0.0000000000000000     
  0.50000000000000000       0.75000000000000000        0.0000000000000000     
  0.37500000000000000       0.78125000000000000        0.0000000000000000     
  0.40625000000000000       0.78125000000000000        0.0000000000000000     
  0.43750000000000000       0.78125000000000000        0.0000000000000000     
  0.46875000000000000       0.78125000000000000        0.0000000000000000     
  0.50000000000000000       0.78125000000000000        0.0000000000000000     
  0.37500000000000000       0.81250000000000000        0.0000000000000000     
  0.40625000000000000       0.81250000000000000        0.0000000000000000     
  0.43750000000000000       0.81250000000000000        0.0000000000000000     
  0.46875000000000000       0.81250000000000000        0.0000000000000000     
  0.50000000000000000       0.81250000000000000        0.0000000000000000     
  0.37500000000000000       0.84375000000000000        0.0000000000000000     
  0.40625000000000000       0.84375000000000000        0.0000000000000000     
  0.43750000000000000       0.84375000000000000        0.0000000000000000     
  0.46875000000000000       0.84375000000000000        0.0000000000000000     
  0.50000000000000000       0.84375000000000000        0.0000000000000000     
  0.37500000000000000       0.87500000000000000        0.0000000000000000     
  0.40625000000000000       0.87500000000000000        0.0000000000000000     
  0.43750000000000000       0.87500000000000000        0.0000000000000000     
  0.46875000000000000       0.87500000000000000        0.0000000000000000     
  0.50000000000000000       0.87500000000000000        0.0000000000000000     
  0.50000000000000000       0.75000000000000000        0.0000000000000000     
  0.53125000000000000       0.75000000000000000        0.0000000000000000     
  0.56250000000000000       0.75000000000000000        0.0000000000000000     
  0.59375000000000000       0.75000000000000000        0.0000000000000000     
  0.62500000000000000       0.75000000000000000        0.0000000000000000     
  0.50000000000000000       0.78125000000000000        0.0000000000000000     
  0.53125000000000000       0.78125000000000000        0.0000000000000000     
  0.56250000000000000       0.78125000000000000        0.0000000000000000     
  0.59375000000000000       0.78125000000000000        0.0000000000000000     
  0.62500000000000000       0.78125000000000000        0.0000000000000000     
  0.50000000000000000       0.81250000000000000        0.0000000000000000     
  0.53125000000000000       0.81250000000000000        0.0000000000000000     
  0.56250000000000000       0.81250000000000000        0.0000000000000000     
  0.59375000000000000       0.81250000000000000        0.0000000000000000     
  0.62500000000000000       0.81250000000000000        0.0000000000000000     
  0.50000000000000000       0.84375000000000000        0.0000000000000000     
  0.53125000000000000       0.84375000000000000        0.0000000000000000     
  0.56250000000000000       0.84375000000000000        0.0000000000000000     
  0.59375000000000000       0.84375000000000000        0.0000000000000000     
  0.62500000000000000       0.84375000000000000        0.0000000000000000     
  0.50000000000000000       0.87500000000000000        0.0000000000000000     
  0.53125000000000000       0.87500000000000000        0.0000000000000000     
  0.56250000000000000       0.87500000000000000        0.0000000000000000     
  0.59375000000000000       0.87500000000000000        0.0000000000000000     
  0.62500000000000000       0.87500000000000000        0.0000000000000000     
  0.62500000000000000       0.75000000000000000        0.0000000000000000     
  0.65625000000000000       0.75000000000000000        0.0000000000000000     
  0.68750000000000000       0.75000000000000000        0.0000000000000000     
  0.71875000000000000       0.75000000000000000        0.0000000000000000     
  0.75000000000000000       0.75000000000000000        0.0000000000000000     
  0.62500000000000000       0.78125000000000000        0.0000000000000000     
  0.65625000000000000       0.78125000000000000        0.0000000000000000     
  0.68750000000000000       0.78125000000000000        0.0000000000000000     
  0.71875000000000000       0.78125000000000000        0.0000000000000000     
  0.75000000000000000       0.78125000000000000        0.0000000000000000     
  0.62500000000000000       0.81250000000000000        0.0000000000000000     
  0.65625000000000000       0.81250000000000000        0.0000000000000000     
  0.68750000000000000       0.81250000000000000        0.0000000000000000     
  0.71875000000000000       0.81250000000000000        0.0000000000000000     
  0.75000000000000000       0.81250000000000000        0.0000000000000000     
  0.62500000000000000       0.84375000000000000        0.0000000000000000     
  0.65625000000000000       0.84375000000000000        0.0000000000000000     
  0.68750000000000000       0.84375000000000000        0.0000000000000000     
  0.71875000000000000       0.84375000000000000        0.0000000000000000     
  0.75000000000000000       0.84375000000000000        0.0000000000000000     
  0.62500000000000000       0.87500000000000000        0.0000000000000000     
  0.65625000000000000       0.87500000000000000        0.0000000000000000     
  0.68750000000000000       0.87500000000000000        0.0000000000000000     
  0.71875000000000000       0.87500000000000000        0.0000000000000000     
  0.75000000000000000       0.87500000000000000        0.0000000000000000     
  0.75000000000000000       0.75000000000000000        0.0000000000000000     
  0.78125000000000000       0.75000000000000000        0.0000000000000000     
  0.81250000000000000       0.75000000000000000        0.0000000000000000     
  0.84375000000000000       0.75000000000000000        0.0000000000000000     
  0.87500000000000000       0.75000000000000000        0.0000000000000000     
  0.75000000000000000       0.78125000000000000        0.0000000000000000     
  0.78125000000000000       0.78125000000000000        0.0000000000000000     
  0.81250000000000000       0.78125000000000000        0.0000000000000000     
  0.84375000000000000       0.78125000000000000        0.0000000000000000     
  0.87500000000000000       0.78125000000000000        0.0000000000000000     
  0.75000000000000000       0.81250000000000000        0.0000000000000000     
  0.78125000000000000       0.81250000000000000        0.0000000000000000     
  0.81250000000000000       0.81250000000000000        0.0000000000000000     
  0.84375000000000000       0.81250000000000000        0.0000000000000000     
  0.87500000000000000       0.81250000000000000        0.0000000000000000     
  0.75000000000000000       0.84375000000000000        0.0000000000000000     
  0.78125000000000000       0.84375000000000000        0.0000000000000000     
  0.81250000000000000       0.84375000000000000        0.0000000000000000     
  0.84375000000000000       0.84375000000000000        0.0000000000000000     
  0.87500000000000000       0.84375000000000000        0.0000000000000000     
  0.75000000000000000       0.87500000000000000        0.0000000000000000     
  0.78125000000000000       0.87500000000000000        0.0000000000000000     
  0.81250000000000000       0.87500000000000000        0.0000000000000000     
  0.84375000000000000       0.87500000000000000        0.0000000000000000     
  0.87500000000000000       0.87500000000000000        0.0000000000000000     
  0.87500000000000000       0.75000000000000000        0.0000000000000000     
  0.90625000000000000       0.75000000000000000        0.0000000000000000     
  0.93750000000000000       0.75000000000000000        0.0000000000000000     
  0.96875000000000000       0.75000000000000000        0.0000000000000000     
   1.0000000000000000       0.75000000000000000        0.0000000000000000     
  0.87500000000000000       0.78125000000000000        0.0000000000000000     
  0.90625000000000000       0.78125000000000000        0.0000000000000000     
  0.93750000000000000       0.78125000000000000        0.0000000000000000     
  0.96875000000000000       0.78125000000000000        0.0000000000000000     
   1.0000000000000000       0.78125000000000000        0.0000000000000000     
  0.87500000000000000       0.81250000000000000        0.0000000000000000     
  0.90625000000000000       0.81250000000000000        0.0000000000000000     
  0.93750000000000000       0.81250000000000000        0.0000000000000000     
  0.96875000000000000       0.81250000000000000        0.0000000000000000     
   1.0000000000000000       0.81250000000000000        0.0000000000000000     
  0.87500000000000000       0.84375000000000000        0.0000000000000000     
  0.90625000000000000       0.84375000000000000        0.0000000000000000     
  0.93750000000000000       0.84375000000000000        0.0000000000000000     
  0.96875000000000000       0.84375000000000000        0.0000000000000000     
   1.0000000000000000       0.84375000000000000        0.0000000000000000     
  0.87500000000000000       0.87500000000000000        0.0000000000000000     
  0.90625000000000000       0.87500000000000000        0.0000000000000000     
  0.93750000000000000       0.87500000000000000        0.0000000000000000     
  0.96875000000000000       0.87500000000000000        0.0000000000000000     
   1.0000000000000000       0.87500000000000000        0.0000000000000000     
   0.0000000000000000       0.87500000000000000        0.0000000000000000     
   3.1250000000000000E-002  0.87500000000000000        0.0000000000000000     
   6.2500000000000000E-002  0.87500000000000000        0.0000000000000000     
   9.3750000000000000E-002  0.87500000000000000        0.0000000000000000     
  0.12500000000000000       0.87500000000000000        0.0000000000000000     
   0.0000000000000000       0.90625000000000000        0.0000000000000000     
   3.1250000000000000E-002  0.90625000000000000        0.0000000000000000     
   6.2500000000000000E-002  0.90625000000000000        0.0000000000000000     
   9.3750000000000000E-002  0.90625000000000000        0.0000000000000000     
  0.12500000000000000       0.90625000000000000        0.0000000000000000     
   0.0000000000000000       0.93750000000000000        0.0000000000000000     
   3.1250000000000000E-002  0.93750000000000000        0.0000000000000000     
   6.2500000000000000E-002  0.93750000000000000        0.0000000000000000     
   9.3750000000000000E-002  0.93750000000000000        0.0000000000000000     
  0.12500000000000000       0.93750000000000000        0.0000000000000000     
   0.0000000000000000       0.96875000000000000        0.0000000000000000     
   3.1250000000000000E-002  0.96875000000000000        0.0000000000000000     
   6.2500000000000000E-002  0.96875000000000000        0.0000000000000000     
   9.3750000000000000E-002  0.96875000000000000        0.0000000000000000     
  0.12500000000000000       0.96875000000000000        0.0000000000000000     
   0.0000000000000000        1.0000000000000000        0.0000000000000000     
   3.1250000000000000E-002   1.0000000000000000        0.0000000000000000     
   6.2500000000000000E-002   1.0000000000000000        0.0000000000000000     
   9.3750000000000000E-002   1.0000000000000000        0.0000000000000000     
  0.12500000000000000        1.0000000000000000        0.0000000000000000     
  0.12500000000000000       0.87500000000000000        0.0000000000000000     
  0.15625000000000000       0.87500000000000000        0.0000000000000000     
  0.18750000000000000       0.87500000000000000        0.0000000000000000     
  0.21875000000000000       0.87500000000000000        0.0000000000000000     
  0.25000000000000000       0.87500000000000000        0.0000000000000000     
  0.12500000000000000       0.90625000000000000        0.0000000000000000     
  0.15625000000000000       0.90625000000000000        0.0000000000000000     
  0.18750000000000000       0.90625000000000000        0.0000000000000000     
  0.21875000000000000       0.90625000000000000        0.0000000000000000     
  0.25000000000000000       0.90625000000000000        0.0000000000000000     
  0.12500000000000000       0.93750000000000000        0.0000000000000000     
  0.15625000000000000       0.93750000000000000        0.0000000000000000     
  0.18750000000000000       0.93750000000000000        0.0000000000000000     
  0.21875000000000000       0.93750000000000000        0.0000000000000000     
  0.25000000000000000       0.93750000000000000        0.0000000000000000     
  0.12500000000000000       0.96875000000000000        0.0000000000000000     
  0.15625000000000000       0.96875000000000000        0.0000000000000000     
  0.18750000000000000       0.96875000000000000        0.0000000000000000     
  0.21875000000000000       0.96875000000000000        0.0000000000000000     
  0.25000000000000000       0.96875000000000000        0.0000000000000000     
  0.12500000000000000        1.0000000000000000        0.0000000000000000     
  0.15625000000000000        1.0000000000000000        0.0000000000000000     
  0.18750000000000000        1.0000000000000000        0.0000000000000000     
  0.21875000000000000        1.0000000000000000        0.0000000000000000     
  0.25000000000000000        1.0000000000000000        0.0000000000000000     
  0.25000000000000000       0.87500000000000000        0.0000000000000000     
  0.28125000000000000       0.87500000000000000        0.0000000000000000     
  0.31250000000000000       0.87500000000000000        0.0000000000000000     
  0.34375000000000000       0.87500000000000000        0.0000000000000000     
  0.37500000000000000       0.87500000000000000        0.0000000000000000     
  0.25000000000000000       0.90625000000000000        0.0000000000000000     
  0.28125000000000000       0.90625000000000000        0.0000000000000000     
  0.31250000000000000       0.90625000000000000        0.0000000000000000     
  0.34375000000000000       0.90625000000000000        0.0000000000000000     
  0.37500000000000000       0.90625000000000000        0.0000000000000000     
  0.25000000000000000       0.93750000000000000        0.0000000000000000     
  0.28125000000000000       0.93750000000000000        0.0000000000000000     
  0.31250000000000000       0.93750000000000000        0.0000000000000000     
  0.34375000000000000       0.93750000000000000        0.0000000000000000     
  0.37500000000000000       0.93750000000000000        0.0000000000000000     
  0.25000000000000000       0.96875000000000000        0.0000000000000000     
  0.28125000000000000       0.96875000000000000        0.0000000000000000     
  0.31250000000000000       0.96875000000000000        0.0000000000000000     
  0.34375000000000000       0.96875000000000000        0.0000000000000000     
  0.37500000000000000       0.96875000000000000        0.0000000000000000     
  0.25000000000000000        1.0000000000000000        0.0000000000000000     
  0.28125000000000000        1.0000000000000000        0.0000000000000000     
  0.31250000000000000        1.0000000000000000        0.0000000000000000     
  0.34375000000000000        1.0000000000000000        0.0000000000000000     
  0.37500000000000000        1.0000000000000000        0.0000000000000000     
  0.37500000000000000       0.87500000000000000        0.0000000000000000     
  0.40625000000000000       0.87500000000000000        0.0000000000000000     
  0.43750000000000000       0.87500000000000000        0.0000000000000000     
  0.46875000000000000       0.87500000000000000        0.0000000000000000     
  0.50000000000000000       0.87500000000000000        0.0000000000000000     
  0.37500000000000000       0.90625000000000000        0.0000000000000000     
  0.40625000000000000       0.90625000000000000        0.0000000000000000     
  0.43750000000000000       0.90625000000000000        0.0000000000000000     
  0.46875000000000000       0.90625000000000000        0.0000000000000000     
  0.50000000000000000       0.90625000000000000        0.0000000000000000     
  0.37500000000000000       0.93750000000000000        0.0000000000000000     
  0.40625000000000000       0.93750000000000000        0.0000000000000000     
  0.43750000000000000       0.93750000000000000        0.0000000000000000     
  0.46875000000000000       0.93750000000000000        0.0000000000000000     
  0.50000000000000000       0.93750000000000000        0.0000000000000000     
  0.37500000000000000       0.96875000000000000        0.0000000000000000     
  0.40625000000000000       0.96875000000000000        0.0000000000000000     
  0.43750000000000000       0.96875000000000000        0.0000000000000000     
  0.46875000000000000       0.96875000000000000        0.0000000000000000     
  0.50000000000000000       0.96875000000000000        0.0000000000000000     
  0.37500000000000000        1.0000000000000000        0.0000000000000000     
  0.40625000000000000        1.0000000000000000        0.0000000000000000     
  0.43750000000000000        1.0000000000000000        0.0000000000000000     
  0.46875000000000000        1.0000000000000000        0.0000000000000000     
  0.50000000000000000        1.0000000000000000        0.0000000000000000     
  0.50000000000000000       0.87500000000000000        0.0000000000000000     
  0.53125000000000000       0.87500000000000000        0.0000000000000000     
  0.56250000000000000       0.87500000000000000        0.0000000000000000     
  0.59375000000000000       0.87500000000000000        0.0000000000000000     
  0.62500000000000000       0.87500000000000000        0.0000000000000000     
  0.50000000000000000       0.90625000000000000        0.0000000000000000     
  0.53125000000000000       0.90625000000000000        0.0000000000000000     
  0.56250000000000000       0.90625000000000000        0.0000000000000000     
  0.59375000000000000       0.90625000000000000        0.0000000000000000     
  0.62500000000000000       0.90625000000000000        0.0000000000000000     
  0.50000000000000000       0.93750000000000000        0.0000000000000000     
  0.53125000000000000       0.93750000000000000        0.0000000000000000     
  0.56250000000000000       0.93750000000000000        0.0000000000000000     
  0.59375000000000000       0.93750000000000000        0.0000000000000000     
  0.62500000000000000       0.93750000000000000        0.0000000000000000     
  0.50000000000000000       0.96875000000000000        0.0000000000000000     
  0.53125000000000000       0.96875000000000000        0.0000000000000000     
  0.56250000000000000       0.96875000000000000        0.0000000000000000     
  0.59375000000000000       0.96875000000000000        0.0000000000000000     
  0.62500000000000000       0.96875000000000000        0.0000000000000000     
  0.50000000000000000        1.0000000000000000        0.0000000000000000     
  0.53125000000000000        1.0000000000000000        0.0000000000000000     
  0.56250000000000000        1.0000000000000000        0.0000000000000000     
  0.59375000000000000        1.0000000000000000        0.0000000000000000     
  0.62500000000000000        1.0000000000000000        0.0000000000000000     
  0.62500000000000000       0.87500000000000000        0.0000000000000000     
  0.65625000000000000       0.87500000000000000        0.0000000000000000     
  0.68750000000000000       0.87500000000000000        0.0000000000000000     
  0.71875000000000000       0.87500000000000000        0.0000000000000000     
  0.75000000000000000       0.87500000000000000        0.0000000000000000     
  0.62500000000000000       0.90625000000000000        0.0000000000000000     
  0.65625000000000000       0.90625000000000000        0.0000000000000000     
  0.68750000000000000       0.90625000000000000        0.0000000000000000     
  0.71875000000000000       0.90625000000000000        0.0000000000000000     
  0.75000000000000000       0.90625000000000000        0.0000000000000000     
  0.62500000000000000       0.93750000000000000        0.0000000000000000     
  0.65625000000000000       0.93750000000000000        0.0000000000000000     
  0.68750000000000000       0.93750000000000000        0.0000000000000000     
  0.71875000000000000       0.93750000000000000        0.0000000000000000     
  0.75000000000000000       0.93750000000000000        0.0000000000000000     
  0.62500000000000000       0.96875000000000000        0.0000000000000000     
  0.65625000000000000       0.96875000000000000        0.0000000000000000     
  0.68750000000000000       0.96875000000000000        0.0000000000000000     
  0.71875000000000000       0.96875000000000000        0.0000000000000000     
  0.75000000000000000       0.96875000000000000        0.0000000000000000     
  0.62500000000000000        1.0000000000000000        0.0000000000000000     
  0.65625000000000000        1.0000000000000000        0.0000000000000000     
  0.68750000000000000        1.0000000000000000        0.0000000000000000     
  0.71875000000000000        1.0000000000000000        0.0000000000000000     
  0.75000000000000000        1.0000000000000000        0.0000000000000000     
  0.75000000000000000       0.87500000000000000        0.0000000000000000     
  0.78125000000000000       0.87500000000000000        0.0000000000000000     
  0.81250000000000000       0.87500000000000000        0.0000000000000000     
  0.84375000000000000       0.87500000000000000        0.0000000000000000     
  0.87500000000000000       0.87500000000000000        0.0000000000000000     
  0.75000000000000000       0.90625000000000000        0.0000000000000000     
  0.78125000000000000       0.90625000000000000        0.0000000000000000     
  0.81250000000000000       0.90625000000000000        0.0000000000000000     
  0.84375000000000000       0.90625000000000000        0.0000000000000000     
  0.87500000000000000       0.90625000000000000        0.0000000000000000     
  0.75000000000000000       0.93750000000000000        0.0000000000000000     
  0.78125000000000000       0.93750000000000000        0.0000000000000000     
  0.81250000000000000       0.93750000000000000        0.0000000000000000     
  0.84375000000000000       0.93750000000000000        0.0000000000000000     
  0.87500000000000000       0.93750000000000000        0.0000000000000000     
  0.75000000000000000       0.96875000000000000        0.0000000000000000     
  0.78125000000000000       0.96875000000000000        0.0000000000000000     
  0.81250000000000000       0.96875000000000000        0.0000000000000000     
  0.84375000000000000       0.96875000000000000        0.0000000000000000     
  0.87500000000000000       0.96875000000000000        0.0000000000000000     
  0.75000000000000000        1.0000000000000000        0.0000000000000000     
  0.78125000000000000        1.0000000000000000        0.0000000000000000     
  0.81250000000000000        1.0000000000000000        0.0000000000000000     
  0.84375000000000000        1.0000000000000000        0.0000000000000000     
  0.87500000000000000        1.0000000000000000        0.0000000000000000     
  0.87500000000000000       0.87500000000000000        0.0000000000000000     
  0.90625000000000000       0.87500000000000000        0.0000000000000000     
  0.93750000000000000       0.87500000000000000        0.0000000000000000     
  0.96875000000000000       0.87500000000000000        0.0000000000000000     
   1.0000000000000000       0.87500000000000000        0.0000000000000000     
  0.87500000000000000       0.90625000000000000        0.0000000000000000     
  0.90625000000000000       0.90625000000000000        0.0000000000000000     
  0.93750000000000000       0.90625000000000000        0.0000000000000000     
  0.96875000000000000       0.90625000000000000        0.0000000000000000     
   1.0000000000000000       0.90625000000000000        0.0000000000000000     
  0.87500000000000000       0.93750000000000000        0.0000000000000000     
  0.90625000000000000       0.93750000000000000        0.0000000000000000     
  0.93750000000000000       0.93750000000000000        0.0000000000000000     
  0.96875000000000000       0.93750000000000000        0.0000000000000000     
   1.0000000000000000       0.93750000000000000        0.0000000000000000     
  0.87500000000000000       0.96875000000000000        0.0000000000000000     
  0.90625000000000000       0.96875000000000000        0.0000000000000000     
  0.93750000000000000       0.96875000000000000        0.0000000000000000     
  0.96875000000000000       0.96875000000000000        0.0000000000000000     
   1.0000000000000000       0.96875000000000000        0.0000000000000000     
  0.87500000000000000        1.0000000000000000        0.0000000000000000     
  0.90625000000000000        1.0000000000000000        0.0000000000000000     
  0.93750000000000000        1.0000000000000000        0.0000000000000000     
  0.96875000000000000        1.0000000000000000        0.0000000000000000     
   1.0000000000000000        1.0000000000000000        0.0000000000000000     
 </DataArray>
 </Points>
 <Cells>
 <DataArray  type="Int32"  Name="connectivity"  format="ascii">
           0           1           6           5
           1           2           7           6
           2           3           8           7
           3           4           9           8
           5           6          11          10
           6           7          12          11
           7           8          13          12
           8           9          14          13
          10          11          16          15
          11          12          17          16
          12          13          18          17
          13          14          19          18
          15          16          21          20
          16          17          22          21
          17          18          23          22
          18          19          24          23
          25          26          31          30
          26          27          32          31
          27          28          33          32
          28          29          34          33
          30          31          36          35
          31          32          37          36
          32          33          38          37
          33          34          39          38
          35          36          41          40
          36          37          42          41
          37          38          43          42
          38          39          44          43
          40          41          46          45
          41          42          47          46
          42          43          48          47
          43          44          49          48
          50          51          56          55
          51          52          57          56
          52          53          58          57
          53          54          59          58
          55          56          61          60
          56          57          62          61
          57          58          63          62
          58          59          64          63
          60          61          66          65
          61          62          67          66
          62          63          68          67
          63          64          69          68
          65          66          71          70
          66          67          72          71
          67          68          73          72
          68          69          74          73
          75          76          81          80
          76          77          82          81
          77          78          83          82
          78          79          84          83
          80          81          86          85
          81          82          87          86
          82          83          88          87
          83          84          89          88
          85          86          91          90
          86          87          92          91
          87          88          93          92
          88          89          94          93
          90          91          96          95
          91          92          97          96
          92          93          98          97
          93          94          99          98
         100         101         106         105
         101         102         107         106
         102         103         108         107
         103         104         109         108
         105         106         111         110
         106         107         112         111
         107         108         113         112
         108         109         114         113
         110         111         116         115
         111         112         117         116
         112         113         118         117
         113         114         119         118
         115         116         121         120
         116         117         122         121
         117         118         123         122
         118         119         124         123
         125         126         131         130
         126         127         132         131
         127         128         133         132
         128         129         134         133
         130         131         136         135
         131         132         137         136
         132         133         138         137
         133         134         139         138
         135         136         141         140
         136         137         142         141
         137         138         143         142
         138         139         144         143
         140         141         146         145
         141         142         147         146
         142         143         148         147
         143         144         149         148
         150         151         156         155
         151         152         157         156
         152         153         158         157
         153         154         159         158
         155         156         161         160
         156         157         162         161
         157         158         163         162
         158         159         164         163
         160         161         166         165
         161         162         167         166
         162         163         168         167
         163         164         169         168
         165         166         171         170
         166         167         172         171
         167         168         173         172
         168         169         174         173
         175         176         181         180
         176         177         182         181
         177         178         183         182
         178         179         184         183
         180         181         186         185
         181         182         187         186
         182         183         188         187
         183         184         189         188
         185         186         191         190
         186         187         192         191
         187         188         193         192
         188         189         194         193
         190         191         196         195
         191         192         197         196
         192         193         198         197
         193         194         199         198
         200         201         206         205
         201         202         207         206
         202         203         208         207
         203         204         209         208
         205         206         211         210
         206         207         212         211
         207         208         213         212
         208         209         214         213
         210         211         216         215
         211         212         217         216
         212         213         218         217
         213         214         219         218
         215         216         221         220
         216         217         222         221
         217         218         223         222
         218         219         224         223
         225         226         231         230
         226         227         232         231
         227         228         233         232
         228         229         234         233
         230         231         236         235
         231         232         237         236
         232         233         238         237
         233         234         239         238
         235         236         241         240
         236         237         242         241
         237         238         243         242
         238         239         244         243
         240         241         246         245
         241         242         247         246
         242         243         248         247
         243         244         249         248
         250         251         256         255
         251         252         257         256
         252         253         258         257
         253         254         259         258
         255         256         261         260
         256         257         262         261
         257         258         263         262
         258         259         264         263
         260         261         266         265
         261         262         267         266
         262         263         268         267
         263         264         269         268
         265         266         271         270
         266         267         272         271
         267         268         273         272
         268         269         274         273
         275         276         281         280
         276         277         282         281
         277         278         283         282
         278         279         284         283
         280         281         286         285
         281         282         287         286
         282         283         288         287
         283         284         289         288
         285         286         291         290
         286         287         292         291
         287         288         293         292
         288         289         294         293
         290         291         296         295
         291         292         297         296
         292         293         298         297
         293         294         299         298
         300         301         306         305
         301         302         307         306
         302         303         308         307
         303         304         309         308
         305         306         311         310
         306         307         312         311
         307         308         313         312
         308         309         314         313
         310         311         316         315
         311         312         317         316
         312         313         318         317
         313         314         319         318
         315         316         321         320
         316         317         322         321
         317         318         323         322
         318         319         324         323
         325         326         331         330
         326         327         332         331
         327         328         333         332
         328         329         334         333
         330         331         336         335
         331         332         337         336
         332         333         338         337
         333         334         339         338
         335         336         341         340
         336         337         342         341
         337         338         343         342
         338         339         344         343
         340         341         346         345
         341         342         347         346
         342         343         348         347
         343         344         349         348
         350         351         356         355
         351         352         357         356
         352         353         358         357
         353         354         359         358
         355         356         361         360
         356         357         362         361
         357         358         363         362
         358         359         364         363
         360         361         366         365
         361         362         367         366
         362         363         368         367
         363         364         369         368
         365         366         371         370
         366         367         372         371
         367         368         373         372
         368         369         374         373
         375         376         381         380
         376         377         382         381
         377         378         383         382
         378         379         384         383
         380         381         386         385
         381         382         387         386
         382         383         388         387
         383         384         389         388
         385         386         391         390
         386         387         392         391
         387         388         393         392
         388         389         394         393
         390         391         396         395
         391         392         397         396
         392         393         398         397
         393         394         399         398
         400         401         406         405
         401         402         407         406
         402         403         408         407
         403         404         409         408
         405         406         411         410
         406         407         412         411
         407         408         413         412
         408         409         414         413
         410         411         416         415
         411         412         417         416
         412         413         418         417
         413         414         419         418
         415         416         421         420
         416         417         422         421
         417         418         423         422
         418         419         424         423
         425         426         431         430
         426         427         432         431
         427         428         433         432
         428         429         434         433
         430         431         436         435
         431         432         437         436
         432         433         438         437
         433         434         439         438
         435         436         441         440
         436         437         442         441
         437         438         443         442
         438         439         444         443
         440         441         446         445
         441         442         447         446
         442         443         448         447
         443         444         449         448
         450         451         456         455
         451         452         457         456
         452         453         458         457
         453         454         459         458
         455         456         461         460
         456         457         462         461
         457         458         463         462
         458         459         464         463
         460         461         466         465
         461         462         467         466
         462         463         468         467
         463         464         469         468
         465         466         471         470
         466         467         472         471
         467         468         473         472
         468         469         474         473
         475         476         481         480
         476         477         482         481
         477         478         483         482
         478         479         484         483
         480         481         486         485
         481         482         487         486
         482         483         488         487
         483         484         489         488
         485         486         491         490
         486         487         492         491
         487         488         493         492
         488         489         494         493
         490         491         496         495
         491         492         497         496
         492         493         498         497
         493         494         499         498
         500         501         506         505
         501         502         507         506
         502         503         508         507
         503         504         509         508
         505         506         511         510
         506         507         512         511
         507         508         513         512
         508         509         514         513
         510         511         516         515
         511         512         517         516
         512         513         518         517
         513         514         519         518
         515         516         521         520
         516         517         522         521
         517         518         523         522
         518         519         524         523
         525         526         531         530
         526         527         532         531
         527         528         533         532
         528         529         534         533
         530         531         536         535
         531         532         537         536
         532         533         538         537
         533         534         539         538
         535         536         541         540
         536         537         542         541
         537         538         543         542
         538         539         544         543
         540         541         546         545
         541         542         547         546
         542         543         548         547
         543         544         549         548
         550         551         556         555
         551         552         557         556
         552         553         558         557
         553         554         559         558
         555         556         561         560
         556         557         562         561
         557         558         563         562
         558         559         564         563
         560         561         566         565
         561         562         567         566
         562         563         568         567
         563         564         569         568
         565         566         571         570
         566         567         572         571
         567         568         573         572
         568         569         574         573
         575         576         581         580
         576         577         582         581
         577         578         583         582
         578         579         584         583
         580         581         586         585
         581         582         587         586
         582         583         588         587
         583         584         589         588
         585         586         591         590
         586         587         592         591
         587         588         593         592
         588         589         594         593
         590         591         596         595
         591         592         597         596
         592         593         598         597
         593         594         599         598
         600         601         606         605
         601         602         607         606
         602         603         608         607
         603         604         609         608
         605         606         611         610
         606         607         612         611
         607         608         613         612
         608         609         614         613
         610         611         616         615
         611         612         617         616
         612         613         618         617
         613         614         619         618
         615         616         621         620
         616         617         622         621
         617         618         623         622
         618         619         624         623
         625         626         631         630
         626         627         632         631
         627         628         633         632
         628         629         634         633
         630         631         636         635
         631         632         637         636
         632         633         638         637
         633         634         639         638
         635         636         641         640
         636         637         642         641
         637         638         643         642
         638         639         644         643
         640         641         646         645
         641         642         647         646
         642         643         648         647
         643         644         649         648
         650         651         656         655
         651         652         657         656
         652         653         658         657
         653         654         659         658
         655         656         661         660
         656         657         662         661
         657         658         663         662
         658         659         664         663
         660         661         666         665
         661         662         667         666
         662         663         668         667
         663         664         669         668
         665         666         671         670
         666         667         672         671
         667         668         673         672
         668         669         674         673
         675         676         681         680
         676         677         682         681
         677         678         683         682
         678         679         684         683
         680         681         686         685
         681         682         687         686
         682         683         688         687
         683         684         689         688
         685         686         691         690
         686         687         692         691
         687         688         693         692
         688         689         694         693
         690         691         696         695
         691         692         697         696
         692         693         698         697
         693         694         699         698
         700         701         706         705
         701         702         707         706
         702         703         708         707
         703         704         709         708
         705         706         711         710
         706         707         712         711
         707         708         713         712
         708         709         714         713
         710         711         716         715
         711         712         717         716
         712         713         718         717
         713         714         719         718
         715         716         721         720
         716         717         722         721
         717         718         723         722
         718         719         724         723
         725         726         731         730
         726         727         732         731
         727         728         733         732
         728         729         734         733
         730         731         736         735
         731         732         737         736
         732         733         738         737
         733         734         739         738
         735         736         741         740
         736         737         742         741
         737         738         743         742
         738         739         744         743
         740         741         746         745
         741         742         747         746
         742         743         748         747
         743         744         749         748
         750         751         756         755
         751         752         757         756
         752         753         758         757
         753         754         759         758
         755         756         761         760
         756         757         762         761
         757         758         763         762
         758         759         764         763
         760         761         766         765
         761         762         767         766
         762         763         768         767
         763         764         769         768
         765         766         771         770
         766         767         772         771
         767         768         773         772
         768         769         774         773
         775         776         781         780
         776         777         782         781
         777         778         783         782
         778         779         784         783
         780         781         786         785
         781         782         787         786
         782         783         788         787
         783         784         789         788
         785         786         791         790
         786         787         792         791
         787         788         793         792
         788         789         794         793
         790         791         796         795
         791         792         797         796
         792         793         798         797
         793         794         799         798
         800         801         806         805
         801         802         807         806
         802         803         808         807
         803         804         809         808
         805         806         811         810
         806         807         812         811
         807         808         813         812
         808         809         814         813
         810         811         816         815
         811         812         817         816
         812         813         818         817
         813         814         819         818
         815         816         821         820
         816         817         822         821
         817         818         823         822
         818         819         824         823
         825         826         831         830
         826         827         832         831
         827         828         833         832
         828         829         834         833
         830         831         836         835
         831         832         837         836
         832         833         838         837
         833         834         839         838
         835         836         841         840
         836         837         842         841
         837         838         843         842
         838         839         844         843
         840         841         846         845
         841         842         847         846
         842         843         848         847
         843         844         849         848
         850         851         856         855
         851         852         857         856
         852         853         858         857
         853         854         859         858
         855         856         861         860
         856         857         862         861
         857         858         863         862
         858         859         864         863
         860         861         866         865
         861         862         867         866
         862         863         868         867
         863         864         869         868
         865         866         871         870
         866         867         872         871
         867         868         873         872
         868         869         874         873
         875         876         881         880
         876         877         882         881
         877         878         883         882
         878         879         884         883
         880         881         886         885
         881         882         887         886
         882         883         888         887
         883         884         889         888
         885         886         891         890
         886         887         892         891
         887         888         893         892
         888         889         894         893
         890         891         896         895
         891         892         897         896
         892         893         898         897
         893         894         899         898
         900         901         906         905
         901         902         907         906
         902         903         908         907
         903         904         909         908
         905         906         911         910
         906         907         912         911
         907         908         913         912
         908         909         914         913
         910         911         916         915
         911         912         917         916
         912         913         918         917
         913         914         919         918
         915         916         921         920
         916         917         922         921
         917         918         923         922
         918         919         924         923
         925         926         931         930
         926         927         932         931
         927         928         933         932
         928         929         934         933
         930         931         936         935
         931         932         937         936
         932         933         938         937
         933         934         939         938
         935         936         941         940
         936         937         942         941
         937         938         943         942
         938         939         944         943
         940         941         946         945
         941         942         947         946
         942         943         948         947
         943         944         949         948
         950         951         956         955
         951         952         957         956
         952         953         958         957
         953         954         959         958
         955         956         961         960
         956         957         962         961
         957         958         963         962
         958         959         964         963
         960         961         966         965
         961         962         967         966
         962         963         968         967
         963         964         969         968
         965         966         971         970
         966         967         972         971
         967         968         973         972
         968         969         974         973
         975         976         981         980
         976         977         982         981
         977         978         983         982
         978         979         984         983
         980         981         986         985
         981         982         987         986
         982         983         988         987
         983         984         989         988
         985         986         991         990
         986         987         992         991
         987         988         993         992
         988         989         994         993
         990         991         996         995
         991         992         997         996
         992         993         998         997
         993         994         999         998
        1000        1001        1006        1005
        1001        1002        1007        1006
        1002        1003        1008        1007
        1003        1004        1009        1008
        1005        1006        1011        1010
        1006        1007        1012        1011
        1007        1008        1013        1012
        1008        1009        1014        1013
        1010        1011        1016        1015
        1011        1012        1017        1016
        1012        1013        1018        1017
        1013        1014        1019        1018
        1015        1016        1021        1020
        1016        1017        1022        1021
        1017        1018        1023        1022
        1018        1019        1024        1023
        1025        1026        1031        1030
        1026        1027        1032        1031
        1027        1028        1033        1032
        1028        1029        1034        1033
        1030        1031        1036        1035
        1031        1032        1037        1036
        1032        1033        1038        1037
        1033        1034        1039        1038
        1035        1036        1041        1040
        1036        1037        1042        1041
        1037        1038        1043        1042
        1038        1039        1044        1043
        1040        1041        1046        1045
        1041        1042        1047        1046
        1042        1043        1048        1047
        1043        1044        1049        1048
        1050        1051        1056        1055
        1051        1052        1057        1056
        1052        1053        1058        1057
        1053        1054        1059        1058
        1055        1056        1061        1060
        1056        1057        1062        1061
        1057        1058        1063        1062
        1058        1059        1064        1063
        1060        1061        1066        1065
        1061        1062        1067        1066
        1062        1063        1068        1067
        1063        1064        1069        1068
        1065        1066        1071        1070
        1066        1067        1072        1071
        1067        1068        1073        1072
        1068        1069        1074        1073
        1075        1076        1081        1080
        1076        1077        1082        1081
        1077        1078        1083        1082
        1078        1079        1084        1083
        1080        1081        1086        1085
        1081        1082        1087        1086
        1082        1083        1088        1087
        1083        1084        1089        1088
        1085        1086        1091        1090
        1086        1087        1092        1091
        1087        1088        1093        1092
        1088        1089        1094        1093
        1090        1091        1096        1095
        1091        1092        1097        1096
        1092        1093        1098        1097
        1093        1094        1099        1098
        1100        1101        1106        1105
        1101        1102        1107        1106
        1102        1103        1108        1107
        1103        1104        1109        1108
        1105        1106        1111        1110
        1106        1107        1112        1111
        1107        1108        1113        1112
        1108        1109        1114        1113
        1110        1111        1116        1115
        1111        1112        1117        1116
        1112        1113        1118        1117
        1113        1114        1119        1118
        1115        1116        1121        1120
        1116        1117        1122        1121
        1117        1118        1123        1122
        1118        1119        1124        1123
        1125        1126        1131        1130
        1126        1127        1132        1131
        1127        1128        1133        1132
        1128        1129        1134        1133
        1130        1131        1136        1135
        1131        1132        1137        1136
        1132        1133        1138        1137
        1133        1134        1139        1138
        1135        1136        1141        1140
        1136        1137        1142        1141
        1137        1138        1143        1142
        1138        1139        1144        1143
        1140        1141        1146        1145
        1141        1142        1147        1146
        1142        1143        1148        1147
        1143        1144        1149        1148
        1150        1151        1156        1155
        1151        1152        1157        1156
        1152        1153        1158        1157
        1153        1154        1159        1158
        1155        1156        1161        1160
        1156        1157        1162        1161
        1157        1158        1163        1162
        1158        1159        1164        1163
        1160        1161        1166        1165
        1161        1162        1167        1166
        1162        1163        1168        1167
        1163        1164        1169        1168
        1165        1166        1171        1170
        1166        1167        1172        1171
        1167        1168        1173        1172
        1168        1169        1174        1173
        1175        1176        1181        1180
        1176        1177        1182        1181
        1177        1178        1183        1182
        1178        1179        1184        1183
        1180        1181        1186        1185
        1181        1182        1187        1186
        1182        1183        1188        1187
        1183        1184        1189        1188
        1185        1186        1191        1190
        1186        1187        1192        1191
        1187        1188        1193        1192
        1188        1189        1194        1193
        1190        1191        1196        1195
        1191        1192        1197        1196
        1192        1193        1198        1197
        1193        1194        1199        1198
        1200        1201        1206        1205
        1201        1202        1207        1206
        1202        1203        1208        1207
        1203        1204        1209        1208
        1205        1206        1211        1210
        1206        1207        1212        1211
        1207        1208        1213        1212
        1208        1209        1214        1213
        1210        1211        1216        1215
        1211        1212        1217        1216
        1212        1213        1218        1217
        1213        1214        1219        1218
        1215        1216        1221        1220
        1216        1217        1222        1221
        1217        1218        1223        1222
        1218        1219        1224        1223
        1225        1226        1231        1230
        1226        1227        1232        1231
        1227        1228        1233        1232
        1228        1229        1234        1233
        1230        1231        1236        1235
        1231        1232        1237        1236
        1232        1233        1238        1237
        1233        1234        1239        1238
        1235        1236        1241        1240
        1236        1237        1242        1241
        1237        1238        1243        1242
        1238        1239        1244        1243
        1240        1241        1246        1245
        1241        1242        1247        1246
        1242        1243        1248        1247
        1243        1244        1249        1248
        1250        1251        1256        1255
        1251        1252        1257        1256
        1252        1253        1258        1257
        1253        1254        1259        1258
        1255        1256        1261        1260
        1256        1257        1262        1261
        1257        1258        1263        1262
        1258        1259        1264        1263
        1260        1261        1266        1265
        1261        1262        1267        1266
        1262        1263        1268        1267
        1263        1264        1269        1268
        1265        1266        1271        1270
        1266        1267        1272        1271
        1267        1268        1273        1272
        1268        1269        1274        1273
        1275        1276        1281        1280
        1276        1277        1282        1281
        1277        1278        1283        1282
        1278        1279        1284        1283
        1280        1281        1286        1285
        1281        1282        1287        1286
        1282        1283        1288        1287
        1283        1284        1289        1288
        1285        1286        1291        1290
        1286        1287        1292        1291
        1287        1288        1293        1292
        1288        1289        1294        1293
        1290        1291        1296        1295
        1291        1292        1297        1296
        1292        1293        1298        1297
        1293        1294        1299        1298
        1300        1301        1306        1305
        1301        1302        1307        1306
        1302        1303        1308        1307
        1303        1304        1309        1308
        1305        1306        1311        1310
        1306        1307        1312        1311
        1307        1308        1313        1312
        1308        1309        1314        1313
        1310        1311        1316        1315
        1311        1312        1317        1316
        1312        1313        1318        1317
        1313        1314        1319        1318
        1315        1316        1321        1320
        1316        1317        1322        1321
        1317        1318        1323        1322
        1318        1319        1324        1323
        1325        1326        1331        1330
        1326        1327        1332        1331
        1327        1328        1333        1332
        1328        1329        1334        1333
        1330        1331        1336        1335
        1331        1332        1337        1336
        1332        1333        1338        1337
        1333        1334        1339        1338
        1335        1336        1341        1340
        1336        1337        1342        1341
        1337        1338        1343        1342
        1338        1339        1344        1343
        1340        1341        1346        1345
        1341        1342        1347        1346
        1342        1343        1348        1347
        1343        1344        1349        1348
        1350        1351        1356        1355
        1351        1352        1357        1356
        1352        1353        1358        1357
        1353        1354        1359        1358
        1355        1356        1361        1360
        1356        1357        1362        1361
        1357        1358        1363        1362
        1358        1359        1364        1363
        1360        1361        1366        1365
        1361        1362        1367        1366
        1362        1363        1368        1367
        1363        1364        1369        1368
        1365        1366        1371        1370
        1366        1367        1372        1371
        1367        1368        1373        1372
        1368        1369        1374        1373
        1375        1376        1381        1380
        1376        1377        1382        1381
        1377        1378        1383        1382
        1378        1379        1384        1383
        1380        1381        1386        1385
        1381        1382        1387        1386
        1382        1383        1388        1387
        1383        1384        1389        1388
        1385        1386        1391        1390
        1386        1387        1392        1391
        1387        1388        1393        1392
        1388        1389        1394        1393
        1390        1391        1396        1395
        1391        1392        1397        1396
        1392        1393        1398        1397
        1393        1394        1399        1398
        1400        1401        1406        1405
        1401        1402        1407        1406
        1402        1403        1408        1407
        1403        1404        1409        1408
        1405        1406        1411        1410
        1406        1407        1412        1411
        1407        1408        1413        1412
        1408        1409        1414        1413
        1410        1411        1416        1415
        1411        1412        1417        1416
        1412        1413        1418        1417
        1413        1414        1419        1418
        1415        1416        1421        1420
        1416        1417        1422        1421
        1417        1418        1423        1422
        1418        1419        1424        1423
        1425        1426        1431        1430
        1426        1427        1432        1431
        1427        1428        1433        1432
        1428        1429        1434        1433
        1430        1431        1436        1435
        1431        1432        1437        1436
        1432        1433        1438        1437
        1433        1434        1439        1438
        1435        1436        1441        1440
        1436        1437        1442        1441
        1437        1438        1443        1442
        1438        1439        1444        1443
        1440        1441        1446        1445
        1441        1442        1447        1446
        1442        1443        1448        1447
        1443        1444        1449        1448
        1450        1451        1456        1455
        1451        1452        1457        1456
        1452        1453        1458        1457
        1453        1454        1459        1458
        1455        1456        1461        1460
        1456        1457        1462        1461
        1457        1458        1463        1462
        1458        1459        1464        1463
        1460        1461        1466        1465
        1461        1462        1467        1466
        1462        1463        1468        1467
        1463        1464        1469        1468
        1465        1466        1471        1470
        1466        1467        1472        1471
        1467        1468        1473        1472
        1468        1469        1474        1473
        1475        1476        1481        1480
        1476        1477        1482        1481
        1477        1478        1483        1482
        1478        1479        1484        1483
        1480        1481        1486        1485
        1481        1482        1487        1486
        1482        1483        1488        1487
        1483        1484        1489        1488
        1485        1486        1491        1490
        1486        1487        1492        1491
        1487        1488        1493        1492
        1488        1489        1494        1493
        1490        1491        1496        1495
        1491        1492        1497        1496
        1492        1493        1498        1497
        1493        1494        1499        1498
        1500        1501        1506        1505
        1501        1502        1507        1506
        1502        1503        1508        1507
        1503        1504        1509        1508
        1505        1506        1511        1510
        1506        1507        1512        1511
        1507        1508        1513        1512
        1508        1509        1514        1513
        1510        1511        1516        1515
        1511        1512        1517        1516
        1512        1513        1518        1517
        1513        1514        1519        1518
        1515        1516        1521        1520
        1516        1517        1522        1521
        1517        1518        1523        1522
        1518        1519        1524        1523
        1525        1526        1531        1530
        1526        1527        1532        1531
        1527        1528        1533        1532
        1528        1529        1534        1533
        1530        1531        1536        1535
        1531        1532        1537        1536
        1532        1533        1538        1537
        1533        1534        1539        1538
        1535        1536        1541        1540
        1536        1537        1542        1541
        1537        1538        1543        1542
        1538        1539        1544        1543
        1540        1541        1546        1545
        1541        1542        1547        1546
        1542        1543        1548        1547
        1543        1544        1549        1548
        1550        1551        1556        1555
        1551        1552        1557        1556
        1552        1553        1558        1557
        1553        1554        1559        1558
        1555        1556        1561        1560
        1556        1557        1562        1561
        1557        1558        1563        1562
        1558        1559        1564        1563
        1560        1561        1566        1565
        1561        1562        1567        1566
        1562        1563        1568        1567
        1563        1564        1569        1568
        1565        1566        1571        1570
        1566        1567        1572        1571
        1567        1568        1573        1572
        1568        1569        1574        1573
        1575        1576        1581        1580
        1576        1577        1582        1581
        1577        1578        1583        1582
        1578        1579        1584        1583
        1580        1581        1586        1585
        1581        1582        1587        1586
        1582        1583        1588        1587
        1583        1584        1589        1588
        1585        1586        1591        1590
        1586        1587        1592        1591
        1587        1588        1593        1592
        1588        1589        1594        1593
        1590        1591        1596        1595
        1591        1592        1597        1596
        1592        1593        1598        1597
        1593        1594        1599        1598
 </DataArray>
 <DataArray  type="Int32"  Name="offsets"  format="ascii"> 
           4
           8
          12
          16
          20
          24
          28
          32
          36
          40
          44
          48
          52
          56
          60
          64
          68
          72
          76
          80
          84
          88
          92
          96
         100
         104
         108
         112
         116
         120
         124
         128
         132
         136
         140
         144
         148
         152
         156
         160
         164
         168
         172
         176
         180
         184
         188
         192
         196
         200
         204
         208
         212
         216
         220
         224
         228
         232
         236
         240
         244
         248
         252
         256
         260
         264
         268
         272
         276
         280
         284
         288
         292
         296
         300
         304
         308
         312
         316
         320
         324
         328
         332
         336
         340
         344
         348
         352
         356
         360
         364
         368
         372
         376
         380
         384
         388
         392
         396
         400
         404
         408
         412
         416
         420
         424
         428
         432
         436
         440
         444
         448
         452
         456
         460
         464
         468
         472
         476
         480
         484
         488
         492
         496
         500
         504
         508
         512
         516
         520
         524
         528
         532
         536
         540
         544
         548
         552
         556
         560
         564
         568
         572
         576
         580
         584
         588
         592
         596
         600
         604
         608
         612
         616
         620
         624
         628
         632
         636
         640
         644
         648
         652
         656
         660
         664
         668
         672
         676
         680
         684
         688
         692
         696
         700
         704
         708
         712
         716
         720
         724
         728
         732
         736
         740
         744
         748
         752
         756
         760
         764
         768
         772
         776
         780
         784
         788
         792
         796
         800
         804
         808
         812
         816
         820
         824
         828
         832
         836
         840
         844
         848
         852
         856
         860
         864
         868
         872
         876
         880
         884
         888
         892
         896
         900
         904
         908
         912
         916
         920
         924
         928
         932
         936
         940
         944
         948
         952
         956
         960
         964
         968
         972
         976
         980
         984
         988
         992
         996
        1000
        1004
        1008
        1012
        1016
        1020
        1024
        1028
        1032
        1036
        1040
        1044
        1048
        1052
        1056
        1060
        1064
        1068
        1072
        1076
        1080
        1084
        1088
        1092
        1096
        1100
        1104
        1108
        1112
        1116
        1120
        1124
        1128
        1132
        1136
        1140
        1144
        1148
        1152
        1156
        1160
        1164
        1168
        1172
        1176
        1180
        1184
        1188
        1192
        1196
        1200
        1204
        1208
        1212
        1216
        1220
        1224
        1228
        1232
        1236
        1240
        1244
        1248
        1252
        1256
        1260
        1264
        1268
        1272
        1276
        1280
        1284
        1288
        1292
        1296
        1300
        1304
        1308
        1312
        1316
        1320
        1324
        1328
        1332
        1336
        1340
        1344
        1348
        1352
        1356
        1360
        1364
        1368
        1372
        1376
        1380
        1384
        1388
        1392
        1396
        1400
        1404
        1408
        1412
        1416
        1420
        1424
        1428
        1432
        1436
        1440
        1444
        1448
        1452
        1456
        1460
        1464
        1468
        1472
        1476
        1480
        1484
        1488
        1492
        1496
        1500
        1504
        1508
        1512
        1516
        1520
        1524
        1528
        1532
        1536
        1540
        1544
        1548
        1552
        1556
        1560
        1564
        1568
        1572
        1576
        1580
        1584
        1588
        1592
        1596
        1600
        1604
        1608
        1612
        1616
        1620
        1624
        1628
        1632
        1636
        1640
        1644
        1648
        1652
        1656
        1660
        1664
        1668
        1672
        1676
        1680
        1684
        1688
        1692
        1696
        1700
        1704
        1708
        1712
        1716
        1720
        1724
        1728
        1732
        1736
        1740
        1744
        1748
        1752
        1756
        1760
        1764
        1768
        1772
        1776
        1780
        1784
        1788
        1792
        1796
        1800
        1804
        1808
        1812
        1816
        1820
        1824
        1828
        1832
        1836
        1840
        1844
        1848
        1852
        1856
        1860
        1864
        1868
        1872
        1876
        1880
        1884
        1888
        1892
        1896
        1900
        1904
        1908
        1912
        1916
        1920
        1924
        1928
        1932
        1936
        1940
        1944
        1948
        1952
        1956
        1960
        1964
        1968
        1972
        1976
        1980
        1984
        1988
        1992
        1996
        2000
        2004
        2008
        2012
        2016
        2020
        2024
        2028
        2032
        2036
        2040
        2044
        2048
        2052
        2056
        2060
        2064
        2068
        2072
        2076
        2080
        2084
        2088
        2092
        2096
        2100
        2104
        2108
        2112
        2116
        2120
        2124
        2128
        2132
        2136
        2140
        2144
        2148
        2152
        2156
        2160
        2164
        2168
        2172
        2176
        2180
        2184
        2188
        2192
        2196
        2200
        2204
        2208
        2212
        2216
        2220
        2224
        2228
        2232
        2236
        2240
        2244
        2248
        2252
        2256
        2260
        2264
        2268
        2272
        2276
        2280
        2284
        2288
        2292
        2296
        2300
        2304
        2308
        2312
        2316
        2320
        2324
        2328
        2332
        2336
        2340
        2344
        2348
        2352
        2356
        2360
        2364
        2368
        2372
        2376
        2380
        2384
        2388
        2392
        2396
        2400
        2404
        2408
        2412
        2416
        2420
        2424
        2428
        2432
        2436
        2440
        2444
        2448
        2452
        2456
        2460
        2464
        2468
        2472
        2476
        2480
        2484
        2488
        2492
        2496
        2500
        2504
        2508
        2512
        2516
        2520
        2524
        2528
        2532
        2536
        2540
        2544
        2548
        2552
        2556
        2560
        2564
        2568
        2572
        2576
        2580
        2584
        2588
        2592
        2596
        2600
        2604
        2608
        2612
        2616
        2620
        2624
        2628
        2632
        2636
        2640
        2644
        2648
        2652
        2656
        2660
        2664
        2668
        2672
        2676
        2680
        2684
        2688
        2692
        2696
        2700
        2704
        2708
        2712
        2716
        2720
        2724
        2728
        2732
        2736
        2740
        2744
        2748
        2752
        2756
        2760
        2764
        2768
        2772
        2776
        2780
        2784
        2788
        2792
        2796
        2800
        2804
        2808
        2812
        2816
        2820
        2824
        2828
        2832
        2836
        2840
        2844
        2848
        2852
        2856
        2860
        2864
        2868
        2872
        2876
        2880
        2884
        2888
        2892
        2896
        2900
        2904
        2908
        2912
        2916
        2920
        2924
        2928
        2932
        2936
        2940
        2944
        2948
        2952
        2956
        2960
        2964
        2968
        2972
        2976
        2980
        2984
        2988
        2992
        2996
        3000
        3004
        3008
        3012
        3016
        3020
        3024
        3028
        3032
        3036
        3040
        3044
        3048
        3052
        3056
        3060
        3064
        3068
        3072
        3076
        3080
        3084
        3088
        3092
        3096
        3100
        3104
        3108
        3112
        3116
        3120
        3124
        3128
        3132
        3136
        3140
        3144
        3148
        3152
        3156
        3160
        3164
        3168
        3172
        3176
        3180
        3184
        3188
        3192
        3196
        3200
        3204
        3208
        3212
        3216
        3220
        3224
        3228
        3232
        3236
        3240
        3244
        3248
        3252
        3256
        3260
        3264
        3268
        3272
        3276
        3280
        3284
        3288
        3292
        3296
        3300
        3304
        3308
        3312
        3316
        3320
        3324
        3328
        3332
        3336
        3340
        3344
        3348
        3352
        3356
        3360
        3364
        3368
        3372
        3376
        3380
        3384
        3388
        3392
        3396
        3400
        3404
        3408
        3412
        3416
        3420
        3424
        3428
        3432
        3436
        3440
        3444
        3448
        3452
        3456
        3460
        3464
        3468
        3472
        3476
        3480
        3484
        3488
        3492
        3496
        3500
        3504
        3508
        3512
        3516
        3520
        3524
        3528
        3532
        3536
        3540
        3544
        3548
        3552
        3556
        3560
        3564
        3568
        3572
        3576
        3580
        3584
        3588
        3592
        3596
        3600
        3604
        3608
        3612
        3616
        3620
        3624
        3628
        3632
        3636
        3640
        3644
        3648
        3652
        3656
        3660
        3664
        3668
        3672
        3676
        3680
        3684
        3688
        3692
        3696
        3700
        3704
        3708
        3712
        3716
        3720
        3724
        3728
        3732
        3736
        3740
        3744
        3748
        3752
        3756
        3760
        3764
        3768
        3772
        3776
        3780
        3784
        3788
        3792
        3796
        3800
        3804
        3808
        3812
        3816
        3820
        3824
        3828
        3832
        3836
        3840
        3844
        3848
        3852
        3856
        3860
        3864
        3868
        3872
        3876
        3880
        3884
        3888
        3892
        3896
        3900
        3904
        3908
        3912
        3916
        3920
        3924
        3928
        3932
        3936
        3940
        3944
        3948
        3952
        3956
        3960
        3964
        3968
        3972
        3976
        3980
        3984
        3988
        3992
        3996
        4000
        4004
        4008
        4012
        4016
        4020
        4024
        4028
        4032
        4036
        4040
        4044
        4048
        4052
        4056
        4060
        4064
        4068
        4072
        4076
        4080
        4084
        4088
        4092
        4096
 </DataArray>
 <DataArray  type="UInt8"  Name="types"  format="ascii">
 9
 9
 9
 9
 9
 9
 9
 9
 9
 9
 9
 9
 9
 9
 9
 9
 9
 9
 9
 9
 9
 9
 9
 9
 9
 9
 9
 9
 9
 9
 9
 9
 9
 9
 9
 9
 9
 9
 9
 9
 9
 9
 9
 9
 9
 9
 9
 9
 9
 9
 9
 9
 9
 9
 9
 9
 9
 9
 9
 9
 9
 9
 9
 9
 9
 9
 9
 9
 9
 9
 9
 9
 9
 9
 9
 9
 9
 9
 9
 9
 9
 9
 9
 9
 9
 9
 9
 9
 9
 9
 9
 9
 9
 9
 9
 9
 9
 9
 9
 9
 9
 9
 9
 9
 9
 9
 9
 9
 9
 9
 9
 9
 9
 9
 9
 9
 9
 9
 9
 9
 9
 9
 9
 9
 9
 9
 9
 9
 9
 9
 9
 9
 9
 9
 9
 9
 9
 9
 9
 9
 9
 9
 9
 9
 9
 9
 9
 9
 9
 9
 9
 9
 9
 9
 9
 9
 9
 9
 9
 9
 9
 9
 9
 9
 9
 9
 9
 9
 9
 9
 9
 9
 9
 9
 9
 9
 9
 9
 9
 9
 9
 9
 9
 9
 9
 9
 9
 9
 9
 9
 9
 9
 9
 9
 9
 9
 9
 9
 9
 9
 9
 9
 9
 9
 9
 9
 9
 9
 9
 9
 9
 9
 9
 9
 9
 9
 9
 9
 9
 9
 9
 9
 9
 9
 9
 9
 9
 9
 9
 9
 9
 9
 9
 9
 9
 9
 9
 9
 9
 9
 9
 9
 9
 9
 9
 9
 9
 9
 9
 9
 9
 9
 9
 9
 9
 9
 9
 9
 9
 9
 9
 9
 9
 9
 9
 9
 9
 9
 9
 9
 9
 9
 9
 9
 9
 9
 9
 9
 9
 9
 9
 9
 9
 9
 9
 9
 9
 9
 9
 9
 9
 9
 9
 9
 9
 9
 9
 9
 9
 9
 9
 9
 9
 9
 9
 9
 9
 9
 9
 9
 9
 9
 9
 9
 9
 9
 9
 9
 9
 9
 9
 9
 9
 9
 9
 9
 9
 9
 9
 9
 9
 9
 9
 9
 9
 9
 9
 9
 9
 9
 9
 9
 9
 9
 9
 9
 9
 9
 9
 9
 9
 9
 9
 9
 9
 9
 9
 9
 9
 9
 9
 9
 9
 9
 9
 9
 9
 9
 9
 9
 9
 9
 9
 9
 9
 9
 9
 9
 9
 9
 9
 9
 9
 9
 9
 9
 9
 9
 9
 9
 9
 9
 9
 9
 9
 9
 9
 9
 9
 9
 9
 9
 9
 9
 9
 9
 9
 9
 9
 9
 9
 9
 9
 9
 9
 9
 9
 9
 9
 9
 9
 9
 9
 9
 9
 9
 9
 9
 9
 9
 9
 9
 9
 9
 9
 9
 9
 9
 9
 9
 9
 9
 9
 9
 9
 9
 9
 9
 9
 9
 9
 9
 9
 9
 9
 9
 9
 9
 9
 9
 9
 9
 9
 9
 9
 9
 9
 9
 9
 9
 9
 9
 9
 9
 9
 9
 9
 9
 9
 9
 9
 9
 9
 9
 9
 9
 9
 9
 9
 9
 9
 9
 9
 9
 9
 9
 9
 9
 9
 9
 9
 9
 9
 9
 9
 9
 9
 9
 9
 9
 9
 9
 9
 9
 9
 9
 9
 9
 9
 9
 9
 9
 9
 9
 9
 9
 9
 9
 9
 9
 9
 9
 9
 9
 9
 9
 9
 9
 9
 9
 9
 9
 9
 9
 9
 9
 9
 9
 9
 9
 9
 9
 9
 9
 9
 9
 9
 9
 9
 9
 9
 9
 9
 9
 9
 9
 9
 9
 9
 9
 9
 9
 9
 9
 9
 9
 9
 9
 9
 9
 9
 9
 9
 9
 9
 9
 9
 9
 9
 9
 9
 9
 9
 9
 9
 9
 9
 9
 9
 9
 9
 9
 9
 9
 9
 9
 9
 9
 9
 9
 9
 9
 9
 9
 9
 9
 9
 9
 9
 9
 9
 9
 9
 9
 9
 9
 9
 9
 9
 9
 9
 9
 9
 9
 9
 9
 9
 9
 9
 9
 9
 9
 9
 9
 9
 9
 9
 9
 9
 9
 9
 9
 9
 9
 9
 9
 9
 9
 9
 9
 9
 9
 9
 9
 9
 9
 9
 9
 9
 9
 9
 9
 9
 9
 9
 9
 9
 9
 9
 9
 9
 9
 9
 9
 9
 9
 9
 9
 9
 9
 9
 9
 9
 9
 9
 9
 9
 9
 9
 9
 9
 9
 9
 9
 9
 9
 9
 9
 9
 9
 9
 9
 9
 9
 9
 9
 9
 9
 9
 9
 9
 9
 9
 9
 9
 9
 9
 9
 9
 9
 9
 9
 9
 9
 9
 9
 9
 9
 9
 9
 9
 9
 9
 9
 9
 9
 9
 9
 9
 9
 9
 9
 9
 9
 9
 9
 9
 9
 9
 9
 9
 9
 9
 9
 9
 9
 9
 9
 9
 9
 9
 9
 9
 9
 9
 9
 9
 9
 9
 9
 9
 9
 9
 9
 9
 9
 9
 9
 9
 9
 9
 9
 9
 9
 9
 9
 9
 9
 9
 9
 9
 9
 9
 9
 9
 9
 9
 9
 9
 9
 9
 9
 9
 9
 9
 9
 9
 9
 9
 9
 9
 9
 9
 9
 9
 9
 9
 9
 9
 9
 9
 9
 9
 9
 9
 9
 9
 9
 9
 9
 9
 9
 9
 9
 9
 9
 9
 9
 9
 9
 9
 9
 9
 9
 9
 9
 9
 9
 9
 9
 9
 9
 9
 9
 9
 9
 9
 9
 9
 9
 9
 9
 9
 9
 9
 9
 9
 9
 9
 9
 9
 9
 9
 9
 9
 9
 9
 9
 9
 9
 9
 9
 9
 9
 9
 9
 9
 9
 9
 9
 9
 9
 9
 9
 9
 9
 9
 9
 9
 9
 9
 9
 9
 9
 9
 9
 9
 9
 9
 9
 9
 9
 9
 9
 9
 9
 9
 9
 9
 9
 9
 9
 9
 9
 9
 9
 9
 9
 9
 9
 9
 9
 9
 9
 9
 9
 9
 9
 9
 9
 9
 9
 9
 9
 9
 9
 9
 9
 9
 9
 9
 9
 9
 9
 9
 9
 9
 9
 9
 9
 9
 9
 9
 9
 9
 9
 9
 9
 9
 9
 9
 9
 9
 9
 9
 9
 9
 9
 9
 9
 9
 9
 9
 9
 9
 9
 9
 9
 9
 9
 9
 9
 9
 9
 9
 9
 9
 9
 9
 9
 9
 9
 9
 9
 9
 9
 9
 9
 9
 9
 9
 9
 9
 9
 </DataArray>
 </Cells> 
 <PointData>
 <DataArray  type="Float64" Name="disp" NumberOfComponents="3" format="ascii">
   0.0000000000000000        0.0000000000000000        0.0000000000000000     
   6.0959949508188720E-003   3.7904338223575412E-003   0.0000000000000000     
   1.1666039310841031E-002   7.3238619925144058E-003   0.0000000000000000     
   1.6710133080066480E-002   1.0600284510470594E-002   0.0000000000000000     
   2.1228276258495216E-002   1.3619701376226107E-002   0.0000000000000000     
   0.0000000000000000        0.0000000000000000        0.0000000000000000     
   4.8911610393845822E-003   3.0221629765239131E-003   0.0000000000000000     
   9.5736479598212826E-003   6.0605681174852773E-003   0.0000000000000000     
   1.4047460761310101E-002   9.1152154228840918E-003   0.0000000000000000     
   1.8312599443851035E-002   1.2186104892720357E-002   0.0000000000000000     
   0.0000000000000000        0.0000000000000000        0.0000000000000000     
   3.9535651078542395E-003   2.4251433928027307E-003   0.0000000000000000     
   7.9106235388638601E-003   5.0629363525877798E-003   0.0000000000000000     
   1.1871175293028864E-002   7.9133788793551464E-003   0.0000000000000000     
   1.5835220370349248E-002   1.0976470973104835E-002   0.0000000000000000     
   0.0000000000000000        0.0000000000000000        0.0000000000000000     
   3.2832071562278434E-003   1.9993750711939933E-003   0.0000000000000000     
   6.6769660479687673E-003   4.3309666978219143E-003   0.0000000000000000     
   1.0181276675222771E-002   6.9947748798837609E-003   0.0000000000000000     
   1.3796139037989852E-002   9.9907996173795362E-003   0.0000000000000000     
   0.0000000000000000        0.0000000000000000        0.0000000000000000     
   2.8800871845053944E-003   1.7448580116977020E-003   0.0000000000000000     
   5.8726754871359999E-003   3.8646591531876799E-003   0.0000000000000000     
   8.9777649078918165E-003   6.3594034244699319E-003   0.0000000000000000     
   1.2195355446772848E-002   9.2290908255444632E-003   0.0000000000000000     
   2.1228276258495216E-002   1.3619701376226107E-002   0.0000000000000000     
   2.5433376376318931E-002   1.6612697630730162E-002   0.0000000000000000     
   2.9538340963729311E-002   1.9809858314931979E-002   0.0000000000000000     
   3.3543170020726355E-002   2.3211183428831557E-002   0.0000000000000000     
   3.7447863547310056E-002   2.6816672972428898E-002   0.0000000000000000     
   1.8312599443851035E-002   1.2186104892720357E-002   0.0000000000000000     
   2.2407281972330495E-002   1.5341590029098658E-002   0.0000000000000000     
   2.6369726311634901E-002   1.8650024334123581E-002   0.0000000000000000     
   3.0199932461764237E-002   2.2111407807795122E-002   0.0000000000000000     
   3.3897900422718508E-002   2.5725740450113284E-002   0.0000000000000000     
   1.5835220370349248E-002   1.0976470973104835E-002   0.0000000000000000     
   1.9730975438875364E-002   1.4211048403860732E-002   0.0000000000000000     
   2.3486657166657567E-002   1.7575946941646735E-002   0.0000000000000000     
   2.7102265553695857E-002   2.1071166586462835E-002   0.0000000000000000     
   3.0577800599990233E-002   2.4696707338309053E-002   0.0000000000000000     
   1.3796139037989852E-002   9.9907996173795362E-003   0.0000000000000000     
   1.7404456775953526E-002   1.3221072755016381E-002   0.0000000000000000     
   2.0889133528797312E-002   1.6587626137501442E-002   0.0000000000000000     
   2.4250169296521212E-002   2.0090459764834721E-002   0.0000000000000000     
   2.7487564079125223E-002   2.3729573637016214E-002   0.0000000000000000     
   1.2195355446772848E-002   9.2290908255444632E-003   0.0000000000000000     
   1.5427725983564986E-002   1.2371663082565607E-002   0.0000000000000000     
   1.8577155398054140E-002   1.5685061921687705E-002   0.0000000000000000     
   2.1643643690240300E-002   1.9169287342910759E-002   0.0000000000000000     
   2.4627190860123480E-002   2.2824339346234762E-002   0.0000000000000000     
   3.7447863547310056E-002   2.6816672972428898E-002   0.0000000000000000     
   4.1256613345872481E-002   3.0621746748019103E-002   0.0000000000000000     
   4.4973611218805637E-002   3.4621824557897279E-002   0.0000000000000000     
   4.8598857166109566E-002   3.8816906402063416E-002   0.0000000000000000     
   5.2132351187784240E-002   4.3206992280517525E-002   0.0000000000000000     
   3.3897900422718508E-002   2.5725740450113284E-002   0.0000000000000000     
   3.7486704774294027E-002   2.9521892655527581E-002   0.0000000000000000     
   4.0989420096287095E-002   3.3528734818487532E-002   0.0000000000000000     
   4.4406046388697697E-002   3.7746266938993134E-002   0.0000000000000000     
   4.7736583651525853E-002   4.2174489017044382E-002   0.0000000000000000     
   3.0577800599990233E-002   2.4696707338309053E-002   0.0000000000000000     
   3.3942625868297938E-002   2.8497139889162405E-002   0.0000000000000000     
   3.7226104921376200E-002   3.2517034930999923E-002   0.0000000000000000     
   4.0428237759225036E-002   3.6756392463821605E-002   0.0000000000000000     
   4.3549024381844437E-002   4.1215212487627453E-002   0.0000000000000000     
   2.7487564079125223E-002   2.3729573637016214E-002   0.0000000000000000     
   3.0624376627884194E-002   2.7547488448923574E-002   0.0000000000000000     
   3.3683665694072981E-002   3.1586724895434445E-002   0.0000000000000000     
   3.6665431277691576E-002   3.5847282976548843E-002   0.0000000000000000     
   3.9569673378739990E-002   4.0329162692266739E-002   0.0000000000000000     
   2.4627190860123480E-002   2.2824339346234762E-002   0.0000000000000000     
   2.7531957053052808E-002   2.6672938334811089E-002   0.0000000000000000     
   3.0362102414377423E-002   3.0737804711791113E-002   0.0000000000000000     
   3.3117626944097332E-002   3.5018938477174834E-002   0.0000000000000000     
   3.5798530642212528E-002   3.9516339630962238E-002   0.0000000000000000     
   5.2132351187784240E-002   4.3206992280517525E-002   0.0000000000000000     
   5.5571916016931733E-002   4.7796390113402282E-002   0.0000000000000000     
   5.8915374386654125E-002   5.2589407820860350E-002   0.0000000000000000     
   6.2162726296951409E-002   5.7586045402891764E-002   0.0000000000000000     
   6.5313971747823607E-002   6.2786302859496490E-002   0.0000000000000000     
   4.7736583651525853E-002   4.2174489017044382E-002   0.0000000000000000     
   5.0977240834825910E-002   4.6806735145912486E-002   0.0000000000000000     
   5.4124226888652198E-002   5.1636339418868638E-002   0.0000000000000000     
   5.7177541813004745E-002   5.6663301835912838E-002   0.0000000000000000     
   6.0137185607883531E-002   6.1887622397045088E-002   0.0000000000000000     
   4.3549024381844437E-002   4.1215212487627453E-002   0.0000000000000000     
   4.6584489337010988E-002   4.5880883836194875E-002   0.0000000000000000     
   4.9530657172501255E-002   5.0740795343301261E-002   0.0000000000000000     
   5.2387527888315237E-002   5.5794947008946612E-002   0.0000000000000000     
   5.5155101484452948E-002   6.1043338833130921E-002   0.0000000000000000     
   3.9569673378739990E-002   4.0329162692266739E-002   0.0000000000000000     
   4.2393661523486975E-002   4.5018836184249435E-002   0.0000000000000000     
   4.5134665238201296E-002   4.9902775594158219E-002   0.0000000000000000     
   4.7792684522882913E-002   5.4980980921993064E-002   0.0000000000000000     
   5.0367719377531837E-002   6.0253452167753997E-002   0.0000000000000000     
   3.5798530642212528E-002   3.9516339630962238E-002   0.0000000000000000     
   3.8404757394253891E-002   4.4220592190076187E-002   0.0000000000000000     
   4.0936251085752294E-002   4.9122280171439506E-002   0.0000000000000000     
   4.3393011716707730E-002   5.4221403575052222E-002   0.0000000000000000     
   4.5775039287120220E-002   5.9517962400914309E-002   0.0000000000000000     
   6.5313971747823607E-002   6.2786302859496490E-002   0.0000000000000000     
   6.8370874381551039E-002   6.8177166080510998E-002   0.0000000000000000     
   7.1335197840414089E-002   7.3745620955771723E-002   0.0000000000000000     
   7.4206942124412742E-002   7.9491667485278653E-002   0.0000000000000000     
   7.6986107233547013E-002   8.5415305669031827E-002   0.0000000000000000     
   6.0137185607883531E-002   6.1887622397045088E-002   0.0000000000000000     
   6.3006474754205621E-002   6.7300723146165822E-002   0.0000000000000000     
   6.5788725732888062E-002   7.2894026127175451E-002   0.0000000000000000     
   6.8483938543930895E-002   7.8667531340073996E-002   0.0000000000000000     
   7.1092113187334077E-002   8.4621238784861441E-002   0.0000000000000000     
   5.5155101484452948E-002   6.1043338833130921E-002   0.0000000000000000     
   5.7837121384217455E-002   6.6479671640335344E-002   0.0000000000000000     
   6.0437331010911866E-002   7.2097646255041031E-002   0.0000000000000000     
   6.2955730364536194E-002   7.7897262677248003E-002   0.0000000000000000     
   6.5392319445090413E-002   8.3878520906956217E-002   0.0000000000000000     
   5.0367719377531837E-002   6.0253452167753997E-002   0.0000000000000000     
   5.2862814271586546E-002   6.5714011563019606E-002   0.0000000000000000     
   5.5281013674485485E-002   7.1356481339368491E-002   0.0000000000000000     
   5.7622317586228620E-002   7.7180861496800673E-002   0.0000000000000000     
   5.9886726006816014E-002   8.3187152035316098E-002   0.0000000000000000     
   4.5775039287120220E-002   5.9517962400914309E-002   0.0000000000000000     
   4.8083553416312888E-002   6.5003742914218565E-002   0.0000000000000000     
   5.0319773723608879E-002   7.0670531380157789E-002   0.0000000000000000     
   5.2483700209008222E-002   7.6518327798731994E-002   0.0000000000000000     
   5.4575332872510887E-002   8.2547132169941154E-002   0.0000000000000000     
   7.6986107233547013E-002   8.5415305669031827E-002   0.0000000000000000     
   7.9668683632349219E-002   9.1507408035182536E-002   0.0000000000000000     
   8.2250661785351717E-002   9.7758847111882180E-002   0.0000000000000000     
   8.4732041692554494E-002  0.10416962289913070        0.0000000000000000     
   8.7112823353957550E-002  0.11073973539692816        0.0000000000000000     
   7.1092113187334077E-002   8.4621238784861441E-002   0.0000000000000000     
   7.3609108697469672E-002   9.0743894233194553E-002   0.0000000000000000     
   7.6030784108709767E-002   9.7024243456730025E-002   0.0000000000000000     
   7.8357139421054350E-002  0.10346228645546787        0.0000000000000000     
   8.0588174634503407E-002  0.11005802322940808        0.0000000000000000     
   6.5392319445090413E-002   8.3878520906956217E-002   0.0000000000000000     
   6.7743165621299006E-002   9.0028963366671960E-002   0.0000000000000000     
   7.0004336261886457E-002   9.6336132478901507E-002   0.0000000000000000     
   7.2175831366852794E-002  0.10280002824364487        0.0000000000000000     
   7.4257650936197961E-002  0.10942065066090201        0.0000000000000000     
   5.9886726006816014E-002   8.3187152035316098E-002   0.0000000000000000     
   6.2070854403837208E-002   8.9362615435614801E-002   0.0000000000000000     
   6.4171318244881814E-002   9.5694514178396667E-002   0.0000000000000000     
   6.6188117529949839E-002  0.10218284826366168        0.0000000000000000     
   6.8121252259041254E-002  0.10882761769140989        0.0000000000000000     
   5.4575332872510887E-002   8.2547132169941154E-002   0.0000000000000000     
   5.6592175045084285E-002   8.8744850440023046E-002   0.0000000000000000     
   5.8531730057695810E-002   9.5099388555215436E-002   0.0000000000000000     
   6.0393997910345464E-002  0.10161074651551837        0.0000000000000000     
   6.2178978603033258E-002  0.10827892432093178        0.0000000000000000     
   8.7112823353957550E-002  0.11073973539692816        0.0000000000000000     
   8.9399090956767194E-002  0.11745522901439585        0.0000000000000000     
   9.1596928688189735E-002  0.12430214816065516        0.0000000000000000     
   9.3706336548225175E-002  0.13128049283570606        0.0000000000000000     
   9.5727314536873526E-002  0.13839026303954860        0.0000000000000000     
   8.0588174634503407E-002  0.11005802322940808        0.0000000000000000     
   8.2730931277304173E-002  0.11679939965728181        0.0000000000000000     
   8.4792450877703873E-002  0.12367436161782017        0.0000000000000000     
   8.6772733435702520E-002  0.13068290911102315        0.0000000000000000     
   8.8671778951300087E-002  0.13782504213689079        0.0000000000000000     
   7.4257650936197961E-002  0.10942065066090201        0.0000000000000000     
   7.6257148508596911E-002  0.11618710815003318        0.0000000000000000     
   7.8181677622724571E-002  0.12308850913039864        0.0000000000000000     
   8.0031238278580913E-002  0.13012485360199835        0.0000000000000000     
   8.1805830476165978E-002  0.13729614156483233        0.0000000000000000     
   6.8121252259041254E-002  0.10882761769140989        0.0000000000000000     
   6.9977742650645464E-002  0.11561835449264997        0.0000000000000000     
   7.1764608923251857E-002  0.12254459069839056        0.0000000000000000     
   7.3481851076860422E-002  0.12960632630863170        0.0000000000000000     
   7.5129469111471156E-002  0.13680356132337332        0.0000000000000000     
   6.2178978603033258E-002  0.10827892432093178        0.0000000000000000     
   6.3892713703449788E-002  0.11509313868513217        0.0000000000000000     
   6.5541244779285690E-002  0.12204260632179596        0.0000000000000000     
   6.7124571830540991E-002  0.12912732723092316        0.0000000000000000     
   6.8642694857215664E-002  0.13634730141251375        0.0000000000000000     
   9.5727314536873526E-002  0.13839026303954860        0.0000000000000000     
   9.7654356922608349E-002  0.14562504397071807        0.0000000000000000     
   9.9481957973903232E-002  0.15297842082774976        0.0000000000000000     
  0.10121011769075816       0.16045039361064367        0.0000000000000000     
  0.10283883607317316       0.16804096231939983        0.0000000000000000     
   8.8671778951300087E-002  0.13782504213689079        0.0000000000000000     
   9.0480456253487385E-002  0.14508875327006909        0.0000000000000000     
   9.2189634171255169E-002  0.15246203508520420        0.0000000000000000     
   9.3799312704603455E-002  0.15994488758229608        0.0000000000000000     
   9.5309491853532213E-002  0.16753731076134476        0.0000000000000000     
   8.1805830476165978E-002  0.13729614156483233        0.0000000000000000     
   8.3494361814051468E-002  0.14458714879109588        0.0000000000000000     
   8.5085739890809226E-002  0.15198265105298417        0.0000000000000000     
   8.6579964706439194E-002  0.15948264835049725        0.0000000000000000     
   8.7977036260941402E-002  0.16708714068363514        0.0000000000000000     
   7.5129469111471156E-002  0.13680356132337332        0.0000000000000000     
   7.6696073604300613E-002  0.14412023053379838        0.0000000000000000     
   7.8170275132565373E-002  0.15154026873108967        0.0000000000000000     
   7.9552073696265393E-002  0.15906367591524723        0.0000000000000000     
   8.0841469295400689E-002  0.16669045208627103        0.0000000000000000     
   6.8642694857215664E-002  0.13634730141251375        0.0000000000000000     
   7.0085591624234833E-002  0.14368799849817662        0.0000000000000000     
   7.1443239896523611E-002  0.15113488811952072        0.0000000000000000     
   7.2715639674082053E-002  0.15868797027654596        0.0000000000000000     
   7.3902790956910103E-002  0.16634724496925246        0.0000000000000000     
   0.0000000000000000        0.0000000000000000        0.0000000000000000     
   2.8800871845053944E-003   1.7448580116977020E-003   0.0000000000000000     
   5.8726754871359999E-003   3.8646591531876799E-003   0.0000000000000000     
   8.9777649078918165E-003   6.3594034244699319E-003   0.0000000000000000     
   1.2195355446772848E-002   9.2290908255444632E-003   0.0000000000000000     
   0.0000000000000000        0.0000000000000000        0.0000000000000000     
   2.6103522008466421E-003   1.5889373813716000E-003   0.0000000000000000     
   5.2897625686761478E-003   3.5567069218994606E-003   0.0000000000000000     
   8.0382311034885162E-003   5.9033086215835818E-003   0.0000000000000000     
   1.0855757805283748E-002   8.6287424804239645E-003   0.0000000000000000     
   0.0000000000000000        0.0000000000000000        0.0000000000000000     
   2.3401492134113386E-003   1.4589583472734324E-003   0.0000000000000000     
   4.7202380048997983E-003   3.2998032071716414E-003   0.0000000000000000     
   7.1402663744653773E-003   5.5225345796946265E-003   0.0000000000000000     
   9.6002343221080755E-003   8.1271524648423906E-003   0.0000000000000000     
   0.0000000000000000        0.0000000000000000        0.0000000000000000     
   2.0694782221994841E-003   1.3549209094031985E-003   0.0000000000000000     
   4.1641017958069498E-003   3.0939480090042210E-003   0.0000000000000000     
   6.2838707208223979E-003   5.2170812988030675E-003   0.0000000000000000     
   8.4287849972458275E-003   7.7243207787997380E-003   0.0000000000000000     
   0.0000000000000000        0.0000000000000000        0.0000000000000000     
   1.7983392272110774E-003   1.2768250677608986E-003   0.0000000000000000     
   3.6213539413976034E-003   2.9391413273971998E-003   0.0000000000000000     
   5.4690441425595780E-003   4.9869487789089041E-003   0.0000000000000000     
   7.3414098306970026E-003   7.4202474222960120E-003   0.0000000000000000     
   1.2195355446772848E-002   9.2290908255444632E-003   0.0000000000000000     
   1.5427725983564986E-002   1.2371663082565607E-002   0.0000000000000000     
   1.8577155398054140E-002   1.5685061921687705E-002   0.0000000000000000     
   2.1643643690240300E-002   1.9169287342910759E-002   0.0000000000000000     
   2.4627190860123480E-002   2.2824339346234762E-002   0.0000000000000000     
   1.0855757805283748E-002   8.6287424804239645E-003   0.0000000000000000     
   1.3689040531514728E-002   1.1650752300268144E-002   0.0000000000000000     
   1.6484777139634334E-002   1.4887081882963664E-002   0.0000000000000000     
   1.9242967629642567E-002   1.8337731228510522E-002   0.0000000000000000     
   2.1963612001539432E-002   2.2002700336908716E-002   0.0000000000000000     
   9.6002343221080755E-003   8.1271524648423906E-003   0.0000000000000000     
   1.2076657889607737E-002   1.1046273321883735E-002   0.0000000000000000     
   1.4546053118744195E-002   1.4212513610087468E-002   0.0000000000000000     
   1.7008420009517449E-002   1.7625873329453597E-002   0.0000000000000000     
   1.9463758561927509E-002   2.1286352479982111E-002   0.0000000000000000     
   8.4287849972458275E-003   7.7243207787997380E-003   0.0000000000000000     
   1.0590578057844012E-002   1.0558226147412374E-002   0.0000000000000000     
   1.2760983335383717E-002   1.3661357103059119E-002   0.0000000000000000     
   1.4940000829864948E-002   1.7033713645739978E-002   0.0000000000000000     
   1.7127630541287700E-002   2.0675295775454933E-002   0.0000000000000000     
   7.3414098306970026E-003   7.4202474222960120E-003   0.0000000000000000     
   9.2308010362235522E-003   1.0186610776854068E-002   0.0000000000000000     
   1.1129567789552902E-002   1.3233612361878616E-002   0.0000000000000000     
   1.3037710090685059E-002   1.6561252177369656E-002   0.0000000000000000     
   1.4955227939620013E-002   2.0169530223327188E-002   0.0000000000000000     
   2.4627190860123480E-002   2.2824339346234762E-002   0.0000000000000000     
   2.7531957053052808E-002   2.6672938334811089E-002   0.0000000000000000     
   3.0362102414377423E-002   3.0737804711791113E-002   0.0000000000000000     
   3.3117626944097332E-002   3.5018938477174834E-002   0.0000000000000000     
   3.5798530642212528E-002   3.9516339630962238E-002   0.0000000000000000     
   2.1963612001539432E-002   2.2002700336908716E-002   0.0000000000000000     
   2.4630128239075951E-002   2.5879998900945125E-002   0.0000000000000000     
   2.7225934326003159E-002   2.9967636613406595E-002   0.0000000000000000     
   2.9751030262321048E-002   3.4265613474293140E-002   0.0000000000000000     
   3.2205416048029623E-002   3.8773929483604759E-002   0.0000000000000000     
   1.9463758561927509E-002   2.1286352479982111E-002   0.0000000000000000     
   2.1883651281225810E-002   2.5175179501445828E-002   0.0000000000000000     
   2.4239680672663810E-002   2.9273582833617563E-002   0.0000000000000000     
   2.6531846736241503E-002   3.3581562476497323E-002   0.0000000000000000     
   2.8760149471958891E-002   3.8099118430085094E-002   0.0000000000000000     
   1.7127630541287700E-002   2.0675295775454933E-002   0.0000000000000000     
   1.9292526179502376E-002   2.4558480136313215E-002   0.0000000000000000     
   2.1403341454359372E-002   2.8655643372424031E-002   0.0000000000000000     
   2.3460076365858683E-002   3.2966785483787384E-002   0.0000000000000000     
   2.5462730914000316E-002   3.7491906470403277E-002   0.0000000000000000     
   1.4955227939620013E-002   2.0169530223327188E-002   0.0000000000000000     
   1.6856752933905650E-002   2.4029900805547278E-002   0.0000000000000000     
   1.8716916671089847E-002   2.8113818229825994E-002   0.0000000000000000     
   2.0535719151172600E-002   3.2421282496163321E-002   0.0000000000000000     
   2.2313160374153915E-002   3.6952293604559282E-002   0.0000000000000000     
   3.5798530642212528E-002   3.9516339630962238E-002   0.0000000000000000     
   3.8404757394253891E-002   4.4220592190076187E-002   0.0000000000000000     
   4.0936251085752294E-002   4.9122280171439506E-002   0.0000000000000000     
   4.3393011716707730E-002   5.4221403575052222E-002   0.0000000000000000     
   4.5775039287120220E-002   5.9517962400914309E-002   0.0000000000000000     
   3.2205416048029623E-002   3.8773929483604759E-002   0.0000000000000000     
   3.4591412877967104E-002   4.3488178891267722E-002   0.0000000000000000     
   3.6911341946971703E-002   4.8403955947208310E-002   0.0000000000000000     
   3.9165203255043426E-002   5.3521260651426525E-002   0.0000000000000000     
   4.1352996802182261E-002   5.8840093003922372E-002   0.0000000000000000     
   2.8760149471958891E-002   3.8099118430085094E-002   0.0000000000000000     
   3.0927263903282019E-002   4.2823623325416664E-002   0.0000000000000000     
   3.3035865053676942E-002   4.7752449793527788E-002   0.0000000000000000     
   3.5085952923143662E-002   5.2885597834418464E-002   0.0000000000000000     
   3.7077527511682168E-002   5.8223067448088694E-002   0.0000000000000000     
   2.5462730914000316E-002   3.7491906470403277E-002   0.0000000000000000     
   2.7412310470198643E-002   4.2226925492523028E-002   0.0000000000000000     
   2.9309820405868013E-002   4.7167761710397937E-002   0.0000000000000000     
   3.1155260721008445E-002   5.2314415124028034E-002   0.0000000000000000     
   3.2948631415619919E-002   5.7666885733413296E-002   0.0000000000000000     
   2.2313160374153915E-002   3.6952293604559282E-002   0.0000000000000000     
   2.4046552578716955E-002   4.1698085392586792E-002   0.0000000000000000     
   2.5733208003544908E-002   4.6649891697818774E-002   0.0000000000000000     
   2.7373126648637766E-002   5.1807712520255220E-002   0.0000000000000000     
   2.8966308513995530E-002   5.7171547859896157E-002   0.0000000000000000     
   4.5775039287120220E-002   5.9517962400914309E-002   0.0000000000000000     
   4.8083553416312888E-002   6.5003742914218565E-002   0.0000000000000000     
   5.0319773723608879E-002   7.0670531380157789E-002   0.0000000000000000     
   5.2483700209008222E-002   7.6518327798731994E-002   0.0000000000000000     
   5.4575332872510887E-002   8.2547132169941154E-002   0.0000000000000000     
   4.1352996802182261E-002   5.8840093003922372E-002   0.0000000000000000     
   4.3474007043023045E-002   6.4349658723071509E-002   0.0000000000000000     
   4.5527518432200612E-002   7.0039163527249593E-002   0.0000000000000000     
   4.7513530969714939E-002   7.5908607416456622E-002   0.0000000000000000     
   4.9432044655566040E-002   8.1957990390692612E-002   0.0000000000000000     
   3.7077527511682168E-002   5.8223067448088694E-002   0.0000000000000000     
   3.9008843376343610E-002   6.3752552018717670E-002   0.0000000000000000     
   4.0878155074179148E-002   6.9461744930484487E-002   0.0000000000000000     
   4.2685462605188774E-002   7.5350646183389200E-002   0.0000000000000000     
   4.4430765969372489E-002   8.1419255777431823E-002   0.0000000000000000     
   3.2948631415619919E-002   5.7666885733413296E-002   0.0000000000000000     
   3.4688062416274569E-002   6.3212422801157034E-002   0.0000000000000000     
   3.6371683649544510E-002   6.8938275589862513E-002   0.0000000000000000     
   3.7999495115429723E-002   7.4844444099529783E-002   0.0000000000000000     
   3.9571496813930233E-002   8.0930928330158761E-002   0.0000000000000000     
   2.8966308513995530E-002   5.7171547859896157E-002   0.0000000000000000     
   3.0511664162815928E-002   6.2729271070389614E-002   0.0000000000000000     
   3.2008104158296691E-002   6.8468755505383644E-002   0.0000000000000000     
   3.3455628500437797E-002   7.4390001164878261E-002   0.0000000000000000     
   3.4854237189239266E-002   8.0493008048873452E-002   0.0000000000000000     
   5.4575332872510887E-002   8.2547132169941154E-002   0.0000000000000000     
   5.6592175045084285E-002   8.8744850440023046E-002   0.0000000000000000     
   5.8531730057695810E-002   9.5099388555215436E-002   0.0000000000000000     
   6.0393997910345464E-002  0.10161074651551837        0.0000000000000000     
   6.2178978603033258E-002  0.10827892432093178        0.0000000000000000     
   4.9432044655566040E-002   8.1957990390692612E-002   0.0000000000000000     
   5.1281389562338978E-002   8.8176038802415938E-002   0.0000000000000000     
   5.3059895762618769E-002   9.4551479004084976E-002   0.0000000000000000     
   5.4767563256405458E-002  0.10108431099569970        0.0000000000000000     
   5.6404392043699014E-002  0.10777453477726014        0.0000000000000000     
   4.4430765969372489E-002   8.1419255777431823E-002   0.0000000000000000     
   4.6112759972900014E-002   8.7656550945312717E-002   0.0000000000000000     
   4.7730139421941022E-002   9.4051508919732255E-002   0.0000000000000000     
   4.9282904316495547E-002  0.10060412970069052        0.0000000000000000     
   5.0771054656563570E-002  0.10731441328818744        0.0000000000000000     
   3.9571496813930233E-002   8.0930928330158761E-002   0.0000000000000000     
   4.1086286276767386E-002   8.7186386868713370E-002   0.0000000000000000     
   4.2542461035662553E-002   9.3599478302157382E-002   0.0000000000000000     
   4.3940021090615733E-002  0.10017020263049083        0.0000000000000000     
   4.5278966441626919E-002  0.10689855985371369        0.0000000000000000     
   3.4854237189239266E-002   8.0493008048873452E-002   0.0000000000000000     
   3.6201968473941117E-002   8.6765546572617910E-002   0.0000000000000000     
   3.7496860603783370E-002   9.3195387151360304E-002   0.0000000000000000     
   3.8738913578766021E-002   9.9782529785100618E-002   0.0000000000000000     
   3.9928127398889082E-002  0.10652697447383890        0.0000000000000000     
   6.2178978603033258E-002  0.10827892432093178        0.0000000000000000     
   6.3892713703449788E-002  0.11509313868513217        0.0000000000000000     
   6.5541244779285690E-002  0.12204260632179596        0.0000000000000000     
   6.7124571830540991E-002  0.12912732723092316        0.0000000000000000     
   6.8642694857215664E-002  0.13634730141251375        0.0000000000000000     
   5.6404392043699014E-002  0.10777453477726014        0.0000000000000000     
   5.7975292030695118E-002  0.11461085462122769        0.0000000000000000     
   5.9485173123589440E-002  0.12158197480006375        0.0000000000000000     
   6.0934035322381980E-002  0.12868789531376829        0.0000000000000000     
   6.2321878627072738E-002  0.13592861616234134        0.0000000000000000     
   5.0771054656563570E-002  0.10731441328818744        0.0000000000000000     
   5.2198707996066664E-002  0.11417089619468443        0.0000000000000000     
   5.3569981888926373E-002  0.12116211493264283        0.0000000000000000     
   5.4884876335142704E-002  0.12828806950206267        0.0000000000000000     
   5.6143391334715659E-002  0.13554875990294393        0.0000000000000000     
   4.5278966441626919E-002  0.10689855985371369        0.0000000000000000     
   4.6562961599564419E-002  0.11377326340550235        0.0000000000000000     
   4.7795671075296503E-002  0.12078302671953321        0.0000000000000000     
   4.8977094868823172E-002  0.12792784979580624        0.0000000000000000     
   5.0107232980144419E-002  0.13520773263432145        0.0000000000000000     
   3.9928127398889082E-002  0.10652697447383890        0.0000000000000000     
   4.1068052841188397E-002  0.11341795625368151        0.0000000000000000     
   4.2162240682699824E-002  0.12044471016073489        0.0000000000000000     
   4.3210690923423369E-002  0.12760723619499903        0.0000000000000000     
   4.4213403563359031E-002  0.13490553435647396        0.0000000000000000     
   6.8642694857215664E-002  0.13634730141251375        0.0000000000000000     
   7.0085591624234833E-002  0.14368799849817662        0.0000000000000000     
   7.1443239896523611E-002  0.15113488811952072        0.0000000000000000     
   7.2715639674082053E-002  0.15868797027654596        0.0000000000000000     
   7.3902790956910103E-002  0.16634724496925246        0.0000000000000000     
   6.2321878627072738E-002  0.13592861616234134        0.0000000000000000     
   6.3640500547243517E-002  0.14329170863537258        0.0000000000000000     
   6.4881698592476097E-002  0.15076474402245171        0.0000000000000000     
   6.6045472762770507E-002  0.15834772232357874        0.0000000000000000     
   6.7131823058126719E-002  0.16604064353875364        0.0000000000000000     
   5.6143391334715659E-002  0.13554875990294393        0.0000000000000000     
   5.7338385046716116E-002  0.14293261689652820        0.0000000000000000     
   5.8462715630214920E-002  0.15042807124405716        0.0000000000000000     
   5.9516383085212114E-002  0.15803512294553071        0.0000000000000000     
   6.0499387411707649E-002  0.16575377200094893        0.0000000000000000     
   5.0107232980144419E-002  0.13520773263432145        0.0000000000000000     
   5.1179245122652629E-002  0.14261072328164348        0.0000000000000000     
   5.2186291009740100E-002  0.15012486978433698        0.0000000000000000     
   5.3128370641406859E-002  0.15775017214240192        0.0000000000000000     
   5.4005484017652899E-002  0.16548663035583827        0.0000000000000000     
   4.4213403563359031E-002  0.13490553435647396        0.0000000000000000     
   4.5163080775053037E-002  0.14232602779071843        0.0000000000000000     
   4.6052424731051603E-002  0.14985513964329120        0.0000000000000000     
   4.6881435431354757E-002  0.15749286991419228        0.0000000000000000     
   4.7650112875962457E-002  0.16523921860342172        0.0000000000000000     
   0.0000000000000000        0.0000000000000000        0.0000000000000000     
   1.7983392272110774E-003   1.2768250677608986E-003   0.0000000000000000     
   3.6213539413976034E-003   2.9391413273971998E-003   0.0000000000000000     
   5.4690441425595780E-003   4.9869487789089041E-003   0.0000000000000000     
   7.3414098306970026E-003   7.4202474222960120E-003   0.0000000000000000     
   0.0000000000000000        0.0000000000000000        0.0000000000000000     
   1.5350170414547360E-003   1.2175549358498690E-003   0.0000000000000000     
   3.0993602321342925E-003   2.8208680396147757E-003   0.0000000000000000     
   4.6930295720386704E-003   4.8099393112947210E-003   0.0000000000000000     
   6.3160250611678697E-003   7.1847687508897022E-003   0.0000000000000000     
   0.0000000000000000        0.0000000000000000        0.0000000000000000     
   1.2877964779390765E-003   1.1699946271734457E-003   0.0000000000000000     
   2.6054864584795509E-003   2.7246130229211444E-003   0.0000000000000000     
   3.9530699416214241E-003   4.6638551872430966E-003   0.0000000000000000     
   5.3305469273646948E-003   6.9877211201393010E-003   0.0000000000000000     
   0.0000000000000000        0.0000000000000000        0.0000000000000000     
   1.0566775366640986E-003   1.1341441417316285E-003   0.0000000000000000     
   2.1397326204333779E-003   2.6503762773163074E-003   0.0000000000000000     
   3.2491652513078383E-003   4.5486964067540346E-003   0.0000000000000000     
   4.3849754292874799E-003   6.8291045300448126E-003   0.0000000000000000     
   0.0000000000000000        0.0000000000000000        0.0000000000000000     
   8.4166021762980235E-004   1.1100034795244180E-003   0.0000000000000000     
   1.7020987179957737E-003   2.5981578028002627E-003   0.0000000000000000     
   2.5813155010979143E-003   4.4644629698275332E-003   0.0000000000000000     
   3.4793105669362239E-003   6.7089189806062311E-003   0.0000000000000000     
   7.3414098306970026E-003   7.4202474222960120E-003   0.0000000000000000     
   9.2308010362235522E-003   1.0186610776854068E-002   0.0000000000000000     
   1.1129567789552902E-002   1.3233612361878616E-002   0.0000000000000000     
   1.3037710090685059E-002   1.6561252177369656E-002   0.0000000000000000     
   1.4955227939620013E-002   2.0169530223327188E-002   0.0000000000000000     
   6.3160250611678697E-003   7.1847687508897022E-003   0.0000000000000000     
   7.9556461569467336E-003   9.8957856587962387E-003   0.0000000000000000     
   9.5991923168001047E-003   1.2893419335410846E-002   0.0000000000000000     
   1.1246663540727985E-002   1.6177669780733529E-002   0.0000000000000000     
   1.2898059828730372E-002   1.9748536994764275E-002   0.0000000000000000     
   5.3305469273646948E-003   6.9877211201393010E-003   0.0000000000000000     
   6.7234327522139236E-003   9.6501092418263181E-003   0.0000000000000000     
   8.1172427526736684E-003   1.2604917972520707E-002   0.0000000000000000     
   9.5119769287439239E-003   1.5852147312222471E-002   0.0000000000000000     
   1.0907635280424700E-002   1.9391797260931598E-002   0.0000000000000000     
   4.3849754292874799E-003   6.8291045300448126E-003   0.0000000000000000     
   5.5341608220251248E-003   9.4495815259443075E-003   0.0000000000000000     
   6.6837190971735924E-003   1.2368108273208198E-002   0.0000000000000000     
   7.8336502547328834E-003   1.5584684771836476E-002   0.0000000000000000     
   8.9839542947029970E-003   1.9099311021829147E-002   0.0000000000000000     
   3.4793105669362239E-003   6.7089189806062311E-003   0.0000000000000000     
   4.3878303663803346E-003   9.2942025111502086E-003   0.0000000000000000     
   5.2986213502998793E-003   1.2182990237473316E-002   0.0000000000000000     
   6.2116835186948561E-003   1.5375282159575556E-002   0.0000000000000000     
   7.1270168715652669E-003   1.8871078277456925E-002   0.0000000000000000     
   1.4955227939620013E-002   2.0169530223327188E-002   0.0000000000000000     
   1.6856752933905650E-002   2.4029900805547278E-002   0.0000000000000000     
   1.8716916671089847E-002   2.8113818229825994E-002   0.0000000000000000     
   2.0535719151172600E-002   3.2421282496163321E-002   0.0000000000000000     
   2.2313160374153915E-002   3.6952293604559282E-002   0.0000000000000000     
   1.2898059828730372E-002   1.9748536994764275E-002   0.0000000000000000     
   1.4537010693380427E-002   2.3579922394414705E-002   0.0000000000000000     
   1.6147145647251310E-002   2.7645727396596431E-002   0.0000000000000000     
   1.7728464690343022E-002   3.1945952001309445E-002   0.0000000000000000     
   1.9280967822655565E-002   3.6480596208553734E-002   0.0000000000000000     
   1.0907635280424700E-002   1.9391797260931598E-002   0.0000000000000000     
   1.2293978606871502E-002   2.3199025788182184E-002   0.0000000000000000     
   1.3660767707239846E-002   2.7248990863508328E-002   0.0000000000000000     
   1.5008002581529732E-002   3.1541692486910015E-002   0.0000000000000000     
   1.6335683229741160E-002   3.6077130658387246E-002   0.0000000000000000     
   8.9839542947029970E-003   1.9099311021829147E-002   0.0000000000000000     
   1.0127656674378876E-002   2.2887210986849715E-002   0.0000000000000000     
   1.1257782851055453E-002   2.6923608630561681E-002   0.0000000000000000     
   1.2374332824732732E-002   3.1208503952965053E-002   0.0000000000000000     
   1.3477306595410708E-002   3.5741896954059819E-002   0.0000000000000000     
   7.1270168715652669E-003   1.8871078277456925E-002   0.0000000000000000     
   8.0380448959025477E-003   2.2644477990417290E-002   0.0000000000000000     
   8.9381910786981295E-003   2.6669580697756497E-002   0.0000000000000000     
   9.8274554199520164E-003   3.0946386399474550E-002   0.0000000000000000     
   1.0705837919664207E-002   3.5474895095571460E-002   0.0000000000000000     
   2.2313160374153915E-002   3.6952293604559282E-002   0.0000000000000000     
   2.4046552578716955E-002   4.1698085392586792E-002   0.0000000000000000     
   2.5733208003544908E-002   4.6649891697818774E-002   0.0000000000000000     
   2.7373126648637766E-002   5.1807712520255220E-002   0.0000000000000000     
   2.8966308513995530E-002   5.7171547859896157E-002   0.0000000000000000     
   1.9280967822655565E-002   3.6480596208553734E-002   0.0000000000000000     
   2.0798248632086954E-002   4.1235453601120908E-002   0.0000000000000000     
   2.2273900706535232E-002   4.6196317761802552E-002   0.0000000000000000     
   2.3707924046000396E-002   5.1363188690598645E-002   0.0000000000000000     
   2.5100318650482442E-002   5.6736066387509200E-002   0.0000000000000000     
   1.6335683229741160E-002   3.6077130658387246E-002   0.0000000000000000     
   1.7635657033558617E-002   4.0837380693638341E-002   0.0000000000000000     
   1.8899771374666596E-002   4.5804517908361535E-002   0.0000000000000000     
   2.0128026253065086E-002   5.0978542302556891E-002   0.0000000000000000     
   2.1320421668754107E-002   5.6359453876224361E-002   0.0000000000000000     
   1.3477306595410708E-002   3.5741896954059819E-002   0.0000000000000000     
   1.4558777783131941E-002   4.0503866670139048E-002   0.0000000000000000     
   1.5610820007938987E-002   4.5474492137495763E-002   0.0000000000000000     
   1.6633433269831844E-002   5.0653773356129958E-002   0.0000000000000000     
   1.7626617568810517E-002   5.6041710326041626E-002   0.0000000000000000     
   1.0705837919664207E-002   3.5474895095571460E-002   0.0000000000000000     
   1.1567610880806930E-002   4.0234911530623044E-002   0.0000000000000000     
   1.2407046606352418E-002   4.5206240449205175E-002   0.0000000000000000     
   1.3224145096300667E-002   5.0388881851317825E-002   0.0000000000000000     
   1.4018906350651681E-002   5.5782835736961009E-002   0.0000000000000000     
   2.8966308513995530E-002   5.7171547859896157E-002   0.0000000000000000     
   3.0511664162815928E-002   6.2729271070389614E-002   0.0000000000000000     
   3.2008104158296691E-002   6.8468755505383644E-002   0.0000000000000000     
   3.3455628500437797E-002   7.4390001164878261E-002   0.0000000000000000     
   3.4854237189239266E-002   8.0493008048873452E-002   0.0000000000000000     
   2.5100318650482442E-002   5.6736066387509200E-002   0.0000000000000000     
   2.6450940735294387E-002   6.2303637798607821E-002   0.0000000000000000     
   2.7759646515749244E-002   6.8054589869968110E-002   0.0000000000000000     
   2.9026435991847004E-002   7.3988922601590082E-002   0.0000000000000000     
   3.0251309163587682E-002   8.0106635993473702E-002   0.0000000000000000     
   2.1320421668754107E-002   5.6359453876224361E-002   0.0000000000000000     
   2.2477184253036655E-002   6.1936063958004085E-002   0.0000000000000000     
   2.3598540637215740E-002   6.7697183876536143E-002   0.0000000000000000     
   2.4684490821291375E-002   7.3642813631820556E-002   0.0000000000000000     
   2.5735034805263558E-002   7.9772953223857301E-002   0.0000000000000000     
   1.7626617568810517E-002   5.6041710326041626E-002   0.0000000000000000     
   1.8590394716042725E-002   6.1626549548578359E-002   0.0000000000000000     
   1.9524786522696191E-002   6.7396537525087716E-002   0.0000000000000000     
   2.0429792988770908E-002   7.3351674255569682E-002   0.0000000000000000     
   2.1305414114266889E-002   7.9491959740024279E-002   0.0000000000000000     
   1.4018906350651681E-002   5.5782835736961009E-002   0.0000000000000000     
   1.4790572124312600E-002   6.1375094570330690E-002   0.0000000000000000     
   1.5538384172190577E-002   6.7152650815622869E-002   0.0000000000000000     
   1.6262342494285605E-002   7.3115504472837489E-002   0.0000000000000000     
   1.6962447090597688E-002   7.9263655541974620E-002   0.0000000000000000     
   3.4854237189239266E-002   8.0493008048873452E-002   0.0000000000000000     
   3.6201968473941117E-002   8.6765546572617910E-002   0.0000000000000000     
   3.7496860603783370E-002   9.3195387151360304E-002   0.0000000000000000     
   3.8738913578766021E-002   9.9782529785100618E-002   0.0000000000000000     
   3.9928127398889082E-002  0.10652697447383890        0.0000000000000000     
   3.0251309163587682E-002   8.0106635993473702E-002   0.0000000000000000     
   3.1431736118038019E-002   8.6394524518479635E-002   0.0000000000000000     
   3.2565186942264762E-002   9.2839382649468533E-002   0.0000000000000000     
   3.3651661636267920E-002   9.9441210386440410E-002   0.0000000000000000     
   3.4691160200047484E-002  0.10620000772939522        0.0000000000000000     
   2.5735034805263558E-002   7.9772953223857301E-002   0.0000000000000000     
   2.6747518762674890E-002   8.6073815167751852E-002   0.0000000000000000     
   2.7719288867068013E-002   9.2531611978609610E-002   0.0000000000000000     
   2.8650345118442902E-002   9.9146343656430630E-002   0.0000000000000000     
   2.9540687516799571E-002  0.10591801020121487        0.0000000000000000     
   2.1305414114266889E-002   7.9491959740024279E-002   0.0000000000000000     
   2.2149316407851751E-002   8.5803418520434535E-002   0.0000000000000000     
   2.2959166378193122E-002   9.2272075138783549E-002   0.0000000000000000     
   2.3734964025290989E-002   9.8897929595071321E-002   0.0000000000000000     
   2.4476709349145365E-002  0.10568098188929782        0.0000000000000000     
   1.6962447090597688E-002   7.9263655541974620E-002   0.0000000000000000     
   1.7637129053568595E-002   8.5583334576527753E-002   0.0000000000000000     
   1.8284819475640087E-002   9.2060772129990351E-002   0.0000000000000000     
   1.8905518356812177E-002   9.8695968202362483E-002   0.0000000000000000     
   1.9499225697084854E-002  0.10548892279364411        0.0000000000000000     
   3.9928127398889082E-002  0.10652697447383890        0.0000000000000000     
   4.1068052841188397E-002  0.11341795625368151        0.0000000000000000     
   4.2162240682699824E-002  0.12044471016073489        0.0000000000000000     
   4.3210690923423369E-002  0.12760723619499903        0.0000000000000000     
   4.4213403563359031E-002  0.13490553435647396        0.0000000000000000     
   3.4691160200047484E-002  0.10620000772939522        0.0000000000000000     
   3.5687166342681625E-002  0.11310559340582015        0.0000000000000000     
   3.6643163773248513E-002  0.12014778614320233        0.0000000000000000     
   3.7559152491748141E-002  0.12732658594154178        0.0000000000000000     
   3.8435132498180515E-002  0.13464199280083844        0.0000000000000000     
   2.9540687516799571E-002  0.10591801020121487        0.0000000000000000     
   3.0393486725787140E-002  0.11283679352851658        0.0000000000000000     
   3.1211913409054722E-002  0.11989287555388997        0.0000000000000000     
   3.1995967566602307E-002  0.12708625627733511        0.0000000000000000     
   3.2745649198429913E-002  0.13441693569885194        0.0000000000000000     
   2.4476709349145365E-002  0.10568098188929782        0.0000000000000000     
   2.5187013990504950E-002  0.11261155662177078        0.0000000000000000     
   2.5868489590118456E-002  0.11967997839279787        0.0000000000000000     
   2.6521136147985874E-002  0.12688624720237909        0.0000000000000000     
   2.7144953664107220E-002  0.13423036305051442        0.0000000000000000     
   1.9499225697084854E-002  0.10548892279364411        0.0000000000000000     
   2.0067748136835057E-002  0.11242988268558277        0.0000000000000000     
   2.0612892316439719E-002  0.11950909465992597        0.0000000000000000     
   2.1134658235898850E-002  0.12672655871667371        0.0000000000000000     
   2.1633045895212439E-002  0.13408227485582594        0.0000000000000000     
   4.4213403563359031E-002  0.13490553435647396        0.0000000000000000     
   4.5163080775053037E-002  0.14232602779071843        0.0000000000000000     
   4.6052424731051603E-002  0.14985513964329120        0.0000000000000000     
   4.6881435431354757E-002  0.15749286991419228        0.0000000000000000     
   4.7650112875962457E-002  0.16523921860342172        0.0000000000000000     
   3.8435132498180515E-002  0.13464199280083844        0.0000000000000000     
   3.9263365658038653E-002  0.14207868149002878        0.0000000000000000     
   4.0036113836815587E-002  0.14962132677804915        0.0000000000000000     
   4.0753377034511304E-002  0.15726992866489964        0.0000000000000000     
   4.1415155251125796E-002  0.16502448715058018        0.0000000000000000     
   3.2745649198429913E-002  0.13441693569885194        0.0000000000000000     
   3.3453573425730770E-002  0.14186883544585036        0.0000000000000000     
   3.4112355369698137E-002  0.14942587714574027        0.0000000000000000     
   3.4721995030332013E-002  0.15708806079852167        0.0000000000000000     
   3.5282492407632406E-002  0.16485538640419459        0.0000000000000000     
   2.7144953664107220E-002  0.13423036305051442        0.0000000000000000     
   2.7733704078129383E-002  0.14169648965818316        0.0000000000000000     
   2.8281149329699273E-002  0.14926879074636445        0.0000000000000000     
   2.8787289418816898E-002  0.15694726631505840        0.0000000000000000     
   2.9252124345482255E-002  0.16473191636426493        0.0000000000000000     
   2.1633045895212439E-002  0.13408227485582594        0.0000000000000000     
   2.2103757615234487E-002  0.14156164412702715        0.0000000000000000     
   2.2542495716818989E-002  0.14915006757992180        0.0000000000000000     
   2.2949260199965949E-002  0.15684754521450980        0.0000000000000000     
   2.3324051064675364E-002  0.16465407703079121        0.0000000000000000     
   0.0000000000000000        0.0000000000000000        0.0000000000000000     
   8.4166021762980235E-004   1.1100034795244180E-003   0.0000000000000000     
   1.7020987179957737E-003   2.5981578028002627E-003   0.0000000000000000     
   2.5813155010979143E-003   4.4644629698275332E-003   0.0000000000000000     
   3.4793105669362239E-003   6.7089189806062311E-003   0.0000000000000000     
   0.0000000000000000        0.0000000000000000        0.0000000000000000     
   6.3383159867374714E-004   1.0940015542255724E-003   0.0000000000000000     
   1.2780366938813256E-003   2.5620979572311634E-003   0.0000000000000000     
   1.9326152856227355E-003   4.4042892090167722E-003   0.0000000000000000     
   2.5975673738979771E-003   6.6205753095823997E-003   0.0000000000000000     
   0.0000000000000000        0.0000000000000000        0.0000000000000000     
   4.2427875763349212E-004   1.0825672795088510E-003   0.0000000000000000     
   8.5299849080462111E-004   2.5363370984671611E-003   0.0000000000000000     
   1.2861591995133872E-003   4.3613094568749292E-003   0.0000000000000000     
   1.7237608837597904E-003   6.5574843547321574E-003   0.0000000000000000     
   0.0000000000000000        0.0000000000000000        0.0000000000000000     
   2.1300169450903740E-004   1.0757006553742535E-003   0.0000000000000000     
   4.2698410876566037E-004   2.5208752265082558E-003   0.0000000000000000     
   6.4194724276986890E-004   4.3355237134020067E-003   0.0000000000000000     
   8.5789109652166290E-004   6.5196461160555051E-003   0.0000000000000000     
   0.0000000000000000        0.0000000000000000        0.0000000000000000     
   4.0930038292018647E-010   1.0734016818217803E-003   0.0000000000000000     
  -6.4522355568770624E-009   2.5157123413544471E-003   0.0000000000000000     
  -2.0584607819445957E-008   4.3269319785980013E-003   0.0000000000000000     
  -4.1987816404759392E-008   6.5070605935524418E-003   0.0000000000000000     
   3.4793105669362239E-003   6.7089189806062311E-003   0.0000000000000000     
   4.3878303663803346E-003   9.2942025111502086E-003   0.0000000000000000     
   5.2986213502998793E-003   1.2182990237473316E-002   0.0000000000000000     
   6.2116835186948561E-003   1.5375282159575556E-002   0.0000000000000000     
   7.1270168715652669E-003   1.8871078277456925E-002   0.0000000000000000     
   2.5975673738979771E-003   6.6205753095823997E-003   0.0000000000000000     
   3.2699422277460500E-003   9.1780067196637911E-003   0.0000000000000000     
   3.9467891162059537E-003   1.2043633899996693E-002   0.0000000000000000     
   4.6281080392776876E-003   1.5217456850581110E-002   0.0000000000000000     
   5.3138989969612523E-003   1.8699475571417035E-002   0.0000000000000000     
   1.7237608837597904E-003   6.5574843547321574E-003   0.0000000000000000     
   2.1659972485887635E-003   9.0950286737048382E-003   0.0000000000000000     
   2.6130619990452396E-003   1.1944109295458964E-002   0.0000000000000000     
   3.0649551351292189E-003   1.5104726219994537E-002   0.0000000000000000     
   3.5216766568407021E-003   1.8576879447311553E-002   0.0000000000000000     
   8.5789109652166290E-004   6.5196461160555051E-003   0.0000000000000000     
   1.0759954289084751E-003   9.0452683732733484E-003   0.0000000000000000     
   1.2974399988177373E-003   1.1884416423860126E-002   0.0000000000000000     
   1.5222248062494498E-003   1.5037090267815845E-002   0.0000000000000000     
   1.7503498512036128E-003   1.8503289905140500E-002   0.0000000000000000     
  -4.1987816404759392E-008   6.5070605935524418E-003   0.0000000000000000     
  -6.3231294815212355E-008   9.0287258183693198E-003   0.0000000000000000     
  -7.6884476553342135E-008   1.1864555285200182E-002   0.0000000000000000     
  -8.2947361619055559E-008   1.5014548994045028E-002   0.0000000000000000     
  -8.1419950012455965E-008   1.8478706944903861E-002   0.0000000000000000     
   7.1270168715652669E-003   1.8871078277456925E-002   0.0000000000000000     
   8.0380448959025477E-003   2.2644477990417290E-002   0.0000000000000000     
   8.9381910786981295E-003   2.6669580697756497E-002   0.0000000000000000     
   9.8274554199520164E-003   3.0946386399474550E-002   0.0000000000000000     
   1.0705837919664207E-002   3.5474895095571460E-002   0.0000000000000000     
   5.3138989969612523E-003   1.8699475571417035E-002   0.0000000000000000     
   5.9972187179443623E-003   2.2462293636457301E-002   0.0000000000000000     
   6.6711239309147317E-003   2.6478514619654742E-002   0.0000000000000000     
   7.3356146358723598E-003   3.0748138521009362E-002   0.0000000000000000     
   7.9906908328172474E-003   3.5271165340521160E-002   0.0000000000000000     
   3.5216766568407021E-003   1.8576879447311553E-002   0.0000000000000000     
   3.9772535870061720E-003   2.2332124762542142E-002   0.0000000000000000     
   4.4257129484521164E-003   2.6342017950818395E-002   0.0000000000000000     
   4.8670547411785335E-003   3.0606559012140322E-002   0.0000000000000000     
   5.3012789651854242E-003   3.5125747946507919E-002   0.0000000000000000     
   1.7503498512036128E-003   1.8503289905140500E-002   0.0000000000000000     
   1.9781495030879743E-003   2.2253971368671799E-002   0.0000000000000000     
   2.2019581313102812E-003   2.6260090691247438E-002   0.0000000000000000     
   2.4217757358705352E-003   3.0521647872867427E-002   0.0000000000000000     
   2.6376023167687355E-003   3.5038642913531745E-002   0.0000000000000000     
  -8.1419950012455965E-008   1.8478706944903861E-002   0.0000000000000000     
  -9.3533810230882197E-008   2.2227833454846278E-002   0.0000000000000000     
  -1.4052051077067021E-007   2.6232732840941884E-002   0.0000000000000000     
  -2.2238005163306007E-007   3.0493405103190672E-002   0.0000000000000000     
  -3.3911243281785526E-007   3.5009850241592651E-002   0.0000000000000000     
   1.0705837919664207E-002   3.5474895095571460E-002   0.0000000000000000     
   1.1567610880806930E-002   4.0234911530623044E-002   0.0000000000000000     
   1.2407046606352418E-002   4.5206240449205175E-002   0.0000000000000000     
   1.3224145096300667E-002   5.0388881851317825E-002   0.0000000000000000     
   1.4018906350651681E-002   5.5782835736961009E-002   0.0000000000000000     
   7.9906908328172474E-003   3.5271165340521160E-002   0.0000000000000000     
   8.6333727716994286E-003   4.0027878661883093E-002   0.0000000000000000     
   9.2606807024689375E-003   4.4998562068788155E-002   0.0000000000000000     
   9.8726146251257758E-003   5.0183215561236325E-002   0.0000000000000000     
   1.0469174539669942E-002   5.5581839139227610E-002   0.0000000000000000     
   5.3012789651854242E-003   3.5125747946507919E-002   0.0000000000000000     
   5.7272799009252823E-003   3.9880131450711925E-002   0.0000000000000000     
   6.1439518288506079E-003   4.4850256221543025E-002   0.0000000000000000     
   6.5512947489613955E-003   5.0036122259001233E-002   0.0000000000000000     
   6.9493086612576497E-003   5.5437729563086562E-002   0.0000000000000000     
   2.6376023167687355E-003   3.5038642913531745E-002   0.0000000000000000     
   2.8493322684844946E-003   3.9791669897109513E-002   0.0000000000000000     
   3.0568599854974257E-003   4.4761322907469779E-002   0.0000000000000000     
   3.2601854678075293E-003   4.9947601944612556E-002   0.0000000000000000     
   3.4593087154148041E-003   5.5350507008537844E-002   0.0000000000000000     
  -3.3911243281785526E-007   3.5009850241592651E-002   0.0000000000000000     
  -4.7012562293786107E-007   3.9762494001075878E-002   0.0000000000000000     
  -5.9482759060653333E-007   4.4731762126568424E-002   0.0000000000000000     
  -7.1321833582522727E-007   4.9917654618070295E-002   0.0000000000000000     
  -8.2529785859226240E-007   5.5320171475581478E-002   0.0000000000000000     
   1.4018906350651681E-002   5.5782835736961009E-002   0.0000000000000000     
   1.4790572124312600E-002   6.1375094570330690E-002   0.0000000000000000     
   1.5538384172190577E-002   6.7152650815622869E-002   0.0000000000000000     
   1.6262342494285605E-002   7.3115504472837489E-002   0.0000000000000000     
   1.6962447090597688E-002   7.9263655541974620E-002   0.0000000000000000     
   1.0469174539669942E-002   5.5581839139227610E-002   0.0000000000000000     
   1.1048848105097318E-002   6.1180072635846558E-002   0.0000000000000000     
   1.1610122980403786E-002   6.6963555884177725E-002   0.0000000000000000     
   1.2152999165589349E-002   7.2932288884221111E-002   0.0000000000000000     
   1.2677476660654002E-002   7.9086271635976702E-002   0.0000000000000000     
   6.9493086612576497E-003   5.5437729563086562E-002   0.0000000000000000     
   7.3363542856479036E-003   6.1039857357711488E-002   0.0000000000000000     
   7.7107923420406945E-003   6.6827284866788531E-002   0.0000000000000000     
   8.0726228304360218E-003   7.2800012090317695E-002   0.0000000000000000     
   8.4218457508338888E-003   7.8958039028298940E-002   0.0000000000000000     
   3.4593087154148041E-003   5.5350507008537844E-002   0.0000000000000000     
   3.6530906659643604E-003   6.0954448735925454E-002   0.0000000000000000     
   3.8403922571013018E-003   6.6743837763455258E-002   0.0000000000000000     
   4.0212134888256311E-003   7.2718674091127200E-002   0.0000000000000000     
   4.1955543611373455E-003   7.8878957718941309E-002   0.0000000000000000     
  -8.2529785859226240E-007   5.5320171475581478E-002   0.0000000000000000     
  -9.4275395331382215E-007   6.0923846770488503E-002   0.0000000000000000     
  -1.0772744143931084E-006   6.6713214574177893E-002   0.0000000000000000     
  -1.2288592418315984E-006   7.2688274886649668E-002   0.0000000000000000     
  -1.3975084356273541E-006   7.8849027707903793E-002   0.0000000000000000     
   1.6962447090597688E-002   7.9263655541974620E-002   0.0000000000000000     
   1.7637129053568595E-002   8.5583334576527753E-002   0.0000000000000000     
   1.8284819475640087E-002   9.2060772129990351E-002   0.0000000000000000     
   1.8905518356812177E-002   9.8695968202362483E-002   0.0000000000000000     
   1.9499225697084854E-002  0.10548892279364411        0.0000000000000000     
   1.2677476660654002E-002   7.9086271635976702E-002   0.0000000000000000     
   1.3182824655365058E-002   8.5412058869966376E-002   0.0000000000000000     
   1.3668312339489825E-002   9.1896205316711943E-002   0.0000000000000000     
   1.4133939713028301E-002   9.8538710976213417E-002   0.0000000000000000     
   1.4579706775980486E-002  0.10533957584847080        0.0000000000000000     
   8.4218457508338888E-003   7.8958039028298940E-002   0.0000000000000000     
   8.7582711687807912E-003   8.5288086934685425E-002   0.0000000000000000     
   9.0817091498232323E-003   9.1776877063430226E-002   0.0000000000000000     
   9.3921596939612120E-003   9.8424409414533398E-002   0.0000000000000000     
   9.6896228011947288E-003  0.10523068398799489        0.0000000000000000     
   4.1955543611373455E-003   7.8878957718941309E-002   0.0000000000000000     
   4.3634685938157905E-003   8.5211418770684902E-002   0.0000000000000000     
   4.5250099066403105E-003   9.1702787370145283E-002   0.0000000000000000     
   4.6801782996109039E-003   9.8353063517322439E-002   0.0000000000000000     
   4.8289737727275715E-003  0.10516224721221641        0.0000000000000000     
  -1.3975084356273541E-006   7.8849027707903793E-002   0.0000000000000000     
  -1.5830695299433144E-006   8.5182054377964778E-002   0.0000000000000000     
  -1.7853900589398703E-006   9.1673936236857018E-002   0.0000000000000000     
  -2.0044700226190412E-006   9.8324673284580555E-002   0.0000000000000000     
  -2.2403094209781302E-006  0.10513426552113539        0.0000000000000000     
   1.9499225697084854E-002  0.10548892279364411        0.0000000000000000     
   2.0067748136835057E-002  0.11242988268558277        0.0000000000000000     
   2.0612892316439719E-002  0.11950909465992597        0.0000000000000000     
   2.1134658235898850E-002  0.12672655871667371        0.0000000000000000     
   2.1633045895212439E-002  0.13408227485582594        0.0000000000000000     
   1.4579706775980486E-002  0.10533957584847080        0.0000000000000000     
   1.5006605739587887E-002  0.11228883385016863        0.0000000000000000     
   1.5415628815091998E-002  0.11937651889799143        0.0000000000000000     
   1.5806776002492823E-002  0.12660263099193927        0.0000000000000000     
   1.6180047301790363E-002  0.13396717013201209        0.0000000000000000     
   9.6896228011947288E-003  0.10523068398799489        0.0000000000000000     
   9.9745033735738828E-003  0.11218547224574436        0.0000000000000000     
   1.0247206313148779E-002  0.11927854564971145        0.0000000000000000     
   1.0507731619919414E-002  0.12650990419989619        0.0000000000000000     
   1.0756079293885785E-002  0.13387954789629858        0.0000000000000000     
   4.8289737727275715E-003  0.10516224721221641        0.0000000000000000     
   4.9714410387930470E-003  0.11211979787231001        0.0000000000000000     
   5.1076248106100607E-003  0.11921517491508601        0.0000000000000000     
   5.2375250881786127E-003  0.12644837834054445        0.0000000000000000     
   5.3611418714987029E-003  0.13381940814868529        0.0000000000000000     
  -2.2403094209781302E-006  0.10513426552113539        0.0000000000000000     
  -2.5812647546218526E-006  0.11209181072986556        0.0000000000000000     
  -3.1156925241536230E-006  0.11918640669411509        0.0000000000000000     
  -3.8435927295738751E-006  0.12641805341388404        0.0000000000000000     
  -4.7649653708813078E-006  0.13378675088917236        0.0000000000000000     
   2.1633045895212439E-002  0.13408227485582594        0.0000000000000000     
   2.2103757615234487E-002  0.14156164412702715        0.0000000000000000     
   2.2542495716818989E-002  0.14915006757992180        0.0000000000000000     
   2.2949260199965949E-002  0.15684754521450980        0.0000000000000000     
   2.3324051064675364E-002  0.16465407703079121        0.0000000000000000     
   1.6180047301790363E-002  0.13396717013201209        0.0000000000000000     
   1.6533163652487835E-002  0.14145689374895595        0.0000000000000000     
   1.6863845994088460E-002  0.14905855927351683        0.0000000000000000     
   1.7172094326592228E-002  0.15677216670569469        0.0000000000000000     
   1.7457908649999149E-002  0.16459771604548962        0.0000000000000000     
   1.0756079293885785E-002  0.13387954789629858        0.0000000000000000     
   1.0991351805331171E-002  0.14137483342054308        0.0000000000000000     
   1.1212651624538841E-002  0.14898311745425419        0.0000000000000000     
   1.1419978751508793E-002  0.15670439999743191        0.0000000000000000     
   1.1613333186241030E-002  0.16453868105007627        0.0000000000000000     
   5.3611418714987029E-003  0.13381940814868529        0.0000000000000000     
   5.4783220737644935E-003  0.14131546314178850        0.0000000000000000     
   5.5889126081701416E-003  0.14892374212213388        0.0000000000000000     
   5.6929134747156444E-003  0.15664424508972144        0.0000000000000000     
   5.7903246734010080E-003  0.16447697204455120        0.0000000000000000     
  -4.7649653708813078E-006  0.13378675088917236        0.0000000000000000     
  -5.9255422121969568E-006  0.14127878291269225        0.0000000000000000     
  -7.3710550176407739E-006  0.14888043327715589        0.0000000000000000     
  -9.1015037872147647E-006  0.15659170198256323        0.0000000000000000     
  -1.1116888520916815E-005  0.16441258902891437        0.0000000000000000     
   0.0000000000000000        0.0000000000000000        0.0000000000000000     
   4.0930038292018647E-010   1.0734016818217803E-003   0.0000000000000000     
  -6.4522355568770624E-009   2.5157123413544471E-003   0.0000000000000000     
  -2.0584607819445957E-008   4.3269319785980013E-003   0.0000000000000000     
  -4.1987816404759392E-008   6.5070605935524418E-003   0.0000000000000000     
   0.0000000000000000        0.0000000000000000        0.0000000000000000     
  -2.1300188271326952E-004   1.0756781472496821E-003   0.0000000000000000     
  -4.2699761859561942E-004   2.5208559968271549E-003   0.0000000000000000     
  -6.4198720764704962E-004   4.3355335487324179E-003   0.0000000000000000     
  -8.5797064986756059E-004   6.5197108029654716E-003   0.0000000000000000     
   0.0000000000000000        0.0000000000000000        0.0000000000000000     
  -4.2428196625271818E-004   1.0825378400562107E-003   0.0000000000000000     
  -8.5301381671111618E-004   2.5363137467477965E-003   0.0000000000000000     
  -1.2861955513751944E-003   4.3613277200747567E-003   0.0000000000000000     
  -1.7238271702449523E-003   6.5575797600370932E-003   0.0000000000000000     
   0.0000000000000000        0.0000000000000000        0.0000000000000000     
  -6.3383984131796297E-004   1.0939807602413656E-003   0.0000000000000000     
  -1.2780550465820474E-003   2.5620855911163720E-003   0.0000000000000000     
  -1.9326456157922529E-003   4.4043144926250192E-003   0.0000000000000000     
  -2.5976115489485803E-003   6.6206674647673082E-003   0.0000000000000000     
   0.0000000000000000        0.0000000000000000        0.0000000000000000     
  -8.4167550790900398E-004   1.1100069078051472E-003   0.0000000000000000     
  -1.7021213082084126E-003   2.5981715299328821E-003   0.0000000000000000     
  -2.5813374008982260E-003   4.4644938663832056E-003   0.0000000000000000     
  -3.4793237859784441E-003   6.7089739171561167E-003   0.0000000000000000     
  -4.1987816404759392E-008   6.5070605935524418E-003   0.0000000000000000     
  -6.3231294815212355E-008   9.0287258183693198E-003   0.0000000000000000     
  -7.6884476553342135E-008   1.1864555285200182E-002   0.0000000000000000     
  -8.2947361619055559E-008   1.5014548994045028E-002   0.0000000000000000     
  -8.1419950012455965E-008   1.8478706944903861E-002   0.0000000000000000     
  -8.5797064986756059E-004   6.5197108029654716E-003   0.0000000000000000     
  -1.0761144568976466E-003   9.0453723903418399E-003   0.0000000000000000     
  -1.2975851403778020E-003   1.1884502941677050E-002   0.0000000000000000     
  -1.5223827003080282E-003   1.5037102456971105E-002   0.0000000000000000     
  -1.7505071366883235E-003   1.8503170936223997E-002   0.0000000000000000     
  -1.7238271702449523E-003   6.5575797600370932E-003   0.0000000000000000     
  -2.1660939727765581E-003   9.0951794705399960E-003   0.0000000000000000     
  -2.6131812584261798E-003   1.1944236455488665E-002   0.0000000000000000     
  -3.0650890271938162E-003   1.5104750714883092E-002   0.0000000000000000     
  -3.5218172790794692E-003   1.8576722248723282E-002   0.0000000000000000     
  -2.5976115489485803E-003   6.6206674647673082E-003   0.0000000000000000     
  -3.2700017789315501E-003   9.1781470589637898E-003   0.0000000000000000     
  -3.9468652386216857E-003   1.2043755826635015E-002   0.0000000000000000     
  -4.6282019280189856E-003   1.5217493767780987E-002   0.0000000000000000     
  -5.3140118471234491E-003   1.8699360882401702E-002   0.0000000000000000     
  -3.4793237859784441E-003   6.7089739171561167E-003   0.0000000000000000     
  -4.3878378753626221E-003   9.2942751556132179E-003   0.0000000000000000     
  -5.2986370809643196E-003   1.2183061055116108E-002   0.0000000000000000     
  -6.2117214027835321E-003   1.5375331615664789E-002   0.0000000000000000     
  -7.1270908408202641E-003   1.8871086837259261E-002   0.0000000000000000     
  -8.1419950012455965E-008   1.8478706944903861E-002   0.0000000000000000     
  -9.3533810230882197E-008   2.2227833454846278E-002   0.0000000000000000     
  -1.4052051077067021E-007   2.6232732840941884E-002   0.0000000000000000     
  -2.2238005163306007E-007   3.0493405103190672E-002   0.0000000000000000     
  -3.3911243281785526E-007   3.5009850241592651E-002   0.0000000000000000     
  -1.7505071366883235E-003   1.8503170936223997E-002   0.0000000000000000     
  -1.9783309843227747E-003   2.2253775540276795E-002   0.0000000000000000     
  -2.2022267780154674E-003   2.6259983429970553E-002   0.0000000000000000     
  -2.4221945177664017E-003   3.0521794605305276E-002   0.0000000000000000     
  -2.6382342035755771E-003   3.5039209066280955E-002   0.0000000000000000     
  -3.5218172790794692E-003   1.8576722248723282E-002   0.0000000000000000     
  -3.9774183090839910E-003   2.2331862144174566E-002   0.0000000000000000     
  -4.4259444122082339E-003   2.6341881488402275E-002   0.0000000000000000     
  -4.8673955884521985E-003   3.0606780281406426E-002   0.0000000000000000     
  -5.3017718378158846E-003   3.5126558523186989E-002   0.0000000000000000     
  -5.3140118471234491E-003   1.8699360882401702E-002   0.0000000000000000     
  -5.9973555080938780E-003   2.2462093266539581E-002   0.0000000000000000     
  -6.6712934230890681E-003   2.6478427016237056E-002   0.0000000000000000     
  -7.3358255921090231E-003   3.0748362131494119E-002   0.0000000000000000     
  -7.9909520151537419E-003   3.5271898612310768E-002   0.0000000000000000     
  -7.1270908408202641E-003   1.8871086837259261E-002   0.0000000000000000     
  -8.0381425813524365E-003   2.2644468907371849E-002   0.0000000000000000     
  -8.9382738106579748E-003   2.6669620013474886E-002   0.0000000000000000     
  -9.8274845287368798E-003   3.0946540155568358E-002   0.0000000000000000     
  -1.0705774735589148E-002   3.5475229333652283E-002   0.0000000000000000     
  -3.3911243281785526E-007   3.5009850241592651E-002   0.0000000000000000     
  -4.7012562293786107E-007   3.9762494001075878E-002   0.0000000000000000     
  -5.9482759060653333E-007   4.4731762126568424E-002   0.0000000000000000     
  -7.1321833582522727E-007   4.9917654618070295E-002   0.0000000000000000     
  -8.2529785859226240E-007   5.5320171475581478E-002   0.0000000000000000     
  -2.6382342035755771E-003   3.5039209066280955E-002   0.0000000000000000     
  -2.8502031216219295E-003   3.9792395039581353E-002   0.0000000000000000     
  -3.0579585580843955E-003   4.4761520751890230E-002   0.0000000000000000     
  -3.2615005129629717E-003   4.9946586203207570E-002   0.0000000000000000     
  -3.4608289862576610E-003   5.5347591393533402E-002   0.0000000000000000     
  -5.3017718378158846E-003   3.5126558523186989E-002   0.0000000000000000     
  -5.7279425597373994E-003   3.9881164289596240E-002   0.0000000000000000     
  -6.1447771536548420E-003   4.4850545656486412E-002   0.0000000000000000     
  -6.5522756195682159E-003   5.0034702623857528E-002   0.0000000000000000     
  -6.9504379574775203E-003   5.5433635191709560E-002   0.0000000000000000     
  -7.9909520151537419E-003   3.5271898612310768E-002   0.0000000000000000     
  -8.6336884399693444E-003   4.0028801751120557E-002   0.0000000000000000     
  -9.2610506143019494E-003   4.4998836840357014E-002   0.0000000000000000     
  -9.8730385381515604E-003   5.0182003880020157E-002   0.0000000000000000     
  -1.0469652211518170E-002   5.5578302870109966E-002   0.0000000000000000     
  -1.0705774735589148E-002   3.5475229333652283E-002   0.0000000000000000     
  -1.1567440762317766E-002   4.0235307424154286E-002   0.0000000000000000     
  -1.2406778940025717E-002   4.5206394303502005E-002   0.0000000000000000     
  -1.3223789268712998E-002   5.0388489971695448E-002   0.0000000000000000     
  -1.4018471748379613E-002   5.5781594428734607E-002   0.0000000000000000     
  -8.2529785859226240E-007   5.5320171475581478E-002   0.0000000000000000     
  -9.4275395331382215E-007   6.0923846770488503E-002   0.0000000000000000     
  -1.0772744143931084E-006   6.6713214574177893E-002   0.0000000000000000     
  -1.2288592418315984E-006   7.2688274886649668E-002   0.0000000000000000     
  -1.3975084356273541E-006   7.8849027707903793E-002   0.0000000000000000     
  -3.4608289862576610E-003   5.5347591393533402E-002   0.0000000000000000     
  -3.6548266884459100E-003   6.0949514398633942E-002   0.0000000000000000     
  -3.8423763300051636E-003   6.6737333294275447E-002   0.0000000000000000     
  -4.0234779109354236E-003   7.2711048080457877E-002   0.0000000000000000     
  -4.1981314312366904E-003   7.8870658757181300E-002   0.0000000000000000     
  -6.9504379574775203E-003   5.5433635191709560E-002   0.0000000000000000     
  -7.3376418518542215E-003   6.1032914557595130E-002   0.0000000000000000     
  -7.7122649871697868E-003   6.6818111919066836E-002   0.0000000000000000     
  -8.0743073634242137E-003   7.2789227276124663E-002   0.0000000000000000     
  -8.4237689806175055E-003   7.8946260628768666E-002   0.0000000000000000     
  -1.0469652211518170E-002   5.5578302870109966E-002   0.0000000000000000     
  -1.1049388244178254E-002   6.1174047247372076E-002   0.0000000000000000     
  -1.1610743245908264E-002   6.6955550448552087E-002   0.0000000000000000     
  -1.2153717216708201E-002   7.2922812473650053E-002   0.0000000000000000     
  -1.2678310156578068E-002   7.9075833322665906E-002   0.0000000000000000     
  -1.4018471748379613E-002   5.5781594428734607E-002   0.0000000000000000     
  -1.4790065865417994E-002   6.1372912467964773E-002   0.0000000000000000     
  -1.5537811106220586E-002   6.7149648882731228E-002   0.0000000000000000     
  -1.6261707470787382E-002   7.3111803673033965E-002   0.0000000000000000     
  -1.6961754959118388E-002   7.9259376838873019E-002   0.0000000000000000     
  -1.3975084356273541E-006   7.8849027707903793E-002   0.0000000000000000     
  -1.5830695299433144E-006   8.5182054377964778E-002   0.0000000000000000     
  -1.7853900589398703E-006   9.1673936236857018E-002   0.0000000000000000     
  -2.0044700226190412E-006   9.8324673284580555E-002   0.0000000000000000     
  -2.2403094209781302E-006  0.10513426552113539        0.0000000000000000     
  -4.1981314312366904E-003   7.8870658757181300E-002   0.0000000000000000     
  -4.3663905216212075E-003   8.5202548433276251E-002   0.0000000000000000     
  -4.5283088128012195E-003   9.1693100217573334E-002   0.0000000000000000     
  -4.6838863047767290E-003   9.8342314110072576E-002   0.0000000000000000     
  -4.8331229975477332E-003  0.10515019011077394        0.0000000000000000     
  -8.4237689806175055E-003   7.8946260628768666E-002   0.0000000000000000     
  -8.7604604628227934E-003   8.5275455613370535E-002   0.0000000000000000     
  -9.0841924341132259E-003   9.1763055866302096E-002   0.0000000000000000     
  -9.3949648944887960E-003   9.8409061387563335E-002   0.0000000000000000     
  -9.6927778439495037E-003  0.10521347217715421        0.0000000000000000     
  -1.2678310156578068E-002   7.9075833322665906E-002   0.0000000000000000     
  -1.3183792893134710E-002   8.5400775918247657E-002   0.0000000000000000     
  -1.3669436253994959E-002   9.1883803183043303E-002   0.0000000000000000     
  -1.4135240239158816E-002   9.8524915117052816E-002   0.0000000000000000     
  -1.4581204848626286E-002  0.10532411172027623        0.0000000000000000     
  -1.6961754959118388E-002   7.9259376838873019E-002   0.0000000000000000     
  -1.7636387812556949E-002   8.5578509347907575E-002   0.0000000000000000     
  -1.8284040272446421E-002   9.2055342167796927E-002   0.0000000000000000     
  -1.8904712338786798E-002   9.8689875298541063E-002   0.0000000000000000     
  -1.9498404011578086E-002  0.10548210874013995        0.0000000000000000     
  -2.2403094209781302E-006  0.10513426552113539        0.0000000000000000     
  -2.5812647546218526E-006  0.11209181072986556        0.0000000000000000     
  -3.1156925241536230E-006  0.11918640669411509        0.0000000000000000     
  -3.8435927295738751E-006  0.12641805341388404        0.0000000000000000     
  -4.7649653708813078E-006  0.13378675088917236        0.0000000000000000     
  -4.8331229975477332E-003  0.10515019011077394        0.0000000000000000     
  -4.9762241031205438E-003  0.11210558344804049        0.0000000000000000     
  -5.1133948335014669E-003  0.11919734935023531        0.0000000000000000     
  -5.2446351886905034E-003  0.12642548781735841        0.0000000000000000     
  -5.3699451686876551E-003  0.13378999884940976        0.0000000000000000     
  -9.6927778439495037E-003  0.10521347217715421        0.0000000000000000     
  -9.9781480423561369E-003  0.11216518865646434        0.0000000000000000     
  -1.0251592249569482E-002  0.11925311124688330        0.0000000000000000     
  -1.0513110465589538E-002  0.12647723994841104        0.0000000000000000     
  -1.0762702690416303E-002  0.13383757476104757        0.0000000000000000     
  -1.4581204848626286E-002  0.10532411172027623        0.0000000000000000     
  -1.5008353082461403E-002  0.11227062635513707        0.0000000000000000     
  -1.5417707940728196E-002  0.11935369238405895        0.0000000000000000     
  -1.5809269423426670E-002  0.12657330980704187        0.0000000000000000     
  -1.6183037530556828E-002  0.13392947862408580        0.0000000000000000     
  -1.9498404011578086E-002  0.10548210874013995        0.0000000000000000     
  -2.0066839223436338E-002  0.11242189654405871        0.0000000000000000     
  -2.0611741906977614E-002  0.11949909276176236        0.0000000000000000     
  -2.1133112062201909E-002  0.12671369739325095        0.0000000000000000     
  -2.1630949689109225E-002  0.13406571043852450        0.0000000000000000     
  -4.7649653708813078E-006  0.13378675088917236        0.0000000000000000     
  -5.9255422121969568E-006  0.14127878291269225        0.0000000000000000     
  -7.3710550176407739E-006  0.14888043327715589        0.0000000000000000     
  -9.1015037872147647E-006  0.15659170198256323        0.0000000000000000     
  -1.1116888520916815E-005  0.16441258902891437        0.0000000000000000     
  -5.3699451686876551E-003  0.13378999884940976        0.0000000000000000     
  -5.4892542262819583E-003  0.14127617380465957        0.0000000000000000     
  -5.6024918142624502E-003  0.14886930404137802        0.0000000000000000     
  -5.7096579326291318E-003  0.15656938955956515        0.0000000000000000     
  -5.8107525813820074E-003  0.16437643035922095        0.0000000000000000     
  -1.0762702690416303E-002  0.13383757476104757        0.0000000000000000     
  -1.0999527162127848E-002  0.14131901688909568        0.0000000000000000     
  -1.1222742118802231E-002  0.14890646753685810        0.0000000000000000     
  -1.1432347560439458E-002  0.15659992670433490        0.0000000000000000     
  -1.1628343487039526E-002  0.16439939439152601        0.0000000000000000     
  -1.6183037530556828E-002  0.13392947862408580        0.0000000000000000     
  -1.6536744349749860E-002  0.14140731216600064        0.0000000000000000     
  -1.6868121968636983E-002  0.14899192376359621        0.0000000000000000     
  -1.7177170387218187E-002  0.15668331341687247        0.0000000000000000     
  -1.7463889605493471E-002  0.16448148112582950        0.0000000000000000     
  -2.1630949689109225E-002  0.13406571043852450        0.0000000000000000     
  -2.2100905789148008E-002  0.14154105963537442        0.0000000000000000     
  -2.2538631363766708E-002  0.14912567272159222        0.0000000000000000     
  -2.2944126412965320E-002  0.15681954969717793        0.0000000000000000     
  -2.3317390936743849E-002  0.16462269056213152        0.0000000000000000     
   0.0000000000000000        0.0000000000000000        0.0000000000000000     
  -8.4167550790900398E-004   1.1100069078051472E-003   0.0000000000000000     
  -1.7021213082084126E-003   2.5981715299328821E-003   0.0000000000000000     
  -2.5813374008982260E-003   4.4644938663832056E-003   0.0000000000000000     
  -3.4793237859784441E-003   6.7089739171561167E-003   0.0000000000000000     
   0.0000000000000000        0.0000000000000000        0.0000000000000000     
  -1.0566975233008223E-003   1.1341726037974310E-003   0.0000000000000000     
  -2.1397567649652912E-003   2.6504160753227811E-003   0.0000000000000000     
  -3.2491777249934062E-003   4.5487304145760505E-003   0.0000000000000000     
  -4.3849604033851684E-003   6.8291156215572382E-003   0.0000000000000000     
   0.0000000000000000        0.0000000000000000        0.0000000000000000     
  -1.2878144447683989E-003   1.1700341692680934E-003   0.0000000000000000     
  -2.6055055802277614E-003   2.7246637394115229E-003   0.0000000000000000     
  -3.9530734063780871E-003   4.6638887104302890E-003   0.0000000000000000     
  -5.3305179232193767E-003   6.9877090823243920E-003   0.0000000000000000     
   0.0000000000000000        0.0000000000000000        0.0000000000000000     
  -1.5350262723117338E-003   1.2175916042171336E-003   0.0000000000000000     
  -3.0993677539958232E-003   2.8209145221991081E-003   0.0000000000000000     
  -4.6930244450522690E-003   4.8099687539459226E-003   0.0000000000000000     
  -6.3159963454810699E-003   7.1847542994575783E-003   0.0000000000000000     
   0.0000000000000000        0.0000000000000000        0.0000000000000000     
  -1.7983330059308268E-003   1.2768449086445525E-003   0.0000000000000000     
  -3.6213432862694768E-003   2.9391684236855361E-003   0.0000000000000000     
  -5.4690308410159510E-003   4.9869705451229505E-003   0.0000000000000000     
  -7.3413956701702471E-003   7.4202512729567970E-003   0.0000000000000000     
  -3.4793237859784441E-003   6.7089739171561167E-003   0.0000000000000000     
  -4.3878378753626221E-003   9.2942751556132179E-003   0.0000000000000000     
  -5.2986370809643196E-003   1.2183061055116108E-002   0.0000000000000000     
  -6.2117214027835321E-003   1.5375331615664789E-002   0.0000000000000000     
  -7.1270908408202641E-003   1.8871086837259261E-002   0.0000000000000000     
  -4.3849604033851684E-003   6.8291156215572382E-003   0.0000000000000000     
  -5.5341221704308923E-003   9.4495768392698146E-003   0.0000000000000000     
  -6.6836803964208970E-003   1.2368119210717248E-002   0.0000000000000000     
  -7.8336350813551798E-003   1.5584742735899536E-002   0.0000000000000000     
  -8.9839862252337442E-003   1.9099447414816680E-002   0.0000000000000000     
  -5.3305179232193767E-003   6.9877090823243920E-003   0.0000000000000000     
  -6.7233745724974772E-003   9.6500651887151123E-003   0.0000000000000000     
  -8.1171787959582326E-003   1.2604897363223736E-002   0.0000000000000000     
  -9.5119305936016488E-003   1.5852205605850257E-002   0.0000000000000000     
  -1.0907629965427726E-002   1.9391989916594674E-002   0.0000000000000000     
  -6.3159963454810699E-003   7.1847542994575783E-003   0.0000000000000000     
  -7.9555950815623742E-003   9.8957402039491146E-003   0.0000000000000000     
  -9.5991322795763324E-003   1.2893395512635570E-002   0.0000000000000000     
  -1.1246607939522941E-002   1.6177720225516945E-002   0.0000000000000000     
  -1.2898022061402203E-002   1.9748714342593243E-002   0.0000000000000000     
  -7.3413956701702471E-003   7.4202512729567970E-003   0.0000000000000000     
  -9.2307836976255886E-003   1.0186601884971816E-002   0.0000000000000000     
  -1.1129540847275188E-002   1.3233613658952757E-002   0.0000000000000000     
  -1.3037667119119054E-002   1.6561286594899610E-002   0.0000000000000000     
  -1.4955162513157177E-002   2.0169620692812387E-002   0.0000000000000000     
  -7.1270908408202641E-003   1.8871086837259261E-002   0.0000000000000000     
  -8.0381425813524365E-003   2.2644468907371849E-002   0.0000000000000000     
  -8.9382738106579748E-003   2.6669620013474886E-002   0.0000000000000000     
  -9.8274845287368798E-003   3.0946540155568358E-002   0.0000000000000000     
  -1.0705774735589148E-002   3.5475229333652283E-002   0.0000000000000000     
  -8.9839862252337442E-003   1.9099447414816680E-002   0.0000000000000000     
  -1.0127708821565442E-002   2.2887401651166917E-002   0.0000000000000000     
  -1.1257777863859130E-002   2.6923773848648472E-002   0.0000000000000000     
  -1.2374193352114806E-002   3.1208564007261352E-002   0.0000000000000000     
  -1.3476955286332470E-002   3.5741772127005557E-002   0.0000000000000000     
  -1.0907629965427726E-002   1.9391989916594674E-002   0.0000000000000000     
  -1.2293983521438671E-002   2.3199304082420321E-002   0.0000000000000000     
  -1.3660697871636715E-002   2.7249201890290526E-002   0.0000000000000000     
  -1.5007773016021847E-002   3.1541683340205282E-002   0.0000000000000000     
  -1.6335208954594078E-002   3.6076748432164608E-002   0.0000000000000000     
  -1.2898022061402203E-002   1.9748714342593243E-002   0.0000000000000000     
  -1.4536966680972130E-002   2.3580176201132071E-002   0.0000000000000000     
  -1.6147033833990729E-002   2.7645904138401046E-002   0.0000000000000000     
  -1.7728223520458011E-002   3.1945898154400167E-002   0.0000000000000000     
  -1.9280535740373968E-002   3.6480158249129431E-002   0.0000000000000000     
  -1.4955162513157177E-002   2.0169620692812387E-002   0.0000000000000000     
  -1.6856658300165805E-002   2.4030018007302163E-002   0.0000000000000000     
  -1.8716785750921179E-002   2.8113880592980030E-002   0.0000000000000000     
  -2.0535544865423288E-002   3.2421208449845987E-002   0.0000000000000000     
  -2.2312935643672146E-002   3.6952001577900039E-002   0.0000000000000000     
  -1.0705774735589148E-002   3.5475229333652283E-002   0.0000000000000000     
  -1.1567440762317766E-002   4.0235307424154286E-002   0.0000000000000000     
  -1.2406778940025717E-002   4.5206394303502005E-002   0.0000000000000000     
  -1.3223789268712998E-002   5.0388489971695448E-002   0.0000000000000000     
  -1.4018471748379613E-002   5.5781594428734607E-002   0.0000000000000000     
  -1.3476955286332470E-002   3.5741772127005557E-002   0.0000000000000000     
  -1.4558184297899282E-002   4.0503660671397837E-002   0.0000000000000000     
  -1.5610001018202401E-002   4.5474492103954940E-002   0.0000000000000000     
  -1.6632405447241823E-002   5.0654266424676873E-002   0.0000000000000000     
  -1.7625397585017556E-002   5.6042983633563637E-002   0.0000000000000000     
  -1.6335208954594078E-002   3.6076748432164608E-002   0.0000000000000000     
  -1.7634903817830512E-002   4.0836840855551587E-002   0.0000000000000000     
  -1.8898755736208261E-002   4.5804404299749350E-002   0.0000000000000000     
  -2.0126764709727338E-002   5.0979438764757877E-002   0.0000000000000000     
  -2.1318930738387726E-002   5.6361944250577188E-002   0.0000000000000000     
  -1.9280535740373968E-002   3.6480158249129431E-002   0.0000000000000000     
  -2.0797599322111452E-002   4.1234847976615550E-002   0.0000000000000000     
  -2.2273043094043300E-002   4.6196130890885229E-002   0.0000000000000000     
  -2.3706867056169516E-002   5.1364006991938473E-002   0.0000000000000000     
  -2.5099071208490104E-002   5.6738476279775282E-002   0.0000000000000000     
  -2.2312935643672146E-002   3.6952001577900039E-002   0.0000000000000000     
  -2.4046270810742100E-002   4.1697682034589720E-002   0.0000000000000000     
  -2.5732863091707511E-002   4.6649671877362596E-002   0.0000000000000000     
  -2.7372712486568380E-002   5.1807971106218646E-002   0.0000000000000000     
  -2.8965818995324709E-002   5.7172579721157891E-002   0.0000000000000000     
  -1.4018471748379613E-002   5.5781594428734607E-002   0.0000000000000000     
  -1.4790065865417994E-002   6.1372912467964773E-002   0.0000000000000000     
  -1.5537811106220586E-002   6.7149648882731228E-002   0.0000000000000000     
  -1.6261707470787382E-002   7.3111803673033965E-002   0.0000000000000000     
  -1.6961754959118388E-002   7.9259376838873019E-002   0.0000000000000000     
  -1.7625397585017556E-002   5.6042983633563637E-002   0.0000000000000000     
  -1.8588987400862775E-002   6.1628601585727152E-002   0.0000000000000000     
  -1.9523184864110654E-002   6.7399078136279392E-002   0.0000000000000000     
  -2.0427989974761189E-002   7.3354413285220299E-002   0.0000000000000000     
  -2.1303402732814385E-002   7.9494607032549916E-002   0.0000000000000000     
  -2.1318930738387726E-002   5.6361944250577188E-002   0.0000000000000000     
  -2.2475465535801903E-002   6.1940205967013169E-002   0.0000000000000000     
  -2.3596580815582340E-002   6.7702509123871740E-002   0.0000000000000000     
  -2.4682276577729045E-002   7.3648853721152888E-002   0.0000000000000000     
  -2.5732552822242006E-002   7.9779239758856604E-002   0.0000000000000000     
  -2.5099071208490104E-002   5.6738476279775282E-002   0.0000000000000000     
  -2.6449500270235380E-002   6.2307725611822816E-002   0.0000000000000000     
  -2.7757998960635660E-002   6.8059941845508315E-002   0.0000000000000000     
  -2.9024567279690945E-002   7.3995124980831703E-002   0.0000000000000000     
  -3.0249205227401234E-002   8.0113275017793042E-002   0.0000000000000000     
  -2.8965818995324709E-002   5.7172579721157891E-002   0.0000000000000000     
  -3.0511091604163210E-002   6.2731160520156093E-002   0.0000000000000000     
  -3.2007439299270607E-002   6.8471376301189060E-002   0.0000000000000000     
  -3.3454862080646901E-002   7.4393227064256773E-002   0.0000000000000000     
  -3.4853359948292084E-002   8.0496712809359230E-002   0.0000000000000000     
  -1.6961754959118388E-002   7.9259376838873019E-002   0.0000000000000000     
  -1.7636387812556949E-002   8.5578509347907575E-002   0.0000000000000000     
  -1.8284040272446421E-002   9.2055342167796927E-002   0.0000000000000000     
  -1.8904712338786798E-002   9.8689875298541063E-002   0.0000000000000000     
  -1.9498404011578086E-002  0.10548210874013995        0.0000000000000000     
  -2.1303402732814385E-002   7.9494607032549916E-002   0.0000000000000000     
  -2.2147092710371206E-002   8.5805909971797101E-002   0.0000000000000000     
  -2.2956729479532607E-002   9.2274572696490670E-002   0.0000000000000000     
  -2.3732313040298585E-002   9.8900595206630706E-002   0.0000000000000000     
  -2.4473843392669146E-002  0.10568397750221709        0.0000000000000000     
  -2.5732552822242006E-002   7.9779239758856604E-002   0.0000000000000000     
  -2.6744755075859179E-002   8.6080231859363032E-002   0.0000000000000000     
  -2.7716228865318517E-002   9.2538394645052313E-002   0.0000000000000000     
  -2.8646974190620032E-002   9.9153728115924405E-002   0.0000000000000000     
  -2.9536991051763706E-002  0.10592623227197935        0.0000000000000000     
  -3.0249205227401234E-002   8.0113275017793042E-002   0.0000000000000000     
  -3.1429374909020869E-002   8.6401475010605355E-002   0.0000000000000000     
  -3.2562538429804153E-002   9.2846808013481733E-002   0.0000000000000000     
  -3.3648695789751132E-002   9.9449274026422202E-002   0.0000000000000000     
  -3.4687846988861779E-002  0.10620887304942674        0.0000000000000000     
  -3.4853359948292084E-002   8.0496712809359230E-002   0.0000000000000000     
  -3.6200952209856259E-002   8.6769639425524098E-002   0.0000000000000000     
  -3.7495658172989534E-002   9.3199812801779067E-002   0.0000000000000000     
  -3.8737477837691894E-002   9.9787232938124068E-002   0.0000000000000000     
  -3.9926411203963341E-002  0.10653189983455918        0.0000000000000000     
  -1.9498404011578086E-002  0.10548210874013995        0.0000000000000000     
  -2.0066839223436338E-002  0.11242189654405871        0.0000000000000000     
  -2.0611741906977614E-002  0.11949909276176236        0.0000000000000000     
  -2.1133112062201909E-002  0.12671369739325095        0.0000000000000000     
  -2.1630949689109225E-002  0.13406571043852450        0.0000000000000000     
  -2.4473843392669146E-002  0.10568397750221709        0.0000000000000000     
  -2.5183756578171415E-002  0.11261514094575764        0.0000000000000000     
  -2.5864488638332538E-002  0.11968450689976004        0.0000000000000000     
  -2.6516039573152499E-002  0.12689207536422431        0.0000000000000000     
  -2.7138409382631314E-002  0.13423784633915045        0.0000000000000000     
  -2.9536991051763706E-002  0.10592623227197935        0.0000000000000000     
  -3.0389255259557102E-002  0.11284650128276230        0.0000000000000000     
  -3.1206742624807767E-002  0.11990512931781852        0.0000000000000000     
  -3.1989453147515702E-002  0.12710211637714791        0.0000000000000000     
  -3.2737386827680910E-002  0.13443746246075050        0.0000000000000000     
  -3.4687846988861779E-002  0.10620887304942674        0.0000000000000000     
  -3.5683335267593395E-002  0.11311597755507274        0.0000000000000000     
  -3.6638503866403313E-002  0.12016096001593776        0.0000000000000000     
  -3.7553352785291531E-002  0.12734382043202175        0.0000000000000000     
  -3.8427882024258030E-002  0.13466455880332476        0.0000000000000000     
  -3.9926411203963341E-002  0.10653189983455918        0.0000000000000000     
  -4.1065996602280302E-002  0.11342356976268891        0.0000000000000000     
  -4.2159772363119165E-002  0.12045199899411781        0.0000000000000000     
  -4.3207738486479956E-002  0.12761718752884588        0.0000000000000000     
  -4.4209894972362648E-002  0.13491913536687311        0.0000000000000000     
  -2.1630949689109225E-002  0.13406571043852450        0.0000000000000000     
  -2.2100905789148008E-002  0.14154105963537442        0.0000000000000000     
  -2.2538631363766708E-002  0.14912567272159222        0.0000000000000000     
  -2.2944126412965320E-002  0.15681954969717793        0.0000000000000000     
  -2.3317390936743849E-002  0.16462269056213152        0.0000000000000000     
  -2.7138409382631314E-002  0.13423784633915045        0.0000000000000000     
  -2.7725260613318214E-002  0.14170856172921908        0.0000000000000000     
  -2.8270255811762429E-002  0.14929096343911097        0.0000000000000000     
  -2.8773394977963971E-002  0.15698505146882608        0.0000000000000000     
  -2.9234678111922825E-002  0.16479082581836435        0.0000000000000000     
  -3.2737386827680910E-002  0.13443746246075050        0.0000000000000000     
  -3.3443057955256400E-002  0.14189812087953682        0.0000000000000000     
  -3.4098980820195184E-002  0.14947104494441721        0.0000000000000000     
  -3.4705155422497233E-002  0.15715623465539175        0.0000000000000000     
  -3.5261581762162590E-002  0.16495369001246038        0.0000000000000000     
  -3.8427882024258030E-002  0.13466455880332476        0.0000000000000000     
  -3.9254297814962591E-002  0.14210973708632754        0.0000000000000000     
  -4.0024806389064950E-002  0.14966591723751091        0.0000000000000000     
  -4.0739407746565134E-002  0.15733309925687494        0.0000000000000000     
  -4.1398101887463123E-002  0.16511128314441956        0.0000000000000000     
  -4.4209894972362648E-002  0.13491913536687311        0.0000000000000000     
  -4.5158980192436755E-002  0.14234341034959125        0.0000000000000000     
  -4.6047732518371749E-002  0.14987558031839213        0.0000000000000000     
  -4.6876151950167644E-002  0.15751564527327569        0.0000000000000000     
  -4.7644238487824439E-002  0.16526360521424194        0.0000000000000000     
   0.0000000000000000        0.0000000000000000        0.0000000000000000     
  -1.7983330059308268E-003   1.2768449086445525E-003   0.0000000000000000     
  -3.6213432862694768E-003   2.9391684236855361E-003   0.0000000000000000     
  -5.4690308410159510E-003   4.9869705451229505E-003   0.0000000000000000     
  -7.3413956701702471E-003   7.4202512729567970E-003   0.0000000000000000     
   0.0000000000000000        0.0000000000000000        0.0000000000000000     
  -2.0694580295932781E-003   1.3549211917534129E-003   0.0000000000000000     
  -4.1640750860789883E-003   3.0939528715878063E-003   0.0000000000000000     
  -6.2838511694571298E-003   5.2170950395031791E-003   0.0000000000000000     
  -8.4287862797277052E-003   7.7243476954995324E-003   0.0000000000000000     
   0.0000000000000000        0.0000000000000000        0.0000000000000000     
  -2.3401247272666873E-003   1.4589475627467786E-003   0.0000000000000000     
  -4.7202060624546233E-003   3.2997952936229171E-003   0.0000000000000000     
  -7.1402440055638059E-003   5.5225431926284154E-003   0.0000000000000000     
  -9.6002385565942365E-003   8.1271912597632740E-003   0.0000000000000000     
   0.0000000000000000        0.0000000000000000        0.0000000000000000     
  -2.6103330989510551E-003   1.5889240216246487E-003   0.0000000000000000     
  -5.2897362153963802E-003   3.5566956897908680E-003   0.0000000000000000     
  -8.0382093493359761E-003   5.9033150044986576E-003   0.0000000000000000     
  -1.0855752500769844E-002   8.6287819657480183E-003   0.0000000000000000     
   0.0000000000000000        0.0000000000000000        0.0000000000000000     
  -2.8800831446463811E-003   1.7448505683870239E-003   0.0000000000000000     
  -5.8726655449042615E-003   3.8646540600916599E-003   0.0000000000000000     
  -8.9777472007736420E-003   6.3594104751139077E-003   0.0000000000000000     
  -1.2195328112254520E-002   9.2291198134537671E-003   0.0000000000000000     
  -7.3413956701702471E-003   7.4202512729567970E-003   0.0000000000000000     
  -9.2307836976255886E-003   1.0186601884971816E-002   0.0000000000000000     
  -1.1129540847275188E-002   1.3233613658952757E-002   0.0000000000000000     
  -1.3037667119119054E-002   1.6561286594899610E-002   0.0000000000000000     
  -1.4955162513157177E-002   2.0169620692812387E-002   0.0000000000000000     
  -8.4287862797277052E-003   7.7243476954995324E-003   0.0000000000000000     
  -1.0590594806564126E-002   1.0558262202189408E-002   0.0000000000000000     
  -1.2760991139639809E-002   1.3661389922185350E-002   0.0000000000000000     
  -1.4939975278954758E-002   1.7033730855487362E-002   0.0000000000000000     
  -1.7127547224508967E-002   2.0675285002095430E-002   0.0000000000000000     
  -9.6002385565942365E-003   8.1271912597632740E-003   0.0000000000000000     
  -1.2076682794255004E-002   1.1046333126008081E-002   0.0000000000000000     
  -1.4546069797255199E-002   1.4212562422343419E-002   0.0000000000000000     
  -1.7008399565594825E-002   1.7625879148769289E-002   0.0000000000000000     
  -1.9463672099273875E-002   2.1286283305285696E-002   0.0000000000000000     
  -1.0855752500769844E-002   8.6287819657480183E-003   0.0000000000000000     
  -1.3689047660698221E-002   1.1650814656427824E-002   0.0000000000000000     
  -1.6484776820121356E-002   1.4887131159426957E-002   0.0000000000000000     
  -1.9242939979039253E-002   1.8337731474745413E-002   0.0000000000000000     
  -2.1963537137451906E-002   2.2002615602383192E-002   0.0000000000000000     
  -1.2195328112254520E-002   9.2291198134537671E-003   0.0000000000000000     
  -1.5427689405893777E-002   1.2371706793448650E-002   0.0000000000000000     
  -1.8577112208238284E-002   1.5685096133435970E-002   0.0000000000000000     
  -2.1643596519288048E-002   1.9169287833415722E-002   0.0000000000000000     
  -2.4627142339043066E-002   2.2824281893387907E-002   0.0000000000000000     
  -1.4955162513157177E-002   2.0169620692812387E-002   0.0000000000000000     
  -1.6856658300165805E-002   2.4030018007302163E-002   0.0000000000000000     
  -1.8716785750921179E-002   2.8113880592980030E-002   0.0000000000000000     
  -2.0535544865423288E-002   3.2421208449845987E-002   0.0000000000000000     
  -2.2312935643672146E-002   3.6952001577900039E-002   0.0000000000000000     
  -1.7127547224508967E-002   2.0675285002095430E-002   0.0000000000000000     
  -1.9292396108684495E-002   2.4558439183531035E-002   0.0000000000000000     
  -2.1403211063863406E-002   2.8655580221315650E-002   0.0000000000000000     
  -2.3459992090045689E-002   3.2966708115449272E-002   0.0000000000000000     
  -2.5462739187231354E-002   3.7491822865931897E-002   0.0000000000000000     
  -1.9463672099273875E-002   2.1286283305285696E-002   0.0000000000000000     
  -2.1883517836192978E-002   2.5175049412419125E-002   0.0000000000000000     
  -2.4239567214252754E-002   2.9273451990696066E-002   0.0000000000000000     
  -2.6531820233453206E-002   3.3581491040116519E-002   0.0000000000000000     
  -2.8760276893794335E-002   3.8099166560680478E-002   0.0000000000000000     
  -2.1963537137451906E-002   2.2002615602383192E-002   0.0000000000000000     
  -2.4630023482691259E-002   2.5879848693966437E-002   0.0000000000000000     
  -2.7225854202089238E-002   2.9967495901121282E-002   0.0000000000000000     
  -2.9751029295645846E-002   3.4265557223847748E-002   0.0000000000000000     
  -3.2205548763361097E-002   3.8774032662145803E-002   0.0000000000000000     
  -2.4627142339043066E-002   2.2824281893387907E-002   0.0000000000000000     
  -2.7531913048179334E-002   2.6672837028172955E-002   0.0000000000000000     
  -3.0362072027372844E-002   3.0737711952591302E-002   0.0000000000000000     
  -3.3117619276623614E-002   3.5018906666642931E-002   0.0000000000000000     
  -3.5798554795931622E-002   3.9516421170327845E-002   0.0000000000000000     
  -2.2312935643672146E-002   3.6952001577900039E-002   0.0000000000000000     
  -2.4046270810742100E-002   4.1697682034589720E-002   0.0000000000000000     
  -2.5732863091707511E-002   4.6649671877362596E-002   0.0000000000000000     
  -2.7372712486568380E-002   5.1807971106218646E-002   0.0000000000000000     
  -2.8965818995324709E-002   5.7172579721157891E-002   0.0000000000000000     
  -2.5462739187231354E-002   3.7491822865931897E-002   0.0000000000000000     
  -2.7412425103923943E-002   4.2226808399842594E-002   0.0000000000000000     
  -2.9310022588627027E-002   4.7167548644260433E-002   0.0000000000000000     
  -3.1155531641340578E-002   5.2314043599185393E-002   0.0000000000000000     
  -3.2948952262064624E-002   5.7666293264617495E-002   0.0000000000000000     
  -2.8760276893794335E-002   3.8099166560680478E-002   0.0000000000000000     
  -3.0927569021858472E-002   4.2823692442742659E-002   0.0000000000000000     
  -3.3036328444227950E-002   4.7752282576657715E-002   0.0000000000000000     
  -3.5086555160902776E-002   5.2884936962425674E-002   0.0000000000000000     
  -3.7078249171882939E-002   5.8221655600046544E-002   0.0000000000000000     
  -3.2205548763361097E-002   3.8774032662145803E-002   0.0000000000000000     
  -3.4591702564545669E-002   4.3488334163289892E-002   0.0000000000000000     
  -3.6911780658510293E-002   4.8403873674554468E-002   0.0000000000000000     
  -3.9165783045254962E-002   5.3520651195939517E-002   0.0000000000000000     
  -4.1353709724779676E-002   5.8838666727445033E-002   0.0000000000000000     
  -3.5798554795931622E-002   3.9516421170327845E-002   0.0000000000000000     
  -3.8404825731985545E-002   4.4220733561484329E-002   0.0000000000000000     
  -4.0936379231474064E-002   4.9122321937950679E-002   0.0000000000000000     
  -4.3393215294397151E-002   5.4221186299726880E-002   0.0000000000000000     
  -4.5775333920754814E-002   5.9517326646812953E-002   0.0000000000000000     
  -2.8965818995324709E-002   5.7172579721157891E-002   0.0000000000000000     
  -3.0511091604163210E-002   6.2731160520156093E-002   0.0000000000000000     
  -3.2007439299270607E-002   6.8471376301189060E-002   0.0000000000000000     
  -3.3454862080646901E-002   7.4393227064256773E-002   0.0000000000000000     
  -3.4853359948292084E-002   8.0496712809359230E-002   0.0000000000000000     
  -3.2948952262064624E-002   5.7666293264617495E-002   0.0000000000000000     
  -3.4688420726197489E-002   6.3211674762838066E-002   0.0000000000000000     
  -3.6372073309137540E-002   6.8937565216128413E-002   0.0000000000000000     
  -3.7999910010884763E-002   7.4843964624488585E-002   0.0000000000000000     
  -3.9571930831439166E-002   8.0930872987918553E-002   0.0000000000000000     
  -3.7078249171882939E-002   5.8221655600046544E-002   0.0000000000000000     
  -3.9009668824950335E-002   6.3750432410693753E-002   0.0000000000000000     
  -4.0879072467886829E-002   6.9459261315540796E-002   0.0000000000000000     
  -4.2686460100692415E-002   7.5348142314587668E-002   0.0000000000000000     
  -4.4431831723367086E-002   8.1417075407834355E-002   0.0000000000000000     
  -4.1353709724779676E-002   5.8838666727445033E-002   0.0000000000000000     
  -4.3474835900421734E-002   6.4347433463723194E-002   0.0000000000000000     
  -4.5528436775518460E-002   7.0036464599426182E-002   0.0000000000000000     
  -4.7514512350069829E-002   7.5905760134553982E-002   0.0000000000000000     
  -4.9433062624075867E-002   8.1955320069106621E-002   0.0000000000000000     
  -4.5775333920754814E-002   5.9517326646812953E-002   0.0000000000000000     
  -4.8083921952611693E-002   6.5002677921926350E-002   0.0000000000000000     
  -5.0320166232032441E-002   7.0669175067784556E-002   0.0000000000000000     
  -5.2484066759017046E-002   7.6516818084387567E-002   0.0000000000000000     
  -5.4575623533565494E-002   8.2545606971735380E-002   0.0000000000000000     
  -3.4853359948292084E-002   8.0496712809359230E-002   0.0000000000000000     
  -3.6200952209856259E-002   8.6769639425524098E-002   0.0000000000000000     
  -3.7495658172989534E-002   9.3199812801779067E-002   0.0000000000000000     
  -3.8737477837691894E-002   9.9787232938124068E-002   0.0000000000000000     
  -3.9926411203963341E-002  0.10653189983455918        0.0000000000000000     
  -3.9571930831439166E-002   8.0930872987918553E-002   0.0000000000000000     
  -4.1086710280540430E-002   8.7186717582748471E-002   0.0000000000000000     
  -4.2542822867928244E-002   9.3599925685308588E-002   0.0000000000000000     
  -4.3940268593602609E-002  0.10017049729559883        0.0000000000000000     
  -4.5279047457563545E-002  0.10689843241361928        0.0000000000000000     
  -4.4431831723367086E-002   8.1417075407834355E-002   0.0000000000000000     
  -4.6113872423248423E-002   8.7654701960907744E-002   0.0000000000000000     
  -4.7731267287673927E-002   9.4049663339434722E-002   0.0000000000000000     
  -4.9284016316643614E-002  0.10060195954341532        0.0000000000000000     
  -5.0772119510157483E-002  0.10731159057284952        0.0000000000000000     
  -4.9433062624075867E-002   8.1955320069106621E-002   0.0000000000000000     
  -5.1282438637980224E-002   8.8173592560001846E-002   0.0000000000000000     
  -5.3060991432226562E-002   9.4549025764157482E-002   0.0000000000000000     
  -5.4768721006814881E-002  0.10108161968157348        0.0000000000000000     
  -5.6405627361745182E-002  0.10777137431224987        0.0000000000000000     
  -5.4575623533565494E-002   8.2545606971735380E-002   0.0000000000000000     
  -5.6592408924735854E-002   8.8743389380030874E-002   0.0000000000000000     
  -5.8531995301586169E-002   9.5098012959476855E-002   0.0000000000000000     
  -6.0394382664116411E-002  0.10160947771007336        0.0000000000000000     
  -6.2179571012326615E-002  0.10827778363182036        0.0000000000000000     
  -3.9926411203963341E-002  0.10653189983455918        0.0000000000000000     
  -4.1065996602280302E-002  0.11342356976268891        0.0000000000000000     
  -4.2159772363119165E-002  0.12045199899411781        0.0000000000000000     
  -4.3207738486479956E-002  0.12761718752884588        0.0000000000000000     
  -4.4209894972362648E-002  0.13491913536687311        0.0000000000000000     
  -4.5279047457563545E-002  0.10689843241361928        0.0000000000000000     
  -4.6562932345111364E-002  0.11377281623343946        0.0000000000000000     
  -4.7795696141546391E-002  0.12078273394912893        0.0000000000000000     
  -4.8977338846868661E-002  0.12792818556068769        0.0000000000000000     
  -5.0107860461078145E-002  0.13520917106811575        0.0000000000000000     
  -5.0772119510157483E-002  0.10731159057284952        0.0000000000000000     
  -5.2199835577580109E-002  0.11416725529515298        0.0000000000000000     
  -5.3571423228276051E-002  0.12115765257774135        0.0000000000000000     
  -5.4886882462245302E-002  0.12828278242061467        0.0000000000000000     
  -5.6146213279487857E-002  0.13554264482377290        0.0000000000000000     
  -5.6405627361745182E-002  0.10777137431224987        0.0000000000000000     
  -5.7976706299686563E-002  0.11460688694782947        0.0000000000000000     
  -5.9486953623308136E-002  0.12157675487995512        0.0000000000000000     
  -6.0936369332609895E-002  0.12868097810862678        0.0000000000000000     
  -6.2324953427591819E-002  0.13591955663384453        0.0000000000000000     
  -6.2179571012326615E-002  0.10827778363182036        0.0000000000000000     
  -6.3893544511430700E-002  0.11509171119146895        0.0000000000000000     
  -6.5542287326642634E-002  0.12204004085577019        0.0000000000000000     
  -6.7125799457962404E-002  0.12912277262472410        0.0000000000000000     
  -6.8644080905389995E-002  0.13633990649833064        0.0000000000000000     
  -4.4209894972362648E-002  0.13491913536687311        0.0000000000000000     
  -4.5158980192436755E-002  0.14234341034959125        0.0000000000000000     
  -4.6047732518371749E-002  0.14987558031839213        0.0000000000000000     
  -4.6876151950167644E-002  0.15751564527327569        0.0000000000000000     
  -4.7644238487824439E-002  0.16526360521424194        0.0000000000000000     
  -5.0107860461078145E-002  0.13520917106811575        0.0000000000000000     
  -5.1180544857391409E-002  0.14261037804773841        0.0000000000000000     
  -5.2188675909025012E-002  0.15011649407588096        0.0000000000000000     
  -5.3132253615978953E-002  0.15772751915254335        0.0000000000000000     
  -5.4011277978253211E-002  0.16544345327772564        0.0000000000000000     
  -5.6146213279487857E-002  0.13554264482377290        0.0000000000000000     
  -5.7342431579539048E-002  0.14292187755917943        0.0000000000000000     
  -5.8468553261934161E-002  0.15040511839879755        0.0000000000000000     
  -5.9524578326673190E-002  0.15799236734262734        0.0000000000000000     
  -6.0510506773756134E-002  0.16568362439066872        0.0000000000000000     
  -6.2324953427591819E-002  0.13591955663384453        0.0000000000000000     
  -6.3644640358879678E-002  0.14327790888391428        0.0000000000000000     
  -6.4887364577099191E-002  0.15074145328714195        0.0000000000000000     
  -6.6053126082250349E-002  0.15831018984352765        0.0000000000000000     
  -6.7141924874333167E-002  0.16598411855307127        0.0000000000000000     
  -6.8644080905389995E-002  0.13633990649833064        0.0000000000000000     
  -7.0087171195413273E-002  0.14367847202194295        0.0000000000000000     
  -7.1445109854520100E-002  0.15112549874091416        0.0000000000000000     
  -7.2717896882710464E-002  0.15868098665524422        0.0000000000000000     
  -7.3905532279984379E-002  0.16634493576493320        0.0000000000000000     
   0.0000000000000000        0.0000000000000000        0.0000000000000000     
  -2.8800831446463811E-003   1.7448505683870239E-003   0.0000000000000000     
  -5.8726655449042615E-003   3.8646540600916599E-003   0.0000000000000000     
  -8.9777472007736420E-003   6.3594104751139077E-003   0.0000000000000000     
  -1.2195328112254520E-002   9.2291198134537671E-003   0.0000000000000000     
   0.0000000000000000        0.0000000000000000        0.0000000000000000     
  -3.2832165318851486E-003   1.9993754576628419E-003   0.0000000000000000     
  -6.6769705251431277E-003   4.3309694698399973E-003   0.0000000000000000     
  -1.0181261979773934E-002   6.9947820365314634E-003   0.0000000000000000     
  -1.3796090895777576E-002   9.9908131577372446E-003   0.0000000000000000     
   0.0000000000000000        0.0000000000000000        0.0000000000000000     
  -3.9535749281998439E-003   2.4251469440810412E-003   0.0000000000000000     
  -7.9106276302778420E-003   5.0629409843505838E-003   0.0000000000000000     
  -1.1871158106233995E-002   7.9133821208086253E-003   0.0000000000000000     
  -1.5835166356068305E-002   1.0976470353455170E-002   0.0000000000000000     
   0.0000000000000000        0.0000000000000000        0.0000000000000000     
  -4.8911583335904648E-003   3.0221650276416223E-003   0.0000000000000000     
  -9.5736368603084061E-003   6.0605686036234192E-003   0.0000000000000000     
  -1.4047435580153823E-002   9.1152107279453953E-003   0.0000000000000000     
  -1.8312554493126715E-002   1.2186091400607545E-002   0.0000000000000000     
   0.0000000000000000        0.0000000000000000        0.0000000000000000     
  -6.0959667480570143E-003   3.7904297083445832E-003   0.0000000000000000     
  -1.1665998215234818E-002   7.3238523276585058E-003   0.0000000000000000     
  -1.6710094401533412E-002   1.0600267857941770E-002   0.0000000000000000     
  -2.1228255306952798E-002   1.3619676299194371E-002   0.0000000000000000     
  -1.2195328112254520E-002   9.2291198134537671E-003   0.0000000000000000     
  -1.5427689405893777E-002   1.2371706793448650E-002   0.0000000000000000     
  -1.8577112208238284E-002   1.5685096133435970E-002   0.0000000000000000     
  -2.1643596519288048E-002   1.9169287833415722E-002   0.0000000000000000     
  -2.4627142339043066E-002   2.2824281893387907E-002   0.0000000000000000     
  -1.3796090895777576E-002   9.9908131577372446E-003   0.0000000000000000     
  -1.7404379543184793E-002   1.3221090223156363E-002   0.0000000000000000     
  -2.0889050192026339E-002   1.6587640622487854E-002   0.0000000000000000     
  -2.4250102842302224E-002   2.0090464355731717E-002   0.0000000000000000     
  -2.7487537494012428E-002   2.3729561422887943E-002   0.0000000000000000     
  -1.5835166356068305E-002   1.0976470353455170E-002   0.0000000000000000     
  -1.9730889585914395E-002   1.4211045631636778E-002   0.0000000000000000     
  -2.3486565001905896E-002   1.7575947904700021E-002   0.0000000000000000     
  -2.7102192604042796E-002   2.1071177172644884E-002   0.0000000000000000     
  -3.0577772392325106E-002   2.4696733435471390E-002   0.0000000000000000     
  -1.8312554493126715E-002   1.2186091400607545E-002   0.0000000000000000     
  -2.2407219534082583E-002   1.5341573018889892E-002   0.0000000000000000     
  -2.6369656637876927E-002   1.8650017980072459E-002   0.0000000000000000     
  -3.0199865804509764E-002   2.2111426284155241E-002   0.0000000000000000     
  -3.3897847033981084E-002   2.5725797931138245E-002   0.0000000000000000     
  -2.1228255306952798E-002   1.3619676299194371E-002   0.0000000000000000     
  -2.5433369387689354E-002   1.6612672384915709E-002   0.0000000000000000     
  -2.9538325099939467E-002   1.9809850848605180E-002   0.0000000000000000     
  -3.3543122443703138E-002   2.3211211690262776E-002   0.0000000000000000     
  -3.7447761418980353E-002   2.6816754909888510E-002   0.0000000000000000     
  -2.4627142339043066E-002   2.2824281893387907E-002   0.0000000000000000     
  -2.7531913048179334E-002   2.6672837028172955E-002   0.0000000000000000     
  -3.0362072027372844E-002   3.0737711952591302E-002   0.0000000000000000     
  -3.3117619276623614E-002   3.5018906666642931E-002   0.0000000000000000     
  -3.5798554795931622E-002   3.9516421170327845E-002   0.0000000000000000     
  -2.7487537494012428E-002   2.3729561422887943E-002   0.0000000000000000     
  -3.0624383309363727E-002   2.7547462814231378E-002   0.0000000000000000     
  -3.3683669450562857E-002   3.1586699520036843E-002   0.0000000000000000     
  -3.6665395917609825E-002   3.5847271540304343E-002   0.0000000000000000     
  -3.9569562710504616E-002   4.0329178875033886E-002   0.0000000000000000     
  -3.0577772392325106E-002   2.4696733435471390E-002   0.0000000000000000     
  -3.3942631042950970E-002   2.8497174451334366E-002   0.0000000000000000     
  -3.7226095232118527E-002   3.2517057978388657E-002   0.0000000000000000     
  -4.0428164959827796E-002   3.6756384016634266E-002   0.0000000000000000     
  -4.3548840226078751E-002   4.1215152566071181E-002   0.0000000000000000     
  -3.3897847033981084E-002   2.5725797931138245E-002   0.0000000000000000     
  -3.7486656248941055E-002   2.9521971939481920E-002   0.0000000000000000     
  -4.0989349372039866E-002   3.3528787327646727E-002   0.0000000000000000     
  -4.4405926403277521E-002   3.7746244095632681E-002   0.0000000000000000     
  -4.7736387342654028E-002   4.2174342243439744E-002   0.0000000000000000     
  -3.7447761418980353E-002   2.6816754909888510E-002   0.0000000000000000     
  -4.1256458927333983E-002   3.0621855278674049E-002   0.0000000000000000     
  -4.4973431870326874E-002   3.4621887567811073E-002   0.0000000000000000     
  -4.8598680247959027E-002   3.8816851777299585E-002   0.0000000000000000     
  -5.2132204060230447E-002   4.3206747907139575E-002   0.0000000000000000     
  -3.5798554795931622E-002   3.9516421170327845E-002   0.0000000000000000     
  -3.8404825731985545E-002   4.4220733561484329E-002   0.0000000000000000     
  -4.0936379231474064E-002   4.9122321937950679E-002   0.0000000000000000     
  -4.3393215294397151E-002   5.4221186299726880E-002   0.0000000000000000     
  -4.5775333920754814E-002   5.9517326646812953E-002   0.0000000000000000     
  -3.9569562710504616E-002   4.0329178875033886E-002   0.0000000000000000     
  -4.2393474543925655E-002   4.5018894258235534E-002   0.0000000000000000     
  -4.5134436132551310E-002   4.9902890423919363E-002   0.0000000000000000     
  -4.7792447476381617E-002   5.4981167372085388E-002   0.0000000000000000     
  -5.0367508575416532E-002   6.0253725102733587E-002   0.0000000000000000     
  -4.3548840226078751E-002   4.1215152566071181E-002   0.0000000000000000     
  -4.6584185020113501E-002   4.5880819874453055E-002   0.0000000000000000     
  -4.9530263331174128E-002   5.0740842189533515E-002   0.0000000000000000     
  -5.2387075159260624E-002   5.5795219511312562E-002   0.0000000000000000     
  -5.5154620504373017E-002   6.1043951839790209E-002   0.0000000000000000     
  -4.7736387342654028E-002   4.2174342243439744E-002   0.0000000000000000     
  -5.0976957160549091E-002   4.6806510410136913E-002   0.0000000000000000     
  -5.4123860827342503E-002   5.1636177234793149E-002   0.0000000000000000     
  -5.7177098343034222E-002   5.6663342717408444E-002   0.0000000000000000     
  -6.0136669707624241E-002   6.1888006857982805E-002   0.0000000000000000     
  -5.2132204060230447E-002   4.3206747907139575E-002   0.0000000000000000     
  -5.5571790965232466E-002   4.7795965865287109E-002   0.0000000000000000     
  -5.8915228621056442E-002   5.2588895559698257E-002   0.0000000000000000     
  -6.2162517027702362E-002   5.7585536990373012E-002   0.0000000000000000     
  -6.5313656185170238E-002   6.2785890157311369E-002   0.0000000000000000     
  -4.5775333920754814E-002   5.9517326646812953E-002   0.0000000000000000     
  -4.8083921952611693E-002   6.5002677921926350E-002   0.0000000000000000     
  -5.0320166232032441E-002   7.0669175067784556E-002   0.0000000000000000     
  -5.2484066759017046E-002   7.6516818084387567E-002   0.0000000000000000     
  -5.4575623533565494E-002   8.2545606971735380E-002   0.0000000000000000     
  -5.0367508575416532E-002   6.0253725102733587E-002   0.0000000000000000     
  -5.2862621432121774E-002   6.5714344893345600E-002   0.0000000000000000     
  -5.5280788048963032E-002   7.1356808021403012E-002   0.0000000000000000     
  -5.7622008425940265E-002   7.7181114486905816E-002   0.0000000000000000     
  -5.9886282563053513E-002   8.3187264289854054E-002   0.0000000000000000     
  -5.5154620504373017E-002   6.1043951839790209E-002   0.0000000000000000     
  -5.7836628789553535E-002   6.6480613486023271E-002   0.0000000000000000     
  -6.0436829437844439E-002   7.2098778761068599E-002   0.0000000000000000     
  -6.2955222449245743E-002   7.7898447664926193E-002   0.0000000000000000     
  -6.5391807823757420E-002   8.3879620197596066E-002   0.0000000000000000     
  -6.0136669707624241E-002   6.1888006857982805E-002   0.0000000000000000     
  -6.3005944024906960E-002   6.7301483699959391E-002   0.0000000000000000     
  -6.5788290398676688E-002   7.2895087286781318E-002   0.0000000000000000     
  -6.8483708828933454E-002   7.8668817618448683E-002   0.0000000000000000     
  -7.1092199315677257E-002   8.4622674694961403E-002   0.0000000000000000     
  -6.5313656185170238E-002   6.2785890157311369E-002   0.0000000000000000     
  -6.8370567138182056E-002   6.8176955535153919E-002   0.0000000000000000     
  -7.1335170931459788E-002   7.3745733598541224E-002   0.0000000000000000     
  -7.4207467565003432E-002   7.9492224347473273E-002   0.0000000000000000     
  -7.6987457038812990E-002   8.5416427781950077E-002   0.0000000000000000     
  -5.4575623533565494E-002   8.2545606971735380E-002   0.0000000000000000     
  -5.6592408924735854E-002   8.8743389380030874E-002   0.0000000000000000     
  -5.8531995301586169E-002   9.5098012959476855E-002   0.0000000000000000     
  -6.0394382664116411E-002  0.10160947771007336        0.0000000000000000     
  -6.2179571012326615E-002  0.10827778363182036        0.0000000000000000     
  -5.9886282563053513E-002   8.3187264289854054E-002   0.0000000000000000     
  -6.2070298460062616E-002   8.9362664513105372E-002   0.0000000000000000     
  -6.4170744116727463E-002   9.5694722239517499E-002   0.0000000000000000     
  -6.6187619533048025E-002  0.10218343746909041        0.0000000000000000     
  -6.8120924709024297E-002  0.10882881020182408        0.0000000000000000     
  -6.5391807823757420E-002   8.3879620197596066E-002   0.0000000000000000     
  -6.7742622420507798E-002   9.0029990051336078E-002   0.0000000000000000     
  -7.0003703098625136E-002   9.6337250918404088E-002   0.0000000000000000     
  -7.2175049858109436E-002  0.10280140279880012        0.0000000000000000     
  -7.4256662698960724E-002  0.10942244569252417        0.0000000000000000     
  -7.1092199315677257E-002   8.4622674694961403E-002   0.0000000000000000     
  -7.3609380806071406E-002   9.0745365994722910E-002   0.0000000000000000     
  -7.6030872247279224E-002   9.7025598996136608E-002   0.0000000000000000     
  -7.8356673639300725E-002  0.10346337369920250        0.0000000000000000     
  -8.0586784982135895E-002  0.11005869010392057        0.0000000000000000     
  -7.6987457038812990E-002   8.5416427781950077E-002   0.0000000000000000     
  -7.9670573616753435E-002   9.1508792343265907E-002   0.0000000000000000     
  -8.2252251562689713E-002   9.7759766472715073E-002   0.0000000000000000     
  -8.4732490876621852E-002  0.10416935017029753        0.0000000000000000     
  -8.7111291558549825E-002  0.11073754343601332        0.0000000000000000     
  -6.2179571012326615E-002  0.10827778363182036        0.0000000000000000     
  -6.3893544511430700E-002  0.11509171119146895        0.0000000000000000     
  -6.5542287326642634E-002  0.12204004085577019        0.0000000000000000     
  -6.7125799457962404E-002  0.12912277262472410        0.0000000000000000     
  -6.8644080905389995E-002  0.13633990649833064        0.0000000000000000     
  -6.8120924709024297E-002  0.10882881020182408        0.0000000000000000     
  -6.9977559658981531E-002  0.11561980960099873        0.0000000000000000     
  -7.1764424397244939E-002  0.12254540482989448        0.0000000000000000     
  -7.3481518923814507E-002  0.12960559588851134        0.0000000000000000     
  -7.5128843238690221E-002  0.13680038277684931        0.0000000000000000     
  -7.4256662698960724E-002  0.10942244569252417        0.0000000000000000     
  -7.6255961188508026E-002  0.11618926375134608        0.0000000000000000     
  -7.8180364894080409E-002  0.12309074112703583        0.0000000000000000     
  -8.0029873815677832E-002  0.13012687781959334        0.0000000000000000     
  -8.1804487953300351E-002  0.13729767382901861        0.0000000000000000     
  -8.0586784982135895E-002  0.11005869010392057        0.0000000000000000     
  -8.2728749100010199E-002  0.11680007364251106        0.0000000000000000     
  -8.4790108817149018E-002  0.12367604974719422        0.0000000000000000     
  -8.6770864133552408E-002  0.13068661841797011        0.0000000000000000     
  -8.8671015049220342E-002  0.13783177965483856        0.0000000000000000     
  -8.7111291558549825E-002  0.11073754343601332        0.0000000000000000     
  -8.9395923393488022E-002  0.11745223927449364        0.0000000000000000     
  -9.1593656166450807E-002  0.12430133069036972        0.0000000000000000     
  -9.3704489877438235E-002  0.13128481768364153        0.0000000000000000     
  -9.5728424526450237E-002  0.13840270025430912        0.0000000000000000     
  -6.8644080905389995E-002  0.13633990649833064        0.0000000000000000     
  -7.0087171195413273E-002  0.14367847202194295        0.0000000000000000     
  -7.1445109854520100E-002  0.15112549874091416        0.0000000000000000     
  -7.2717896882710464E-002  0.15868098665524422        0.0000000000000000     
  -7.3905532279984379E-002  0.16634493576493320        0.0000000000000000     
  -7.5128843238690221E-002  0.13680038277684931        0.0000000000000000     
  -7.6694903699214889E-002  0.14411801794731052        0.0000000000000000     
  -7.8168206662731249E-002  0.15154675385229716        0.0000000000000000     
  -7.9548752129239300E-002  0.15908659049180915        0.0000000000000000     
  -8.0836540098739085E-002  0.16673752786584656        0.0000000000000000     
  -8.1804487953300351E-002  0.13729767382901861        0.0000000000000000     
  -8.3492717480359524E-002  0.14459099763406202        0.0000000000000000     
  -8.5083072570266954E-002  0.15199471771347395        0.0000000000000000     
  -8.6575553223022669E-002  0.15950883406725436        0.0000000000000000     
  -8.7970159438626641E-002  0.16713334669540331        0.0000000000000000     
  -8.8671015049220342E-002  0.13783177965483856        0.0000000000000000     
  -9.0480612538847163E-002  0.14509741108219748        0.0000000000000000     
  -9.2189707577127231E-002  0.15246939032444459        0.0000000000000000     
  -9.3798300164060558E-002  0.15994771738157995        0.0000000000000000     
  -9.5306390299647076E-002  0.16753239225360350        0.0000000000000000     
  -9.5728424526450237E-002  0.13840270025430912        0.0000000000000000     
  -9.7658588874677849E-002  0.14563725829171684        0.0000000000000000     
  -9.9488111683312078E-002  0.15297077168520906        0.0000000000000000     
 -0.10121699295235292       0.16040324043478582        0.0000000000000000     
 -0.10284523268180037       0.16793466454044706        0.0000000000000000     
 </DataArray>
 <DataArray  type="Float64" Name="stress" NumberOfComponents="3" format="ascii">
   13416728431.579205        4025018529.4737616        2893983986.5535107     
   11766542162.328392        1890481413.0700037        1715799208.5200791     
   10313631477.300016        413529577.40771198        810720389.91183805     
   9057996376.4940834       -405836977.51311779        178747530.72878799     
   7999636859.9105883       -567618251.69247770       -180119369.02907285     
   10539952032.756445        3161985609.8269334        2225754014.2561383     
   9667580656.8314781        1589595384.6768255        1446697209.0537767     
   8943847416.2083836        512665610.53295374        863127387.46449542     
   8368752310.8871565       -68803712.604681969        475044549.48829424     
   7942295340.8678045       -154812584.73608112        282448695.12517416     
   8337902655.8801928        2501370796.7640576        1712358357.6454678     
   8021577670.9607563        1424596912.1715040        1275685834.8668458     
   7805253372.4226265        681158648.84995985        956881319.88919449     
   7688929760.2657976        271056006.79942083        755944812.71251225     
   7672606834.4902706        194288986.01989222        672876313.33680165     
   6810580300.9504433        2043174090.2851331        1353797016.7214990     
   6828533204.7162285        1395485995.5540409        1202765085.9592867     
   6897849345.9427471        919008692.35872769        1091982187.1859348     
   7018528724.6299982        613742180.69919395        1021448320.4014430     
   7190571340.7779827        479686460.57543778        991163485.60581195     
   5957984967.9672022        1787395490.3901606        1150069991.4842319     
   6088447258.0978899        1502262634.8244348        1227934962.3310993     
   6221635336.7687445        1226215741.0592599        1268429989.3547168     
   6357549203.9797630        959254809.09463489        1271555072.5550845     
   6496188859.7309465        701379838.93055964        1237310211.9322028     
   7999636859.9105883       -567618251.69247770       -180119369.02907285     
   7917605645.3666286       -200188238.86032915       -78210365.466199592     
   7794109481.5890093        29025276.526287556       -8968251.0293553788     
   7629148368.5777311        120022294.46737242        27606974.281459939     
   7422722306.3327942        72802814.962925911        31515310.466242366     
   7942295340.8678045       -154812584.73608112        282448695.12517416     
   7739743753.5539684        16339868.271537781        281176063.00048757     
   7513821971.8134470        109591673.19020033        265157162.44605047     
   7264529995.6462383        124942830.01990366        234391993.46186209     
   6991867825.0523405        62393338.760653019        188880556.04791906     
   7672606834.4902706        194288986.01989222        672876313.33680165     
   7400736647.8244953        184524411.22836256        589532592.79935837     
   7123591021.5390072        157175037.70445108        509363224.52844030     
   6841169955.6338024        112240865.44815755        432368208.52404791     
   6553473450.1088848        49721894.459480762        358547544.78618097     
   7190571340.7779827        479686460.57543778        991163485.60581195     
   6900584328.1782074        304365390.01014161        846859223.93041110     
   6623416630.7656879        171775370.06903648        723649935.21781361     
   6359068248.5404272        81916400.752126217        621535619.46802020     
   6107539181.5024223        34788482.059406281        540516276.68102860     
   6496188859.7309465        701379838.93055964        1237310211.9322028     
   6239286794.6151037        375862804.61687636        1053155956.3936460     
   6013298799.4934921        153392670.28396058        908017294.51416981     
   5818224874.3661089        33969435.931810379        801894226.29377639     
   5654065019.2329578        17593101.560429573        734786751.73246276     
   7422722306.3327942        72802814.962925911        31515310.466242366     
   7219310577.4024773       -18023957.444272995        14586379.099986425     
   7028015494.6967201       -68461909.102949619        2179001.1321356408     
   6848837058.2155209       -78511040.013092041       -5706823.4373037396     
   6681775267.9588766       -48171350.174721241       -9071094.6083286759     
   6991867825.0523405        62393338.760653019        188880556.04791906     
   6808760561.8407755        3005584.0498027802        180556390.44912121     
   6633393997.0121861       -30579842.717800140        176074333.30563825     
   6465768130.5665627       -38362941.542167664        175434384.61747488     
   6305882962.5039196       -20343712.423286915        178636544.38462836     
   6553473450.1088848        49721894.459480762        358547544.78618097     
   6388729381.3500853        21190776.065179586        353722872.47299570     
   6227350063.1326742        3875492.8088433743        352060863.67203325     
   6069335495.4566565       -2223955.3095211983        353561518.38329357     
   5914685678.3220234        2892431.7100706100        358224836.60677749     
   6107539181.5024223        34788482.059406281        540516276.68102860     
   5959217035.9304085        36531618.601861238        534085825.17160952     
   5809883693.0581961        34904097.477002859        530138592.23131901     
   5659539152.8857899        29905918.684830189        528674577.86015445     
   5508183415.4131899        21537082.225344896        529693782.05812114     
   5654065019.2329578        17593101.560429573        734786751.73246276     
   5520223525.5817404        49028111.659846067        721645248.54496145     
   5380994886.7887468        62505971.286671877        710307518.98349571     
   5236379102.8539743        58026680.440902233        700773563.04806018     
   5086376173.7774220        35590239.122539759        693043380.73866093     
   6681775267.9588766       -48171350.174721241       -9071094.6083286759     
   6509105006.8160295       -8657546.9968774319       -3270833.7820573747     
   6331476333.2543488        14328214.784848213        3612004.2958782427     
   6148889247.2738295        20785935.170441389        11577419.625459922     
   5961343748.8744640        10715614.159893274        20625412.206705276     
   6305882962.5039196       -20343712.423286915        178636544.38462836     
   6132386483.3028183        829918.87174963951        175171835.77975973     
   5955921478.5875425        12108465.119528294        174221344.92829654     
   5776487948.3580971        13491926.320082664        175785071.83025670     
   5594085892.6144800        4980302.4733977318        179863016.48561904     
   5914685678.3220234        2892431.7100706100        358224836.60677749     
   5744453382.4962463        6953011.5523483753        347816693.29287857     
   5573242448.0609655        7751462.6962840557        341354408.23414701     
   5401052875.0161819        5287785.1418752670        338837981.43057889     
   5227884663.3618965       -438021.11087775230        340267412.88217789     
   5508183415.4131899        21537082.225344896        529693782.05812114     
   5345305704.3963165        9711731.0449466705        514663738.75730968     
   5183439241.6746101        1257207.5151033401        505011194.21341628     
   5022584027.2480688       -3826488.3641974926        500736148.42644227     
   4862740061.1166925       -5539356.5929460526        501838601.39638454     
   5086376173.7774220        35590239.122539759        693043380.73866093     
   4934943449.0030403        9106077.3495440483        675712972.17304742     
   4786511859.4284868       -7374300.4240083694        665191702.86610293     
   4641081405.0537663       -13850894.198124170        661479572.81783330     
   4498652085.8788815       -10323703.972791433        664576582.02823400     
   5961343748.8744640        10715614.159893274        20625412.206705276     
   5779772733.2877007       -2014385.3305504322        13097569.560786517     
   5600224730.1261234       -8001010.0703816414        9777158.4612258952     
   5422699739.3897457       -7244260.0595376492        10664178.908028215     
   5247197761.0785580        255864.70192527771        15758630.901197001     
   5594085892.6144800        4980302.4733977318        179863016.48561904     
   5424835298.0590944       -2144073.1508958340        174517193.64804173     
   5256866510.2481594       -4995759.6270051003        173147580.70374033     
   5090179529.1816807       -3574756.9549386501        175754177.65271771     
   4924774354.8596497        2118934.8653090000        182336984.49496847     
   5227884663.3618965       -438021.11087775230        340267412.88217789     
   5070293856.5433626       -2154962.8573555946        336238869.89207953     
   4913243650.7885447       -2069901.0581243038        335955315.14216948     
   4756734046.0974464       -182835.71316337585        339416748.63246018     
   4600765042.4700565        3506233.1774938107        346623170.36294293     
   4862740061.1166925       -5539356.5929460526        501838601.39638454     
   4716148408.7405014       -2047054.4499559402        498262598.29289502     
   4569356151.7472849        776565.63626670837        498200361.77652079     
   4422363290.1370392        2931503.6657464504        501651891.84725726     
   4275169823.9097772        4417759.6384692192        508617188.50510931     
   4498652085.8788815       -10323703.972791433        664576582.02823400     
   4362398954.6505089       -1820347.9287023544        660588378.85049796     
   4225204013.1243696        3543640.4561576843        659882720.60678959     
   4087067261.3004646        5768261.1818084717        662459607.29710937     
   3947988699.1787963        4853514.2482378483        668319038.92146611     
   5247197761.0785580        255864.70192527771        15758630.901197001     
   5055161026.7839413        3962190.1714191437        11357433.002729272     
   4861870485.0112095        3489157.3805053234        10718651.389149189     
   4667326135.7603474       -1163233.6708254814        13842286.060454832     
   4471527979.0313663       -9994982.9825637341        20728337.016649403     
   4924774354.8596497        2118934.8653090000        182336984.49496847     
   4742123098.8896933        3330047.8967440128        176302767.07138908     
   4558645802.5745487        1787693.1109063625        174301550.32913184     
   4374342465.9142437       -2508129.4921436310        176333334.26819292     
   4189213088.9087491       -9557419.9124772549        182398118.88857618     
   4600765042.4700565        3506233.1774938107        346623170.36294293     
   4428272363.1002722        2454063.2535164356        339454995.06934822     
   4255381410.5182605        74315.955440282822        336590404.85351402     
   4082092184.7240195       -3633008.7167251110        338029399.71543288     
   3908404685.7175527       -8667910.7629947662        343771979.65511322     
   4275169823.9097772        4417759.6384692192        508617188.50510931     
   4113608819.4156976        1334236.2417430878        500814116.99661005     
   3952077308.8423395       -1650974.0859229565        497585214.96230513     
   3790575292.1897030       -4537871.3445138931        498930482.40218890     
   3629102769.4577823       -7326455.5340626240        504849919.31626511     
   3947988699.1787963        4853514.2482378483        668319038.92146611     
   3798132467.8359528       -29433.138589382172        660380132.85316575     
   3648733497.5467839       -3388177.0131740570        657285980.65549314     
   3499791788.3112736       -5222717.3755557537        659036582.32844877     
   3351307340.1294336       -5533054.2257142067        665631937.87203205     
   4471527979.0313663       -9994982.9825637341        20728337.016649403     
   4301587374.0703001       -10512489.308683872        11710705.493597548     
   4133267814.4699230       -5626511.0991501808        8345961.1687025223     
   3966569300.2302446        4662951.6460249424        10634104.041986102     
   3801491831.3512630        20355898.926869154        18575134.113408573     
   4189213088.9087491       -9557419.9124772549        182398118.88857618     
   4033941081.9076977       -7213705.2158567905        175161577.93543386     
   3879782452.0313535       -1158733.4368600845        172895404.90196756     
   3726737199.2797155        8607495.4244923592        175599599.78819263     
   3574805323.6527963        22084981.368220091        183274162.59408343     
   3908404685.7175527       -8667910.7629947662        343771979.65511322     
   3765851221.5951376       -4047991.5680282116        337724249.66323489     
   3623903466.3614454        2590957.2560212612        335964368.31255305     
   3482561420.0164785        11248935.709140301        338492335.60306364     
   3341825082.5602288        21925943.791333914        345308151.53476781     
   3629102769.4577823       -7326455.5340626240        504849919.31626511     
   3497317793.1326246       -1015348.3651800156        499398720.67699277     
   3365630857.4602065        5622560.9795072079        497552851.40043288     
   3234041962.4405174        12587272.499967933        499312311.48659045     
   3102551108.0735765        19878786.196225524        504677100.93545586     
   3351307340.1294336       -5533054.2257142067        665631937.87203205     
   3228340796.5201597        1884224.3926826715        660184990.97671306     
   3104964625.3276353        7936077.7336013317        657660854.16563272     
   2981178826.5518541        12622505.796981931        658059527.43878019     
   2856983400.1928229        15943508.582883477        661381010.79615092     
   3801491831.3512630        20355898.926869154        18575134.113408573     
   3610510575.9693356        20176254.736059666        19403158.255068768     
   3412566656.2020168       -3212270.7393667698        19300619.973180357     
   3207660072.0493083       -49809677.499429345        18267519.267758723     
   2995790823.5112286       -119615965.54407620        16303856.138785925     
   3574805323.6527963        22084981.368220091        183274162.59408343     
   3382667252.1161370        18420803.197525978        176122279.29472956     
   3186066481.2515798       -119039.39947474003        169815223.06448662     
   2985003011.0591331       -33534546.422812462        164352993.90334368     
   2779476841.5387783       -81825717.872463584        159735591.81132063     
   3341825082.5602288        21925943.791333914        345308151.53476781     
   3153602736.2764325        16298994.063037634        333092986.69479465     
   2963417655.7222323        4129596.7667372227        323498038.41658425     
   2771269840.8976059       -14582248.097624183        316523306.70015389     
   2577159291.8026090       -39836540.529953241        312168791.54548115     
   3102551108.0735765        19878786.196225524        504677100.93545586     
   2923317028.4502268        13810827.332613707        490315280.45527273     
   2744620179.6139593        9533637.7592750788        480349066.02951193     
   2566460561.5647726        7047217.4761971235        474778457.65817177     
   2388838174.3026657        6351566.4834046364        473603455.34125853     
   2856983400.1928229        15943508.582883477        661381010.79615092     
   2691810128.6375141        10956303.006227851        647789160.57616079     
   2529674052.9267740        16093083.578140020        640368305.90325046     
   2370575173.0606012        31353850.298605561        639118446.77741587     
   2214513489.0390048        56738603.167660832        644039583.19865906     
   5957984967.9672022        1787395490.3901606        1150069991.4842319     
   6088447258.0978899        1502262634.8244348        1227934962.3310993     
   6221635336.7687445        1226215741.0592599        1268429989.3547168     
   6357549203.9797630        959254809.09463489        1271555072.5550845     
   6496188859.7309465        701379838.93055964        1237310211.9322028     
   5434703720.1340704        1630411116.0402210        1033492653.6321008     
   5489926332.4999037        1372514221.9026723        1113883920.2973804     
   5547346411.0808573        1121942215.1488605        1167483233.7141340     
   5606963955.8769331        878695095.77878594        1194290593.8823617     
   5668778966.8881302        642772863.79244876        1194306000.8020630     
   4895323620.6546535        1468597086.1963961        936380374.86354029     
   4905529385.4691286        1247003002.5510728        1018681561.3013474     
   4917404294.1736774        1030972731.8726734        1084768785.0653524     
   4930948346.7683067        820506274.16119862        1134642046.1555548     
   4946161543.2530136        615603629.41664791        1168301344.5719554     
   4339844669.5289507        1301953400.8586853        858733155.17854989     
   4335256417.0055628        1125728976.7696364        942327885.34300041     
   4331808986.0472069        953307291.23069870        1020286643.4083723     
   4329502376.6538849        784688344.24187255        1092609429.3746655     
   4328336588.8255949        619872135.80315650        1159296243.2418799     
   3768266866.7569642        1130480060.0270891        800550994.57713020     
   3779107427.1092086        1008692144.5583636        884822892.42233932     
   3790560486.7014418        888945893.22293591        974036808.74319339     
   3802626045.5336647        771241306.02080679        1068192743.5396928     
   3815304103.6058779        655578382.95197570        1167290696.8118367     
   6496188859.7309465        701379838.93055964        1237310211.9322028     
   6239286794.6151037        375862804.61687636        1053155956.3936460     
   6013298799.4934921        153392670.28396058        908017294.51416981     
   5818224874.3661089        33969435.931810379        801894226.29377639     
   5654065019.2329578        17593101.560429573        734786751.73246276     
   5668778966.8881302        642772863.79244876        1194306000.8020630     
   5518842098.7914085        383278459.38282633        1073454021.6304427     
   5393050659.8481989        204268818.81823564        980631378.06735957     
   5291404650.0584955        105743942.09867406        915838070.11281383     
   5213904069.4223051        87703829.224144936        879074097.76680303     
   4946161543.2530136        615603629.41664791        1168301344.5719554     
   4871800563.4595718        412715062.29633260        1102854894.1197650     
   4814816371.9789200        267749122.88531351        1054451521.2255663     
   4775208968.8110571        180705811.18358922        1023091225.8893604     
   4752978353.9559813        151585127.19115901        1008774008.1111461     
   4328336588.8255949        619872135.80315650        1159296243.2418799     
   4298162188.6195936        464172613.35739744        1141358573.8616118     
   4278595935.8856583        343833582.48519671        1129477723.9887898     
   4269637830.6237893        258855043.18655515        1123653693.6234159     
   4271287872.8339901        209236995.46147299        1123886482.7654891     
   3815304103.6058779        655578382.95197570        1167290696.8118367     
   3797926974.2714701        537651112.56601834        1188965060.8559823     
   3784389351.5684104        432522197.61788535        1205709986.3570313     
   3774691235.4966969        340191638.10757470        1217525473.3149824     
   3768832626.0563312        260659434.03508615        1224411521.7298353     
   5654065019.2329578        17593101.560429573        734786751.73246276     
   5520223525.5817404        49028111.659846067        721645248.54496145     
   5380994886.7887468        62505971.286671877        710307518.98349571     
   5236379102.8539743        58026680.440902233        700773563.04806018     
   5086376173.7774220        35590239.122539759        693043380.73866093     
   5213904069.4223051        87703829.224144936        879074097.76680303     
   5077444931.2922888        85384999.357032776        855371263.26309443     
   4938868177.3640785        76007450.162618876        835640430.14193296     
   4798173807.6376791        59571181.640898705        819881598.40332115     
   4655361822.1130867        36076193.791875362        808094768.04726171     
   4752978353.9559813        151585127.19115901        1008774008.1111461     
   4620096507.7943525        117370938.29167676        978324293.19207811     
   4488366575.1781187        86996461.210176945        954014807.41207588     
   4357788556.1072779        60461695.946663380        935845550.77113783     
   4228362450.5818367        37766642.501134157        923816523.26926470     
   4271287872.8339901        209236995.46147299        1123886482.7654891     
   4148178255.0879354        144985928.46377420        1090504338.3319154     
   4029490080.2308593        95473004.429346085        1065430650.7939230     
   3915223348.2627678        60698223.358194351        1048665420.1515113     
   3805378059.1836567        40661585.250314713        1040208646.4046782     
   3768832626.0563312        260659434.03508615        1224411521.7298353     
   3661690173.1730366        168229969.87332845        1191911398.6826069     
   3562238692.5223093        101437079.82012784        1169887960.2874753     
   3470478184.1041522        60280763.875495672        1158341206.5444384     
   3386408647.9185634        44761022.039422393        1157271137.4534967     
   5086376173.7774220        35590239.122539759        693043380.73866093     
   4934943449.0030403        9106077.3495440483        675712972.17304742     
   4786511859.4284868       -7374300.4240083694        665191702.86610293     
   4641081405.0537663       -13850894.198124170        661479572.81783330     
   4498652085.8788815       -10323703.972791433        664576582.02823400     
   4655361822.1130867        36076193.791875362        808094768.04726171     
   4522375637.3213778        15622581.123274565        794781405.27939165     
   4391568805.6644926        2433478.9040935040        787456884.21543014     
   4262941327.1424365       -3491112.8656718731        786121204.85537946     
   4136493201.7551985       -2151194.1860222816        790774367.19923520     
   4228362450.5818367        37766642.501134157        923816523.26926470     
   4111479098.4734745        22640466.747134686        913561460.55663335     
   3995953317.4349308        12039527.892526150        908474941.99314535     
   3881785107.4662023        5963825.9373035431        908556967.57880592     
   3768974468.5672941        4413360.8814761639        913807537.31360662     
   3805378059.1836567        40661585.250314713        1040208646.4046782     
   3702253832.4593215        30159734.221117020        1032053138.0047731     
   3599665394.7397947        21443846.541285276        1028245876.1992497     
   3497612746.0250773        14513922.210815668        1028786860.9881094     
   3396095886.3151693        9369961.2297105789        1033676092.3713484     
   3386408647.9185634        44761022.039422393        1157271137.4534967     
   3294699839.2789273        38180383.545229673        1150256437.6238103     
   3202705037.5790901        30646434.850375056        1146769686.8337431     
   3110424242.8190565        22159175.954855084        1146810885.0832915     
   3017857454.9988236        12718606.858677149        1150380032.3724573     
   4498652085.8788815       -10323703.972791433        664576582.02823400     
   4362398954.6505089       -1820347.9287023544        660588378.85049796     
   4225204013.1243696        3543640.4561576843        659882720.60678959     
   4087067261.3004646        5768261.1818084717        662459607.29710937     
   3947988699.1787963        4853514.2482378483        668319038.92146611     
   4136493201.7551985       -2151194.1860222816        790774367.19923520     
   4007909655.9487324        1229637.1037414074        784379255.39370418     
   3878914804.5256066        3239449.6713101864        781783400.84506810     
   3749508647.4858227        3878243.5166828632        782986803.55332649     
   3619691184.8293839        3146018.6398713589        787989463.51847732     
   3768974468.5672941        4413360.8814761639        913807537.31360662     
   3649536829.1052046        3114563.6936628819        905624439.00823987     
   3530218388.7075586        2213096.7206733227        901757310.28263569     
   3411019147.3743663        1708959.9625191689        902206151.13678241     
   3291939105.1056194        1602153.4191937447        906970961.57069421     
   3396095886.3151693        9369961.2297105789        1033676092.3713484     
   3287280474.1199193        3834431.8410542011        1024323929.6941060     
   3179114765.6702266        464581.60425615311        1019804448.9194852     
   3071598760.9660892       -739589.48069393635        1020117650.0474862     
   2964732460.0075073        221918.58621799946        1025263533.0781102     
   3017857454.9988236        12718606.858677149        1150380032.3724573     
   2921140590.9928837        3389241.5459251404        1140477727.4513004     
   2825603935.4136086       -2006095.6779527664        1135924816.7556248     
   2731247488.2609959       -3467404.8129508495        1136721300.2854390     
   2638071249.5350466       -994685.85906541348        1142867178.0407360     
   3947988699.1787963        4853514.2482378483        668319038.92146611     
   3798132467.8359528       -29433.138589382172        660380132.85316575     
   3648733497.5467839       -3388177.0131740570        657285980.65549314     
   3499791788.3112736       -5222717.3755557537        659036582.32844877     
   3351307340.1294336       -5533054.2257142067        665631937.87203205     
   3619691184.8293839        3146018.6398713589        787989463.51847732     
   3482754734.3890643        58905.394805669785        780580999.83066869     
   3346085067.3457956       -2138929.8601005077        777851652.01069891     
   3209682183.6995726       -3447487.1248549223        779801420.05855536     
   3073546083.4503946       -3866766.3994476795        786430303.97424436     
   3291939105.1056194        1602153.4191937447        906970961.57069421     
   3167449184.1312637        168898.88491320610        899870716.33066213     
   3043035568.8973346       -1010003.1812719107        897283948.95566511     
   2918698259.4038339       -1934552.7793650627        899210659.44570410     
   2794437255.6507611       -2604749.9093647003        905650847.80077779     
   2964732460.0075073        221918.58621799946        1025263533.0781102     
   2852215817.0625520        300547.33175110817        1018249282.3531308     
   2739585002.2014065       -1396.9766868352890        1015582871.4903939     
   2626840015.4240732       -683914.33907926083        1017264300.4898901     
   2513980856.7305441       -1747004.7554506063        1023293569.3516285     
   2638071249.5350466       -994685.85906541348        1142867178.0407360     
   2537054633.1829343        453850.73532044888        1135716697.8980858     
   2435733367.2580090        886888.75366485119        1132748419.6148796     
   2334107451.7602768        304428.19599175453        1133962343.1911182     
   2232176886.6897354       -1293530.9377208948        1139358468.6267960     
   3351307340.1294336       -5533054.2257142067        665631937.87203205     
   3228340796.5201597        1884224.3926826715        660184990.97671306     
   3104964625.3276353        7936077.7336013317        657660854.16563272     
   2981178826.5518541        12622505.796981931        658059527.43878019     
   2856983400.1928229        15943508.582883477        661381010.79615092     
   3073546083.4503946       -3866766.3994476795        786430303.97424436     
   2958180219.1712718        2101274.9215395451        780344978.00139916     
   2842650593.3442726        7523444.4162815809        777517957.72846663     
   2726957205.9693923        12399742.084743142        777949243.15544152     
   2611100057.0466347        16730167.926956296        781638834.28231239     
   2794437255.6507611       -2604749.9093647003        905650847.80077779     
   2687630629.6037226        2201621.7847912312        899213986.45834351     
   2580906108.0441861        7281675.1039438248        896370926.43149483     
   2474263690.9721408        12635410.048067093        897121667.72022712     
   2367703378.3875885        18262826.617173553        901466210.32453859     
   2513980856.7305441       -1747004.7554506063        1023293569.3516285     
   2416692027.8175268        2185264.9824625254        1016792016.3475399     
   2319731169.4273734        7210769.7965817451        1014219760.2747074     
   2223098281.5600963        13329509.686949849        1015576801.1331341     
   2126793364.2156792        20541484.653534412        1020863138.9228232     
   2232176886.6897354       -1293530.9377208948        1139358468.6267960     
   2145364413.8126678        2052204.5145146847        1133079067.6689854     
   2059125777.4938459        7310728.4942287207        1131064459.2581086     
   1973460977.7332590        14482041.001395583        1133314643.3941658     
   1888370014.5309143        23566142.036038518        1139829620.0771604     
   2856983400.1928229        15943508.582883477        661381010.79615092     
   2691810128.6375141        10956303.006227851        647789160.57616079     
   2529674052.9267740        16093083.578140020        640368305.90325046     
   2370575173.0606012        31353850.298605561        639118446.77741587     
   2214513489.0390048        56738603.167660832        644039583.19865906     
   2611100057.0466347        16730167.926956296        781638834.28231239     
   2461403588.4752502        13254738.960078835        771294012.03384328     
   2313417655.7938437        15481096.293112993        766334555.77751970     
   2167142259.0024052        23409239.926053405        766760465.51334333     
   2022577398.1009431        37039169.858892083        772571741.24131501     
   2367703378.3875885        18262826.617173553        901466210.32453859     
   2231239056.9289160        15625777.498730421        892820646.10054815     
   2095158611.4056089        14268314.831510901        888774818.31378257     
   1959462041.8176732        14190438.615530252        889328726.96422350     
   1824149348.1651144        15392148.850786328        894482372.05189431     
   2126793364.2156792        20541484.653534412        1020863138.9228232     
   2001316533.9984837        18069418.622141600        1012369062.7762845     
   1874896919.7620587        12454739.193309546        1007689093.5120366     
   1747534521.5064039        3697446.3670474291        1006823231.1300764     
   1619229339.2315235       -8202459.8566412926        1009771475.6304101     
   1888370014.5309143        23566142.036038518        1139829620.0771604     
   1771636019.6839728        20585662.330326200        1129939262.0610406     
   1652632580.8631968        10040369.378506243        1123077381.3722818     
   1531359698.0685961       -8069736.8193969727        1119243978.0108798     
   1407817371.3001637       -33744656.263406157        1118439051.9768434     
   3768266866.7569642        1130480060.0270891        800550994.57713020     
   3779107427.1092086        1008692144.5583636        884822892.42233932     
   3790560486.7014418        888945893.22293591        974036808.74319339     
   3802626045.5336647        771241306.02080679        1068192743.5396928     
   3815304103.6058779        655578382.95197570        1167290696.8118367     
   3207779798.1728191        962333939.45184577        756683706.01281238     
   3235844676.8788290        868196180.09969378        853043184.12656295     
   3263635030.4082122        773143336.82545030        951329314.16374087     
   3291150858.7609682        677175409.62911499        1051542096.1243466     
   3318392161.9370956        580292398.51068759        1153681530.0083797     
   2685573049.6106424        805671914.88319278        721981102.43912780     
   2722246913.6640835        736599711.74571419        829393299.00203311     
   2757759228.1242795        663655676.63075376        935716780.93614852     
   2792109992.9912324        586839809.53831172        1040951548.2414738     
   2825299208.2649384        506152110.46838659        1145097600.9180093     
   2201646621.0704346        660493986.32113028        696443183.85607660     
   2238314137.4649701        613902739.49642444        813873237.04875064     
   2272933079.8496442        560482912.63884628        927199209.06041682     
   2305503448.2244568        500234505.74839592        1036421099.8910748     
   2336025242.5894079        433157518.82507384        1141538909.5407257     
   1756000512.5521955        526800153.76565868        680069950.26365888     
   1784046348.2814901        500105263.35182446        806482998.26671445     
   1809156585.5843060        463625044.84972829        925776598.53654480     
   1831331224.4606431        417359498.25936955        1037950751.0731500     
   1850570264.9105020        361308623.58074832        1143005455.8765302     
   3815304103.6058779        655578382.95197570        1167290696.8118367     
   3797926974.2714701        537651112.56601834        1188965060.8559823     
   3784389351.5684104        432522197.61788535        1205709986.3570313     
   3774691235.4966969        340191638.10757470        1217525473.3149824     
   3768832626.0563312        260659434.03508615        1224411521.7298353     
   3318392161.9370956        580292398.51068759        1153681530.0083797     
   3293767168.4823666        473088676.91807282        1182011926.3427134     
   3272871103.6207957        378314717.30264807        1207221816.0214336     
   3255703967.3523822        295970519.66441357        1229311199.0445399     
   3242265759.6771231        226056084.00336754        1248280075.4120345     
   2825299208.2649384        506152110.46838659        1145097600.9180093     
   2798594727.5112715        411222450.71552896        1179955021.8313096     
   2775508597.3125706        328353959.47922814        1213500867.9764800     
   2756040817.6688375        257546636.75948334        1245735139.3535218     
   2740191388.5800695        198800482.55629539        1276657835.9624333     
   2336025242.5894079        433157518.82507384        1141538909.5407257     
   2312409651.3581839        352052433.95838755        1182794347.3217714     
   2292301832.6437364        282639924.14762431        1224547142.2221711     
   2275701786.4460659        224919989.39278477        1266797294.2419248     
   2262609512.7651739        178892629.69387102        1309544803.3810325     
   1850570264.9105020        361308623.58074832        1143005455.8765302     
   1835211940.0231035        295578626.64664882        1190529902.8140984     
   1823250809.6142926        241172611.30783951        1240360638.7585053     
   1814686873.6840684        198090577.56431925        1292497663.7097507     
   1809520132.2324324        166332525.41609162        1346940977.6678340     
   3768832626.0563312        260659434.03508615        1224411521.7298353     
   3661690173.1730366        168229969.87332845        1191911398.6826069     
   3562238692.5223093        101437079.82012784        1169887960.2874753     
   3470478184.1041522        60280763.875495672        1158341206.5444384     
   3386408647.9185634        44761022.039422393        1157271137.4534967     
   3242265759.6771231        226056084.00336754        1248280075.4120345     
   3164648770.0867629        151754614.35553849        1231169012.2331092     
   3093105006.1369247        97697230.176117659        1222109775.8934400     
   3027634467.8276091        63883931.465100884        1221102366.3930254     
   2968237155.1588154        50314718.222494125        1228146783.7318664     
   2740191388.5800695        198800482.55629539        1276657835.9624333     
   2685171697.1031017        140548557.86853576        1273048461.6277573     
   2634607484.6746078        97148230.009024262        1275066056.3194976     
   2588498751.2945910        68599498.977766275        1282710620.0376503     
   2546845496.9630475        54902364.774758101        1295982152.7822194     
   2262609512.7651739        178892629.69387102        1309544803.3810325     
   2223258954.2220502        134611800.41231298        1317549746.8665521     
   2186746128.1353564        99790079.318852901        1328756801.5656457     
   2153071034.5050912        74427466.413488269        1343165967.4783115     
   2122233673.3312531        58523961.696215868        1360777244.6045523     
   1809520132.2324324        166332525.41609162        1346940977.6678340     
   1778910541.4436109        133944341.98687726        1364672867.9494922     
   1749520936.5191717        105622778.10560274        1383182011.6318848     
   1721351317.4591131        81367833.772263646        1402468408.7150104     
   1694401684.2634370        61179508.986866176        1422532059.1988685     
   3386408647.9185634        44761022.039422393        1157271137.4534967     
   3294699839.2789273        38180383.545229673        1150256437.6238103     
   3202705037.5790901        30646434.850375056        1146769686.8337431     
   3110424242.8190565        22159175.954855084        1146810885.0832915     
   3017857454.9988236        12718606.858677149        1150380032.3724573     
   2968237155.1588154        50314718.222494125        1228146783.7318664     
   2884980895.8542080        39217757.765738130        1220243449.1410980     
   2802000819.7727709        29041408.052891254        1216356354.6828630     
   2719296926.9145060        19785669.083944440        1216485500.3571625     
   2636869217.2794113        11450540.858903527        1220630886.1639938     
   2546845496.9630475        54902364.774758101        1295982152.7822194     
   2473436904.4018006        39707617.577943802        1287846055.7609634     
   2400866671.3470950        27307402.069602370        1284214489.9651613     
   2329134797.7989302        17701718.249727964        1285087455.3948078     
   2258241283.7573061        10890566.118319631        1290464952.0499041     
   2122233673.3312531        58523961.696215868        1360777244.6045523     
   2060067864.9217014        39649962.981842518        1353064257.4834116     
   1999302592.3020592        25444416.900502920        1350344092.6806386     
   1939937855.4723289        15907323.452198863        1352616750.1962314     
   1881973654.4325073        11038682.636930704        1359882230.0301902     
   1694401684.2634370        61179508.986866176        1422532059.1988685     
   1644873777.4139116        39044793.977430820        1415898054.3084385     
   1597308582.6376669        23452452.545598328        1414745162.8292913     
   1551706099.9347034        14402484.691368759        1419073384.7614281     
   1508066329.3050170        11894890.414730847        1428882720.1048481     
   3017857454.9988236        12718606.858677149        1150380032.3724573     
   2921140590.9928837        3389241.5459251404        1140477727.4513004     
   2825603935.4136086       -2006095.6779527664        1135924816.7556248     
   2731247488.2609959       -3467404.8129508495        1136721300.2854390     
   2638071249.5350466       -994685.85906541348        1142867178.0407360     
   2636869217.2794113        11450540.858903527        1220630886.1639938     
   2554407804.7132902        4843513.5238771439        1212569934.5278656     
   2472816282.6180587        1136121.0918133259        1209497088.7020192     
   2392094650.9937134        328363.56270825863        1211412348.6864572     
   2312242909.8402586        2420240.9365665913        1218315714.4811785     
   2258241283.7573061        10890566.118319631        1290464952.0499041     
   2189003070.0161400        6696200.9765596390        1283883316.0837350     
   2120324428.7900901        4367077.5518486500        1281928497.5126443     
   2052205360.0791523        3903195.8441789150        1284600496.3366389     
   1984645863.8833261        5304555.8535538912        1291899312.5557144     
   1881973654.4325073        11038682.636930704        1359882230.0301902     
   1824926386.9014368        8947303.9039773941        1354417872.1189067     
   1768128373.9297073        7686773.7021608353        1353219043.1875038     
   1711579615.5173130        7257092.0314620733        1356285743.2359810     
   1655280111.6642616        7658258.8919054270        1363617972.2643404     
   1508066329.3050170        11894890.414730847        1428882720.1048481     
   1462177755.3691795        11596822.306129098        1424173602.6333821     
   1416228118.0369089        11095209.542750537        1423368725.7265937     
   1370217417.3081989        10390052.124574065        1426468089.3844867     
   1324145653.1830521        9481350.0516069531        1433471693.6070561     
   2638071249.5350466       -994685.85906541348        1142867178.0407360     
   2537054633.1829343        453850.73532044888        1135716697.8980858     
   2435733367.2580090        886888.75366485119        1132748419.6148796     
   2334107451.7602768        304428.19599175453        1133962343.1911182     
   2232176886.6897354       -1293530.9377208948        1139358468.6267960     
   2312242909.8402586        2420240.9365665913        1218315714.4811785     
   2222092332.8885365        2565551.1951364279        1210448102.6690211     
   2131825546.9763823        2323498.2522584200        1207057525.3829138     
   2041442552.1037900        1694082.1079307795        1208143982.6228564     
   1950943348.2707689        677302.76216423512        1213707474.3888383     
   1984645863.8833261        5304555.8535538912        1291899312.5557144     
   1906203705.3794403        4399353.4905515909        1283534416.4551580     
   1827833778.5274925        3734923.3006756306        1279941387.5472519     
   1749536083.3274865        3311265.2839415073        1281120225.8319969     
   1671310619.7794206        3128379.4403381348        1287070931.3093898     
   1655280111.6642616        7658258.8919054270        1363617972.2643404     
   1589388750.6556430        5955257.6215504408        1354975639.2564869     
   1523758061.9113436        5121163.8989122510        1351400006.1078851     
   1458388045.4313557        5155977.7239925265        1352891072.8185408     
   1393278701.2156866        6059699.0967946649        1359448839.3884487     
   1324145653.1830521        9481350.0516069531        1433471693.6070561     
   1271647468.7171464        7233263.5881427526        1424771771.0730073     
   1219598397.1279297        6482220.0469692945        1421433381.0648203     
   1167998438.4154034        7228219.4281027913        1423456523.5824881     
   1116847592.5795686        9471261.7315360308        1430841198.6260085     
   2232176886.6897354       -1293530.9377208948        1139358468.6267960     
   2145364413.8126678        2052204.5145146847        1133079067.6689854     
   2059125777.4938459        7310728.4942287207        1131064459.2581086     
   1973460977.7332590        14482041.001395583        1133314643.3941658     
   1888370014.5309143        23566142.036038518        1139829620.0771604     
   1950943348.2707689        677302.76216423512        1213707474.3888383     
   1875328093.8741636        4682212.0039134026        1208570694.7960105     
   1800195973.9917891        10297569.626440287        1207630250.6128654     
   1725546988.6236408        17523375.629721284        1210886141.8394027     
   1651381137.7697289        26359630.013783574        1218338368.4756269     
   1671310619.7794206        3128379.4403381348        1287070931.3093898     
   1606696992.0425534        7733784.9253771901        1282970954.0302002     
   1542475796.7759066        13647298.644484043        1282998855.0234377     
   1478647033.9794867        20868920.597682714        1287154634.2891133     
   1415210703.6532872        29398650.784948468        1295438291.8272190     
   1393278701.2156866        6059699.0967946649        1359448839.3884487     
   1339471108.3178413        11206923.278905332        1356279845.3715479     
   1285965245.8462086        17359915.548399866        1357170272.4898338     
   1232761113.8007929        24518675.905277312        1362120120.7433016     
   1179858712.1815886        32683204.349531412        1371129390.1319506     
   1116847592.5795686        9471261.7315360308        1430841198.6260085     
   1073650442.7000294        15101627.064515114        1428497368.8200638     
   1030664321.2026896        21435420.338161051        1430144503.0120492     
   987889228.08756781        28472641.552527189        1435782601.2019622     
   945325163.35464251        36213290.707553327        1445411663.3898096     
   1888370014.5309143        23566142.036038518        1139829620.0771604     
   1771636019.6839728        20585662.330326200        1129939262.0610406     
   1652632580.8631968        10040369.378506243        1123077381.3722818     
   1531359698.0685961       -8069736.8193969727        1119243978.0108798     
   1407817371.3001637       -33744656.263406157        1118439051.9768434     
   1651381137.7697289        26359630.013783574        1218338368.4756269     
   1544253505.2391958        24371400.498431265        1207320601.0665159     
   1436025628.7022789        18715690.961808503        1200434884.9910419     
   1326697508.1589854        9392501.4039119482        1197681220.2492094     
   1216269143.6093009       -3598168.1752597094        1199059606.8410165     
   1415210703.6532872        29398650.784948468        1295438291.8272190     
   1320842502.0285304        29348592.036764979        1284657181.6538086     
   1226543256.3648381        29528386.492141485        1279111696.8203139     
   1132312966.6622131        29938034.151069403        1278801837.3267384     
   1038151632.9206545        30577535.013551712        1283727603.1730852     
   1179858712.1815886        32683204.349531412        1371129390.1319506     
   1101403010.0519745        35517236.945333958        1361949003.8229287     
   1024185463.8508726        42478455.969523191        1359107816.8600988     
   948206073.57828605        53566861.422081888        1362605829.2434649     
   873464839.23420966        68782453.303020120        1372443040.9730294     
   945325163.35464251        36213290.707553327        1445411663.3898096     
   885935029.30953658        42877335.224151760        1439196067.5738678     
   828952251.16038978        57565899.393954724        1440423245.1103914     
   774376828.90720284        80278983.216947198        1449093195.9993930     
   722208762.54998147        111016586.69316027        1465205920.2408690     
   1756000512.5521955        526800153.76565868        680069950.26365888     
   1784046348.2814901        500105263.35182446        806482998.26671445     
   1809156585.5843060        463625044.84972829        925776598.53654480     
   1831331224.4606431        417359498.25936955        1037950751.0731500     
   1850570264.9105020        361308623.58074832        1143005455.8765302     
   1326371552.5067210        397911465.75201631        669750742.03241599     
   1339575385.1885598        375533863.54162359        791895322.05594563     
   1350580194.0913138        345826182.06761676        908746127.11386347     
   1359385979.2149844        308788421.32999605        1020303157.2061692     
   1365992740.5595703        264420581.32876062        1126566412.3328638     
   890496569.38480580        267148970.81544173        662374899.53288972     
   894074606.92665541        250653519.18073052        781110348.66552067     
   896190195.33681536        229283237.10705346        896377695.60015261     
   896843334.61528528        203038124.59441030        1008176940.3367865     
   896034024.76206577        171918181.64280128        1116508082.8754220     
   448375563.18645024        134512668.95593506        657942422.76508009     
   447544013.49577755        125464230.26914540        774128078.09543884     
   445986589.32080960        113996209.96803802        888671303.99541187     
   443703290.66154623        100108608.05261239        1001572100.4650004     
   440694117.51798755        83801424.522869617        1112830467.5042038     
   8533.9116539203715        2560.1734961761113        656453311.72898722     
  -16395.104074156741       -34003.193131849206        770948510.34570038     
  -30623.956703174132       -34899.349429632093        885626952.29964185     
  -34152.646233076055       -128.29539705173738        1000488637.5908118     
  -26981.172663875361        70309.968966044122        1115533566.2192099     
   1850570264.9105020        361308623.58074832        1143005455.8765302     
   1835211940.0231035        295578626.64664882        1190529902.8140984     
   1823250809.6142926        241172611.30783951        1240360638.7585053     
   1814686873.6840684        198090577.56431925        1292497663.7097507     
   1809520132.2324324        166332525.41609162        1346940977.6678340     
   1365992740.5595703        264420581.32876062        1126566412.3328638     
   1360319568.6059241        216888986.63422292        1181990943.7376211     
   1357188426.1211421        177830823.50256670        1238359672.4908347     
   1356599313.1052244        147246091.93379033        1295672598.5925055     
   1358552229.5581713        125134791.92789632        1353929722.0426326     
   896034024.76206577        171918181.64280128        1116508082.8754220     
   896154315.28965211        141417482.05206934        1178835006.2360241     
   897961470.27638018        116539663.99180940        1240744035.2867017     
   901455489.72224975        97284727.462021321        1302235170.0274539     
   906636373.62726116        83652672.462705761        1363308410.4582808     
   440694117.51798755        83801424.522869617        1112830467.5042038     
   442716180.07428783        69164112.900188223        1181062090.3093083     
   445569942.08000690        57299132.775569499        1247513727.1461067     
   449255403.53514493        48206484.149014354        1312185378.0145972     
   453772564.43970168        41886167.020521566        1375077042.9147813     
  -26981.172663875361        70309.968966044122        1115533566.2192099     
   5162.9598311249356        128879.17857936637        1188672195.9574733     
   13841.532022121562        109229.85384605304        1258668748.0690484     
  -945.45609074287586        11361.994766514532        1325523222.5539353     
  -39198.004507607409       -164724.39865969098        1389235619.4121335     
   1809520132.2324324        166332525.41609162        1346940977.6678340     
   1778910541.4436109        133944341.98687726        1364672867.9494922     
   1749520936.5191717        105622778.10560274        1383182011.6318848     
   1721351317.4591131        81367833.772263646        1402468408.7150104     
   1694401684.2634370        61179508.986866176        1422532059.1988685     
   1358552229.5581713        125134791.92789632        1353929722.0426326     
   1332943084.5794463        100023826.61368823        1372891472.9875708     
   1308265945.1568160        78019546.486462235        1393243109.2822328     
   1284520811.2902801        59121951.546218216        1414984630.9266200     
   1261707682.9798391        43331041.792955518        1438116037.9207313     
   906636373.62726116        83652672.462705761        1363308410.4582808     
   887778051.45574975        66344038.362639636        1383164045.0401642     
   869563754.53204620        51182155.088598222        1405022196.9207628     
   851993482.85614991        38167022.640582800        1428882866.1000750     
   835067236.42806089        27298641.018590331        1454746052.5781045     
   453772564.43970168        41886167.020521566        1375077042.9147813     
   443415442.07252145        32904977.233731508        1395490584.1072743     
   433414364.64486182        25110603.912010327        1418519274.5474727     
   423769332.15672308        18503047.055358380        1444163114.2353785     
   414480344.60810381        13082306.663772538        1472422103.1709893     
  -39198.004507607409       -164724.39865969098        1389235619.4121335     
  -144743.57023912924       -293356.77303652448        1409871090.1889000     
  -182224.50473751678       -195107.04330343072        1433734342.1623650     
  -151640.80800145757        130024.79054474580        1460825375.3325267     
  -52992.480033585103        682038.72849896643        1491144189.6993868     
   1694401684.2634370        61179508.986866176        1422532059.1988685     
   1644873777.4139116        39044793.977430820        1415898054.3084385     
   1597308582.6376669        23452452.545598328        1414745162.8292913     
   1551706099.9347034        14402484.691368759        1419073384.7614281     
   1508066329.3050170        11894890.414730847        1428882720.1048481     
   1261707682.9798391        43331041.792955518        1438116037.9207313     
   1227487485.5507858        27657368.950544596        1435224276.3268967     
   1194668924.9698806        16655818.935292721        1437135552.6835988     
   1163252001.2371254        10326391.747206688        1443849866.9908383     
   1133236714.3525171        8669087.3862790465        1455367219.2486117     
   835067236.42806089        27298641.018590331        1454746052.5781045     
   814217389.96020162        17504802.805418402        1454941946.5182140     
   794208105.11535871        10512836.668968052        1459262802.9481127     
   775039381.89353359        6322742.6092446446        1467708621.8677998     
   756711220.29472530        4934520.6262429059        1480279403.2772748     
   414480344.60810381        13082306.663772538        1472422103.1709893     
   405063490.64215958        8587095.5420560688        1475051064.8823898     
   395926123.07410085        5023505.7466250956        1481126913.6228302     
   387068241.90392715        2391537.2774760872        1490649649.3923106     
   378489847.13164008        691190.13461790979        1503619272.1908348     
  -52992.480033585103        682038.72849896643        1491144189.6993868     
   25787.596658238675        904247.16045261966        1495551631.4194219     
  -177021.15389565207        187826.16825389152        1502727884.7077518     
  -661418.73169537156       -1467224.2480972526        1512672949.5643761     
  -1427405.1367394787       -4060904.0885970490        1525386825.9892926     
   1508066329.3050170        11894890.414730847        1428882720.1048481     
   1462177755.3691795        11596822.306129098        1424173602.6333821     
   1416228118.0369089        11095209.542750537        1423368725.7265937     
   1370217417.3081989        10390052.124574065        1426468089.3844867     
   1324145653.1830521        9481350.0516069531        1433471693.6070561     
   1133236714.3525171        8669087.3862790465        1455367219.2486117     
   1097540863.5935831        7434534.9636383653        1450153442.3207707     
   1061845741.5473224        6202411.5832425356        1449092092.8829558     
   1026151348.2137382        4972717.2451009750        1452183170.9351640     
   990457683.59282541        3745451.9491981268        1459426676.4773970     
   756711220.29472530        4934520.6262429059        1480279403.2772748     
   731917198.21367931        2976215.5398522019        1474633057.6870215     
   707185696.95441866        1226313.1927464604        1473387326.5121377     
   682516716.51694345       -315186.41507565975        1476542209.7526257     
   657910256.90125203       -1648283.2836180329        1484097707.4084835     
   378489847.13164008        691190.13461790979        1503619272.1908348     
   365306759.22947067       -1778135.9652212858        1497612448.7321324     
   352247984.25819588       -3833085.6287455410        1496254426.6141453     
   339313522.21781796       -5473658.8559465110        1499545205.8368728     
   326503373.10833406       -6699855.6468342990        1507484786.4003189     
  -1427405.1367394787       -4060904.0885970490        1525386825.9892926     
  -2290453.3590456797       -6828519.5515904250        1519091615.4561026     
  -2967396.5413481658       -8975784.8812380861        1517693393.1889734     
  -3458234.6836412987       -10502700.077521063        1521192159.1879053     
  -3762967.7859315639       -11409265.140461493        1529587913.4528995     
   1324145653.1830521        9481350.0516069531        1433471693.6070561     
   1271647468.7171464        7233263.5881427526        1424771771.0730073     
   1219598397.1279297        6482220.0469692945        1421433381.0648203     
   1167998438.4154034        7228219.4281027913        1423456523.5824881     
   1116847592.5795686        9471261.7315360308        1430841198.6260085     
   990457683.59282541        3745451.9491981268        1459426676.4773970     
   951836187.72725821        2113120.1495636106        1451474140.0421278     
   913526017.78835237        1518541.4388000965        1448692349.6972990     
   875527173.77610803        1961715.8169069886        1451081305.4429107     
   837839655.69052625        3442643.2838915586        1458641007.2789650     
   657910256.90125203       -1648283.2836180329        1484097707.4084835     
   632620345.53483808       -2828391.6497734785        1476731805.6302893     
   607503973.14505744       -3430036.7604843676        1474345863.5071223     
   582561139.73191178       -3453218.6157456934        1476939881.0389805     
   557791845.29539657       -2897937.2155724466        1484513858.2258666     
   326503373.10833406       -6699855.6468342990        1507484786.4003189     
   313999942.13988507       -7591271.8098712713        1500544767.8375015     
   301532263.19804424       -8363514.5508826822        1498393922.4942961     
   289100336.28280902       -9016583.8698753268        1501032250.3707030     
   276704161.39417344       -9550479.7668678313        1508459751.4667206     
  -3762967.7859315639       -11409265.140461493        1529587913.4528995     
  -4025022.4575987910       -12175520.330726650        1522913026.6637602     
  -4389112.0526877055       -13281891.932397431        1520836526.6588175     
  -4855236.5711988676       -14728379.945475874        1523358413.4380674     
  -5423396.0131399287       -16514984.369986970        1530478687.0015185     
   1116847592.5795686        9471261.7315360308        1430841198.6260085     
   1073650442.7000294        15101627.064515114        1428497368.8200638     
   1030664321.2026896        21435420.338161051        1430144503.0120492     
   987889228.08756781        28472641.552527189        1435782601.2019622     
   945325163.35464251        36213290.707553327        1445411663.3898096     
   837839655.69052625        3442643.2838915586        1458641007.2789650     
   804499946.01492858        6715961.5595957637        1456134751.8496556     
   771170700.49116719        10024160.341420740        1457764112.6694360     
   737851919.11924493        13367239.629376560        1463529089.7383008     
   704543601.89916193        16745199.423462361        1473429683.0562522     
   557791845.29539657       -2897937.2155724466        1484513858.2258666     
   534722867.96990037       -1857678.3532910645        1481611185.5711031     
   511463790.56587023       -1451086.4194577932        1482988781.4165802     
   488014613.08331585       -1678161.4140390456        1488646645.7623010     
   464375335.52222955       -2538903.3370573819        1498584778.6082642     
   276704161.39417344       -9550479.7668678313        1508459751.4667206     
   264319208.56493866       -10619292.674166664        1504926669.9844027     
   251543591.42680645       -12990319.944455057        1505818509.2534823     
   238377309.97977281       -16663561.577750579        1511135269.2739618     
   224820364.22384638       -21639017.574019060        1520876950.0458412     
  -5423396.0131399287       -16514984.369986970        1530478687.0015185     
  -6711032.1999550303       -19568881.403021857        1526081205.0895553     
  -8589896.9260350093       -24593540.233605642        1526253296.1801434     
  -11059990.191380141       -31588960.861739244        1530994960.2732885     
  -14121311.995984295       -40555143.287404999        1540306197.3689890     
   945325163.35464251        36213290.707553327        1445411663.3898096     
   885935029.30953658        42877335.224151760        1439196067.5738678     
   828952251.16038978        57565899.393954724        1440423245.1103914     
   774376828.90720284        80278983.216947198        1449093195.9993930     
   722208762.54998147        111016586.69316027        1465205920.2408690     
   704543601.89916193        16745199.423462361        1473429683.0562522     
   662247539.71290815        19335983.689130306        1469163076.2835929     
   621199792.25048852        26087817.034238577        1471542965.3385572     
   581400359.51190305        37000699.458797485        1480569350.2211506     
   542849241.49714530        52074630.962783977        1496242230.9313781     
   464375335.52222955       -2538903.3370573819        1498584778.6082642     
   436898266.55242181       -4703902.9150351286        1494914946.1780658     
   409510471.13431436       -6571323.9873420298        1497095332.0506563     
   382211949.26791096       -8141166.5539713651        1505125936.2260342     
   355002700.95321321       -9413430.6149144769        1519006758.7041824     
   224820364.22384638       -21639017.574019060        1520876950.0458412     
   209887209.82806721       -29242324.588374391        1516451677.2572970     
   193884287.81185967       -40411523.670822203        1517080345.2466910     
   176811598.17522806       -55146614.821348369        1522762954.0140183     
   158669140.91817528       -73447598.039947987        1533499503.5593007     
  -14121311.995984295       -40555143.287404999        1540306197.3689890     
  -18785630.460148517       -54279281.330861993        1533773269.5212774     
  -25678757.716866978       -75432782.016166449        1531498004.9266584     
  -34800693.766141064       -104015645.34332022        1533480403.5851331     
  -46151438.607965402       -140027871.31231230        1539720465.4967113     
   8533.9116539203715        2560.1734961761113        656453311.72898722     
  -16395.104074156741       -34003.193131849206        770948510.34570038     
  -30623.956703174132       -34899.349429632093        885626952.29964185     
  -34152.646233076055       -128.29539705173738        1000488637.5908118     
  -26981.172663875361        70309.968966044122        1115533566.2192099     
  -448362105.23863763       -134508631.57159129        657916280.18642735     
  -447567582.72558093       -125499562.91262104        774119490.93195832     
  -446035941.95949954       -114033433.41023491        888682352.12572670     
  -443767182.94039327       -100110243.06443238        1001604863.7677323     
  -440761305.66826218       -83729991.875214323        1112887025.8579752     
  -890493941.06347930       -267148182.31904379        662340041.89921701     
  -894090232.41875470       -250656561.25361025        781098752.54514575     
  -896222987.43107963       -229286485.71167523        896393520.75032079     
  -896892206.10045433       -203037955.69323838        1008224346.5147421     
  -896097888.42687809       -171910971.19829980        1116591229.8384099     
  -1326386973.5628707       -397916092.06886125        669724596.86735654     
  -1339584344.1835954       -375504998.21609968        791886295.18526268     
  -1350591760.3714437       -345794056.25375086        908760458.17342436     
  -1359409222.1264157       -308783266.18181425        1020347085.8318415     
  -1366036729.4485111       -264472628.00029010        1126646178.1605144     
  -1756041202.7368126       -526812360.82104373        680069945.09084535     
  -1784049918.0201027       -500044873.80008900        806482118.85230923     
  -1809142260.7805917       -463556145.03646159        925783164.39503753     
  -1831318231.0182781       -417346174.53016049        1037973081.7190306     
  -1850577828.7331624       -361414962.28118670        1143051870.8242881     
  -26981.172663875361        70309.968966044122        1115533566.2192099     
   5162.9598311249356        128879.17857936637        1188672195.9574733     
   13841.532022121562        109229.85384605304        1258668748.0690484     
  -945.45609074287586        11361.994766514532        1325523222.5539353     
  -39198.004507607409       -164724.39865969098        1389235619.4121335     
  -440761305.66826218       -83729991.875214323        1112887025.8579752     
  -442737647.32382089       -69025788.113295600        1181081131.2848632     
  -445570699.59437752       -57177286.401371151        1247492563.4509437     
  -449260462.47993237       -48184486.739440203        1312121322.3562160     
  -453806935.98048508       -42047389.127502307        1374967408.0006802     
  -896097888.42687809       -171910971.19829980        1116591229.8384099     
  -896198703.39654577       -141395929.14189291        1178868691.7234461     
  -897989474.03590620       -116514072.65112704        1240722884.7135549     
  -901470200.34495878       -97265401.726002365        1302153808.8087358     
  -906640882.32370329       -83649916.366518557        1363161464.0089903     
  -1366036729.4485111       -264472628.00029010        1126646178.1605144     
  -1360378005.2583444       -216981543.90721202        1182034877.2732215     
  -1357242481.7925634       -177901128.89542150        1238359711.8568826     
  -1356630159.0511689       -147231382.96491963        1295620681.9114964     
  -1358541037.0341618       -124972306.11570698        1353817787.4370632     
  -1850577828.7331624       -361414962.28118670        1143051870.8242881     
  -1835275552.9092159       -295782632.40925354        1190579687.9341908     
  -1823329722.8643501       -241338455.13425481        1240403044.8809264     
  -1814740338.5985651       -198082430.45619309        1292521941.6644962     
  -1809507400.1118603       -166014558.37506664        1346936378.2848997     
  -39198.004507607409       -164724.39865969098        1389235619.4121335     
  -144743.57023912924       -293356.77303652448        1409871090.1889000     
  -182224.50473751678       -195107.04330343072        1433734342.1623650     
  -151640.80800145757        130024.79054474580        1460825375.3325267     
  -52992.480033585103        682038.72849896643        1491144189.6993868     
  -453806935.98048508       -42047389.127502307        1374967408.0006802     
  -443616036.42583692       -33217269.172596306        1395503157.5899546     
  -433707891.90910739       -25329666.010752738        1418664063.9991436     
  -424082502.43029743       -18384579.641973913        1444450127.2282462     
  -414739867.98940593       -12382010.066257104        1472861347.2772627     
  -906640882.32370329       -83649916.366518557        1363161464.0089903     
  -887875321.58234239       -66377579.262428701        1383188202.7967613     
  -869743335.54805255       -51217157.848576277        1405237474.0276630     
  -852244924.22083366       -38168652.124960393        1429309277.7016957     
  -835380087.60068631       -27232062.091582239        1455403613.8188570     
  -1358541037.0341618       -124972306.11570698        1353817787.4370632     
  -1332922599.0397556       -99774287.042533219        1372926225.8093197     
  -1308288555.4215722       -77857582.556772113        1393454572.2479236     
  -1284638906.1796126       -59222192.658420980        1415402826.7528746     
  -1261973651.3138764       -43868117.347482741        1438770989.3241711     
  -1809507400.1118603       -166014558.37506664        1346936378.2848997     
  -1778757868.7980747       -133407392.51290917        1364717226.6276309     
  -1749343551.5296657       -105250940.13533854        1383315358.6599252     
  -1721264448.3066320       -81545201.242353380        1402730774.3817830     
  -1694520559.1289754       -62290175.833955109        1422963473.7932043     
  -52992.480033585103        682038.72849896643        1491144189.6993868     
   25787.596658238675        904247.16045261966        1495551631.4194219     
  -177021.15389565207        187826.16825389152        1502727884.7077518     
  -661418.73169537156       -1467224.2480972526        1512672949.5643761     
  -1427405.1367394787       -4060904.0885970490        1525386825.9892926     
  -414739867.98940593       -12382010.066257104        1472861347.2772627     
  -405228942.01604486       -7645205.6252675205        1475017569.7826989     
  -396303119.85826206       -4858747.2362061143        1480618647.7151949     
  -387962401.51605731       -4022634.8990710974        1489664581.0747516     
  -380206786.98943216       -5136868.6138679981        1502155369.8613665     
  -835380087.60068631       -27232062.091582239        1455403613.8188570     
  -814505461.84846985       -17401195.476906717        1454954516.2899742     
  -794519454.90016448       -10532391.541931927        1458626318.0469165     
  -775422066.75576806       -6625650.2866537571        1466419019.0896823     
  -757213297.41528237       -5680971.7110811770        1478332619.4182739     
  -1261973651.3138764       -43868117.347482741        1438770989.3241711     
  -1227803771.9006171       -28363722.394461334        1435362470.9412479     
  -1194826026.2795999       -16833106.748912573        1436750895.7029138     
  -1163040414.4508264       -9276270.4108452201        1442936263.6091709     
  -1132446936.4142931       -5693213.3802424669        1453918574.6600177     
  -1694520559.1289754       -62290175.833955109        1422963473.7932043     
  -1645123872.1724851       -40532786.377932250        1416241433.7365181     
  -1597222833.9965703       -23760892.857157290        1414992380.6831882     
  -1550817444.6012292       -11974495.271629691        1419216314.6332140     
  -1505907703.9864645       -5173593.6213571429        1428913235.5865953     
  -1427405.1367394787       -4060904.0885970490        1525386825.9892926     
  -2290453.3590456797       -6828519.5515904250        1519091615.4561026     
  -2967396.5413481658       -8975784.8812380861        1517693393.1889734     
  -3458234.6836412987       -10502700.077521063        1521192159.1879053     
  -3762967.7859315639       -11409265.140461493        1529587913.4528995     
  -380206786.98943216       -5136868.6138679981        1502155369.8613665     
  -367993326.71526587       -5692922.3922100514        1496508111.8182623     
  -355708503.58452773       -6011099.9819801301        1495512357.8099289     
  -343352317.59720719       -6091401.3831410706        1499168107.8363602     
  -330924768.75331229       -5933826.5957221687        1507475361.8975616     
  -757213297.41528237       -5680971.7110811770        1478332619.4182739     
  -732624712.16262841       -4235878.8601782620        1473199447.9845903     
  -708079506.23682809       -2935383.7654530108        1472472296.3543832     
  -683577679.63787770       -1779486.4268957078        1476151164.5276501     
  -659119232.36577988       -768186.84451386333        1484236052.5043893     
  -1132446936.4142931       -5693213.3802424669        1453918574.6600177     
  -1096184609.7011323       -2457388.9554892778        1449165623.9550874     
  -1060080404.4982500        251363.76833659410        1448573208.8223405     
  -1024134320.8056495        2433044.7912225723        1452141329.2617710     
  -988346358.62333167        4087654.1131682396        1459869985.2733850     
  -1505907703.9864645       -5173593.6213571429        1428913235.5865953     
  -1458673019.3307757       -357452.67813628912        1424406639.7297518     
  -1411711198.3687968        3549142.6193829775        1423815095.2137957     
  -1365022241.1005263        6546192.2712070346        1427138602.0387275     
  -1318606147.5259674        8633696.2773286700        1434377160.2045453     
  -3762967.7859315639       -11409265.140461493        1529587913.4528995     
  -4025022.4575987910       -12175520.330726650        1522913026.6637602     
  -4389112.0526877055       -13281891.932397431        1520836526.6588175     
  -4855236.5711988676       -14728379.945475874        1523358413.4380674     
  -5423396.0131399287       -16514984.369986970        1530478687.0015185     
  -330924768.75331229       -5933826.5957221687        1507475361.8975616     
  -318759044.51107919       -5962527.3637684435        1500392886.3135488     
  -306735712.69133604       -6465869.5401176065        1498101649.0124426     
  -294854773.29408318       -7443853.1247651279        1500601649.9942458     
  -283116226.31932366       -8896478.1177256554        1507892889.2589567     
  -659119232.36577988       -768186.84451386333        1484236052.5043893     
  -633974724.92761338        105968.09426277876        1476698904.3765914     
  -609012967.41100240        370956.62785720825        1474145846.0304124     
  -584233959.81595254        26778.756246864796        1476576877.4658549     
  -559637702.14245856       -926565.52055138350        1483991998.6829138     
  -988346358.62333167        4087654.1131682396        1459869985.2733850     
  -949672063.70720053        6029966.0433768630        1451831080.8528891     
  -911220876.21168876        7228586.5715191960        1448969117.7127271     
  -872992796.13680470        7683515.6975690126        1451284095.8528919     
  -834987823.48254526        7394753.4215365052        1458776015.2733917     
  -1318606147.5259674        8633696.2773286700        1434377160.2045453     
  -1265851060.8498333        11809466.483590603        1425789415.7424414     
  -1213359439.0933890        14107020.290888667        1422571464.0593812     
  -1161131282.2566409        15526357.699198842        1424723305.1553636     
  -1109166590.3395834        16067478.708538890        1432244939.0303881     
  -5423396.0131399287       -16514984.369986970        1530478687.0015185     
  -6711032.1999550303       -19568881.403021857        1526081205.0895553     
  -8589896.9260350093       -24593540.233605642        1526253296.1801434     
  -11059990.191380141       -31588960.861739244        1530994960.2732885     
  -14121311.995984295       -40555143.287404999        1540306197.3689890     
  -283116226.31932366       -8896478.1177256554        1507892889.2589567     
  -272448483.13750803       -11291735.406413794        1503357216.6867220     
  -262048055.98893124       -14578046.139229819        1503296422.9929512     
  -251914944.87359136       -18755410.316171318        1507710508.1776469     
  -242049149.79149002       -23823827.937239349        1516599472.2408063     
  -559637702.14245856       -926565.52055138350        1483991998.6829138     
  -537285134.23227024       -2744349.4569718540        1479696033.3741052     
  -514875969.84929419       -4373478.4841006696        1479780252.8196723     
  -492410208.99352831       -5813952.6019310951        1484244657.0196152     
  -469887851.66497511       -7065771.8104691803        1493089245.9739316     
  -834987823.48254526        7394753.4215365052        1458776015.2733917     
  -801220985.48424125        6073276.4453024864        1455097655.1517079     
  -767073638.50711775        6020162.7318019271        1455704785.6603074     
  -732545782.55118608        7235412.2809945643        1460597406.7991936     
  -697637417.61643624        9719025.0929123461        1469775518.5683639     
  -1109166590.3395834        16067478.708538890        1432244939.0303881     
  -1064256036.8934160        15161142.300432384        1429562082.0195231     
  -1018641061.9624130        16602877.508443952        1431070021.5148571     
  -972321665.54656231        20392684.332612395        1436768757.5163860     
  -925297847.64587855        26530562.772892892        1446658290.0241079     
  -14121311.995984295       -40555143.287404999        1540306197.3689890     
  -18785630.460148517       -54279281.330861993        1533773269.5212774     
  -25678757.716866978       -75432782.016166449        1531498004.9266584     
  -34800693.766141064       -104015645.34332022        1533480403.5851331     
  -46151438.607965402       -140027871.31231230        1539720465.4967113     
  -242049149.79149002       -23823827.937239349        1516599472.2408063     
  -232590543.45891061       -31152545.690356150        1508567472.7578931     
  -224274386.04289547       -42289426.498688214        1505665732.1062179     
  -217100677.54344863       -57234470.362245940        1507894250.2857931     
  -211069417.96056333       -75987677.281013101        1515253027.2966120     
  -469887851.66497511       -7065771.8104691803        1493089245.9739316     
  -443813190.31237215       -7251130.2062717974        1484825594.7111332     
  -417794618.00034398       -7623452.0706563890        1482564797.8577309     
  -391832134.72888845       -8182737.4036164135        1486306855.4137149     
  -365925740.49801350       -8928986.2051762342        1496051767.3791034     
  -697637417.61643624        9719025.0929123461        1469775518.5683639     
  -652453571.02052319        17424965.121424884        1462547635.3810041     
  -606239453.58919811        28565141.267977238        1462195202.1811850     
  -558995065.32246077        43139553.532569230        1468718218.9689126     
  -510720406.22030842        61148201.915210545        1482116685.7441759     
  -925297847.64587855        26530562.772892892        1446658290.0241079     
  -858511685.58337319        42875740.292698562        1441733594.7675059     
  -789608892.80946934        66276353.517167479        1444556945.0765891     
  -718589469.32415783        96732402.446331173        1455128340.9513707     
  -645453415.12745023        134243887.08014333        1473447782.3918388     
  -1756041202.7368126       -526812360.82104373        680069945.09084535     
  -1784049918.0201027       -500044873.80008900        806482118.85230923     
  -1809142260.7805917       -463556145.03646159        925783164.39503753     
  -1831318231.0182781       -417346174.53016049        1037973081.7190306     
  -1850577828.7331624       -361414962.28118670        1143051870.8242881     
  -2201705489.1301966       -660511646.73905897        696470525.48933268     
  -2238328179.1926932       -613872282.75337982        813886943.43263495     
  -2272913447.5769587       -560441513.17359257        927202537.38803852     
  -2305461294.2829905       -500219337.99969709        1036417307.3555431     
  -2335971719.3107901       -433205757.23169267        1141531253.3351495     
  -2685628693.2879133       -805688607.98637390        722020776.98246765     
  -2722264488.8986554       -736597106.26668203        829415996.45561039     
  -2757741813.6757345       -663644035.10144651        935720696.17169130     
  -2792060667.6191506       -586829394.49066758        1040934876.1307102     
  -2825221050.7289038       -506153184.43434495        1145058536.3326674     
  -3207810815.2099643       -962343244.56298923        756720699.57024992     
  -3235858847.1379890       -868219344.33999562        853069277.92123580     
  -3263627359.0769205       -773163710.82002330        951337640.74599624     
  -3291116351.0267582       -677176344.00307250        1051525788.0445316     
  -3318325822.9875021       -580257243.88914227        1153633719.8168418     
  -3768251854.8963480       -1130475556.4689045        800570293.25267971     
  -3779111253.9106941       -1008738996.9733206        884846787.82951081     
  -3790570083.7805157       -889000540.32932281        974053371.11095357     
  -3802628344.5058131       -771260186.53691161        1068190043.0970076     
  -3815286036.0865874       -655517935.59608614        1167256803.7876732     
  -1850577828.7331624       -361414962.28118670        1143051870.8242881     
  -1835275552.9092159       -295782632.40925354        1190579687.9341908     
  -1823329722.8643501       -241338455.13425481        1240403044.8809264     
  -1814740338.5985651       -198082430.45619309        1292521941.6644962     
  -1809507400.1118603       -166014558.37506664        1346936378.2848997     
  -2335971719.3107901       -433205757.23169267        1141531253.3351495     
  -2312421608.5504990       -352168050.78733033        1182818544.7477491     
  -2292355535.9915614       -282743805.01414835        1224599697.8347588     
  -2275773501.6339784       -224933019.91214848        1266874712.5961778     
  -2262675505.4777503       -178735695.48132944        1309643589.0320070     
  -2825221050.7289038       -506153184.43434495        1145058536.3326674     
  -2798570756.9249072       -411254396.98534471        1179956444.2219784     
  -2775532093.7445378       -328394378.28177035        1213546535.6232758     
  -2756105061.1877971       -257573128.32362509        1245828810.5365586     
  -2740289659.2546854       -198790647.11090541        1276803268.9618266     
  -3318325822.9875021       -580257243.88914227        1153633719.8168418     
  -3293722998.0324407       -473041671.00329709        1181993386.3568792     
  -3272859396.1232805       -378290174.93712294        1207243558.2464778     
  -3255735017.2600217       -296002755.69062340        1229384235.4856379     
  -3242349861.4426665       -226179413.26379561        1248415418.0743597     
  -3815286036.0865874       -655517935.59608614        1167256803.7876732     
  -3797878331.8730998       -537529872.84118676        1188929371.1524501     
  -3784337443.1277876       -432431194.98020482        1205690765.7043645     
  -3774663369.8506532       -340221902.01314509        1217540987.4434164     
  -3768856112.0416927       -260901993.93999887        1224480036.3696058     
  -1809507400.1118603       -166014558.37506664        1346936378.2848997     
  -1778757868.7980747       -133407392.51290917        1364717226.6276309     
  -1749343551.5296657       -105250940.13533854        1383315358.6599252     
  -1721264448.3066320       -81545201.242353380        1402730774.3817830     
  -1694520559.1289754       -62290175.833955109        1422963473.7932043     
  -2262675505.4777503       -178735695.48132944        1309643589.0320070     
  -2223129057.8751760       -134296949.31602228        1317594643.8445129     
  -2186489636.0488834       -99548289.071649313        1328764908.9657955     
  -2152757239.9988708       -74489714.748214006        1343154384.3958576     
  -2121931869.7251389       -59121226.345710397        1360763070.1346967     
  -2740289659.2546854       -198790647.11090541        1276803268.9618266     
  -2685083647.8798532       -140461526.39740503        1273090749.8913848     
  -2634356474.0122066       -97061864.041190863        1274999367.7489347     
  -2588108137.6517453       -68591660.042260885        1282529122.5344768     
  -2546338638.7984705       -55050914.400619149        1295680014.2480109     
  -3242349861.4426665       -226179413.26379561        1248415418.0743597     
  -3164621638.8121061       -151901123.75706220        1231205544.7682476     
  -3092944065.4196386       -97791665.043965459        1222018735.0093424     
  -3027317141.2652583       -63851037.124500751        1220854988.7976420     
  -2967740866.3489728       -50079239.998678327        1227714306.1331494     
  -3768856112.0416927       -260901993.93999887        1224480036.3696058     
  -3661743030.6719360       -168615741.39499283        1191939028.4751010     
  -3562252410.2711754       -101737692.07997024        1169823010.7470171     
  -3470384250.8394089       -60267845.994933367        1158131983.1853530     
  -3386138552.3766408       -44206203.139884710        1156865945.7901099     
  -1694520559.1289754       -62290175.833955109        1422963473.7932043     
  -1645123872.1724851       -40532786.377932250        1416241433.7365181     
  -1597222833.9965703       -23760892.857157290        1414992380.6831882     
  -1550817444.6012292       -11974495.271629691        1419216314.6332140     
  -1505907703.9864645       -5173593.6213571429        1428913235.5865953     
  -2121931869.7251389       -59121226.345710397        1360763070.1346967     
  -2059870631.1568248       -40489095.205638289        1353325632.5304527     
  -1998929037.8567119       -25589114.959567904        1350878384.1587057     
  -1939107089.8248010       -14421285.607502222        1353421325.0194561     
  -1880404787.0610919       -6985607.1494449377        1360954455.1127031     
  -2546338638.7984705       -55050914.400619149        1295680014.2480109     
  -2472992270.8207860       -39957868.237227559        1287965849.8606434     
  -2400389544.5989285       -27343627.926597714        1284759076.9349155     
  -2328530460.1329021       -17208193.468733549        1286059695.4708250     
  -2257415017.4227033       -9551564.8636327982        1291867705.4683743     
  -2967740866.3489728       -50079239.998678327        1227714306.1331494     
  -2884488791.1643682       -38939105.472701430        1220162085.7270939     
  -2801604354.2232203       -29024431.758251548        1216634459.0118175     
  -2719087555.5255299       -20335218.855321169        1217131425.9873214     
  -2636938395.0712953       -12871466.763915777        1221652986.6536050     
  -3386138552.3766408       -44206203.139884710        1156865945.7901099     
  -3294360192.1875730       -37432806.912068486        1149914340.1298006     
  -3202573466.7295876       -30631526.454525471        1146504530.3894124     
  -3110778376.0026879       -23802361.767269850        1146636516.5689454     
  -3018974920.0068693       -16945312.850286722        1150310298.6684000     
  -1505907703.9864645       -5173593.6213571429        1428913235.5865953     
  -1458673019.3307757       -357452.67813628912        1424406639.7297518     
  -1411711198.3687968        3549142.6193829775        1423815095.2137957     
  -1365022241.1005263        6546192.2712070346        1427138602.0387275     
  -1318606147.5259674        8633696.2773286700        1434377160.2045453     
  -1880404787.0610919       -6985607.1494449377        1360954455.1127031     
  -1822522263.9598114       -2154920.1014763117        1355333476.5532944     
  -1765075518.1252847        1223176.0573099852        1353984734.8177443     
  -1708064549.5575175        3148681.3269014359        1356908229.9060497     
  -1651489358.2565098        3621595.7072972059        1364103961.8182132     
  -2257415017.4227033       -9551564.8636327982        1291867705.4683743     
  -2187864125.9244857       -4400172.7255058289        1284942278.3711801     
  -2118911925.2660732       -1244416.7200603485        1282646273.5808117     
  -2050558415.4474635       -84296.847294092178        1284979691.0972700     
  -1982803596.4686587       -919813.10721123219        1291942530.9205563     
  -2636938395.0712953       -12871466.763915777        1221652986.6536050     
  -2554698605.2248025       -7093210.5502307415        1213233045.1834030     
  -2473220419.7911572       -3853635.7127172947        1209799711.5029974     
  -2392503838.7703652       -3152742.2513779402        1211352985.6123874     
  -2312548862.1624260       -4990530.1662026644        1217892867.5115759     
  -3018974920.0068693       -16945312.850286722        1150310298.6684000     
  -2923025701.8607550       -10234033.575643182        1140205776.9899676     
  -2828001001.7005391       -6604480.9206619263        1135445048.5843019     
  -2733900819.5262203       -6056654.8853415251        1136028113.4514039     
  -2640725155.3378010       -8590555.4696829319        1141954971.5912704     
  -1318606147.5259674        8633696.2773286700        1434377160.2045453     
  -1265851060.8498333        11809466.483590603        1425789415.7424414     
  -1213359439.0933890        14107020.290888667        1422571464.0593812     
  -1161131282.2566409        15526357.699198842        1424723305.1553636     
  -1109166590.3395834        16067478.708538890        1432244939.0303881     
  -1651489358.2565098        3621595.7072972059        1364103961.8182132     
  -1585381970.9344161        6039019.7169143558        1355667101.7742281     
  -1519442201.4074011        7897717.7429453731        1352306452.4165471     
  -1453670049.6754613        9197689.7853823900        1354022013.7451720     
  -1388065515.7385950        9938935.8442488909        1360813785.7601032     
  -1982803596.4686587       -919813.10721123219        1291942530.9205563     
  -1904182714.4798636        487622.91197526455        1283768376.9400761     
  -1825633603.1615276        1655823.3629677296        1280376851.5531626     
  -1747156262.5136502        2584788.2457586527        1281767954.7598166     
  -1668750692.5362308        3274517.5603665113        1287941686.5600355     
  -2312548862.1624260       -4990530.1662026644        1217892867.5115759     
  -2222253291.4861798       -4844723.9312276840        1210093241.2399874     
  -2131933644.3557749       -4618662.8490512371        1206782661.4692292     
  -2041589920.7712095       -4312346.9196745157        1207961128.1992970     
  -1951222120.7324862       -3925776.1431026459        1213628641.4301941     
  -2640725155.3378010       -8590555.4696829319        1141954971.5912704     
  -2539593701.9533548       -9958020.8126785755        1134641694.6739619     
  -2438342324.9901338       -10925740.893091202        1131523882.1647427     
  -2336971024.4481382       -11493715.710922837        1132601534.0636151     
  -2235479800.3273649       -11661945.266155243        1137874650.3705759     
  -1109166590.3395834        16067478.708538890        1432244939.0303881     
  -1064256036.8934160        15161142.300432384        1429562082.0195231     
  -1018641061.9624130        16602877.508443952        1431070021.5148571     
  -972321665.54656231        20392684.332612395        1436768757.5163860     
  -925297847.64587855        26530562.772892892        1446658290.0241079     
  -1388065515.7385950        9938935.8442488909        1360813785.7601032     
  -1332673924.2749600        7818371.8729882836        1358072625.7558854     
  -1276981480.2611809        6700649.7355340719        1359483212.5427136     
  -1220988183.6972620        6585769.4318823218        1365045546.1205883     
  -1164694034.5832000        7473730.9620416760        1374759626.4895086     
  -1668750692.5362308        3274517.5603665113        1287941686.5600355     
  -1602989633.6698332       -93745.158446192741        1284671393.1386495     
  -1537331291.1879954       -3804395.8257868886        1285513796.7931602     
  -1471775665.0907183       -7857434.4416614175        1290468897.5235674     
  -1406322755.3779998       -12252861.006066322        1299536695.3298717     
  -1951222120.7324862       -3925776.1431026459        1213628641.4301941     
  -1875203165.0780435       -8575208.7938842773        1209358384.1678226     
  -1799690494.7428591       -14912259.175527334        1209161774.2661948     
  -1724684109.7269342       -22936927.288033247        1213038811.7253184     
  -1650184010.0302720       -32649213.131419420        1220989496.5451872     
  -2235479800.3273649       -11661945.266155243        1137874650.3705759     
  -2149314518.4995890       -17626019.033324599        1132133598.8433986     
  -2064059090.9257693       -26622940.313676596        1130427144.9618194     
  -1979713517.6059117       -38652709.107241869        1132755288.7258399     
  -1896277798.5400140       -53715325.413996696        1139118030.1354549     
  -925297847.64587855        26530562.772892892        1446658290.0241079     
  -858511685.58337319        42875740.292698562        1441733594.7675059     
  -789608892.80946934        66276353.517167479        1444556945.0765891     
  -718589469.32415783        96732402.446331173        1455128340.9513707     
  -645453415.12745023        134243887.08014333        1473447782.3918388     
  -1164694034.5832000        7473730.9620416760        1374759626.4895086     
  -1081031795.2165959        18469255.830914438        1370202437.1146376     
  -996419549.32564104        32631469.114284158        1372113335.3274434     
  -910857296.91033673        49960370.812146783        1380492321.1279278     
  -824345037.97069538        70455960.924486458        1395339394.5160887     
  -1406322755.3779998       -12252861.006066322        1299536695.3298717     
  -1309441461.5016103       -7704095.6263971329        1293985950.2851610     
  -1212776785.2879333       -3877389.1224327087        1293623334.8501167     
  -1116328726.7369640       -772741.49417066574        1298448849.0247364     
  -1020097285.8487076        1609847.2583929896        1308462492.8090169     
  -1650184010.0302720       -32649213.131419420        1220989496.5451872     
  -1543740684.4384246       -35644314.079260349        1213084134.2790759     
  -1438680600.6963439       -43250221.192996502        1209086943.6446173     
  -1335003758.8040297       -55466934.472613633        1208997924.6418118     
  -1232710158.7614830       -72294453.918129563        1212817077.2706580     
  -1896277798.5400140       -53715325.413996696        1139118030.1354549     
  -1783929464.0270357       -65351399.527662635        1127496989.0963800     
  -1674130995.5508735       -85487027.097381771        1118504161.7109406     
  -1566882393.1115365       -114122208.12319374        1112139547.9791427     
  -1462183656.7090242       -151256942.60507518        1108403147.9009783     
  -3768251854.8963480       -1130475556.4689045        800570293.25267971     
  -3779111253.9106941       -1008738996.9733206        884846787.82951081     
  -3790570083.7805157       -889000540.32932281        974053371.11095357     
  -3802628344.5058131       -771260186.53691161        1068190043.0970076     
  -3815286036.0865874       -655517935.59608614        1167256803.7876732     
  -4339787638.4641304       -1301936291.5392392        858731776.77262008     
  -4335237932.1476784       -1125752831.7061667        942336424.70841074     
  -4331820742.5575085       -953344427.62736702        1020299472.5777059     
  -4329536069.6936188       -784711079.30284011        1092620920.3805065     
  -4328383913.5560131       -619852786.73258567        1159300768.1168118     
  -4895253992.0303764       -1468576197.6091127        936367368.87293434     
  -4905500005.4434309       -1247007284.9566431        1018678236.6517440     
  -4917411621.4535732       -1030990380.9611323        1084775815.5929518     
  -4930988840.0608034       -820525485.62258112        1134660105.6965580     
  -4946231661.2651224       -615612598.94099057        1168331106.9625626     
  -5434650915.5950832       -1630395274.6785250        1033477069.5536222     
  -5489897473.7979498       -1372502356.7247491        1113872223.6595106     
  -5547342720.4687109       -1121938400.3306203        1167482400.1566908     
  -5606986655.6073627       -878703405.49613559        1194307599.0451622     
  -5668829279.2139120       -642797372.22129941        1194347820.3249257     
  -5957978409.1582546       -1787393522.7474763        1150060878.8146842     
  -6088430337.2112370       -1502238047.0104861        1227918385.7317107     
  -6221614039.6029186       -1226188485.7358279        1268419226.2689226     
  -6357529516.3332996       -959244838.92350364        1271563400.4263194     
  -6496176767.4023800       -701407106.57351232        1237350908.2039015     
  -3815286036.0865874       -655517935.59608614        1167256803.7876732     
  -3797878331.8730998       -537529872.84118676        1188929371.1524501     
  -3784337443.1277876       -432431194.98020482        1205690765.7043645     
  -3774663369.8506532       -340221902.01314509        1217540987.4434164     
  -3768856112.0416927       -260901993.93999887        1224480036.3696058     
  -4328383913.5560131       -619852786.73258567        1159300768.1168118     
  -4298147327.5793161       -464102206.87898326        1141345155.7131324     
  -4278536274.3280139       -343770069.44336665        1129454659.6866229     
  -4269550753.8021107       -258856374.42574096        1123629280.0372832     
  -4271190766.0016031       -209361121.82610106        1123869016.7651126     
  -4946231661.2651224       -615612598.94099057        1168331106.9625626     
  -4871805367.2679806       -412691254.11151385        1102862144.6570034     
  -4814763323.2534552       -267717409.22409391        1054434587.9186453     
  -4775105529.2215471       -180691064.27873158        1023048436.7474889     
  -4752831985.1722565       -151612219.27542639        1008703691.1435338     
  -5668829279.2139120       -642797372.22129941        1194347820.3249257     
  -5518852450.9390888       -383297014.53877735        1073480337.9840616     
  -5393018589.9041061       -204273214.32238412        980630550.40043080     
  -5291327696.1089630       -105725971.57211733        915798457.57403469     
  -5213779769.5536556       -87655286.287974119        878984059.50487113     
  -6496176767.4023800       -701407106.57351232        1237350908.2039015     
  -6239288578.5926466       -375919488.16077614        1053199735.6943088     
  -6013302074.2799721       -153437484.73823714        908042547.13198113     
  -5818217254.4643564       -33961096.305893421        801879342.51691997     
  -5654034119.1457996       -17490322.863747120        734710121.84912336     
  -3768856112.0416927       -260901993.93999887        1224480036.3696058     
  -3661743030.6719360       -168615741.39499283        1191939028.4751010     
  -3562252410.2711754       -101737692.07997024        1169823010.7470171     
  -3470384250.8394089       -60267845.994933367        1158131983.1853530     
  -3386138552.3766408       -44206203.139884710        1156865945.7901099     
  -4271190766.0016031       -209361121.82610106        1123869016.7651126     
  -4148206858.3588719       -145231908.59537816        1090499329.1789722     
  -4029599537.9829974       -95691319.587504387        1065410757.6319952     
  -3915368804.8739796       -60739354.802486181        1048603302.1241826     
  -3805514659.0318127       -40376014.240314960        1040076962.6555325     
  -4752831985.1722565       -151612219.27542639        1008703691.1435338     
  -4620102605.9058571       -117477651.75377607        978292176.51825488     
  -4488503940.2041721       -87112129.447843790        954017903.80488241     
  -4358035988.0672035       -60515652.357633114        935880873.00341654     
  -4228698749.4949517       -37688220.483139515        923881084.11385691     
  -5213779769.5536556       -87655286.287974119        878984059.50487113     
  -5077430273.3128920       -85352970.870189428        855317570.49294996     
  -4938965616.9347057       -76000121.660992622        835644449.26567769     
  -4798385800.4190950       -59596738.660380125        819964695.82305670     
  -4655690823.7660589       -36142821.868354321        808278310.16508305     
  -5654034119.1457996       -17490322.863747120        734710121.84912336     
  -5520189860.5799770       -48857865.944620132        721575511.10305536     
  -5380984568.1745930       -62355296.226945162        710290394.01438177     
  -5236418241.9296436       -57982613.710726500        700854770.58309937     
  -5086490881.8451300       -35739818.395955563        693268640.80921102     
  -3386138552.3766408       -44206203.139884710        1156865945.7901099     
  -3294360192.1875730       -37432806.912068486        1149914340.1298006     
  -3202573466.7295876       -30631526.454525471        1146504530.3894124     
  -3110778376.0026879       -23802361.767269850        1146636516.5689454     
  -3018974920.0068693       -16945312.850286722        1150310298.6684000     
  -3805514659.0318127       -40376014.240314960        1040076962.6555325     
  -3702308865.7052765       -29722667.884775162        1031788640.2014121     
  -3599813620.3549170       -21437814.783159971        1027853481.9036422     
  -3498028922.9807382       -15521454.935476780        1028271487.7622190     
  -3396954773.5827355       -11973588.341719151        1033042657.7771475     
  -4228698749.4949517       -37688220.483139515        923881084.11385691     
  -4111747328.0697222       -22459465.511503696        913417312.74664879     
  -3996225367.8657670       -11995581.277447224        908118073.77221704     
  -3882132868.8830862       -6296567.7809746265        907983367.19056225     
  -3769469831.1216788       -5362425.0220761299        913013193.00168550     
  -4655690823.7660589       -36142821.868354321        808278310.16508305     
  -4522675579.2809143       -15643199.792257547        794800357.76550925     
  -4391808709.2621374       -2304825.9373908043        787298305.99514043     
  -4263090213.7097321        3872299.6962413788        785772154.85397601     
  -4136520092.6236949        2888177.1086444855        790221904.34201908     
  -5086490881.8451300       -35739818.395955563        693268640.80921102     
  -4935093619.3388481       -9273870.7270338535        675937775.25799429     
  -4786563644.5440292        7634451.2370061874        665394178.57240891     
  -4640900957.4606743        14985147.496164083        661637850.75245988     
  -4498105558.0887842        12778218.050448179        664668791.79814148     
  -3018974920.0068693       -16945312.850286722        1150310298.6684000     
  -2923025701.8607550       -10234033.575643182        1140205776.9899676     
  -2828001001.7005391       -6604480.9206619263        1135445048.5843019     
  -2733900819.5262203       -6056654.8853415251        1136028113.4514039     
  -2640725155.3378010       -8590555.4696829319        1141954971.5912704     
  -3396954773.5827355       -11973588.341719151        1033042657.7771475     
  -3288621868.9177518       -8085545.7591741085        1023764208.2672528     
  -3180789922.1609664       -5867362.8706247807        1019319394.3511292     
  -3073458933.3123746       -5319039.6760588884        1019708216.0287757     
  -2966628902.3719854       -6440576.1754893064        1024930673.3001959     
  -3769469831.1216788       -5362425.0220761299        913013193.00168550     
  -3650210833.3063822       -4734897.1421964169        905054969.08431268     
  -3531029233.3215842       -4365362.0306413174        901420223.08171713     
  -3411925031.1672807       -4253819.6874032021        902108954.99389589     
  -3292898226.8434744       -4400270.1124889851        907121164.82085371     
  -4136520092.6236949        2888177.1086444855        790221904.34201908     
  -4007792595.0266428       -182087.72470903397        784078059.44115114     
  -3878718935.1823869       -2098478.4007115364        781747534.77606654     
  -3749299113.0909252       -2860994.9193685055        783230330.34676194     
  -3619533128.7522645       -2469637.2806744576        788526446.15324032     
  -4498105558.0887842        12778218.050448179        664668791.79814148     
  -4361367154.0785370        5572882.4932894707        660833479.33776557     
  -4223859027.7433829        933288.01915383339        660301329.43417776     
  -4085581179.0833220       -1140565.3719592094        663072342.08737361     
  -3946533608.0983586       -648677.68006086349        669146517.29735792     
  -2640725155.3378010       -8590555.4696829319        1141954971.5912704     
  -2539593701.9533548       -9958020.8126785755        1134641694.6739619     
  -2438342324.9901338       -10925740.893091202        1131523882.1647427     
  -2336971024.4481382       -11493715.710922837        1132601534.0636151     
  -2235479800.3273649       -11661945.266155243        1137874650.3705759     
  -2966628902.3719854       -6440576.1754893064        1024930673.3001959     
  -2854020159.1637726       -6546013.7808372974        1017648917.1684494     
  -2741383544.7196374       -6558547.2664421797        1014709143.9382066     
  -2628719059.0395703       -6478176.6322782040        1016111353.6094680     
  -2516026702.1235814       -6304901.8783663511        1021855546.1822349     
  -3292898226.8434744       -4400270.1124889851        907121164.82085371     
  -3168393569.5446005       -3118092.7001342773        899763535.07467914     
  -3043953093.3526464       -2049852.3108509779        896894406.72342181     
  -2919576798.2676120       -1195548.9446299076        898513779.76708436     
  -2795264684.2894993       -555182.60148644447        904621654.20566511     
  -3619533128.7522645       -2469637.2806744576        788526446.15324032     
  -3482713933.0958281        325742.42945623398        780985548.39264691     
  -3346050970.8891602        2600343.9736950397        778079670.52038777     
  -3209544242.1322622        4354167.3520357609        779808812.53646147     
  -3073193746.8251333        5587212.5644831657        786172974.44086778     
  -3946533608.0983586       -648677.68006086349        669146517.29735792     
  -3796981249.8174644        3785491.6079244614        661314957.12235677     
  -3647677177.3291826        7392041.5871851444        658264935.32910264     
  -3498621390.6335163        10170972.257726431        659996451.91760004     
  -3349813889.7304754        12122283.619529963        666509506.88784301     
  -2235479800.3273649       -11661945.266155243        1137874650.3705759     
  -2149314518.4995890       -17626019.033324599        1132133598.8433986     
  -2064059090.9257693       -26622940.313676596        1130427144.9618194     
  -1979713517.6059117       -38652709.107241869        1132755288.7258399     
  -1896277798.5400140       -53715325.413996696        1139118030.1354549     
  -2516026702.1235814       -6304901.8783663511        1021855546.1822349     
  -2419561871.7295518       -11930450.353374720        1015555406.8467034     
  -2323738472.0916800       -19694101.348906636        1013065278.3106554     
  -2228556503.2099614       -29595854.864952564        1014385160.5740896     
  -2134015965.0843964       -41635710.901503801        1019515053.6370084     
  -2795264684.2894993       -555182.60148644447        904621654.20566511     
  -2689141982.0324078       -6034708.7953035831        898075587.80921745     
  -2583392287.0336633       -12757592.516947508        895114945.36614013     
  -2478015599.2932730       -20723833.766437769        895739726.87642992     
  -2373011918.8112268       -29933432.543743730        899949932.34008634     
  -3073193746.8251333        5587212.5644831657        786172974.44086778     
  -2958054849.4081607        61205.640907287598        779694141.73094440     
  -2843020535.7517300       -5813413.8178155422        776576146.12827396     
  -2728090805.8558455       -12036645.811693430        776818987.63286054     
  -2613265659.7205071       -18608490.340725780        780422666.24469435     
  -3349813889.7304754        12122283.619529963        666509506.88784301     
  -3226300473.8568039        6357292.9552425146        660411068.61187947     
  -3102623218.2458720        1138434.7484929562        657448880.59705663     
  -2978782122.8976851       -3534291.0007426739        657622942.84337652     
  -2854777187.8122334       -7660884.2924251556        660933255.35083008     
  -1896277798.5400140       -53715325.413996696        1139118030.1354549     
  -1783929464.0270357       -65351399.527662635        1127496989.0963800     
  -1674130995.5508735       -85487027.097381771        1118504161.7109406     
  -1566882393.1115365       -114122208.12319374        1112139547.9791427     
  -1462183656.7090242       -151256942.60507518        1108403147.9009783     
  -2134015965.0843964       -41635710.901503801        1019515053.6370084     
  -2012070630.4039550       -48292667.916552663        1005737213.7832235     
  -1891355429.7662246       -59050071.740640283        995564441.07416463     
  -1771870363.1712062       -73907922.373768926        988996735.50984395     
  -1653615430.6189065       -92866219.815953076        986034097.09024155     
  -2373011918.8112268       -29933432.543743730        899949932.34008634     
  -2238678573.9887829       -30773969.467825174        885554980.99805713     
  -2104255631.2149360       -31315846.553900838        875741950.29184127     
  -1969743090.4896929       -31559063.802004337        870510840.22144961     
  -1835140951.8130696       -31503621.212121844        869861650.78687346     
  -2613265659.7205071       -18608490.340725780        780422666.24469435     
  -2463753294.7815089       -12795304.181455612        766950290.74087501     
  -2312831599.8970046       -2284351.5371681452        759036689.36396992     
  -2160500575.0670013        12924367.592118144        756681862.11397493     
  -2006760220.2914865        32830853.206439853        759885808.99087739     
  -2854777187.8122334       -7660884.2924251556        660933255.35083008     
  -2687294792.7821484        5643327.9425300360        649923143.01168418     
  -2517083335.8124385        28044413.309548974        645448658.29054260     
  -2344142816.9031219        59542371.808603764        647509801.18740213     
  -2168473236.0541916        100137203.43970847        656106571.70226145     
  -5957978409.1582546       -1787393522.7474763        1150060878.8146842     
  -6088430337.2112370       -1502238047.0104861        1227918385.7317107     
  -6221614039.6029186       -1226188485.7358279        1268419226.2689226     
  -6357529516.3332996       -959244838.92350364        1271563400.4263194     
  -6496176767.4023800       -701407106.57351232        1237350908.2039015     
  -6810615140.9907360       -2043184542.2972207        1353796563.9918914     
  -6828534448.2829952       -1395475813.8186419        1202760991.8596432     
  -6897820874.4908428       -918990815.05868578        1091979505.2904763     
  -7018474419.6142740       -613729546.01735210        1021452104.2843907     
  -7190495083.6532946       -479692006.69464207        991178788.84138572     
  -8337939779.3633757       -2501381933.8090129        1712361892.4210148     
  -8021581460.3437805       -1424596450.9235058        1275692005.8997905     
  -7805225604.8166599       -681152513.01291180        956886956.88454366     
  -7688872212.7820120       -271050120.07722950        755946745.37527382     
  -7672521284.2398386       -194289272.11646175        672871371.37198091     
  -10539952324.276175       -3161985697.2828522        2225756864.1020555     
  -9667571373.3935928       -1589599958.3250785        1446711427.8521538     
  -8943828230.5803757       -512673579.59850693        863141581.05112493     
  -8368722895.8365135        68793438.896863937        475047323.69896871     
  -7942255369.1620169        154801097.16102839        282428655.79568750     
  -13416652775.729132       -4024995832.7187395        2893981479.0350127     
  -11766504187.432432       -1890486336.0233579        1715819257.7167320     
  -10313628751.781984       -413554014.81547022        810743377.79022050     
  -9058026468.7777805        405801130.90492725        178753839.25547782     
  -7999697338.4198246        567579101.13782978       -180149357.88749567     
  -6496176767.4023800       -701407106.57351232        1237350908.2039015     
  -6239288578.5926466       -375919488.16077614        1053199735.6943088     
  -6013302074.2799721       -153437484.73823714        908042547.13198113     
  -5818217254.4643564       -33961096.305893421        801879342.51691997     
  -5654034119.1457996       -17490322.863747120        734710121.84912336     
  -7190495083.6532946       -479692006.69464207        991178788.84138572     
  -6900561910.9897089       -304403288.63630986        846877766.66953504     
  -6623438524.2073460       -171813856.84871626        723663263.59670544     
  -6359124923.3062067       -81923711.331862450        621535279.62289560     
  -6107621108.2862854       -34732852.085745096        540493814.74810648     
  -7672521284.2398386       -194289272.11646175        672871371.37198091     
  -7400707313.0031080       -184548709.99674463        589527714.58968329     
  -7123611229.0317554       -157201105.42830610        509363112.05816150     
  -6841233032.3257923       -112246458.41115189        432377563.77741319     
  -6553572722.8852081       -49684768.945273876        358571069.74744117     
  -7942255369.1620169        154801097.16102839        282428655.79568750     
  -7739724784.6328316       -16355752.242074966        281149579.45475358     
  -7513820188.7531948       -109599230.47700214        265142092.51634818     
  -7264541581.5231075       -124929337.54375744        234406194.98047495     
  -6991888962.9425650       -62346073.442332745        188941886.84712857     
  -7999697338.4198246        567579101.13782978       -180149357.88749567     
  -7917614325.8788967        200175584.62768984       -78256638.735259339     
  -7794065403.3716698       -29008231.994812489       -8999795.0287339520     
  -7629050570.8981571       -119972348.72968721        27621173.232072294     
  -7422569828.4583549       -72716765.576922417        31606266.047165114     
  -5654034119.1457996       -17490322.863747120        734710121.84912336     
  -5520189860.5799770       -48857865.944620132        721575511.10305536     
  -5380984568.1745930       -62355296.226945162        710290394.01438177     
  -5236418241.9296436       -57982613.710726500        700854770.58309937     
  -5086490881.8451300       -35739818.395955563        693268640.80921102     
  -6107621108.2862854       -34732852.085745096        540493814.74810648     
  -5959206044.4152975       -36397887.089640379        534062807.03160465     
  -5809802690.6446257       -34768622.427925110        530136192.49007666     
  -5659411046.9742718       -29845058.100597143        528713971.12351799     
  -5508031113.4042330       -21627194.107661724        529796142.93193197     
  -6553572722.8852081       -49684768.945273876        358571069.74744117     
  -6388715712.2302532       -21085953.428553104        353742130.46397722     
  -6227243155.6154985       -3768651.3791577816        352072483.87306559     
  -6069155053.0409384        2267137.2029156685        353562129.97470397     
  -5914451404.5065775       -2978587.6823413372        358211068.76889402     
  -6991888962.9425650       -62346073.442332745        188941886.84712857     
  -6808718864.0248480       -2922064.9613552094        180613481.40017232     
  -6633305963.0872068        30644616.919362545        176099268.16334927     
  -6465650260.1296453        38353972.199813128        175399247.13665795     
  -6305751755.1521635        20206000.880007267        178513418.32009545     
  -7422569828.4583549       -72716765.576922417        31606266.047165114     
  -7219215499.7990751        18093778.311951637        14676859.840192428     
  -7027991113.0597553        68471182.467626572        2216545.3609309038     
  -6848896668.2403946        78415446.890107155       -5774677.3906203760     
  -6681932165.3409939        47926571.579382420       -9296808.4144640937     
  -5086490881.8451300       -35739818.395955563        693268640.80921102     
  -4935093619.3388481       -9273870.7270338535        675937775.25799429     
  -4786563644.5440292        7634451.2370061874        665394178.57240891     
  -4640900957.4606743        14985147.496164083        661637850.75245988     
  -4498105558.0887842        12778218.050448179        664668791.79814148     
  -5508031113.4042330       -21627194.107661724        529796142.93193197     
  -5345245743.9888306       -9890862.7466735840        514837757.81816614     
  -5183384816.1558943       -1236003.3272445202        505251328.30146033     
  -5022448329.9054241        4337384.1506278515        501036854.38181251     
  -4862436285.2374229        6829299.6869370937        502194336.05922312     
  -5914451404.5065775       -2978587.6823413372        358211068.76889402     
  -5744321680.3779793       -7184998.2880604267        347891817.90974158     
  -5573173551.7028542       -7996727.0720205307        341529209.37907153     
  -5401007018.4811954       -5413774.0342159271        339123243.17689061     
  -5227822080.7130175        563860.82533550262        340673919.30319268     
  -6305751755.1521635        20206000.880007267        178513418.32009545     
  -6132321428.5062962       -1156277.3512027264        175099955.53271398     
  -5955929851.1849022       -12647719.997319698        174227821.80525133     
  -5776577023.1879873       -14268327.058365822        175897017.13769004     
  -5594262944.5155478       -6018098.5343396664        180107541.53004801     
  -6681932165.3409939        47926571.579382420       -9296808.4144640937     
  -6509244988.3737812        8195300.0639147758       -3537829.3129077004     
  -6331653714.6020508       -15188982.103158951        3347165.5799875604     
  -6149158344.0257978       -22226274.921824217        11358176.264218086     
  -5961758876.6450310       -12916578.392111063        20495202.739787638     
  -4498105558.0887842        12778218.050448179        664668791.79814148     
  -4361367154.0785370        5572882.4932894707        660833479.33776557     
  -4223859027.7433829        933288.01915383339        660301329.43417776     
  -4085581179.0833220       -1140565.3719592094        663072342.08737361     
  -3946533608.0983586       -648677.68006086349        669146517.29735792     
  -4862436285.2374229        6829299.6869370937        502194336.05922312     
  -4715497639.7194653        4168849.6172044277        498600399.40710866     
  -4568445769.6702642        1885814.6516089439        498500820.09165674     
  -4421280675.0898247       -19805.209860801697        501895598.11287069     
  -4274002355.9781456       -1548009.9671914577        508784733.47074860     
  -5227822080.7130175        563860.82533550262        340673919.30319268     
  -5070136922.8876915        2612177.4829294682        336555444.36672759     
  -4912995038.3247881        2849583.2657678127        336122521.54680413     
  -4756396427.0243120        1276078.1738486290        339375150.84342587     
  -4600341088.9862671       -2108337.7928307056        346313332.25658357     
  -5594262944.5155478       -6018098.5343396664        180107541.53004801     
  -5425285003.5832052        902866.09046673775        174698614.21662220     
  -5257506833.7069559        3824593.8616213799        173166433.79961577     
  -5090928434.8867922        2747084.7791519165        175511000.27903393     
  -4925549807.1227293       -2329661.1569726467        181732313.65486658     
  -5961758876.6450310       -12916578.392111063        20495202.739787638     
  -5780941881.8060141       -959084.56018757820        13029908.956791971     
  -5601981155.8167572        4810846.4392056465        9632556.8500918020     
  -5424876698.6772614        4393214.6060621738        10303146.419697622     
  -5249628510.3875217       -2211980.0596036911        15041677.665593978     
  -3946533608.0983586       -648677.68006086349        669146517.29735792     
  -3796981249.8174644        3785491.6079244614        661314957.12235677     
  -3647677177.3291826        7392041.5871851444        658264935.32910264     
  -3498621390.6335163        10170972.257726431        659996451.91760004     
  -3349813889.7304754        12122283.619529963        666509506.88784301     
  -4274002355.9781456       -1548009.9671914577        508784733.47074860     
  -4112683624.3858089        1331557.1372494698        501136413.74455786     
  -3951349118.5658650        4263705.0003852844        498116366.38008028     
  -3789998838.5183210        7248433.6221995354        499724591.37731338     
  -3628632784.2431641        10285743.002699614        505961088.73626477     
  -4600341088.9862671       -2108337.7928307056        346313332.25658357     
  -4427693886.9968777       -914743.74624395370        339156323.00279284     
  -4254766850.7596531        1211631.1264438629        336474320.09068352     
  -4081559980.2746010        4270786.8252272606        338267323.52025890     
  -3908073275.5417271        8262723.3500931263        344535333.29150963     
  -4925549807.1227293       -2329661.1569726467        181732313.65486658     
  -4742012037.6506596       -2953411.0425505638        175374684.89706963     
  -4557930373.9105415       -1764180.0346357822        173338796.46092570     
  -4373304815.9023714        1238031.8667957783        175624648.34641978     
  -4188135363.6261396        6053224.6617419720        182232240.55357495     
  -5249628510.3875217       -2211980.0596036911        15041677.665593978     
  -5055638076.3471642       -4784444.7516772747        9791499.4273892082     
  -4860839688.0185184       -4663728.4828059673        8709795.4907938708     
  -4665233345.4016123       -1849831.2530591488        11796565.855813570     
  -4468819048.4964266        3657246.9376287460        19051810.522450708     
  -3349813889.7304754        12122283.619529963        666509506.88784301     
  -3226300473.8568039        6357292.9552425146        660411068.61187947     
  -3102623218.2458720        1138434.7484929562        657448880.59705663     
  -2978782122.8976851       -3534291.0007426739        657622942.84337652     
  -2854777187.8122334       -7660884.2924251556        660933255.35083008     
  -3628632784.2431641        10285743.002699614        505961088.73626477     
  -3496334685.1068068        4750051.9500167370        500004166.52051389     
  -3363955182.5441098       -514294.34822273254        497615527.41224813     
  -3231494276.5550976       -5507295.8920618296        498795171.41146678     
  -3098951967.1397533       -10228952.681469679        503543098.51816314     
  -3908073275.5417271        8262723.3500931263        344535333.29150963     
  -3765756113.5816803        3326645.7773437500        338623751.43988025     
  -3623439984.5062480       -1612874.7441046238        336712485.54208142     
  -3481124888.3154202       -6555838.2142505646        338801535.59810686     
  -3338810825.0092068       -11502244.633095741        344890901.60796362     
  -4188135363.6261396        6053224.6617419720        182232240.55357495     
  -4034564759.2814460        2087074.4371812344        176269823.36997521     
  -3881077624.1322742       -2157306.4391348362        174739754.98655280     
  -3727673958.1786637       -6679917.9673111439        177642035.40329793     
  -3574353761.4205937       -11480760.147294760        184976664.62021962     
  -4468819048.4964266        3657246.9376287460        19051810.522450708     
  -4302760622.2060804        1031337.9295845032        12942382.310802648     
  -4136868101.4222145       -2147589.4333779812        11697335.745659309     
  -3971141486.1448250       -5879535.1512725353        15316670.827037022     
  -3805580776.3739090       -10164499.224071980        23800387.554925222     
  -2854777187.8122334       -7660884.2924251556        660933255.35083008     
  -2687294792.7821484        5643327.9425300360        649923143.01168418     
  -2517083335.8124385        28044413.309548974        645448658.29054260     
  -2344142816.9031219        59542371.808603764        647509801.18740213     
  -2168473236.0541916        100137203.43970847        656106571.70226145     
  -3098951967.1397533       -10228952.681469679        503543098.51816314     
  -2917562099.7682238        755957.70385003090        495073768.80058658     
  -2735559811.7870545        13782270.121300578        491302090.61603695     
  -2552945103.1962538        28849984.570872664        492228063.96450824     
  -2369717973.9958081        45959101.052573562        497851688.84600204     
  -3338810825.0092068       -11502244.633095741        344890901.60796362     
  -3148764845.5390224       -4412044.1702456474        336492939.62697482     
  -2960223086.7891788       -2335912.7752006054        330954653.09403658     
  -2773185548.7596693       -5273850.4479436874        328276042.00915378     
  -2587652231.4505105       -13225857.188500404        328457106.37230921     
  -3574353761.4205937       -11480760.147294760        184976664.62021962     
  -3380903030.0945392       -9860677.6797440052        174180655.49084863     
  -3191073160.8188095       -20310135.379930377        164406345.72455609     
  -3004864153.5933933       -42829133.247842550        155653735.32133231     
  -2822276008.4182973       -77417671.283483028        147922824.28118551     
  -3805580776.3739090       -10164499.224071980        23800387.554925222     
  -3613976653.4347844       -15589942.824681044        8136916.3922083108     
  -3428110033.8759508       -40140397.692949772       -8342831.4924145229     
  -3247980917.6974125       -83815863.828840733       -25638856.098944724     
  -3073589304.8991680       -146616341.23241055       -43751157.427371562     
 </DataArray>
 <DataArray  type="Float64" Name="VM" NumberOfComponents="1" format="ascii">
   12935695782.238140     
   11340763023.223038     
   10210230748.932875     
   9272751690.8349800     
   8303881575.5037107     
   10130326154.159561     
   9322026930.5709305     
   8826380702.0471497     
   8443550935.0450993     
   8035727800.5513554     
   7982343251.6493979     
   7734972072.3781519     
   7669172514.2016172     
   7669637494.6502590     
   7666435184.8758383     
   6491660979.7224112     
   6586885150.8395252     
   6757439926.4695997     
   6961244702.7686243     
   7171639335.3890076     
   5657833066.6405230     
   5890925991.2033234     
   6116373765.2270641     
   6331717691.8623943     
   6536735971.8215065     
   8303881575.5037107     
   8020717960.4107218     
   7779652960.3365612     
   7570001897.2256346     
   7386791675.1854572     
   8035727800.5513554     
   7746909958.4155254     
   7473754317.5691919     
   7214303476.5522499     
   6968564430.8784676     
   7666435184.8758383     
   7381191072.5921431     
   7101334735.8600912     
   6826944583.0819340     
   6558224183.3028212     
   7171639335.3890076     
   6910999562.7303391     
   6658259719.0119362     
   6409560584.1627026     
   6161756779.5962076     
   6536735971.8215065     
   6328686208.4781895     
   6142831759.4272089     
   5965262428.8167982     
   5786970099.3169384     
   7386791675.1854572     
   7228383561.3522243     
   7062496331.2418833     
   6888435240.1116543     
   6706009111.3104219     
   6968564430.8784676     
   6814438124.3258972     
   6655727285.8823519     
   6492149627.6865387     
   6323653367.9484282     
   6558224183.3028212     
   6407518211.8341656     
   6255206657.9005766     
   6101258351.7772961     
   5945702844.5578775     
   6161756779.5962076     
   6012623836.7709541     
   5864837496.2185173     
   5718436368.1994944     
   5573476894.4409170     
   5786970099.3169384     
   5636216903.8249454     
   5489651989.9515715     
   5347189380.1866865     
   5208876201.7115107     
   6706009111.3104219     
   6513440559.3697186     
   6324327493.3557882     
   6138555426.7280283     
   5956100308.0900288     
   6323653367.9484282     
   6139473169.7630568     
   5957523767.2740946     
   5777781604.9284153     
   5600269069.5761757     
   5945702844.5578775     
   5772502153.6341896     
   5600665959.0776949     
   5430218600.1328831     
   5261217910.8960505     
   5573476894.4409170     
   5414343128.3760109     
   5256104661.5128260     
   5098803181.4477739     
   4942543270.7496252     
   5208876201.7115107     
   5067403265.0884686     
   4926813101.9835243     
   4787147089.7475042     
   4648591832.0711184     
   5956100308.0900288     
   5780824701.9432516     
   5604255104.5632486     
   5426356932.9849377     
   5247140825.2482729     
   5600269069.5761757     
   5434320804.3383436     
   5267909714.4664545     
   5101059219.9805431     
   4933833396.8455105     
   5261217910.8960505     
   5104701799.6531315     
   4948609431.5527420     
   4793015721.5838366     
   4638034366.1242094     
   4942543270.7496252     
   4795467763.0922518     
   4649739631.5299635     
   4505475041.6854973     
   4362829838.5912132     
   4648591832.0711184     
   4510831415.1518335     
   4375354216.6206141     
   4242303029.4524064     
   4111864263.2503605     
   5247140825.2482729     
   5053219386.7062807     
   4860162304.3288717     
   4667969433.0863142     
   4476677808.9190273     
   4933833396.8455105     
   4750284104.5796099     
   4567739964.2298269     
   4386243273.1762800     
   4205881945.3802533     
   4638034366.1242094     
   4465918042.7739458     
   4295094179.8394032     
   4125665001.5534172     
   3957792003.7623725     
   4362829838.5912132     
   4203419454.7700119     
   4045765155.8699813     
   3890048542.0934381     
   3736529054.0027561     
   4111864263.2503605     
   3966639357.7758913     
   3823833776.7122941     
   3683725819.3618231     
   3546693121.4978671     
   4476677808.9190273     
   4306901004.4743595     
   4136109201.4352674     
   3964282670.0811653     
   3791491372.7691889     
   4205881945.3802533     
   4048935302.8695207     
   3891900218.9826446     
   3734845649.6110969     
   3577923922.5386291     
   3957792003.7623725     
   3813013106.4354572     
   3669047538.2463593     
   3526034125.8999372     
   3384186182.6838384     
   3736529054.0027561     
   3603190394.5863833     
   3471491860.4196405     
   3341618835.2359662     
   3213820238.1021256     
   3546693121.4978671     
   3423979789.2560716     
   3303601135.5102634     
   3185762640.4791284     
   3070721825.4681358     
   3791491372.7691889     
   3600621691.7338619     
   3414337583.1213617     
   3233007541.3288379     
   3057484668.2435689     
   3577923922.5386291     
   3387258890.1038175     
   3199673504.3624592     
   3015377917.2265372     
   2834813226.0342064     
   3384186182.6838384     
   3197956869.0865264     
   3013897224.2636738     
   2832158457.5102530     
   2652988906.7070856     
   3213820238.1021256     
   3037569255.8037353     
   2863401872.2002897     
   2691640173.4238014     
   2522759600.0518651     
   3070721825.4681358     
   2911247483.7234964     
   2754816554.1551070     
   2602249070.1306138     
   2454791603.0370507     
   5657833066.6405230     
   5890925991.2033234     
   6116373765.2270641     
   6331717691.8623943     
   6536735971.8215065     
   5151481803.3833199     
   5311336613.3900824     
   5467820015.4201765     
   5618035974.5661087     
   5760518649.3720837     
   4643504858.0281324     
   4755540088.9169302     
   4868699002.6589813     
   4980345952.5477743     
   5088554896.8232908     
   4134165790.3818283     
   4224373999.8326478     
   4320506138.9434509     
   4420905186.8580256     
   4524116177.1008368     
   3624984893.2434177     
   3719662816.1464329     
   3825599762.2743664     
   3942732926.3684759     
   4070970429.4018388     
   6536735971.8215065     
   6328686208.4781895     
   6142831759.4272089     
   5965262428.8167982     
   5786970099.3169384     
   5760518649.3720837     
   5652094992.2379303     
   5559676499.6596031     
   5474202140.6793785     
   5390131915.1572647     
   5088554896.8232908     
   5054005909.3930130     
   5029968932.3171406     
   5011238793.4725590     
   4994614645.1913891     
   4524116177.1008368     
   4539015688.5966969     
   4558578674.6902151     
   4580326268.1407862     
   4602535306.7689333     
   4070970429.4018388     
   4112453295.2228875     
   4151271555.8389702     
   4186527285.6787381     
   4217488784.5887218     
   5786970099.3169384     
   5636216903.8249454     
   5489651989.9515715     
   5347189380.1866865     
   5208876201.7115107     
   5390131915.1572647     
   5248731274.3439341     
   5110546938.8777199     
   4975621090.5518236     
   4844047781.9398937     
   4994614645.1913891     
   4867048169.5089540     
   4742674735.5336533     
   4621462767.8291960     
   4503453695.3027325     
   4602535306.7689333     
   4493837493.2180080     
   4389376412.6501226     
   4288835334.9219794     
   4192126538.8384242     
   4217488784.5887218     
   4133065274.8880930     
   4055170084.2197142     
   3982952745.5421438     
   3916122754.0025353     
   5208876201.7115107     
   5067403265.0884686     
   4926813101.9835243     
   4787147089.7475042     
   4648591832.0711184     
   4844047781.9398937     
   4719799438.1486769     
   4597331915.3782434     
   4476775960.6675167     
   4358377144.6936064     
   4503453695.3027325     
   4394936949.3488026     
   4289016045.0407457     
   4185877230.2908320     
   4085790844.3454375     
   4192126538.8384242     
   4097723160.1120195     
   4006585686.8509874     
   3918921881.3088069     
   3834995771.8690395     
   3916122754.0025353     
   3834055488.1205397     
   3755708909.6929045     
   3681281187.2690725     
   3611006105.7509322     
   4648591832.0711184     
   4510831415.1518335     
   4375354216.6206141     
   4242303029.4524064     
   4111864263.2503605     
   4358377144.6936064     
   4231331409.4631066     
   4106943007.0338426     
   3985410096.1327491     
   3866984450.3017063     
   4085790844.3454375     
   3970922931.2821755     
   3859291747.8432875     
   3751153564.7839842     
   3646831559.3846049     
   3834995771.8690395     
   3733810560.8492122     
   3636660183.8786783     
   3543855425.5653200     
   3455788855.8494735     
   3611006105.7509322     
   3524945634.8558731     
   3443934613.7885780     
   3368323195.4909182     
   3298557430.0167737     
   4111864263.2503605     
   3966639357.7758913     
   3823833776.7122941     
   3683725819.3618231     
   3546693121.4978671     
   3866984450.3017063     
   3735946397.1297269     
   3608130606.2568974     
   3483878256.7284317     
   3363629443.4323997     
   3646831559.3846049     
   3530085169.2662883     
   3417381369.4767046     
   3309106991.0103564     
   3205741029.0050302     
   3455788855.8494735     
   3353322640.9958081     
   3255695857.7267675     
   3163315576.9032183     
   3076667665.4741678     
   3298557430.0167737     
   3210148318.5794177     
   3127298282.0376081     
   3050403073.0782223     
   2979918770.1429648     
   3546693121.4978671     
   3423979789.2560716     
   3303601135.5102634     
   3185762640.4791284     
   3070721825.4681358     
   3363629443.4323997     
   3251374098.5344276     
   3142122689.8536654     
   3036157253.0981302     
   2933822943.8352213     
   3205741029.0050302     
   3105350782.5213394     
   3008783567.2966766     
   2916394861.7817602     
   2828610232.5442996     
   3076667665.4741678     
   2989435069.3337255     
   2906957655.7900372     
   2829646541.9243226     
   2757982798.8305912     
   2979918770.1429648     
   2906853018.9589372     
   2839527977.9897466     
   2778378026.8617558     
   2723899735.1713676     
   3070721825.4681358     
   2911247483.7234964     
   2754816554.1551070     
   2602249070.1306138     
   2454791603.0370507     
   2933822943.8352213     
   2794770368.1019816     
   2660476015.1374741     
   2531815009.9475679     
   2409953926.8843942     
   2828610232.5442996     
   2708356174.3883743     
   2594178259.5018053     
   2486886404.6956248     
   2387462319.3045759     
   2757982798.8305912     
   2654073304.3185549     
   2557020562.2288184     
   2467490266.6531515     
   2386245564.9031692     
   2723899735.1713676     
   2633046878.1818027     
   2549237264.0535154     
   2472975244.9632764     
   2404851867.5788732     
   3624984893.2434177     
   3719662816.1464329     
   3825599762.2743664     
   3942732926.3684759     
   4070970429.4018388     
   3137944098.8253312     
   3255480826.8698163     
   3382438313.6070242     
   3518348535.7993598     
   3662754602.6689696     
   2694715048.8735743     
   2830491271.0835729     
   2973578640.8433604     
   3122895812.5244002     
   3277532603.2048364     
   2298787750.4969325     
   2449487397.1192589     
   2604903231.9559183     
   2763113175.6572504     
   2922688097.9884109     
   1955372157.3707829     
   2119424487.4232605     
   2284822172.8259196     
   2448604665.6094093     
   2608814222.6078520     
   4070970429.4018388     
   4112453295.2228875     
   4151271555.8389702     
   4186527285.6787381     
   4217488784.5887218     
   3662754602.6689696     
   3702151764.3981271     
   3740158488.5060349     
   3775875070.5952463     
   3808551450.1672182     
   3277532603.2048364     
   3320733794.0663667     
   3364174212.0027719     
   3407029546.0504575     
   3448620709.4923487     
   2922688097.9884109     
   2975583517.5726442     
   3030706866.9100251     
   3087374767.4828305     
   3145053734.1501994     
   2608814222.6078520     
   2676752605.8602729     
   2749213183.2443671     
   2825686923.1427689     
   2905821322.1983619     
   4217488784.5887218     
   4133065274.8880930     
   4055170084.2197142     
   3982952745.5421438     
   3916122754.0025353     
   3808551450.1672182     
   3755677389.9476194     
   3708815504.8523068     
   3667493340.4527230     
   3631618224.8728371     
   3448620709.4923487     
   3422639491.2908406     
   3401768255.9114976     
   3385779314.0638089     
   3374658150.9168754     
   3145053734.1501994     
   3141581740.1640987     
   3141716892.4633403     
   3145360258.1979251     
   3152497965.8051963     
   2905821322.1983619     
   2920819218.7868786     
   2937135994.2656174     
   2954718491.9987178     
   2973528159.4816971     
   3916122754.0025353     
   3834055488.1205397     
   3755708909.6929045     
   3681281187.2690725     
   3611006105.7509322     
   3631618224.8728371     
   3560687088.9690404     
   3494173191.6076465     
   3432298800.8080688     
   3375327552.3987513     
   3374658150.9168754     
   3316156648.6317453     
   3262968832.9790292     
   3215322981.1684375     
   3173496203.1632919     
   3152497965.8051963     
   3107429607.8432245     
   3068757841.7302399     
   3036687162.9827251     
   3011479904.8384352     
   2973528159.4816971     
   2942314120.2777638     
   2918731839.2085977     
   2902922431.4136968     
   2895096672.2579312     
   3611006105.7509322     
   3524945634.8558731     
   3443934613.7885780     
   3368323195.4909182     
   3298557430.0167737     
   3375327552.3987513     
   3305091212.3598857     
   3240472475.1729102     
   3181806261.5538902     
   3129497801.1148067     
   3173496203.1632919     
   3118042716.6905479     
   3068640929.0889411     
   3025582129.2781916     
   2989202432.0633230     
   3011479904.8384352     
   2969419390.6916566     
   2933658324.8623896     
   2904422387.8020387     
   2881960488.3158431     
   2895096672.2579312     
   2864603464.7553401     
   2840430852.2463365     
   2822729303.9869680     
   2811657910.8247285     
   3298557430.0167737     
   3210148318.5794177     
   3127298282.0376081     
   3050403073.0782223     
   2979918770.1429648     
   3129497801.1148067     
   3054104427.4974794     
   2985078872.8613739     
   2922818475.4438286     
   2867772049.4740124     
   2989202432.0633230     
   2927051016.2043862     
   2872092150.2065568     
   2824694920.2266812     
   2785267532.4695325     
   2881960488.3158431     
   2832773163.3981342     
   2791577935.9185610     
   2758685488.3484826     
   2734432820.5810571     
   2811657910.8247285     
   2774502701.8195491     
   2746083599.3630524     
   2726630791.6329637     
   2716390969.8426228     
   2979918770.1429648     
   2906853018.9589372     
   2839527977.9897466     
   2778378026.8617558     
   2723899735.1713676     
   2867772049.4740124     
   2808919021.9779701     
   2756335684.9119296     
   2710409160.2725463     
   2671566925.3777485     
   2785267532.4695325     
   2739918355.2337174     
   2701226645.5304389     
   2669508560.2250748     
   2645101403.5260825     
   2734432820.5810571     
   2701440754.8724046     
   2675334965.5167427     
   2656348834.1990871     
   2644723165.5911341     
   2716390969.8426228     
   2694170310.4748583     
   2678913137.0351472     
   2670771992.5419145     
   2669899316.8154325     
   2723899735.1713676     
   2633046878.1818027     
   2549237264.0535154     
   2472975244.9632764     
   2404851867.5788732     
   2671566925.3777485     
   2592401653.7252378     
   2521661240.2954311     
   2459893169.4370060     
   2407681818.6190228     
   2645101403.5260825     
   2580262314.2631822     
   2525359903.2310715     
   2480953875.7391896     
   2447615034.7070231     
   2644723165.5911341     
   2596140701.1243176     
   2559057764.1008492     
   2534019668.6164913     
   2521585314.6166320     
   2669899316.8154325     
   2638671781.7029357     
   2620536903.1454744     
   2616018210.1656890     
   2625684328.6376719     
   1955372157.3707829     
   2119424487.4232605     
   2284822172.8259196     
   2448604665.6094093     
   2608814222.6078520     
   1653939161.7121823     
   1820364408.2014811     
   1988480622.8399093     
   2155591212.8574977     
   2319938245.0254312     
   1393800198.4723790     
   1571144096.8827643     
   1749492840.6524048     
   1926842309.9070480     
   2101941767.0006819     
   1207264181.9815311     
   1399181544.9809718     
   1590681757.1395791     
   1780987322.2522509     
   1969639088.0963542     
   1137010488.7367568     
   1335321990.2631328     
   1533950878.2896836     
   1732897153.0379393     
   1932160816.1987362     
   2608814222.6078520     
   2676752605.8602729     
   2749213183.2443671     
   2825686923.1427689     
   2905821322.1983619     
   2319938245.0254312     
   2407027129.4181628     
   2496565305.7098927     
   2588163752.3469992     
   2681547650.6507759     
   2101941767.0006819     
   2205746016.6633677     
   2309459991.1362886     
   2412848478.5995712     
   2515745256.1949072     
   1969639088.0963542     
   2086835930.8409512     
   2201171617.7717447     
   2312571870.8952794     
   2420984886.2923908     
   1932160816.1987362     
   2058840640.8214760     
   2180078223.9882946     
   2295873568.1064930     
   2406226681.1221228     
   2905821322.1983619     
   2920819218.7868786     
   2937135994.2656174     
   2954718491.9987178     
   2973528159.4816971     
   2681547650.6507759     
   2703314438.6931148     
   2727444885.2091336     
   2753922704.0537810     
   2782740728.7970595     
   2515745256.1949072     
   2544225018.6343875     
   2576143767.4888487     
   2611503455.2915864     
   2650310271.8206706     
   2420984886.2923908     
   2454646884.5365162     
   2492826920.2367473     
   2535528167.3228273     
   2582754981.3250318     
   2406226681.1221228     
   2441968373.5459604     
   2483300732.3734455     
   2530223782.8430705     
   2582737595.5661225     
   2973528159.4816971     
   2942314120.2777638     
   2918731839.2085977     
   2902922431.4136968     
   2895096672.2579312     
   2782740728.7970595     
   2766432278.7744498     
   2757478713.9074626     
   2755967520.1481566     
   2762020583.6157064     
   2650310271.8206706     
   2645670399.8415017     
   2647805022.6705623     
   2656752047.5481901     
   2672561233.8335419     
   2582754981.3250318     
   2586116544.7052717     
   2595381397.0516248     
   2610557600.7650094     
   2631654646.9451933     
   2582737595.5661225     
   2590371564.4157019     
   2602801065.4483500     
   2620026712.9942589     
   2642049893.2792978     
   2895096672.2579312     
   2864603464.7553401     
   2840430852.2463365     
   2822729303.9869680     
   2811657910.8247285     
   2762020583.6157064     
   2739585102.2495737     
   2724072782.6899848     
   2715587679.0658498     
   2714238274.6874561     
   2672561233.8335419     
   2656531811.2213178     
   2647991035.5684385     
   2646993573.6998219     
   2653595873.6886778     
   2631654646.9451933     
   2619662362.7837114     
   2615678775.9839487     
   2619719142.7349634     
   2631799386.3267932     
   2642049893.2792978     
   2631150744.9968362     
   2628733999.9763832     
   2634798417.4920573     
   2649343117.3602266     
   2811657910.8247285     
   2774502701.8195491     
   2746083599.3630524     
   2726630791.6329637     
   2716390969.8426228     
   2714238274.6874561     
   2687808919.3522782     
   2670069930.9653587     
   2661154826.3605599     
   2661203397.2855473     
   2653595873.6886778     
   2635188091.3450966     
   2625308320.7922306     
   2624015120.7314711     
   2631368612.0076599     
   2631799386.3267932     
   2618385199.0939217     
   2613248278.3882823     
   2616402195.8810592     
   2627860636.9966722     
   2649343117.3602266     
   2637784619.2790017     
   2634192210.0911541     
   2638566193.2395539     
   2650906943.8081646     
   2716390969.8426228     
   2694170310.4748583     
   2678913137.0351472     
   2670771992.5419145     
   2669899316.8154325     
   2661203397.2855473     
   2646289387.6517611     
   2638617634.0832300     
   2638274679.3615060     
   2645344865.6646252     
   2631368612.0076599     
   2621533988.9507227     
   2619180534.1164703     
   2624344976.1644907     
   2637062554.8874803     
   2627860636.9966722     
   2620533751.4558902     
   2620911808.3147907     
   2629004191.1933689     
   2644820868.5289006     
   2650906943.8081646     
   2643306298.0407906     
   2643636651.4475899     
   2651906393.0276074     
   2668126868.0908132     
   2669899316.8154325     
   2638671781.7029357     
   2620536903.1454744     
   2616018210.1656890     
   2625684328.6376719     
   2645344865.6646252     
   2627063172.1829953     
   2620435098.6200566     
   2625669440.7857804     
   2642981428.8284488     
   2637062554.8874803     
   2626265302.2816377     
   2625703017.0971780     
   2635427129.6309505     
   2655485251.8175483     
   2644820868.5289006     
   2636270549.9783006     
   2636599645.2995052     
   2645841093.8354836     
   2664035753.4145288     
   2668126868.0908132     
   2657002219.9213204     
   2653463943.6687813     
   2657648767.3658419     
   2669736430.4237590     
   1137010488.7367568     
   1335321990.2631328     
   1533950878.2896836     
   1732897153.0379393     
   1932160816.1987362     
   1207217491.3246224     
   1399171291.9133322     
   1590709792.6737475     
   1781056608.3767869     
   1969753511.6202562     
   1393749176.1343129     
   1571134066.8384509     
   1749531408.3083150     
   1926936916.3330777     
   2102099824.7060962     
   1653917170.1814072     
   1820362962.5986168     
   1988512444.1100786     
   2155667471.0369816     
   2320068452.7988987     
   1955401019.7803376     
   2119437235.1587558     
   2284833562.7667155     
   2448627164.2926698     
   2608857086.3836479     
   1932160816.1987362     
   2058840640.8214760     
   2180078223.9882946     
   2295873568.1064930     
   2406226681.1221228     
   1969753511.6202562     
   2086882551.7455306     
   2201144941.7316208     
   2312465441.2247076     
   2420791903.5808988     
   2102099824.7060962     
   2205819633.0077133     
   2309439768.3730669     
   2412724775.9924092     
   2515508317.3993649     
   2320068452.7988987     
   2407104430.8420897     
   2496578723.8138046     
   2588104091.4689603     
   2681406277.4957671     
   2608857086.3836479     
   2676811735.3429556     
   2749279012.9305439     
   2825754744.8298211     
   2905888179.9181113     
   2406226681.1221228     
   2441968373.5459604     
   2483300732.3734455     
   2530223782.8430705     
   2582737595.5661225     
   2420791903.5808988     
   2454679215.2916479     
   2493106822.9989409     
   2536078842.0797467     
   2583599969.8024087     
   2515508317.3993649     
   2544292115.3512630     
   2576549623.1430836     
   2612283340.4513745     
   2651499837.9975138     
   2681406277.4957671     
   2703409962.6081018     
   2727813684.6113162     
   2754599923.8574438     
   2783761372.5438795     
   2905888179.9181113     
   2920930838.7845526     
   2937319307.2549877     
   2954995929.1367335     
   2973920501.7926545     
   2582737595.5661225     
   2590371564.4157019     
   2602801065.4483500     
   2620026712.9942589     
   2642049893.2792978     
   2583599969.8024087     
   2586155714.4790125     
   2594580693.1817913     
   2608883299.0020113     
   2629076412.2769685     
   2651499837.9975138     
   2645794117.7733693     
   2646842668.6520433     
   2654682622.0959949     
   2669364071.2365413     
   2783761372.5438795     
   2766636547.6260314     
   2756907572.1577158     
   2754660697.7939558     
   2760010666.5819526     
   2973920501.7926545     
   2942552192.0576959     
   2918962869.4137640     
   2903296871.1487641     
   2895750840.2845550     
   2642049893.2792978     
   2631150744.9968362     
   2628733999.9763832     
   2634798417.4920573     
   2649343117.3602266     
   2629076412.2769685     
   2617626047.8983765     
   2614210800.7107015     
   2618845445.8117275     
   2631544919.4081874     
   2669364071.2365413     
   2654167184.3794436     
   2646475148.0292869     
   2646343132.5278697     
   2653827877.7124281     
   2760010666.5819526     
   2738462342.6865778     
   2723807999.2803617     
   2716153919.0340786     
   2715611602.0676723     
   2895750840.2845550     
   2866009163.3554320     
   2842481265.4562206     
   2825320873.3990259     
   2814692642.3929853     
   2649343117.3602266     
   2637784619.2790017     
   2634192210.0911541     
   2638566193.2395539     
   2650906943.8081646     
   2631544919.4081874     
   2617876756.1834798     
   2612483673.4664993     
   2615380627.8540931     
   2626582971.0955529     
   2653827877.7124281     
   2635129998.0704498     
   2624964909.4009709     
   2623391467.3145089     
   2630470192.1232405     
   2715611602.0676723     
   2689066816.0840259     
   2671235124.2361441     
   2662247113.4362888     
   2662238957.1594934     
   2814692642.3929853     
   2777785767.7580385     
   2749670113.6234684     
   2730568539.8467607     
   2720718084.5700588     
   2650906943.8081646     
   2643306298.0407906     
   2643636651.4475899     
   2651906393.0276074     
   2668126868.0908132     
   2626582971.0955529     
   2617542363.7376132     
   2616249598.2944975     
   2622720165.4234495     
   2636969985.7978392     
   2630470192.1232405     
   2618340963.7218266     
   2613831169.4850044     
   2616980200.9231820     
   2627826266.5682898     
   2662238957.1594934     
   2645521791.0442052     
   2636339391.3466296     
   2634769496.5065641     
   2640888677.4007654     
   2720718084.5700588     
   2698138126.2943807     
   2683039668.1506419     
   2675549834.9659495     
   2675796941.9476061     
   2668126868.0908132     
   2657002219.9213204     
   2653463943.6687813     
   2657648767.3658419     
   2669736430.4237590     
   2636969985.7978392     
   2622050822.1746316     
   2616044887.0730915     
   2619010892.8043523     
   2631018996.8290873     
   2627826266.5682898     
   2609200206.8990622     
   2601042206.9137259     
   2603404948.3094726     
   2616338414.7504816     
   2640888677.4007654     
   2618110965.8952570     
   2607624203.3434987     
   2609569106.5523472     
   2624083398.2427044     
   2675796941.9476061     
   2647919417.6375299     
   2634471760.9924178     
   2635798614.2280750     
   2652249009.8028541     
   1955401019.7803376     
   2119437235.1587558     
   2284833562.7667155     
   2448627164.2926698     
   2608857086.3836479     
   2298857141.4314404     
   2449518413.5782771     
   2604900922.1097631     
   2763081133.1001554     
   2922628185.5558352     
   2694790747.9004860     
   2830526414.8198953     
   2973570929.8682647     
   3122842373.2202363     
   3277430022.8871875     
   3137995909.8371840     
   3255508200.0584216     
   3382433642.0789089     
   3518304697.9140444     
   3662664933.9946370     
   3624985351.2035823     
   3719672143.0154767     
   3825606432.6376343     
   3942727312.4040208     
   4070944388.3363538     
   2608857086.3836479     
   2676811735.3429556     
   2749279012.9305439     
   2825754744.8298211     
   2905888179.9181113     
   2922628185.5558352     
   2975589714.7628469     
   3030779090.5614491     
   3087516461.5066504     
   3145270259.0852127     
   3277430022.8871875     
   3320707087.6965313     
   3364229141.5919390     
   3407173124.1058917     
   3448860818.6265202     
   3662664933.9946370     
   3702112434.2240548     
   3740178145.0253372     
   3775960592.0168114     
   3808708459.5676155     
   4070944388.3363538     
   4112420732.3517737     
   4151242190.7936449     
   4186505644.9819655     
   4217475340.4868174     
   2905888179.9181113     
   2920930838.7845526     
   2937319307.2549877     
   2954995929.1367335     
   2973920501.7926545     
   3145270259.0852127     
   3141647014.6436510     
   3141629201.2204986     
   3145114509.8718748     
   3152089364.8383236     
   3448860818.6265202     
   3422649976.4365005     
   3401533426.4100838     
   3385281194.3652906     
   3373878020.0446019     
   3808708459.5676155     
   3755635201.3260336     
   3708556514.0176702     
   3667000054.6198573     
   3630870257.3114376     
   4217475340.4868174     
   4132979762.5699167     
   4055001243.2877135     
   3982694508.6954336     
   3915765136.6198912     
   2973920501.7926545     
   2942552192.0576959     
   2918962869.4137640     
   2903296871.1487641     
   2895750840.2845550     
   3152089364.8383236     
   3107374275.6270337     
   3069175541.1848226     
   3037701056.9135580     
   3013208635.2356210     
   3373878020.0446019     
   3315876957.1089368     
   3263249904.3931036     
   3216229009.8773952     
   3175093455.7285404     
   3630870257.3114376     
   3560317257.4015918     
   3494154063.7776060     
   3432606027.4358745     
   3375940841.9796400     
   3915765136.6198912     
   3833771264.8042736     
   3755360608.6439896     
   3680732357.5799832     
   3610121962.8177581     
   2895750840.2845550     
   2866009163.3554320     
   2842481265.4562206     
   2825320873.3990259     
   2814692642.3929853     
   3013208635.2356210     
   2971270966.1769261     
   2935553791.9303160     
   2906281542.4115167     
   2883704232.2514477     
   3175093455.7285404     
   3119354386.9221530     
   3069641163.9753337     
   3026241131.5452147     
   2989487188.3138051     
   3375940841.9796400     
   3305180407.7613072     
   3240084756.7159772     
   3180985661.3370166     
   3128283141.0582614     
   3610121962.8177581     
   3523418409.3931227     
   3441898049.2152820     
   3365913205.0568066     
   3295906752.1967416     
   2814692642.3929853     
   2777785767.7580385     
   2749670113.6234684     
   2730568539.8467607     
   2720718084.5700588     
   2883704232.2514477     
   2834880330.6318164     
   2794094724.0097342     
   2761655021.5600162     
   2737893904.2777281     
   2989487188.3138051     
   2927631176.8927188     
   2872987707.5085883     
   2825927278.8395104     
   2786859399.6987567     
   3128283141.0582614     
   3052972963.6295033     
   2984005510.9418030     
   2921782712.4284973     
   2866758893.3849559     
   3295906752.1967416     
   3207270074.7080297     
   3124104808.8897986     
   3046812087.8913941     
   2975854844.4828310     
   2720718084.5700588     
   2698138126.2943807     
   2683039668.1506419     
   2675549834.9659495     
   2675796941.9476061     
   2737893904.2777281     
   2705472976.4292669     
   2680273683.9381309     
   2662507219.2756953     
   2652388499.5589304     
   2786859399.6987567     
   2742365268.6996856     
   2704660888.3153911     
   2674051400.6381822     
   2650858203.5205388     
   2866758893.3849559     
   2808562495.2854609     
   2756535396.1608934     
   2711068406.2218513     
   2672590892.8695316     
   2975854844.4828310     
   2902956970.7900810     
   2835435412.7721252     
   2773741513.8059077     
   2718393883.5524216     
   2675796941.9476061     
   2647919417.6375299     
   2634471760.9924178     
   2635798614.2280750     
   2652249009.8028541     
   2652388499.5589304     
   2611762022.9439068     
   2583508540.6775341     
   2568061714.2850370     
   2565834149.6491609     
   2650858203.5205388     
   2593801679.1108937     
   2546865554.9460673     
   2510624629.5175810     
   2485651936.6731482     
   2672590892.8695316     
   2596940428.7781391     
   2528858024.9042635     
   2469066827.0006437     
   2418358638.5340190     
   2718393883.5524216     
   2623707535.5640192     
   2533783893.6221385     
   2449467565.8592343     
   2371785591.9164968     
   3624985351.2035823     
   3719672143.0154767     
   3825606432.6376343     
   3942727312.4040208     
   4070944388.3363538     
   4134117635.4115014     
   4224357323.9237213     
   4320515295.4443779     
   4420936615.8754501     
   4524168295.0961409     
   4643439000.2665749     
   4755510411.9832764     
   4868705151.2472982     
   4980388706.4312477     
   5088636037.0348635     
   5151428414.8805189     
   5311306220.0351162     
   5467817268.2170105     
   5618064852.3799562     
   5760582040.2197533     
   5657822053.3078623     
   5890906730.5366774     
   6116355938.2190752     
   6331707927.4959593     
   6536737089.8924446     
   4070944388.3363538     
   4112420732.3517737     
   4151242190.7936449     
   4186505644.9819655     
   4217475340.4868174     
   4524168295.0961409     
   4539018389.6076145     
   4558532799.4989252     
   4580229045.6033325     
   4602382649.1438112     
   5088636037.0348635     
   5054024621.1616879     
   5029922405.7451630     
   5011122378.0295486     
   4994422904.4780188     
   5760582040.2197533     
   5652111943.0334072     
   5559643571.6704664     
   5474116956.3484879     
   5389991327.1608810     
   6536737089.8924446     
   6328685195.9457951     
   6142825307.2360506     
   5965253035.6697931     
   5786960665.0706434     
   4217475340.4868174     
   4132979762.5699167     
   4055001243.2877135     
   3982694508.6954336     
   3915765136.6198912     
   4602382649.1438112     
   4493754199.8357353     
   4389365764.5942812     
   4288903336.2921000     
   4192278711.3105235     
   4994422904.4780188     
   4866986442.4165821     
   4742752733.4239006     
   4621691189.5986891     
   4503843931.3397388     
   5389991327.1608810     
   5248705934.8909025     
   5110645784.3167744     
   4975853316.1229630     
   4844423084.9508333     
   5786960665.0706434     
   5636239184.6326466     
   5489707419.4028625     
   5347280523.7900066     
   5209005739.1320992     
   3915765136.6198912     
   3833771264.8042736     
   3755360608.6439896     
   3680732357.5799832     
   3610121962.8177581     
   4192278711.3105235     
   4097767107.9979520     
   4006419084.9601231     
   3918440955.3949180     
   3834097385.4183474     
   4503843931.3397388     
   4395181046.5382071     
   4289062758.4911976     
   4185672291.3970113     
   4085278122.2068157     
   4844423084.9508333     
   4720086102.3453779     
   4597540925.7794170     
   4476915764.8881226     
   4358452224.7230492     
   5209005739.1320992     
   5067557917.1952143     
   4927072237.4943476     
   4787590706.5676079     
   4649295481.7447510     
   3610121962.8177581     
   3523418409.3931227     
   3441898049.2152820     
   3365913205.0568066     
   3295906752.1967416     
   3834097385.4183474     
   3732665044.2486506     
   3635358605.3208470     
   3542491325.9514771     
   3454456597.0923595     
   4085278122.2068157     
   3970409508.5000744     
   3858814265.7758384     
   3750751724.5825262     
   3646548350.9851809     
   4358452224.7230492     
   4231549002.1932397     
   4107275641.8618231     
   3985834235.1542759     
   3867480976.5710845     
   4649295481.7447510     
   4511758255.7795744     
   4376405096.7956133     
   4243384238.0670347     
   4112886954.0993886     
   3295906752.1967416     
   3207270074.7080297     
   3124104808.8897986     
   3046812087.8913941     
   2975854844.4828310     
   3454456597.0923595     
   3351659204.0002074     
   3253636611.6430063     
   3160794741.9203715     
   3073618891.1276073     
   3646548350.9851809     
   3529528501.9848704     
   3416529483.6395583     
   3307932987.6304779     
   3204211930.0879445     
   3867480976.5710845     
   3736341284.4626627     
   3608460705.9085798     
   3484174715.2030525     
   3363915196.0785666     
   4112886954.0993886     
   3967803775.3409595     
   3825245794.5771203     
   3685488490.6089387     
   3548902958.3733268     
   2975854844.4828310     
   2902956970.7900810     
   2835435412.7721252     
   2773741513.8059077     
   2718393883.5524216     
   3073618891.1276073     
   2986572262.1614528     
   2904012427.2607937     
   2826360863.3322134     
   2754113148.3026128     
   3204211930.0879445     
   3104015482.0369782     
   3007459541.7089043     
   2914907507.8277125     
   2826796566.2855072     
   3363915196.0785666     
   3251774655.3912411     
   3142528192.3676872     
   3036466775.9924850     
   2933948426.5007100     
   3548902958.3733268     
   3426075603.1780086     
   3305528907.1962671     
   3187480407.6134386     
   3072204366.1792293     
   2718393883.5524216     
   2623707535.5640192     
   2533783893.6221385     
   2449467565.8592343     
   2371785591.9164968     
   2754113148.3026128     
   2643504146.8276997     
   2538202763.3461342     
   2438929137.1755376     
   2346549133.2948160     
   2826796566.2855072     
   2701177269.6105046     
   2581423597.1244087     
   2468215537.1852732     
   2362392660.0552835     
   2933948426.5007100     
   2793449084.8990932     
   2659383762.2136250     
   2532499792.5201230     
   2413778661.1445284     
   3072204366.1792293     
   2916153410.1834898     
   2767109872.3060918     
   2626010946.5036240     
   2494168394.6520271     
   5657822053.3078623     
   5890906730.5366774     
   6116355938.2190752     
   6331707927.4959593     
   6536737089.8924446     
   6491689572.2913036     
   6586887186.1108713     
   6757418192.4067707     
   6961199265.8730402     
   7171569362.9686489     
   7982376160.3695602     
   7734978860.6993141     
   7669150174.3989277     
   7669584133.5161457     
   7666349212.6302137     
   10130328272.209341     
   9322023122.7641373     
   8826362407.5763683     
   8443516953.9104805     
   8035679897.2201586     
   12935632108.618906     
   11340734154.626328     
   10210222174.322672     
   9272763032.4981937     
   8303922322.6452751     
   6536737089.8924446     
   6328685195.9457951     
   6142825307.2360506     
   5965253035.6697931     
   5786960665.0706434     
   7171569362.9686489     
   6910967238.0520191     
   6658267411.5833683     
   6409612818.3845940     
   6161859099.6704245     
   7666349212.6302137     
   7381149283.8330374     
   7101342261.1409626     
   6827006339.8199453     
   6558345134.2611618     
   8035679897.2201586     
   7746880242.3668966     
   7473747246.0124159     
   7214322986.5632076     
   6968613821.2720280     
   8303922322.6452751     
   8020721430.0897875     
   7779617466.2438641     
   7569928642.3218775     
   7386682759.1485376     
   5786960665.0706434     
   5636239184.6326466     
   5489707419.4028625     
   5347280523.7900066     
   5209005739.1320992     
   6161859099.6704245     
   6012672302.9610806     
   5864823140.8081627     
   5718350641.9577789     
   5573311680.0435696     
   6558345134.2611618     
   6407559706.4521322     
   6255155339.0054331     
   6101100420.7627344     
   5945424550.4857597     
   6968613821.2720280     
   6814442697.5327654     
   6655673900.4675674     
   6492024520.2492189     
   6323442782.7846155     
   7386682759.1485376     
   7228324074.9731665     
   7062476689.4609003     
   6888446405.9892702     
   6706043230.5967731     
   5209005739.1320992     
   5067557917.1952143     
   4927072237.4943476     
   4787590706.5676079     
   4649295481.7447510     
   5573311680.0435696     
   5414245520.0536718     
   5256130678.8769732     
   5099010111.3452406     
   4942988747.2497988     
   5945424550.4857597     
   5772269605.7380190     
   5600507730.5368824     
   5430163902.9835539     
   5261297173.4623537     
   6323442782.7846155     
   6139239102.5598116     
   5957264256.8252821     
   5777494515.9341831     
   5599952094.7781887     
   6706043230.5967731     
   6513349387.6952686     
   6324075561.0926294     
   6138106914.0094805     
   5955416893.4990749     
   4649295481.7447510     
   4511758255.7795744     
   4376405096.7956133     
   4243384238.0670347     
   4112886954.0993886     
   4942988747.2497988     
   4795977548.4153423     
   4650249966.5694017     
   4505921972.0428572     
   4363148868.8828220     
   5261297173.4623537     
   5104835750.4629135     
   4948784032.8355131     
   4793214434.1852512     
   4638236979.6531267     
   5599952094.7781887     
   5434167397.9148331     
   5267965489.9915400     
   5101368191.1116495     
   4934435263.4505730     
   5955416893.4990749     
   5780506455.6786146     
   5604412961.5794621     
   5427103979.8600903     
   5248587531.1882706     
   4112886954.0993886     
   3967803775.3409595     
   3825245794.5771203     
   3685488490.6089387     
   3548902958.3733268     
   4363148868.8828220     
   4203933605.1026273     
   4046527544.2450342     
   3891116715.3467755     
   3737966657.6373940     
   4638236979.6531267     
   4466039052.9764233     
   4295095171.7705631     
   4125512808.2790046     
   3957462585.4917660     
   4934435263.4505730     
   4750257952.7277126     
   4566927896.4155035     
   4384488896.9597683     
   4203033661.3386774     
   5248587531.1882706     
   5053276011.5834942     
   4858532923.4336205     
   4664353456.9515228     
   4470770577.0808859     
   3548902958.3733268     
   3426075603.1780086     
   3305528907.1962671     
   3187480407.6134386     
   3072204366.1792293     
   3737966657.6373940     
   3604302854.1282387     
   3472366384.8867254     
   3342331321.6424384     
   3214432430.3481793     
   3957462585.4917660     
   3812801548.1193533     
   3669278084.5291038     
   3527011655.3625460     
   3386183014.8373899     
   4203033661.3386774     
   4047141057.7816968     
   3891785894.7635145     
   3737026529.4435091     
   3582980521.9650192     
   4470770577.0808859     
   4303334771.0440121     
   4135844350.2474508     
   3968293664.4320226     
   3800732286.6844778     
   3072204366.1792293     
   2916153410.1834898     
   2767109872.3060918     
   2626010946.5036240     
   2494168394.6520271     
   3214432430.3481793     
   3041326822.4058142     
   2871465286.5434766     
   2705342649.1377597     
   2543649845.2699385     
   3386183014.8373899     
   3200082737.1042018     
   3014067733.8666520     
   2828295602.4381618     
   2643018593.8698802     
   3582980521.9650192     
   3389436714.1255450     
   3193687152.9530430     
   2995835683.9015441     
   2796137481.0726767     
   3800732286.6844778     
   3606234495.5253954     
   3408247755.7103853     
   3207202030.9400043     
   3003922708.6761484     
 </DataArray>
 <DataArray  type="Float64" Name="strain" NumberOfComponents="3" format="ascii">
  0.20348704787895128        0.0000000000000000       0.12540597275065213     
  0.18665662897345650       -2.7324687260475225E-002   7.4351299035870094E-002
  0.16982621006796172       -4.4675997763038225E-002   3.5131216896179651E-002
  0.15299579116246698       -5.2053931507689041E-002   7.7457263315808128E-003
  0.13616537225697220       -4.9458488494427577E-002  -7.8051726579264902E-003
  0.15985593916347274        0.0000000000000000        9.6449340617766000E-002
  0.15317836735714052       -2.1844646872876967E-002   6.2690212392330330E-002
  0.14650079555080828       -3.6174810238826016E-002   3.7402186790128134E-002
  0.13982322374447603       -4.2990490097847153E-002   2.0585263811159417E-002
  0.13314565193814382       -4.2291686449940372E-002   1.2239443455424215E-002
  0.12645819028084959        0.0000000000000000        7.4202195497970275E-002
  0.12656997662182176       -1.6364606485278713E-002   5.5279719510896649E-002
  0.12668176296279399       -2.7673622714613808E-002   4.1464857195198428E-002
  0.12679354930376618       -3.3927048688005307E-002   3.2757608550875533E-002
  0.12690533564473838       -3.5124884405453152E-002   2.9157973577928070E-002
  0.10329380123108173        0.0000000000000000        5.8664537391264961E-002
  0.10683145676750028       -1.0884566097680459E-002   5.2119820391569087E-002
  0.11036911230391881       -1.9172435190401602E-002   4.7319228111390513E-002
  0.11390676784033735       -2.4863607278163433E-002   4.4262760550729197E-002
  0.11744442337675587       -2.7958082360965954E-002   4.2950417709585187E-002
   9.0362772014169229E-002   0.0000000000000000        4.9836366297650050E-002
   9.3962807794175998E-002  -5.4045257100822034E-003   5.3210515034347636E-002
   9.7562843574182781E-002  -1.0671247666189394E-002   5.4965299538704396E-002
  0.10116287935418955       -1.5800165868321569E-002   5.5100719810720331E-002
  0.10476291513419630       -2.0791280316478734E-002   5.3616775850395461E-002
  0.13616537225697220       -4.9458488494427577E-002  -7.8051726579264902E-003
  0.13296103528374548       -4.2924498874505307E-002  -3.3891158368686489E-003
  0.12975669831051873       -3.8486792799173594E-002  -3.8862421127206642E-004
  0.12655236133729200       -3.6145370268432453E-002   1.1963022188632641E-003
  0.12334802436406528       -3.5900231282281869E-002   1.3656634535371692E-003
  0.13314565193814382       -4.2291686449940372E-002   1.2239443455424215E-002
  0.12891402988454179       -3.8426387629910880E-002   1.2184296063354461E-002
  0.12468240783093978       -3.5742581972563900E-002   1.1490143705995520E-002
  0.12045078577733780       -3.4240269477899460E-002   1.0156986383347357E-002
  0.11621916372373575       -3.3919450145917490E-002   8.1848240954098261E-003
  0.12690533564473838       -3.5124884405453152E-002   2.9157973577928070E-002
  0.12242298874093312       -3.3928276385316439E-002   2.5546412354638861E-002
  0.11794064183712787       -3.2998371145954185E-002   2.2072406396232414E-002
  0.11345829493332259       -3.2335168687366383E-002   1.8735955702708744E-002
  0.10897594802951735       -3.1938669009553083E-002   1.5537060274067843E-002
  0.11744442337675587       -2.7958082360965954E-002   4.2950417709585187E-002
  0.11348791185291943       -2.9430165140722012E-002   3.6697233036984481E-002
  0.10953140032908294       -3.0254160319344494E-002   3.1358163859438591E-002
  0.10557488880524650       -3.0430067896833370E-002   2.6933210176947543E-002
  0.10161837728141002       -2.9957887873188677E-002   2.3422371989511241E-002
  0.10476291513419630       -2.0791280316478734E-002   5.3616775850395461E-002
  0.10210879922050069       -2.4932053896127584E-002   4.5636758110391328E-002
   9.9454683306805056E-002  -2.7509949492734782E-002   3.9347416095614027E-002
   9.6800567393109438E-002  -2.8524967106300373E-002   3.4748749806063642E-002
   9.4146451479413820E-002  -2.7977106736824298E-002   3.1840759241740055E-002
  0.12334802436406528       -3.5900231282281869E-002   1.3656634535371692E-003
  0.12041196274392932       -3.6396952177750269E-002   6.3207642766607841E-004
  0.11747590112379341       -3.6281109291866093E-002   9.4423382392544442E-005
  0.11453983950365748       -3.5552702624629139E-002  -2.4729568228316207E-004
  0.11160377788352155       -3.4211732176039733E-002  -3.9308076636090927E-004
  0.11621916372373575       -3.3919450145917490E-002   8.1848240954098261E-003
  0.11346431477709724       -3.3993709741707165E-002   7.8241102527952522E-003
  0.11070946583045876       -3.3676634030357595E-002   7.6298877765776582E-003
  0.10795461688382023       -3.2968223011868941E-002   7.6021566667572454E-003
  0.10519976793718175       -3.1868476686241043E-002   7.7409169233338959E-003
  0.10897594802951735       -3.1938669009553083E-002   1.5537060274067843E-002
  0.10637286914217553       -3.1590467305664102E-002   1.5327991140496482E-002
  0.10376979025483370       -3.1072158768849320E-002   1.5255970759121440E-002
  0.10116671136749189       -3.0383743399108636E-002   1.5320999129942722E-002
   9.8563632480150029E-002  -2.9525221196442270E-002   1.5523076252960358E-002
  0.10161837728141002       -2.9957887873188677E-002   2.3422371989511241E-002
   9.9137625839164162E-002  -2.9187224869621019E-002   2.3143719090769746E-002
   9.6656874396918252E-002  -2.8467683507340934E-002   2.2972672330023824E-002
   9.4176122954672342E-002  -2.7799263786348442E-002   2.2909231707273360E-002
   9.1695371512426446E-002  -2.7181965706643538E-002   2.2953397222518584E-002
   9.4146451479413820E-002  -2.7977106736824298E-002   3.1840759241740055E-002
   9.1758584868063112E-002  -2.6783982433577935E-002   3.1271294103614997E-002
   8.9370718256712417E-002  -2.5863208245832534E-002   3.0779992489284813E-002
   8.6982851645361722E-002  -2.5214784173588165E-002   3.0366854398749275E-002
   8.4594985034011000E-002  -2.4838710216844778E-002   3.0031879832008640E-002
  0.11160377788352155       -3.4211732176039733E-002  -3.9308076636090927E-004
  0.10852837118191822       -3.2689817484028105E-002  -1.4173613055581957E-004
  0.10545296448031491       -3.1418578086524276E-002   1.5652018615472385E-004
  0.10237755777871162       -3.0398013983528458E-002   5.0168818376992996E-004
   9.9302151077108269E-002  -2.9628125175040765E-002   8.9376786229056204E-004
  0.10519976793718175       -3.1868476686241043E-002   7.7409169233338959E-003
  0.10220229179402157       -3.0648100435318265E-002   7.5907795504562559E-003
   9.9204815650861408E-002  -2.9577799640945576E-002   7.5495916135595170E-003
   9.6207339507701217E-002  -2.8657574303122445E-002   7.6173531126444566E-003
   9.3209863364541012E-002  -2.7887424421849105E-002   7.7940640477101586E-003
   9.8563632480150029E-002  -2.9525221196442270E-002   1.5523076252960358E-002
   9.5706124650509025E-002  -2.8606383386608758E-002   1.5072056709358073E-002
   9.2848616820868007E-002  -2.7737021195366758E-002   1.4792024356813038E-002
   8.9991108991226976E-002  -2.6917134622716318E-002   1.4682979195325085E-002
   8.7133601161586000E-002  -2.6146723668657446E-002   1.4744921224894375E-002
   9.1695371512426446E-002  -2.7181965706643538E-002   2.2953397222518584E-002
   8.9039869751380549E-002  -2.6564666337899140E-002   2.2302095346150085E-002
   8.6384367990334665E-002  -2.5896242749787999E-002   2.1883818415914705E-002
   8.3728866229288809E-002  -2.5176694942310306E-002   2.1698566431812498E-002
   8.1073364468242939E-002  -2.4406022915465897E-002   2.1746339393843329E-002
   8.4594985034011000E-002  -2.4838710216844778E-002   3.0031879832008640E-002
   8.2203527096636281E-002  -2.4522949289189466E-002   2.9280895460832054E-002
   7.9812069159261492E-002  -2.4055464304209240E-002   2.8824973790864461E-002
   7.7420611221886732E-002  -2.3436255261904237E-002   2.8664114822106110E-002
   7.5029153284511985E-002  -2.2665322162274265E-002   2.8798318554556807E-002
   9.9302151077108269E-002  -2.9628125175040765E-002   8.9376786229056204E-004
   9.6339617481447759E-002  -2.8932436755281010E-002   5.6756134763408239E-004
   9.3377083885787304E-002  -2.8134473818470312E-002   4.2367686665312210E-004
   9.0414550290126794E-002  -2.7234236364607693E-002   4.6211441934788933E-004
   8.7452016694466339E-002  -2.6231724393694034E-002   6.8287400571853674E-004
   9.3209863364541012E-002  -2.7887424421849105E-002   7.7940640477101586E-003
   9.0424642000072719E-002  -2.7159911042810403E-002   7.5624117247484746E-003
   8.7639420635604343E-002  -2.6367595211690881E-002   7.5030618304954139E-003
   8.4854199271136035E-002  -2.5510476928490712E-002   7.6160143649511014E-003
   8.2068977906667617E-002  -2.4588556193209765E-002   7.9012693281153012E-003
   8.7133601161586000E-002  -2.6146723668657446E-002   1.4744921224894375E-002
   8.4515672423342833E-002  -2.5387385330339407E-002   1.4570351028656781E-002
   8.1897743685099694E-002  -2.4600716604911463E-002   1.4558063656160677E-002
   7.9279814946856597E-002  -2.3786717492373290E-002   1.4708059107406607E-002
   7.6661886208613472E-002  -2.2945387992725386E-002   1.5020337382394194E-002
   8.1073364468242939E-002  -2.4406022915465897E-002   2.1746339393843329E-002
   7.8612708751258142E-002  -2.3614859617868439E-002   2.1591379259358785E-002
   7.6152053034273415E-002  -2.2833837998131983E-002   2.1588682343649235E-002
   7.3691397317288590E-002  -2.2062958056256091E-002   2.1738248646714482E-002
   7.1230741600303932E-002  -2.1302219792241062E-002   2.2040078168554737E-002
   7.5029153284511985E-002  -2.2665322162274265E-002   2.8798318554556807E-002
   7.2715750983818661E-002  -2.1842333905397582E-002   2.8625496416854912E-002
   7.0402348683125365E-002  -2.1066959391352551E-002   2.8594917892960883E-002
   6.8088946382432028E-002  -2.0339198620138846E-002   2.8706582982874741E-002
   6.5775544081738746E-002  -1.9659051591756682E-002   2.8960491686596868E-002
   8.7452016694466339E-002  -2.6231724393694034E-002   6.8287400571853674E-004
   8.4232872828875260E-002  -2.5209768631062723E-002   4.9215543011826846E-004
   8.1013728963284293E-002  -2.4251199802047624E-002   4.6447489352979821E-004
   7.7794585097693242E-002  -2.3356017906648825E-002   5.9983239595304272E-004
   7.4575441232102246E-002  -2.2524222944866223E-002   8.9822793738814077E-004
   8.2068977906667617E-002  -2.4588556193209765E-002   7.9012693281153012E-003
   7.9018734742011182E-002  -2.3655114696169405E-002   7.6397865730935266E-003
   7.5968491577354608E-002  -2.2763434127690968E-002   7.5530671809290462E-003
   7.2918248412698117E-002  -2.1913514487773615E-002   7.6411111516216934E-003
   6.9868005248041543E-002  -2.1105355776418366E-002   7.9039184851716349E-003
   7.6661886208613472E-002  -2.2945387992725386E-002   1.5020337382394194E-002
   7.3792269068736954E-002  -2.2100460761276086E-002   1.4709716453005089E-002
   7.0922651928860478E-002  -2.1275668453333965E-002   1.4585584210318941E-002
   6.8053034788983946E-002  -2.0471011068898846E-002   1.4647940654335424E-002
   6.5183417649107511E-002  -1.9686488607971009E-002   1.4896785785054906E-002
   7.1230741600303932E-002  -2.1302219792241062E-002   2.2040078168554737E-002
   6.8553475809052911E-002  -2.0545806826382768E-002   2.1701945069853103E-002
   6.5876210017801945E-002  -1.9787902778977080E-002   2.1562025981699890E-002
   6.3198944226550952E-002  -1.9028507650023743E-002   2.1620320904094853E-002
   6.0521678435300021E-002  -1.8267621439523291E-002   2.1876829837038154E-002
   6.5775544081738746E-002  -1.9659051591756682E-002   2.8960491686596868E-002
   6.3302354962958829E-002  -1.8991152891489588E-002   2.8616472423637185E-002
   6.0829165844178940E-002  -1.8300137104620154E-002   2.8482392495071368E-002
   5.8355976725399009E-002  -1.7586004231148967E-002   2.8558251900899445E-002
   5.5882787606619133E-002  -1.6848754271075739E-002   2.8844050641121388E-002
   7.4575441232102246E-002  -2.2524222944866223E-002   8.9822793738814077E-004
   7.1745685347715082E-002  -2.1683145025496231E-002   5.0746390472256042E-004
   6.8915929463327807E-002  -2.0760114257335455E-002   3.6165831731044262E-004
   6.6086173578940616E-002  -1.9755130640384137E-002   4.6081117515273107E-004
   6.3256417694553368E-002  -1.8668194174641828E-002   8.0492247824770491E-004
   6.9868005248041543E-002  -2.1105355776418366E-002   7.9039184851716349E-003
   6.7268419891207576E-002  -2.0289933829802764E-002   7.5903350438688011E-003
   6.4668834534373526E-002  -1.9418224484104435E-002   7.4921342124185941E-003
   6.2069249177539462E-002  -1.8490227739323704E-002   7.6093159908216801E-003
   5.9469663820705509E-002  -1.7505943595460316E-002   7.9418803790769488E-003
   6.5183417649107511E-002  -1.9686488607971009E-002   1.4896785785054906E-002
   6.2784426984425767E-002  -1.8896722634109492E-002   1.4634717485406845E-002
   6.0385436319743982E-002  -1.8076334710873540E-002   1.4558455960210631E-002
   5.7986445655062273E-002  -1.7225324838263386E-002   1.4668001209466090E-002
   5.5587454990380480E-002  -1.6343693016278915E-002   1.4963353233173271E-002
   6.0521678435300021E-002  -1.8267621439523291E-002   2.1876829837038154E-002
   5.8293706627369643E-002  -1.7503511438416122E-002   2.1640611229336353E-002
   5.6065734819439245E-002  -1.6734444937642583E-002   2.1560623560685426E-002
   5.3837763011508784E-002  -1.5960421937203123E-002   2.1636866831085587E-002
   5.1609791203578483E-002  -1.5181442437097459E-002   2.1869341040536422E-002
   5.5882787606619133E-002  -1.6848754271075739E-002   2.8844050641121388E-002
   5.3796258820039244E-002  -1.6110300242722753E-002   2.8608016275657566E-002
   5.1709730033459245E-002  -1.5392555164411487E-002   2.8498637013844086E-002
   4.9623201246879328E-002  -1.4695519036142905E-002   2.8515912855680475E-002
   4.7536672460299301E-002  -1.4019191857916058E-002   2.8659843801166540E-002
   6.3256417694553368E-002  -1.8668194174641828E-002   8.0492247824770491E-004
   6.0074294992475297E-002  -1.7716281967579017E-002   8.4080352438631323E-004
   5.6892172290397114E-002  -1.7116371126666197E-002   8.3636019883781554E-004
   5.3710049588318959E-002  -1.6868461651903699E-002   7.9159250160287797E-004
   5.0527926886240859E-002  -1.6972553543290747E-002   7.0650043268072338E-004
   5.9469663820705509E-002  -1.7505943595460316E-002   7.9418803790769488E-003
   5.6285683519281315E-002  -1.6606322873955248E-002   7.6319654361049483E-003
   5.3101703217857038E-002  -1.5932316396249147E-002   7.3586596661277537E-003
   4.9917722916432941E-002  -1.5483924162342538E-002   7.1219630691448932E-003
   4.6733742615008622E-002  -1.5261146172234952E-002   6.9218756451572272E-003
   5.5587454990380480E-002  -1.6343693016278915E-002   1.4963353233173271E-002
   5.2478550634292020E-002  -1.5496363780331535E-002   1.4434029423441103E-002
   4.9369646278203519E-002  -1.4748261665832207E-002   1.4018248331385319E-002
   4.6260741922114886E-002  -1.4099386672781766E-002   1.3716009957006670E-002
   4.3151837566026585E-002  -1.3549738801178934E-002   1.3527314300304183E-002
   5.1609791203578483E-002  -1.5181442437097459E-002   2.1869341040536422E-002
   4.8652896337507377E-002  -1.4386404686707571E-002   2.1246995486395151E-002
   4.5696001471436279E-002  -1.3564206935415213E-002   2.0815126194612184E-002
   4.2739106605365229E-002  -1.2714849183220578E-002   2.0573733165187444E-002
   3.9782211739294068E-002  -1.1838331430123250E-002   2.0522816398121202E-002
   4.7536672460299301E-002  -1.4019191857916058E-002   2.8659843801166540E-002
   4.4808720628927434E-002  -1.3276445593083774E-002   2.8070863624966969E-002
   4.2080768797555540E-002  -1.2380152204998204E-002   2.7749293255807522E-002
   3.9352816966183660E-002  -1.1330311693659580E-002   2.7695132693688021E-002
   3.6624865134811779E-002  -1.0126924059067344E-002   2.7908381938608562E-002
   9.0362772014169229E-002   0.0000000000000000        4.9836366297650050E-002
   9.3962807794175998E-002  -5.4045257100822034E-003   5.3210515034347636E-002
   9.7562843574182781E-002  -1.0671247666189394E-002   5.4965299538704396E-002
  0.10116287935418955       -1.5800165868321569E-002   5.5100719810720331E-002
  0.10476291513419630       -2.0791280316478734E-002   5.3616775850395461E-002
   8.2426339755366729E-002   0.0000000000000000        4.4784681657391037E-002
   8.4636201098818364E-002  -4.5743946307883138E-003   4.8268303212886492E-002
   8.6846062442269986E-002  -9.0376951362566137E-003   5.0590940127612470E-002
   8.9055923785721622E-002  -1.3389901516404899E-002   5.1752592401569007E-002
   9.1265785129173257E-002  -1.7631013771233169E-002   5.1753260034756068E-002
   7.4245741579928914E-002   0.0000000000000000        4.0576482910753414E-002
   7.5523808078396773E-002  -3.7442635514944259E-003   4.4142867656391721E-002
   7.6801874576864604E-002  -7.4041426063238356E-003   4.7006647352831943E-002
   7.8079941075332449E-002  -1.0979637164488224E-002   4.9167822000074045E-002
   7.9358007573800307E-002  -1.4470747225987599E-002   5.0626391598118069E-002
   6.5820977487855759E-002   0.0000000000000000        3.7211770057737160E-002
   6.6625628732911196E-002  -2.9141324722005381E-003   4.0834208364863352E-002
   6.7430279977966620E-002  -5.7705900763910575E-003   4.4212421214362800E-002
   6.8234931223022058E-002  -8.5693728125715504E-003   4.7346408606235506E-002
   6.9039582468077468E-002  -1.1310480680742035E-002   5.0236170540481462E-002
   5.7152047479147289E-002   0.0000000000000000        3.4690543098342311E-002
   5.7941663062361655E-002  -2.0840013929066484E-003   3.8342325338301370E-002
   5.8731278645576021E-002  -4.1370375464582776E-003   4.2208261712205049E-002
   5.9520894228790380E-002  -6.1591084606548788E-003   4.6288352220053355E-002
   6.0310509812004760E-002  -8.1502141354964641E-003   5.0582596861846262E-002
  0.10476291513419630       -2.0791280316478734E-002   5.3616775850395461E-002
  0.10210879922050069       -2.4932053896127584E-002   4.5636758110391328E-002
   9.9454683306805056E-002  -2.7509949492734782E-002   3.9347416095614027E-002
   9.6800567393109438E-002  -2.8524967106300373E-002   3.4748749806063642E-002
   9.4146451479413820E-002  -2.7977106736824298E-002   3.1840759241740055E-002
   9.1265785129173257E-002  -1.7631013771233169E-002   5.1753260034756068E-002
   9.0064309349609351E-002  -2.1206236170909939E-002   4.6516340937319184E-002
   8.8862833570045471E-002  -2.3560772985603731E-002   4.2494026382918916E-002
   8.7661357790481564E-002  -2.4694624215314580E-002   3.9686316371555265E-002
   8.6459882010917699E-002  -2.4607789860042445E-002   3.8093210903228134E-002
   7.9358007573800307E-002  -1.4470747225987599E-002   5.0626391598118069E-002
   7.9133100746177867E-002  -1.7480418445692314E-002   4.7790378745189814E-002
   7.8908193918555442E-002  -1.9611596478472711E-002   4.5692899253107870E-002
   7.8683287090933016E-002  -2.0864281324328802E-002   4.4333953121872285E-002
   7.8458380263310562E-002  -2.1238472983260592E-002   4.3713540351482998E-002
   6.9039582468077468E-002  -1.1310480680742035E-002   5.0236170540481462E-002
   6.9315173410206238E-002  -1.3754600720474677E-002   4.9458871534003176E-002
   6.9590764352334994E-002  -1.5662419971341681E-002   4.8944034706180889E-002
   6.9866355294463722E-002  -1.7033938433343034E-002   4.8691660057014689E-002
   7.0141946236592478E-002  -1.7869156106478740E-002   4.8701747586504529E-002
   6.0310509812004760E-002  -8.1502141354964641E-003   5.0582596861846262E-002
   6.0610527341694413E-002  -1.0028782995257047E-002   5.1521819303759236E-002
   6.0910544871384087E-002  -1.1713243464210630E-002   5.2247432742138021E-002
   6.1210562401073740E-002  -1.3203595542357238E-002   5.2759437176982574E-002
   6.1510579930763420E-002  -1.4499839229696887E-002   5.3057832608292860E-002
   9.4146451479413820E-002  -2.7977106736824298E-002   3.1840759241740055E-002
   9.1758584868063112E-002  -2.6783982433577935E-002   3.1271294103614997E-002
   8.9370718256712417E-002  -2.5863208245832534E-002   3.0779992489284813E-002
   8.6982851645361722E-002  -2.5214784173588165E-002   3.0366854398749275E-002
   8.4594985034011000E-002  -2.4838710216844778E-002   3.0031879832008640E-002
   8.6459882010917699E-002  -2.4607789860042445E-002   3.8093210903228134E-002
   8.4197157191419639E-002  -2.3964141333844228E-002   3.7066088074734091E-002
   8.1934432371921551E-002  -2.3427550050776746E-002   3.6211085306150428E-002
   7.9671707552423490E-002  -2.2998016010840085E-002   3.5528202597477250E-002
   7.7408982732925388E-002  -2.2675539214034174E-002   3.5017439948714674E-002
   7.8458380263310562E-002  -2.1238472983260592E-002   4.3713540351482998E-002
   7.6414753771780836E-002  -2.1144300234110486E-002   4.2394052704990054E-002
   7.4371127280251081E-002  -2.0991891855720972E-002   4.1340641654523287E-002
   7.2327500788721313E-002  -2.0781247848092002E-002   4.0553307200082642E-002
   7.0283874297191601E-002  -2.0512368211223611E-002   4.0032049341668138E-002
   7.0141946236592478E-002  -1.7869156106478740E-002   4.8701747586504529E-002
   6.8411374609146716E-002  -1.8324459134376775E-002   4.7255187994383004E-002
   6.6680802981700926E-002  -1.8556233660665198E-002   4.6168661534403334E-002
   6.4950231354255164E-002  -1.8564479685343936E-002   4.5442168206565492E-002
   6.3219659726809374E-002  -1.8349197208413041E-002   4.5075708010869388E-002
   6.1510579930763420E-002  -1.4499839229696887E-002   5.3057832608292860E-002
   6.0187019703517301E-002  -1.5504618034643043E-002   5.1649493942912968E-002
   5.8863459476271182E-002  -1.6120575465609417E-002   5.0695144945790596E-002
   5.7539899249025063E-002  -1.6347711522595836E-002   5.0194785616925662E-002
   5.6216339021778944E-002  -1.6186026205602444E-002   5.0148415956318193E-002
   8.4594985034011000E-002  -2.4838710216844778E-002   3.0031879832008640E-002
   8.2203527096636281E-002  -2.4522949289189466E-002   2.9280895460832054E-002
   7.9812069159261492E-002  -2.4055464304209240E-002   2.8824973790864461E-002
   7.7420611221886732E-002  -2.3436255261904237E-002   2.8664114822106110E-002
   7.5029153284511985E-002  -2.2665322162274265E-002   2.8798318554556807E-002
   7.7408982732925388E-002  -2.2675539214034174E-002   3.5017439948714674E-002
   7.5294814383073255E-002  -2.2351501834552312E-002   3.4440527562106971E-002
   7.3180646033221081E-002  -2.1917286046587575E-002   3.4123131649335309E-002
   7.1066477683368975E-002  -2.1372891850140047E-002   3.4065252210399778E-002
   6.8952309333516759E-002  -2.0718319245209699E-002   3.4266889245300192E-002
   7.0283874297191601E-002  -2.0512368211223611E-002   4.0032049341668138E-002
   6.8411449307488909E-002  -2.0180054379915130E-002   3.9587663290787445E-002
   6.6539024317786216E-002  -1.9779107788965883E-002   3.9367247486369633E-002
   6.4666599328083524E-002  -1.9309528438375953E-002   3.9370801928414925E-002
   6.2794174338380859E-002  -1.8771316328145202E-002   3.9598326616922953E-002
   6.3219659726809374E-002  -1.8349197208413041E-002   4.5075708010869388E-002
   6.1553431869883109E-002  -1.8008606925277990E-002   4.4722302646873505E-002
   5.9887204012956816E-002  -1.7640929531344218E-002   4.4557321301967490E-002
   5.8220976156030550E-002  -1.7246165026611797E-002   4.4580763976151405E-002
   5.6554748299104271E-002  -1.6824313411080670E-002   4.4792630669425099E-002
   5.6216339021778944E-002  -1.6186026205602444E-002   5.0148415956318193E-002
   5.4720762070255974E-002  -1.5837159470640808E-002   4.9844445630365108E-002
   5.3225185118732962E-002  -1.5502751273722533E-002   4.9693353096128864E-002
   5.1729608167209999E-002  -1.5182801614847698E-002   4.9695138353609301E-002
   5.0234031215687008E-002  -1.4877310494016166E-002   4.9849801402806482E-002
   7.5029153284511985E-002  -2.2665322162274265E-002   2.8798318554556807E-002
   7.2715750983818661E-002  -2.1842333905397582E-002   2.8625496416854912E-002
   7.0402348683125365E-002  -2.1066959391352551E-002   2.8594917892960883E-002
   6.8088946382432028E-002  -2.0339198620138846E-002   2.8706582982874741E-002
   6.5775544081738746E-002  -1.9659051591756682E-002   2.8960491686596868E-002
   6.8952309333516759E-002  -2.0718319245209699E-002   3.4266889245300192E-002
   6.6792346080293497E-002  -2.0019054328014638E-002   3.3989767733727180E-002
   6.4632382827070234E-002  -1.9340583194772866E-002   3.3877280703286286E-002
   6.2472419573846964E-002  -1.8682905845484397E-002   3.3929428153977481E-002
   6.0312456320623709E-002  -1.8046022280149066E-002   3.4146210085800682E-002
   6.2794174338380859E-002  -1.8771316328145202E-002   3.9598326616922953E-002
   6.0810040999951756E-002  -1.8195774750631638E-002   3.9243725690357063E-002
   5.8825907661522618E-002  -1.7614206998193240E-002   3.9076150112247549E-002
   5.6841774323093508E-002  -1.7026613070829845E-002   3.9095599882593902E-002
   5.4857640984664349E-002  -1.6432992968541532E-002   3.9302075001396750E-002
   5.6554748299104271E-002  -1.6824313411080670E-002   4.4792630669425099E-002
   5.4768835742793384E-002  -1.6372495173248694E-002   4.4387370286744596E-002
   5.2982923186482497E-002  -1.5887830801613531E-002   4.4191526119844358E-002
   5.1197010630171624E-002  -1.5370320296175344E-002   4.4205098168724401E-002
   4.9411098073860696E-002  -1.4819963656933902E-002   4.4428086433384778E-002
   5.0234031215687008E-002  -1.4877310494016166E-002   4.9849801402806482E-002
   4.8668730308818436E-002  -1.4549215595865667E-002   4.9420701522889687E-002
   4.7103429401949906E-002  -1.4161454605033923E-002   4.9223408726077070E-002
   4.5538128495081355E-002  -1.3714027521520828E-002   4.9257923012369025E-002
   4.3972827588212776E-002  -1.3206934345326327E-002   4.9524244381765226E-002
   6.5775544081738746E-002  -1.9659051591756682E-002   2.8960491686596868E-002
   6.3302354962958829E-002  -1.8991152891489588E-002   2.8616472423637185E-002
   6.0829165844178940E-002  -1.8300137104620154E-002   2.8482392495071368E-002
   5.8355976725399009E-002  -1.7586004231148967E-002   2.8558251900899445E-002
   5.5882787606619133E-002  -1.6848754271075739E-002   2.8844050641121388E-002
   6.0312456320623709E-002  -1.8046022280149066E-002   3.4146210085800682E-002
   5.8045617712843708E-002  -1.7412791915365225E-002   3.3825176659328979E-002
   5.5778779105063764E-002  -1.6766074167730655E-002   3.3706904920463618E-002
   5.3511940497283819E-002  -1.6105869037245445E-002   3.3791394869204065E-002
   5.1245101889503819E-002  -1.5432176523909436E-002   3.4078646505550592E-002
   5.4857640984664349E-002  -1.6432992968541532E-002   3.9302075001396750E-002
   5.2789975241096493E-002  -1.5834430939241098E-002   3.8994397707662026E-002
   5.0722309497528602E-002  -1.5232011230841204E-002   3.8882304454745491E-002
   4.8654643753960725E-002  -1.4625733843341921E-002   3.8965795242647178E-002
   4.6586978010392840E-002  -1.4015598776743216E-002   3.9244870071367038E-002
   4.9411098073860696E-002  -1.4819963656933902E-002   4.4428086433384778E-002
   4.7535427547717113E-002  -1.4256069963116909E-002   4.4124135568635668E-002
   4.5659757021573537E-002  -1.3697948293951812E-002   4.4008591097917070E-002
   4.3784086495429954E-002  -1.3145598649438355E-002   4.4081453021228574E-002
   4.1908415969286322E-002  -1.2599021029576898E-002   4.4342721338570569E-002
   4.3972827588212776E-002  -1.3206934345326327E-002   4.9524244381765226E-002
   4.2281974632705638E-002  -1.2677708986992664E-002   4.9214390242250383E-002
   4.0591121677198486E-002  -1.2163885357062296E-002   4.9085764849978120E-002
   3.8900268721691326E-002  -1.1665463455534857E-002   4.9138368204948463E-002
   3.7209415766184195E-002  -1.1182443282410692E-002   4.9372200307161163E-002
   5.5882787606619133E-002  -1.6848754271075739E-002   2.8844050641121388E-002
   5.3796258820039244E-002  -1.6110300242722753E-002   2.8608016275657566E-002
   5.1709730033459245E-002  -1.5392555164411487E-002   2.8498637013844086E-002
   4.9623201246879328E-002  -1.4695519036142905E-002   2.8515912855680475E-002
   4.7536672460299301E-002  -1.4019191857916058E-002   2.8659843801166540E-002
   5.1245101889503819E-002  -1.5432176523909436E-002   3.4078646505550592E-002
   4.9292497278246833E-002  -1.4755879847164033E-002   3.3814949046727300E-002
   4.7339892666989805E-002  -1.4087862226450004E-002   3.3692444834900220E-002
   4.5387288055732826E-002  -1.3428123661767911E-002   3.3711133870069132E-002
   4.3434683444475791E-002  -1.2776664153117234E-002   3.3871016152233535E-002
   4.6586978010392840E-002  -1.4015598776743216E-002   3.9244870071367038E-002
   4.4782835717804753E-002  -1.3401459451605424E-002   3.8965939413194886E-002
   4.2978693425216721E-002  -1.2783169288488536E-002   3.8842740145364776E-002
   4.1174551132628683E-002  -1.2160728287392921E-002   3.8875272267876508E-002
   3.9370408840040602E-002  -1.1534136448318383E-002   3.9063535780730005E-002
   4.1908415969286322E-002  -1.2599021029576898E-002   4.4342721338570569E-002
   4.0267274138713137E-002  -1.2047039056046593E-002   4.4060987375060062E-002
   3.8626132308139979E-002  -1.1478476350527171E-002   4.3949522945237324E-002
   3.6984990477566856E-002  -1.0893332913017984E-002   4.4008328049102478E-002
   3.5343848646993650E-002  -1.0291608743519490E-002   4.4237402686655672E-002
   3.7209415766184195E-002  -1.1182443282410692E-002   4.9372200307161163E-002
   3.5745812540971894E-002  -1.0692618660488096E-002   4.9100092932322703E-002
   3.4282209315759621E-002  -1.0173783412565418E-002   4.9012793234518043E-002
   3.2818606090547334E-002  -9.6259375386430340E-003   4.9110301213747182E-002
   3.1355002865335047E-002  -9.0490810387205967E-003   4.9392616870010286E-002
   4.7536672460299301E-002  -1.4019191857916058E-002   2.8659843801166540E-002
   4.4808720628927434E-002  -1.3276445593083774E-002   2.8070863624966969E-002
   4.2080768797555540E-002  -1.2380152204998204E-002   2.7749293255807522E-002
   3.9352816966183660E-002  -1.1330311693659580E-002   2.7695132693688021E-002
   3.6624865134811779E-002  -1.0126924059067344E-002   2.7908381938608562E-002
   4.3434683444475791E-002  -1.2776664153117234E-002   3.3871016152233535E-002
   4.0957119446453777E-002  -1.2086105626374938E-002   3.3422740521466543E-002
   3.8479555448431832E-002  -1.1309070007417335E-002   3.3207830750359185E-002
   3.6001991450409825E-002  -1.0445557296244471E-002   3.3226286838911545E-002
   3.3524427452387928E-002  -9.4955674928565159E-003   3.3478108787123650E-002
   3.9370408840040602E-002  -1.1534136448318383E-002   3.9063535780730005E-002
   3.7109188727988282E-002  -1.0895765659665740E-002   3.8688894664357085E-002
   3.4847968615935927E-002  -1.0237987809836195E-002   3.8513575460263912E-002
   3.2586748503883572E-002  -9.5608028988295301E-003   3.8537578168449688E-002
   3.0325528391831308E-002  -8.8642109266457991E-003   3.8760902788915419E-002
   3.5343848646993650E-002  -1.0291608743519490E-002   4.4237402686655672E-002
   3.3264928473530686E-002  -9.7054256929567234E-003   4.3869326053638996E-002
   3.1186008300067763E-002  -9.1669056122551350E-003   4.3666527385521584E-002
   2.9107088126604827E-002  -8.6760485014145614E-003   4.3629006682303309E-002
   2.7028167953141932E-002  -8.2328543604349713E-003   4.3756763943984436E-002
   3.1355002865335047E-002  -9.0490810387205967E-003   4.9392616870010286E-002
   2.9424338683081253E-002  -8.5150857262477619E-003   4.8964034689311764E-002
   2.7493674500827417E-002  -8.0958234146742136E-003   4.8666686526132208E-002
   2.5563010318573588E-002  -7.7912941039995978E-003   4.8500572380471452E-002
   2.3632346136319760E-002  -7.6014977942242545E-003   4.8465692252329884E-002
   5.7152047479147289E-002   0.0000000000000000        3.4690543098342311E-002
   5.7941663062361655E-002  -2.0840013929066484E-003   3.8342325338301370E-002
   5.8731278645576021E-002  -4.1370375464582776E-003   4.2208261712205049E-002
   5.9520894228790380E-002  -6.1591084606548788E-003   4.6288352220053355E-002
   6.0310509812004760E-002  -8.1502141354964641E-003   5.0582596861846262E-002
   4.8651326938954423E-002   0.0000000000000000        3.2789627260555204E-002
   4.9589763714148680E-002  -1.7092870493992480E-003   3.6965204645484397E-002
   5.0528200489342957E-002  -3.4324528716168905E-003   4.1224270280428771E-002
   5.1466637264537235E-002  -5.1694974666529267E-003   4.5566824165388355E-002
   5.2405074039731492E-002  -6.9204208345073522E-003   4.9992866300363120E-002
   4.0731191252428078E-002   0.0000000000000000        3.1285847772362207E-002
   4.1687783335672815E-002  -1.3345727058918459E-003   3.5940376290088102E-002
   4.2644375418917559E-002  -2.7278681967755018E-003   4.0547727173899768E-002
   4.3600967502162316E-002  -4.1798864726509677E-003   4.5107900423797198E-002
   4.4557559585407046E-002  -5.6906275335182506E-003   4.9620896039780399E-002
   3.3391640419568255E-002   0.0000000000000000        3.0179204633763321E-002
   3.4235721926934047E-002  -9.5985836238444413E-004   3.5267840272112529E-002
   3.5079803434299839E-002  -2.0232835219341164E-003   4.0178632392618062E-002
   3.5923884941665631E-002  -3.1902754786490165E-003   4.4911580995279907E-002
   3.6767966449031429E-002  -4.4608342325291421E-003   4.9466686080098118E-002
   2.6632674440374968E-002   0.0000000000000000        2.9469697844758551E-002
   2.7233579487932379E-002  -5.8514401887704327E-004   3.4947596591557627E-002
   2.7834484535489791E-002  -1.3186988470927259E-003   4.0116985936583610E-002
   2.8435389583047203E-002  -2.2006644846470549E-003   4.4977865879836501E-002
   2.9036294630604621E-002  -3.2310409315400371E-003   4.9530236421316307E-002
   6.0310509812004760E-002  -8.1502141354964641E-003   5.0582596861846262E-002
   6.0610527341694413E-002  -1.0028782995257047E-002   5.1521819303759236E-002
   6.0910544871384087E-002  -1.1713243464210630E-002   5.2247432742138021E-002
   6.1210562401073740E-002  -1.3203595542357238E-002   5.2759437176982574E-002
   6.1510579930763420E-002  -1.4499839229696887E-002   5.3057832608292860E-002
   5.2405074039731492E-002  -6.9204208345073522E-003   4.9992866300363120E-002
   5.2530676090115747E-002  -8.5840245604439543E-003   5.1220516808184249E-002
   5.2656278140500022E-002  -1.0059110229726512E-002   5.2312945360928793E-002
   5.2781880190884298E-002  -1.1345677842355016E-002   5.3270151958596731E-002
   5.2907482241268546E-002  -1.2443727398329489E-002   5.4092136601188161E-002
   4.4557559585407046E-002  -5.6906275335182506E-003   4.9620896039780399E-002
   4.4587133204943542E-002  -7.1392661256308738E-003   5.1131384279356748E-002
   4.4616706824480039E-002  -8.4049769952423848E-003   5.2585037612314138E-002
   4.4646280444016542E-002  -9.4877601423527993E-003   5.3981856038652611E-002
   4.4675854063553018E-002  -1.0387615566962091E-002   5.5321839558372117E-002
   3.6767966449031429E-002  -4.4608342325291421E-003   4.9466686080098118E-002
   3.6779898686177794E-002  -5.6945076908177942E-003   5.1254421717276760E-002
   3.6791830923324158E-002  -6.7508437607582778E-003   5.3063709496294076E-002
   3.6803763160470508E-002  -7.6298424423505836E-003   5.4894549417150072E-002
   3.6815695397616879E-002  -8.3315037355946864E-003   5.6746941479844742E-002
   2.9036294630604621E-002  -3.2310409315400371E-003   4.9530236421316307E-002
   2.9108972533818483E-002  -4.2497492560047041E-003   5.1589629121944265E-002
   2.9181650437032348E-002  -5.0967105262741379E-003   5.3748961012868565E-002
   2.9254328340246209E-002  -5.7719247423483541E-003   5.6008232094089200E-002
   2.9327006243460081E-002  -6.2753919042273024E-003   5.8367442365606141E-002
   6.1510579930763420E-002  -1.4499839229696887E-002   5.3057832608292860E-002
   6.0187019703517301E-002  -1.5504618034643043E-002   5.1649493942912968E-002
   5.8863459476271182E-002  -1.6120575465609417E-002   5.0695144945790596E-002
   5.7539899249025063E-002  -1.6347711522595836E-002   5.0194785616925662E-002
   5.6216339021778944E-002  -1.6186026205602444E-002   5.0148415956318193E-002
   5.2907482241268546E-002  -1.2443727398329489E-002   5.4092136601188161E-002
   5.1985373096335025E-002  -1.3294000277841507E-002   5.3350657196768063E-002
   5.1063263951401497E-002  -1.3837237861082664E-002   5.2958090288715731E-002
   5.0141154806467983E-002  -1.4073440148053031E-002   5.2914435877031096E-002
   4.9219045661534455E-002  -1.4002607138752510E-002   5.3219693961714207E-002
   4.4675854063553018E-002  -1.0387615566962091E-002   5.5321839558372117E-002
   4.4050118829042348E-002  -1.1083382521039912E-002   5.5165433337202821E-002
   4.3424383594531671E-002  -1.1553900256555966E-002   5.5252862440511558E-002
   4.2798648360021015E-002  -1.1799168773510182E-002   5.5584126868298181E-002
   4.2172913125510338E-002  -1.1819188071902603E-002   5.6159226620562837E-002
   3.6815695397616879E-002  -8.3315037355946864E-003   5.6746941479844742E-002
   3.6381256901639271E-002  -8.8727647642383670E-003   5.7093822364217263E-002
   3.5946818405661676E-002  -9.2705626520292340E-003   5.7579461401177985E-002
   3.5512379909684082E-002  -9.5248973989673202E-003   5.8203858590726833E-002
   3.5077941413706473E-002  -9.6357690050526690E-003   5.8967013932863938E-002
   2.9327006243460081E-002  -6.2753919042273024E-003   5.8367442365606141E-002
   2.8978787314125797E-002  -6.6621470074367667E-003   5.9135824277811333E-002
   2.8630568384791513E-002  -6.9872250475024791E-003   5.9937887170715007E-002
   2.8282349455457236E-002  -7.2506260244245054E-003   6.0773631044317121E-002
   2.7934130526122952E-002  -7.4523499382027486E-003   6.1643055898617641E-002
   5.6216339021778944E-002  -1.6186026205602444E-002   5.0148415956318193E-002
   5.4720762070255974E-002  -1.5837159470640808E-002   4.9844445630365108E-002
   5.3225185118732962E-002  -1.5502751273722533E-002   4.9693353096128864E-002
   5.1729608167209999E-002  -1.5182801614847698E-002   4.9695138353609301E-002
   5.0234031215687008E-002  -1.4877310494016166E-002   4.9849801402806482E-002
   4.9219045661534455E-002  -1.4002607138752510E-002   5.3219693961714207E-002
   4.7886926142074772E-002  -1.3771275183175405E-002   5.2877216129447582E-002
   4.6554806622615061E-002  -1.3525980631315666E-002   5.2708775369590725E-002
   4.5222687103155378E-002  -1.3266723483173455E-002   5.2714371682143712E-002
   4.3890567583695667E-002  -1.2993503738748663E-002   5.2894005067106398E-002
   4.2172913125510338E-002  -1.1819188071902603E-002   5.6159226620562837E-002
   4.1025410318806958E-002  -1.1705390895709940E-002   5.5806662416308418E-002
   3.9877907512103572E-002  -1.1549209988908769E-002   5.5649294565156993E-002
   3.8730404705400193E-002  -1.1350645351499183E-002   5.5687123067108338E-002
   3.7582901898696834E-002  -1.1109696983481201E-002   5.5920147922162509E-002
   3.5077941413706473E-002  -9.6357690050526690E-003   5.8967013932863938E-002
   3.4136214600452477E-002  -9.6395066082444643E-003   5.8632784490947831E-002
   3.3194487787198475E-002  -9.5724393465019143E-003   5.8514910682827673E-002
   3.2252760973944486E-002  -9.4345672198249964E-003   5.8613392508503365E-002
   3.1311034160690469E-002  -9.2258902282136915E-003   5.8928229967974907E-002
   2.7934130526122952E-002  -7.4523499382027486E-003   6.1643055898617641E-002
   2.7219338987011371E-002  -7.5736223207790443E-003   6.1355582353365676E-002
   2.6504547447899790E-002  -7.5956687040950287E-003   6.1305623722602627E-002
   2.5789755908788212E-002  -7.5184890881507043E-003   6.1493180006328557E-002
   2.5074964369676628E-002  -7.3420834729462370E-003   6.1918251204543417E-002
   5.0234031215687008E-002  -1.4877310494016166E-002   4.9849801402806482E-002
   4.8668730308818436E-002  -1.4549215595865667E-002   4.9420701522889687E-002
   4.7103429401949906E-002  -1.4161454605033923E-002   4.9223408726077070E-002
   4.5538128495081355E-002  -1.3714027521520828E-002   4.9257923012369025E-002
   4.3972827588212776E-002  -1.3206934345326327E-002   4.9524244381765226E-002
   4.3890567583695667E-002  -1.2993503738748663E-002   5.2894005067106398E-002
   4.2549245844268786E-002  -1.2691313798168499E-002   5.2544697162874174E-002
   4.1207924104841906E-002  -1.2345146061560071E-002   5.2411540510420837E-002
   3.9866602365415012E-002  -1.1955000528923428E-002   5.2494535109746478E-002
   3.8525280625988145E-002  -1.1520877200258517E-002   5.2793680960851075E-002
   3.7582901898696834E-002  -1.1109696983481201E-002   5.5920147922162509E-002
   3.6449903495386203E-002  -1.0833412000471374E-002   5.5634943696961849E-002
   3.5316905092075593E-002  -1.0528837518086306E-002   5.5550234892214584E-002
   3.4183906688764976E-002  -1.0195973536326113E-002   5.5666021507921021E-002
   3.3050908285454338E-002  -9.8348200551907350E-003   5.5982303544080958E-002
   3.1311034160690469E-002  -9.2258902282136915E-003   5.8928229967974907E-002
   3.0370703262170728E-002  -8.9755102027742270E-003   5.8691441125152621E-002
   2.9430372363650988E-002  -8.7125289746125250E-003   5.8639491871458498E-002
   2.8490041465131240E-002  -8.4369465437288647E-003   5.8772382206892515E-002
   2.7549710566611499E-002  -8.1487629101228837E-003   5.9090112131454750E-002
   2.5074964369676628E-002  -7.3420834729462370E-003   6.1918251204543417E-002
   2.4311645144622349E-002  -7.1176084050770805E-003   6.1714189447446555E-002
   2.3548325919568062E-002  -6.8962204311387026E-003   6.1679311448152391E-002
   2.2785006694513776E-002  -6.6779195511314261E-003   6.1813617206661092E-002
   2.2021687469459497E-002  -6.4627057650551434E-003   6.2117106722972437E-002
   4.3972827588212776E-002  -1.3206934345326327E-002   4.9524244381765226E-002
   4.2281974632705638E-002  -1.2677708986992664E-002   4.9214390242250383E-002
   4.0591121677198486E-002  -1.2163885357062296E-002   4.9085764849978120E-002
   3.8900268721691326E-002  -1.1665463455534857E-002   4.9138368204948463E-002
   3.7209415766184195E-002  -1.1182443282410692E-002   4.9372200307161163E-002
   3.8525280625988145E-002  -1.1520877200258517E-002   5.2793680960851075E-002
   3.7022044458833253E-002  -1.1067702477857072E-002   5.2452751115657587E-002
   3.5518808291678416E-002  -1.0620402764010939E-002   5.2305826099926261E-002
   3.4015572124523510E-002  -1.0178978058720103E-002   5.2352905913657113E-002
   3.2512335957368660E-002  -9.7434283619844408E-003   5.2593990556849657E-002
   3.3050908285454338E-002  -9.8348200551907350E-003   5.5982303544080958E-002
   3.1748064988871248E-002  -9.4576959687213413E-003   5.5619824713056848E-002
   3.0445221692288162E-002  -9.0769201709595335E-003   5.5464126793714257E-002
   2.9142378395705069E-002  -8.6924926619050737E-003   5.5515209786053205E-002
   2.7839535099121987E-002  -8.3044134415581339E-003   5.5773073690073560E-002
   2.7549710566611499E-002  -8.1487629101228837E-003   5.9090112131454750E-002
   2.6460036222819630E-002  -7.8476894595857077E-003   5.8715611034447765E-002
   2.5370361879027831E-002  -7.5334375779081801E-003   5.8560666931341689E-002
   2.4280687535235969E-002  -7.2060072650902375E-003   5.8625279822136771E-002
   2.3191013191444135E-002  -6.8653985211318547E-003   5.8909449706832775E-002
   2.2021687469459497E-002  -6.4627057650551434E-003   6.2117106722972437E-002
   2.1157958160678392E-002  -6.2376829504500186E-003   6.1740110079830324E-002
   2.0294228851897314E-002  -5.9899549848568268E-003   6.1595446512808877E-002
   1.9430499543116209E-002  -5.7195218682753041E-003   6.1683116021907819E-002
   1.8566770234335131E-002  -5.4263836007055755E-003   6.2003118607127039E-002
   3.7209415766184195E-002  -1.1182443282410692E-002   4.9372200307161163E-002
   3.5745812540971894E-002  -1.0692618660488096E-002   4.9100092932322703E-002
   3.4282209315759621E-002  -1.0173783412565418E-002   4.9012793234518043E-002
   3.2818606090547334E-002  -9.6259375386430340E-003   4.9110301213747182E-002
   3.1355002865335047E-002  -9.0490810387205967E-003   4.9392616870010286E-002
   3.2512335957368660E-002  -9.7434283619844408E-003   5.2593990556849657E-002
   3.1232057171216493E-002  -9.2986036026389274E-003   5.2371396774493789E-002
   2.9951778385064284E-002  -8.8293537095182756E-003   5.2330644193224168E-002
   2.8671499598912076E-002  -8.3356786826228498E-003   5.2471732813040781E-002
   2.7391220812759895E-002  -7.8175785219522509E-003   5.2794662633943834E-002
   2.7839535099121987E-002  -8.3044134415581339E-003   5.5773073690073560E-002
   2.6739614276082339E-002  -7.9045885447898145E-003   5.5595408007975342E-002
   2.5639693453042692E-002  -7.4849240064714662E-003   5.5596617051015637E-002
   2.4539772630003030E-002  -7.0454198266027210E-003   5.5776700819194905E-002
   2.3439851806963376E-002  -6.5860760051839606E-003   5.6135659312512826E-002
   2.3191013191444135E-002  -6.8653985211318547E-003   5.8909449706832775E-002
   2.2268483855569496E-002  -6.5105734869407850E-003   5.8772126632767083E-002
   2.1345954519694812E-002  -6.1404943034243792E-003   5.8810711807892803E-002
   2.0423425183820162E-002  -5.7551609705826755E-003   5.9025205232209735E-002
   1.9500895847945489E-002  -5.3545734884157536E-003   5.9415606905717865E-002
   1.8566770234335131E-002  -5.4263836007055755E-003   6.2003118607127039E-002
   1.7818665909677914E-002  -5.1165584290915611E-003   6.1901552648869429E-002
   1.7070561585020690E-002  -4.7960646003774310E-003   6.1972928463855464E-002
   1.6322457260363497E-002  -4.4649021145623871E-003   6.2217246052085035E-002
   1.5574352935706276E-002  -4.1230709716473246E-003   6.2634505413558417E-002
   3.1355002865335047E-002  -9.0490810387205967E-003   4.9392616870010286E-002
   2.9424338683081253E-002  -8.5150857262477619E-003   4.8964034689311764E-002
   2.7493674500827417E-002  -8.0958234146742136E-003   4.8666686526132208E-002
   2.5563010318573588E-002  -7.7912941039995978E-003   4.8500572380471452E-002
   2.3632346136319760E-002  -7.6014977942242545E-003   4.8465692252329884E-002
   2.7391220812759895E-002  -7.8175785219522509E-003   5.2794662633943834E-002
   2.5615701418161108E-002  -7.3150775178887906E-003   5.2317226046215692E-002
   2.3840182023562272E-002  -6.8681999608145861E-003   5.2018845016278487E-002
   2.2064662628963529E-002  -6.4769458507297276E-003   5.1899519544132411E-002
   2.0289143234364648E-002  -6.1413151876341665E-003   5.1959249629777382E-002
   2.3439851806963376E-002  -6.5860760051839606E-003   5.6135659312512826E-002
   2.1867298740291682E-002  -6.1150693095299025E-003   5.5668477871665040E-002
   2.0294745673619930E-002  -5.6405765069551667E-003   5.5428173528880270E-002
   1.8722192606948206E-002  -5.1625975974599093E-003   5.5414746284158663E-002
   1.7149639540276485E-002  -4.6811325810440785E-003   5.5628196137500363E-002
   1.9500895847945489E-002  -5.3545734884157536E-003   5.9415606905717865E-002
   1.8179130649472904E-002  -4.9150611011709727E-003   5.9017790165660243E-002
   1.6857365451000261E-002  -4.4129530530956432E-003   5.8894672063937614E-002
   1.5535600252527692E-002  -3.8482493441900651E-003   5.9046252600550145E-002
   1.4213835054055060E-002  -3.2209499744540460E-003   5.9472531775497939E-002
   1.5574352935706276E-002  -4.1230709716473246E-003   6.2634505413558417E-002
   1.4551197145704853E-002  -3.7150528928118209E-003   6.2365162928200935E-002
   1.3528041355703388E-002  -3.1853295992360364E-003   6.2418340621450297E-002
   1.2504885565701979E-002  -2.5339010909202278E-003   6.2794038493307031E-002
   1.1481729775700555E-002  -1.7607673678639024E-003   6.3492256543770997E-002
   2.6632674440374968E-002   0.0000000000000000        2.9469697844758551E-002
   2.7233579487932379E-002  -5.8514401887704327E-004   3.4947596591557627E-002
   2.7834484535489791E-002  -1.3186988470927259E-003   4.0116985936583610E-002
   2.8435389583047203E-002  -2.2006644846470549E-003   4.4977865879836501E-002
   2.9036294630604621E-002  -3.2310409315400371E-003   4.9530236421316307E-002
   2.0116635213018604E-002   0.0000000000000000        2.9022532154738025E-002
   2.0448587102101210E-002  -4.3897920024907160E-004   3.4315463955757644E-002
   2.0780538991183817E-002  -9.8913126932962357E-004   3.9378998841600753E-002
   2.1112490880266427E-002  -1.6504562072416542E-003   4.4213136812267337E-002
   2.1444442769349033E-002  -2.4229540139851739E-003   4.8817877867757431E-002
   1.3505864635669555E-002   0.0000000000000000        2.8702912313091886E-002
   1.3647975852873938E-002  -2.9281438162110165E-004   3.3848115108839227E-002
   1.3790087070078323E-002  -6.5956369156651949E-004   3.8843033476006615E-002
   1.3932198287282703E-002  -1.1002479298362544E-003   4.3687667414594081E-002
   1.4074309504487089E-002  -1.6148670964303072E-003   4.8382016924601617E-002
   6.8003627083278286E-003   0.0000000000000000        2.8510838319820139E-002
   6.8317457402505659E-003  -1.4664956299313085E-004   3.3545550050802349E-002
   6.8631287721733032E-003  -3.2999611380341454E-004   3.8509089839801183E-002
   6.8945118040960414E-003  -5.5003965243085760E-004   4.3401457686816684E-002
   6.9258948360187769E-003  -8.0678017887544397E-004   4.8222653591848831E-002
   1.2943099341779229E-007   0.0000000000000000        2.8446310174922780E-002
  -1.0323576891003300E-007  -4.8474436516003638E-007   3.3407768781647015E-002
  -3.3590253123807513E-007  -4.2853604031133086E-007   3.8377167932984478E-002
  -5.6856929356600885E-007   1.6862497454785130E-007   4.3354507628935182E-002
  -8.0123605589480992E-007   1.3067386794201122E-006   4.8339787869499093E-002
   2.9036294630604621E-002  -3.2310409315400371E-003   4.9530236421316307E-002
   2.9108972533818483E-002  -4.2497492560047041E-003   5.1589629121944265E-002
   2.9181650437032348E-002  -5.0967105262741379E-003   5.3748961012868565E-002
   2.9254328340246209E-002  -5.7719247423483541E-003   5.6008232094089200E-002
   2.9327006243460081E-002  -6.2753919042273024E-003   5.8367442365606141E-002
   2.1444442769349033E-002  -2.4229540139851739E-003   4.8817877867757431E-002
   2.1587547876927619E-002  -3.1867813991259043E-003   5.1219607561963580E-002
   2.1730652984506205E-002  -3.8220950722296005E-003   5.3662252474602837E-002
   2.1873758092084788E-002  -4.3288950332962834E-003   5.6145812605675235E-002
   2.2016863199663374E-002  -4.7071812823259174E-003   5.8670287955180742E-002
   1.4074309504487089E-002  -1.6148670964303072E-003   4.8382016924601617E-002
   1.4228817844567188E-002  -2.1238135422471053E-003   5.1082850270227714E-002
   1.4383326184647289E-002  -2.5474796181850770E-003   5.3765574862423740E-002
   1.4537834524727389E-002  -2.8858653242442266E-003   5.6430190701189674E-002
   1.4692342864807490E-002  -3.1389706604245428E-003   5.9076697786525502E-002
   6.9258948360187769E-003  -8.0678017887544397E-004   4.8222653591848831E-002
   7.0327824367371903E-003  -1.0608456853683024E-003   5.1179357246736688E-002
   7.1396700374556010E-003  -1.2728641641405430E-003   5.4058928176331289E-002
   7.2465576381740109E-003  -1.4428356151921524E-003   5.6861366380632550E-002
   7.3534452388924207E-003  -1.5707600385231491E-003   5.9586671859640526E-002
  -8.0123605589480992E-007   1.3067386794201122E-006   4.8339787869499093E-002
  -5.5834656237808283E-007   2.1221715105004813E-006   5.1509128491490509E-002
  -3.1545706886157258E-007   1.7512899039902764E-006   5.4542312416325435E-002
  -7.2567575344953915E-008   1.9409385989562324E-007   5.7439339644003863E-002
   1.7032191817166475E-007  -2.5494166217901459E-006   6.0200210174525780E-002
   2.9327006243460081E-002  -6.2753919042273024E-003   5.8367442365606141E-002
   2.8978787314125797E-002  -6.6621470074367667E-003   5.9135824277811333E-002
   2.8630568384791513E-002  -6.9872250475024791E-003   5.9937887170715007E-002
   2.8282349455457236E-002  -7.2506260244245054E-003   6.0773631044317121E-002
   2.7934130526122952E-002  -7.4523499382027486E-003   6.1643055898617641E-002
   2.2016863199663374E-002  -4.7071812823259174E-003   5.8670287955180742E-002
   2.1715598943255664E-002  -4.9976516460024274E-003   5.9491963829461397E-002
   2.1414334686847957E-002  -5.2410039510097095E-003   6.0373868068896754E-002
   2.1113070430440244E-002  -5.4372381973477636E-003   6.1316000673486873E-002
   2.0811806174032541E-002  -5.5863543850166036E-003   6.2318361643231693E-002
   1.4692342864807490E-002  -3.1389706604245428E-003   5.9076697786525502E-002
   1.4464580665782632E-002  -3.3331562845680882E-003   5.9937108618407120E-002
   1.4236818466757778E-002  -3.4947828545169269E-003   6.0884295199899720E-002
   1.4009056267732918E-002  -3.6238503702710366E-003   6.1918257531003253E-002
   1.3781294068708063E-002  -3.7203588318304656E-003   6.3038995611717857E-002
   7.3534452388924207E-003  -1.5707600385231491E-003   5.9586671859640526E-002
   7.2257324817067000E-003  -1.6686609231337489E-003   6.0471258644648557E-002
   7.0980197245209785E-003  -1.7485617580241370E-003   6.1469168563723822E-002
   6.9703069673352595E-003  -1.8104625431943091E-003   6.2580401616866399E-002
   6.8425942101495345E-003  -1.8543632786443102E-003   6.3804957804076204E-002
   1.7032191817166475E-007  -2.5494166217901459E-006   6.0200210174525780E-002
  -9.4560897213619849E-007  -4.1655616994130951E-006   6.1094413908185666E-002
  -2.0615398624414596E-006  -2.3406615313695950E-006   6.2128488160369144E-002
  -3.1774707527480218E-006   2.9252838824197179E-006   6.3302432931076152E-002
  -4.2934016430545840E-006   1.1632274541817367E-005   6.4616248220306760E-002
   2.7934130526122952E-002  -7.4523499382027486E-003   6.1643055898617641E-002
   2.7219338987011371E-002  -7.5736223207790443E-003   6.1355582353365676E-002
   2.6504547447899790E-002  -7.5956687040950287E-003   6.1305623722602627E-002
   2.5789755908788212E-002  -7.5184890881507043E-003   6.1493180006328557E-002
   2.5074964369676628E-002  -7.3420834729462370E-003   6.1918251204543417E-002
   2.0811806174032541E-002  -5.5863543850166036E-003   6.2318361643231693E-002
   2.0319837914427041E-002  -5.6764812785781854E-003   6.2193051974165525E-002
   1.9827869654821546E-002  -5.6957476425945237E-003   6.2275873949622612E-002
   1.9335901395216057E-002  -5.6441534770655154E-003   6.2566827569602995E-002
   1.8843933135610558E-002  -5.5216987819912688E-003   6.3065912834106508E-002
   1.3781294068708063E-002  -3.7203588318304656E-003   6.3038995611717857E-002
   1.3482765818642935E-002  -3.7793402363773682E-003   6.3047484349122607E-002
   1.3184237568577806E-002  -3.7958265810939928E-003   6.3234721461084886E-002
   1.2885709318512670E-002  -3.7698178659802575E-003   6.3600706947604654E-002
   1.2587181068447542E-002  -3.7013140910362452E-003   6.4145440808681911E-002
   6.8425942101495345E-003  -1.8543632786443102E-003   6.3804957804076204E-002
   6.7081226996590455E-003  -1.8821991941765301E-003   6.3918879478236892E-002
   6.5736511891685556E-003  -1.8959055195934193E-003   6.4182166256989304E-002
   6.4391796786780718E-003  -1.8954822548950341E-003   6.4594818140333465E-002
   6.3047081681875793E-003  -1.8809294000812354E-003   6.5156835128269502E-002
  -4.2934016430545840E-006   1.1632274541817367E-005   6.4616248220306760E-002
  -4.0914425246257879E-006   1.4941848024252469E-005   6.4807237361508285E-002
  -3.8894834061969918E-006   4.0155419070431186E-006   6.5118208337335906E-002
  -3.6875242877699305E-006  -2.1146643809810683E-005   6.5549161147789636E-002
  -3.4855651693393996E-006  -6.0544709126253426E-005   6.6100095792869351E-002
   2.5074964369676628E-002  -7.3420834729462370E-003   6.1918251204543417E-002
   2.4311645144622349E-002  -7.1176084050770805E-003   6.1714189447446555E-002
   2.3548325919568062E-002  -6.8962204311387026E-003   6.1679311448152391E-002
   2.2785006694513776E-002  -6.6779195511314261E-003   6.1813617206661092E-002
   2.2021687469459497E-002  -6.4627057650551434E-003   6.2117106722972437E-002
   1.8843933135610558E-002  -5.5216987819912688E-003   6.3065912834106508E-002
   1.8255175051741526E-002  -5.3637954019072759E-003   6.2839982500566730E-002
   1.7666416967872495E-002  -5.2058551813492365E-003   6.2793990691594748E-002
   1.7077658884003467E-002  -5.0478781203170085E-003   6.2927937407190437E-002
   1.6488900800134432E-002  -4.8898642188108243E-003   6.3241822647353868E-002
   1.2587181068447542E-002  -3.7013140910362452E-003   6.4145440808681911E-002
   1.2183738892528728E-002  -3.6099823987375268E-003   6.3900765833104264E-002
   1.1780296716609913E-002  -3.5154899315596524E-003   6.3846784148859304E-002
   1.1376854540691102E-002  -3.4178366895026447E-003   6.3983495755947112E-002
   1.0973412364772291E-002  -3.3170226725665608E-003   6.4310900654367620E-002
   6.3047081681875793E-003  -1.8809294000812354E-003   6.5156835128269502E-002
   6.0973366669839517E-003  -1.8561693955677083E-003   6.4896539445059076E-002
   5.8899651657803257E-003  -1.8251246817700718E-003   6.4837691819946294E-002
   5.6825936645766989E-003  -1.7877952586881985E-003   6.4980292252931157E-002
   5.4752221633730721E-003  -1.7441811263222418E-003   6.5324340744013817E-002
  -3.4855651693393996E-006  -6.0544709126253426E-005   6.6100095792869351E-002
  -4.0316248928091991E-006  -1.0235639239794536E-004   6.5827303336431109E-002
  -4.5776846162789986E-006  -1.3475943198056062E-004   6.5766713704855512E-002
  -5.1237443397496654E-006  -1.5775382787381123E-004   6.5918326898142560E-002
  -5.6698040632185975E-006  -1.7133958007803374E-004   6.6282142916292308E-002
   2.2021687469459497E-002  -6.4627057650551434E-003   6.2117106722972437E-002
   2.1157958160678392E-002  -6.2376829504500186E-003   6.1740110079830324E-002
   2.0294228851897314E-002  -5.9899549848568268E-003   6.1595446512808877E-002
   1.9430499543116209E-002  -5.7195218682753041E-003   6.1683116021907819E-002
   1.8566770234335131E-002  -5.4263836007055755E-003   6.2003118607127039E-002
   1.6488900800134432E-002  -4.8898642188108243E-003   6.3241822647353868E-002
   1.5853370861373152E-002  -4.7239622694768973E-003   6.2897212735158872E-002
   1.5217840922611872E-002  -4.5423210649617601E-003   6.2776668486882958E-002
   1.4582310983850599E-002  -4.3449406052654231E-003   6.2880189902526126E-002
   1.3946781045089313E-002  -4.1318208903877718E-003   6.3207776982088487E-002
   1.0973412364772291E-002  -3.3170226725665608E-003   6.4310900654367620E-002
   1.0557814383829502E-002  -3.2102415885037483E-003   6.3991711577312538E-002
   1.0142216402886713E-002  -3.0946871450666935E-003   6.3888320751975300E-002
   9.7266184219439236E-003  -2.9703593422553201E-003   6.4000728178355823E-002
   9.3110204410011381E-003  -2.8372581800698571E-003   6.4328933856454218E-002
   5.4752221633730721E-003  -1.7441811263222418E-003   6.5324340744013817E-002
   5.2712887280474408E-003  -1.6965209075306131E-003   6.5023606606291737E-002
   5.0673552927218172E-003  -1.6470532251715991E-003   6.4930403308086165E-002
   4.8634218573961937E-003  -1.5957780792453004E-003   6.5044730849397131E-002
   4.6594884220705632E-003  -1.5426954697519979E-003   6.5366589230224564E-002
  -5.6698040632185975E-006  -1.7133958007803374E-004   6.6282142916292308E-002
  -6.2061059730132706E-006  -1.8280022655745021E-004   6.5992897822096275E-002
  -6.7424078828079437E-006  -1.9941930527651863E-004   6.5902916155215430E-002
  -7.2787097926017494E-006  -2.2119681623527024E-004   6.6012197915649592E-002
  -7.8150117023972898E-006  -2.4813275943408319E-004   6.6320743103399138E-002
   1.8566770234335131E-002  -5.4263836007055755E-003   6.2003118607127039E-002
   1.7818665909677914E-002  -5.1165584290915611E-003   6.1901552648869429E-002
   1.7070561585020690E-002  -4.7960646003774310E-003   6.1972928463855464E-002
   1.6322457260363497E-002  -4.4649021145623871E-003   6.2217246052085035E-002
   1.5574352935706276E-002  -4.1230709716473246E-003   6.2634505413558417E-002
   1.3946781045089313E-002  -4.1318208903877718E-003   6.3207776982088487E-002
   1.3374752625784164E-002  -3.9105670374147139E-003   6.3099172580151741E-002
   1.2802724206479016E-002  -3.6887841634321572E-003   6.3169778215675557E-002
   1.2230695787173868E-002  -3.4664722684399490E-003   6.3419593888659698E-002
   1.1658667367868719E-002  -3.2436313524381033E-003   6.3848619599104262E-002
   9.3110204410011381E-003  -2.8372581800698571E-003   6.4328933856454218E-002
   8.9213361912647941E-003  -2.7045756457376863E-003   6.4203151374747802E-002
   8.5316519415284588E-003  -2.5815037264869806E-003   6.4262847194718475E-002
   8.1419676917921270E-003  -2.4680424223172300E-003   6.4508021316366376E-002
   7.7522834420557796E-003  -2.3641917332287710E-003   6.4938673739691449E-002
   4.6594884220705632E-003  -1.5426954697519979E-003   6.5366589230224564E-002
   4.4584166061198112E-003  -1.4985842540608044E-003   6.5213489032657446E-002
   4.2573447901690497E-003  -1.4742232895416166E-003   6.5252135400984235E-002
   4.0562729742182994E-003  -1.4696125761947069E-003   6.5482528335205015E-002
   3.8552011582675353E-003  -1.4847521140195497E-003   6.5904667835319786E-002
  -7.8150117023972898E-006  -2.4813275943408319E-004   6.6320743103399138E-002
  -1.4006129650807886E-005  -2.9259286238392246E-004   6.6130185553880727E-002
  -2.0197247599221951E-005  -3.6694285259658566E-004   6.6137642834472876E-002
  -2.6388365547639486E-005  -4.7118273007208666E-004   6.6343114945175835E-002
  -3.2579483496046613E-005  -6.0531249481016181E-004   6.6746601885989520E-002
   1.5574352935706276E-002  -4.1230709716473246E-003   6.2634505413558417E-002
   1.4551197145704853E-002  -3.7150528928118209E-003   6.2365162928200935E-002
   1.3528041355703388E-002  -3.1853295992360364E-003   6.2418340621450297E-002
   1.2504885565701979E-002  -2.5339010909202278E-003   6.2794038493307031E-002
   1.1481729775700555E-002  -1.7607673678639024E-003   6.3492256543770997E-002
   1.1658667367868719E-002  -3.2436313524381033E-003   6.3848619599104262E-002
   1.0940779076769484E-002  -2.9889713037457022E-003   6.3663733305622361E-002
   1.0222890785670284E-002  -2.6712020106818002E-003   6.3766861831337479E-002
   9.5050024945710632E-003  -2.2903234732462238E-003   6.4158005176249866E-002
   8.7871142034718352E-003  -1.8463356914393270E-003   6.4837163340359716E-002
   7.7522834420557796E-003  -2.3641917332287710E-003   6.4938673739691449E-002
   7.3051572904488729E-003  -2.2628897146793614E-003   6.4779647667716184E-002
   6.8580311388419489E-003  -2.1570744221272725E-003   6.4874131055528445E-002
   6.4109049872350388E-003  -2.0467458555724106E-003   6.5222123903128149E-002
   5.9637788356281252E-003  -1.9319040150146405E-003   6.5823626210514574E-002
   3.8552011582675353E-003  -1.4847521140195497E-003   6.5904667835319786E-002
   3.6443317867429926E-003  -1.5368081256132426E-003   6.5712906014482875E-002
   3.4334624152184386E-003  -1.6429468335730016E-003   6.5740148294023276E-002
   3.2225930436938759E-003  -1.8031682378986131E-003   6.5986394673940796E-002
   3.0117236721693280E-003  -2.0174723385900095E-003   6.6451645154236363E-002
  -3.2579483496046613E-005  -6.0531249481016181E-004   6.6746601885989520E-002
  -4.1697434348165335E-005  -8.1072653654695737E-004   6.6463508345922018E-002
  -5.0815385200284058E-005  -1.1288192450184392E-003   6.6364913546821863E-002
  -5.9933336052416658E-005  -1.5595906202246317E-003   6.6450817488689098E-002
  -6.9051286904528442E-005  -2.1030406621653785E-003   6.6721220171524154E-002
   1.2943099341779229E-007   0.0000000000000000        2.8446310174922780E-002
  -1.0323576891003300E-007  -4.8474436516003638E-007   3.3407768781647015E-002
  -3.3590253123807513E-007  -4.2853604031133086E-007   3.8377167932984478E-002
  -5.6856929356600885E-007   1.6862497454785130E-007   4.3354507628935182E-002
  -8.0123605589480992E-007   1.3067386794201122E-006   4.8339787869499093E-002
  -6.8001585961193376E-003   0.0000000000000000        2.8509705474745187E-002
  -6.8319618975299107E-003   1.4617853175088753E-004   3.3545177940384863E-002
  -6.8637651989404847E-003   3.2962248629358256E-004   3.8509568592114823E-002
  -6.8955685003510587E-003   5.5033186362809291E-004   4.3402877429935066E-002
  -6.9273718017616309E-003   8.0830666375440556E-004   4.8225104453845591E-002
  -1.3505824772796103E-002   0.0000000000000000        2.8701401815632740E-002
  -1.3648221067377859E-002   2.9284180786693509E-004   3.3847612610289651E-002
  -1.3790617361959618E-002   6.5967350862747732E-004   3.8843719232513903E-002
  -1.3933013656541380E-002   1.1004951022816319E-003   4.3689721682305491E-002
  -1.4075409951123137E-002   1.6153065888293940E-003   4.8385619959664429E-002
  -2.0116869099036875E-002   0.0000000000000000        2.9021399197585448E-002
  -2.0448880745312759E-002   4.3950508398298222E-004   3.4315072791361381E-002
  -2.0780892391588642E-002   9.8972453096137164E-004   3.9379619854181723E-002
  -2.1112904037864522E-002   1.6506583409351739E-003   4.4215040386046463E-002
  -2.1444915684140402E-002   2.4223065139043877E-003   4.8821334386955621E-002
  -2.6633291574841657E-002   0.0000000000000000        2.9469697620603297E-002
  -2.7233940931334601E-002   5.8616836009903021E-004   3.4947558483600066E-002
  -2.7834590287827553E-002   1.3197755532952660E-003   4.0117270457118291E-002
  -2.8435239644320501E-002   2.2008215795887159E-003   4.4978833541157996E-002
  -2.9035889000813442E-002   3.2293064389793680E-003   4.9532247735719154E-002
  -8.0123605589480992E-007   1.3067386794201122E-006   4.8339787869499093E-002
  -5.5834656237808283E-007   2.1221715105004813E-006   5.1509128491490509E-002
  -3.1545706886157258E-007   1.7512899039902764E-006   5.4542312416325435E-002
  -7.2567575344953915E-008   1.9409385989562324E-007   5.7439339644003863E-002
   1.7032191817166475E-007  -2.5494166217901459E-006   6.0200210174525780E-002
  -6.9273718017616309E-003   8.0830666375440556E-004   4.8225104453845591E-002
  -7.0338318481638698E-003   1.0632584347308443E-003   5.1180182355677409E-002
  -7.1402918945661035E-003   1.2748987246157021E-003   5.4058011082874224E-002
  -7.2467519409683389E-003   1.4432275334089919E-003   5.6858590635436024E-002
  -7.3532119873705743E-003   1.5682448611107208E-003   5.9581921013362807E-002
  -1.4075409951123137E-002   1.6153065888293940E-003   4.8385619959664429E-002
  -1.4229665410899633E-002   2.1243946979511812E-003   5.1084309974682662E-002
  -1.4383920870676135E-002   2.5480461593274137E-003   5.3764658337587382E-002
  -1.4538176330452634E-002   2.8862609729580881E-003   5.6426665048378552E-002
  -1.4692431790229129E-002   3.1390391388432075E-003   5.9070330107056250E-002
  -2.1444915684140402E-002   2.4223065139043877E-003   4.8821334386955621E-002
  -2.1588059034769680E-002   3.1855309611715215E-003   5.1221511348506263E-002
  -2.1731202385398950E-002   3.8211935940391257E-003   5.3662254180464913E-002
  -2.1874345736028217E-002   4.3292944125071838E-003   5.6143562882831510E-002
  -2.2017489086657495E-002   4.7098334165756924E-003   5.8665437455606075E-002
  -2.9035889000813442E-002   3.2293064389793680E-003   4.9532247735719154E-002
  -2.9109012719774001E-002   4.2466672243918549E-003   5.1591786477148266E-002
  -2.9182136438734560E-002   5.0943410287508373E-003   5.3750798611506813E-002
  -2.9255260157695119E-002   5.7723278520562735E-003   5.6009284138794836E-002
  -2.9328383876655671E-002   6.2806276943081912E-003   5.8367243059012322E-002
   1.7032191817166475E-007  -2.5494166217901459E-006   6.0200210174525780E-002
  -9.4560897213619849E-007  -4.1655616994130951E-006   6.1094413908185666E-002
  -2.0615398624414596E-006  -2.3406615313695950E-006   6.2128488160369144E-002
  -3.1774707527480218E-006   2.9252838824197179E-006   6.3302432931076152E-002
  -4.2934016430545840E-006   1.1632274541817367E-005   6.4616248220306760E-002
  -7.3532119873705743E-003   1.5682448611107208E-003   5.9581921013362807E-002
  -7.2275142612343007E-003   1.6644590292525796E-003   6.0471803495564705E-002
  -7.1018165350980262E-003   1.7463783593663247E-003   6.1475442773296224E-002
  -6.9761188089617551E-003   1.8140028514519223E-003   6.2592838846557336E-002
  -6.8504210828254797E-003   1.8673325055094114E-003   6.3823991715348055E-002
  -1.4692431790229129E-002   3.1390391388432075E-003   5.9070330107056250E-002
  -1.4466034130060231E-002   3.3330836202045671E-003   5.9938155454526326E-002
  -1.4239636469891329E-002   3.4950973802639921E-003   6.0893623874532066E-002
  -1.4013238809722425E-002   3.6250804190214947E-003   6.1936735367073475E-002
  -1.3786841149553527E-002   3.7230327364770610E-003   6.3067489932150472E-002
  -2.2017489086657495E-002   4.7098334165756924E-003   5.8665437455606075E-002
  -2.1716505215449926E-002   5.0017082111565572E-003   5.9493469785070523E-002
  -2.1415521344242343E-002   5.2438164011616595E-003   6.0383031464076690E-002
  -2.1114537473034770E-002   5.4361579865910455E-003   6.1334122492624564E-002
  -2.0813553601827191E-002   5.5787329674446690E-003   6.2346742870714081E-002
  -2.9328383876655671E-002   6.2806276943081912E-003   5.8367243059012322E-002
  -2.8978927517403368E-002   6.6703328021085542E-003   5.9137746487197343E-002
  -2.8629471158151072E-002   6.9925354220593539E-003   5.9943665541930091E-002
  -2.8280014798898769E-002   7.2472355541606040E-003   6.0785000223210595E-002
  -2.7930558439646480E-002   7.4344331984122908E-003   6.1661750531038853E-002
  -4.2934016430545840E-006   1.1632274541817367E-005   6.4616248220306760E-002
  -4.0914425246257879E-006   1.4941848024252469E-005   6.4807237361508285E-002
  -3.8894834061969918E-006   4.0155419070431186E-006   6.5118208337335906E-002
  -3.6875242877699305E-006  -2.1146643809810683E-005   6.5549161147789636E-002
  -3.4855651693393996E-006  -6.0544709126253426E-005   6.6100095792869351E-002
  -6.8504210828254797E-003   1.8673325055094114E-003   6.3823991715348055E-002
  -6.7155896721410773E-003   1.8987246163257657E-003   6.3917428023916950E-002
  -6.5807582614566713E-003   1.9005364786878753E-003   6.4160141400991785E-002
  -6.4459268507722663E-003   1.8727680925957682E-003   6.4552131846572575E-002
  -6.3110954400878629E-003   1.8154194580493610E-003   6.5093399360659221E-002
  -1.3786841149553527E-002   3.7230327364770610E-003   6.3067489932150472E-002
  -1.3488085053423297E-002   3.7825073846272372E-003   6.3048029039232220E-002
  -1.3189328957293084E-002   3.7970574154686243E-003   6.3207140448699711E-002
  -1.2890572861162866E-002   3.7666828290012777E-003   6.3544824160552904E-002
  -1.2591816765032633E-002   3.6913836252250587E-003   6.4061080174791868E-002
  -2.0813553601827191E-002   5.5787329674446690E-003   6.2346742870714081E-002
  -2.0321577586371310E-002   5.6662901529287296E-003   6.2199040407454075E-002
  -1.9829601570915435E-002   5.6935783522494565E-003   6.2259205480459601E-002
  -1.9337625555459547E-002   5.6605975654067109E-003   6.2527238089730736E-002
  -1.8845649540003669E-002   5.5673477924007564E-003   6.3003138235267431E-002
  -2.7930558439646480E-002   7.4344331984122908E-003   6.1661750531038853E-002
  -2.7216067270985092E-002   7.5500729212302220E-003   6.1370462128582451E-002
  -2.6501576102323718E-002   7.5900992890302298E-003   6.1316336496271488E-002
  -2.5787084933662337E-002   7.5545123018123167E-003   6.1499373634105944E-002
  -2.5072593765000959E-002   7.4433119595763708E-003   6.1919573542085798E-002
  -3.4855651693393996E-006  -6.0544709126253426E-005   6.6100095792869351E-002
  -4.0316248928091991E-006  -1.0235639239794536E-004   6.5827303336431109E-002
  -4.5776846162789986E-006  -1.3475943198056062E-004   6.5766713704855512E-002
  -5.1237443397496654E-006  -1.5775382787381123E-004   6.5918326898142560E-002
  -5.6698040632185975E-006  -1.7133958007803374E-004   6.6282142916292308E-002
  -6.3110954400878629E-003   1.8154194580493610E-003   6.5093399360659221E-002
  -6.1047574999600470E-003   1.7450845937061615E-003   6.4848684845458041E-002
  -5.8984195598322285E-003   1.6783575182229699E-003   6.4805535505096920E-002
  -5.6920816197044144E-003   1.6152382316003515E-003   6.4963951339575610E-002
  -5.4857436795765942E-003   1.5557267338378589E-003   6.5323932348894331E-002
  -1.2591816765032633E-002   3.6913836252250587E-003   6.4061080174791868E-002
  -1.2189232475076250E-002   3.5925255798101713E-003   6.3838642745998916E-002
  -1.1786648185119871E-002   3.4914744684265905E-003   6.3807132842023273E-002
  -1.1384063895163483E-002   3.3882302910744604E-003   6.3966550462864841E-002
  -1.0981479605207095E-002   3.2827930477536682E-003   6.4316895608523536E-002
  -1.8845649540003669E-002   5.5673477924007564E-003   6.3003138235267431E-002
  -1.8257456550241427E-002   5.4399665659141741E-003   6.2797177038053792E-002
  -1.7669263560479185E-002   5.3045914186301939E-003   6.2771505715634751E-002
  -1.7081070570716939E-002   5.1612223505486240E-003   6.2926124268010072E-002
  -1.6492877580954704E-002   5.0098593616694637E-003   6.3261032695180019E-002
  -2.5072593765000959E-002   7.4433119595763708E-003   6.1919573542085798E-002
  -2.4309429725455581E-002   7.2874075520182741E-003   6.1724287721622584E-002
  -2.3546265685910193E-002   7.1177083688337001E-003   6.1698654125931146E-002
  -2.2783101646364809E-002   6.9342144100227494E-003   6.1842672755011527E-002
  -2.2019937606819435E-002   6.7369256755853146E-003   6.2156343608863629E-002
  -5.6698040632185975E-006  -1.7133958007803374E-004   6.6282142916292308E-002
  -6.2061059730132706E-006  -1.8280022655745021E-004   6.5992897822096275E-002
  -6.7424078828079437E-006  -1.9941930527651863E-004   6.5902916155215430E-002
  -7.2787097926017494E-006  -2.2119681623527024E-004   6.6012197915649592E-002
  -7.8150117023972898E-006  -2.4813275943408319E-004   6.6320743103399138E-002
  -5.4857436795765942E-003   1.5557267338378589E-003   6.5323932348894331E-002
  -5.2828381050324773E-003   1.4944197664925885E-003   6.5017025073587115E-002
  -5.0799325304883465E-003   1.4259140711213869E-003   6.4917738123872512E-002
  -4.8770269559442279E-003   1.3502096477243306E-003   6.5026071499750648E-002
  -4.6741213814000988E-003   1.2673064963011904E-003   6.5342025201221454E-002
  -1.0981479605207095E-002   3.2827930477536682E-003   6.4316895608523536E-002
  -1.0566775255931537E-002   3.1716397595424467E-003   6.3990285856318968E-002
  -1.0152070906655994E-002   3.0512474475192994E-003   6.3879653327984537E-002
  -9.7373665573804447E-003   2.9216161116838776E-003   6.3984998023520381E-002
  -9.3226622081048864E-003   2.7827457520364363E-003   6.4306319942926266E-002
  -1.6492877580954704E-002   5.0098593616694637E-003   6.3261032695180019E-002
  -1.5858017558670227E-002   4.8488597525922841E-003   6.2912680170291863E-002
  -1.5223157536385741E-002   4.6765808239170974E-003   6.2788661767551504E-002
  -1.4588297514101258E-002   4.4930225756435070E-003   6.2888977486958653E-002
  -1.3953437491816770E-002   4.2981850077716682E-003   6.3213627328513641E-002
  -2.2019937606819435E-002   6.7369256755853146E-003   6.2156343608863629E-002
  -2.1156565013248509E-002   6.5260797456423436E-003   6.1784208015505798E-002
  -2.0293192419677593E-002   6.3019142003150896E-003   6.1644763442573192E-002
  -1.9429819826106674E-002   6.0644290396031850E-003   6.1738009890065754E-002
  -1.8566447232535754E-002   5.8136242635069002E-003   6.2063947357983484E-002
  -7.8150117023972898E-006  -2.4813275943408319E-004   6.6320743103399138E-002
  -1.4006129650807886E-005  -2.9259286238392246E-004   6.6130185553880727E-002
  -2.0197247599221951E-005  -3.6694285259658566E-004   6.6137642834472876E-002
  -2.6388365547639486E-005  -4.7118273007208666E-004   6.6343114945175835E-002
  -3.2579483496046613E-005  -6.0531249481016181E-004   6.6746601885989520E-002
  -4.6741213814000988E-003   1.2673064963011904E-003   6.5342025201221454E-002
  -4.4843493752597316E-003   1.1740468255806435E-003   6.5145479389757954E-002
  -4.2945773691193713E-003   1.0672728442908258E-003   6.5142844996361221E-002
  -4.1048053629789997E-003   9.4698455243176841E-004   6.5334122021031366E-002
  -3.9150333568386368E-003   8.1318195000346094E-004   6.5719310463768277E-002
  -9.3226622081048864E-003   2.7827457520364363E-003   6.4306319942926266E-002
  -8.9410304899196456E-003   2.6406865135451540E-003   6.4120161446211230E-002
  -8.5593987717343997E-003   2.5014885411781262E-003   6.4123810955519139E-002
  -8.1777670535491502E-003   2.3651518349354569E-003   6.4317268470849995E-002
  -7.7961353353639060E-003   2.2316763948170559E-003   6.4700533992203699E-002
  -1.3953437491816770E-002   4.2981850077716682E-003   6.3213627328513641E-002
  -1.3384049473630533E-002   4.1073262015095813E-003   6.3054231723240678E-002
  -1.2814661455444305E-002   3.9357042380656210E-003   6.3080540711946659E-002
  -1.2245273437258074E-002   3.7833191174391732E-003   6.3292554294631723E-002
  -1.1675885419071833E-002   3.6501708396307203E-003   6.3690272471295772E-002
  -1.8566447232535754E-002   5.8136242635069002E-003   6.2063947357983484E-002
  -1.7813406326392427E-002   5.5739658894742861E-003   6.1947690220846008E-002
  -1.7060365420249100E-002   5.3699199349527965E-003   6.2013034265643807E-002
  -1.6307324514105766E-002   5.2014863999430179E-003   6.2259979492376730E-002
  -1.5554283607962439E-002   5.0686652844442737E-003   6.2688525901044678E-002
  -3.2579483496046613E-005  -6.0531249481016181E-004   6.6746601885989520E-002
  -4.1697434348165335E-005  -8.1072653654695737E-004   6.6463508345922018E-002
  -5.0815385200284058E-005  -1.1288192450184392E-003   6.6364913546821863E-002
  -5.9933336052416658E-005  -1.5595906202246317E-003   6.6450817488689098E-002
  -6.9051286904528442E-005  -2.1030406621653785E-003   6.6721220171524154E-002
  -3.9150333568386368E-003   8.1318195000346094E-004   6.5719310463768277E-002
  -3.7207463291967294E-003   6.4374362245528394E-004   6.5371257152842033E-002
  -3.5264593015548167E-003   4.1654815523634037E-004   6.5245515057936104E-002
  -3.3321722739129145E-003   1.3159554834647758E-004   6.5342084179051033E-002
  -3.1378852462709897E-003  -2.1111419821406852E-004   6.5660964516186526E-002
  -7.7961353353639060E-003   2.2316763948170559E-003   6.4700533992203699E-002
  -7.3606308541748437E-003   2.0982137814573310E-003   6.4342442437482439E-002
  -6.9251263729857848E-003   1.9619155554907799E-003   6.4244474573835003E-002
  -6.4896218917967251E-003   1.8227817169175018E-003   6.4406630401260975E-002
  -6.0541174106076776E-003   1.6808122657371305E-003   6.4828909919761146E-002
  -1.1675885419071833E-002   3.6501708396307203E-003   6.3690272471295772E-002
  -1.0961351009282510E-002   3.5526839404596972E-003   6.3377064199843514E-002
  -1.0246816599493188E-002   3.5072829557456116E-003   6.3361792094518019E-002
  -9.5322821897038581E-003   3.5139678854884575E-003   6.3644456155319551E-002
  -8.8177477799145278E-003   3.5727387296883850E-003   6.4225056382247625E-002
  -1.5554283607962439E-002   5.0686652844442737E-003   6.2688525901044678E-002
  -1.4522906794519713E-002   5.0071540994618413E-003   6.2475122439925257E-002
  -1.3491529981076993E-002   5.0526503560001379E-003   6.2597467619985525E-002
  -1.2460153167634287E-002   5.2051540540596422E-003   6.3055561441226066E-002
  -1.1428776354191553E-002   5.4646651936396395E-003   6.3849403903646351E-002
  -2.6633291574841657E-002   0.0000000000000000        2.9469697620603297E-002
  -2.7233940931334601E-002   5.8616836009903021E-004   3.4947558483600066E-002
  -2.7834590287827553E-002   1.3197755532952660E-003   4.0117270457118291E-002
  -2.8435239644320501E-002   2.2008215795887159E-003   4.4978833541157996E-002
  -2.9035889000813442E-002   3.2293064389793680E-003   4.9532247735719154E-002
  -3.3392533251807979E-002   0.0000000000000000        3.0180389437871085E-002
  -3.4236108239444660E-002   9.6043618340713698E-004   3.5268434215414181E-002
  -3.5079683227081347E-002   2.0238753516582490E-003   4.0178776620148335E-002
  -3.5923258214718028E-002   3.1903175047533362E-003   4.4911416652073537E-002
  -3.6766833202354701E-002   4.4597626426924053E-003   4.9466354311189814E-002
  -4.0732035181533351E-002   0.0000000000000000        3.1287567002573596E-002
  -4.1688089283644182E-002   1.3347040067152437E-003   3.5941359846409782E-002
  -4.2644143385755014E-002   2.7279751500212321E-003   4.0547896834106624E-002
  -4.3600197487865838E-002   4.1798134299179598E-003   4.5107177965664109E-002
  -4.4556251589976670E-002   5.6902188464054357E-003   4.9619203241082252E-002
  -4.8651797364017792E-002   0.0000000000000000        3.2791230314710831E-002
  -4.9589884063933172E-002   1.7089718300233518E-003   3.6966335376586883E-002
  -5.0527970763848559E-002   3.4320749483842151E-003   4.1224631098993172E-002
  -5.1466057463763946E-002   5.1693093550825853E-003   4.5566117481929701E-002
  -5.2404144163679327E-002   6.9206750501184730E-003   4.9990794525396481E-002
  -5.7151819799261282E-002   0.0000000000000000        3.4691379374282787E-002
  -5.7941492580311629E-002   2.0832396533314581E-003   3.8343360805945470E-002
  -5.8731165361361977E-002   4.1361747467471965E-003   4.2208979414807987E-002
  -5.9520838142412331E-002   6.1588052802472055E-003   4.6288235200870331E-002
  -6.0310510923462693E-002   8.1511312538315017E-003   5.0581128164132509E-002
  -2.9035889000813442E-002   3.2293064389793680E-003   4.9532247735719154E-002
  -2.9109012719774001E-002   4.2466672243918549E-003   5.1591786477148266E-002
  -2.9182136438734560E-002   5.0943410287508373E-003   5.3750798611506813E-002
  -2.9255260157695119E-002   5.7723278520562735E-003   5.6009284138794836E-002
  -2.9328383876655671E-002   6.2806276943081912E-003   5.8367243059012322E-002
  -3.6766833202354701E-002   4.4597626426924053E-003   4.9466354311189814E-002
  -3.6779519888571664E-002   5.6926405296303228E-003   5.1255470272402466E-002
  -3.6792206574788613E-002   6.7493809297220000E-003   5.3065986906172882E-002
  -3.6804893261005563E-002   7.6299838429674163E-003   5.4897904212501035E-002
  -3.6817579947222519E-002   8.3344492693665923E-003   5.6751222191386973E-002
  -4.4556251589976670E-002   5.6902188464054357E-003   4.9619203241082252E-002
  -4.4586573963821728E-002   7.1386138348687907E-003   5.1131445916285732E-002
  -4.4616896337666780E-002   8.4044208306931836E-003   5.2587016543675279E-002
  -4.4647218711511824E-002   9.4876398338785660E-003   5.3985915123250877E-002
  -4.4677541085356889E-002   1.0388270844425000E-002   5.5328141655012486E-002
  -5.2404144163679327E-002   6.9206750501184730E-003   4.9990794525396481E-002
  -5.2530174945524193E-002   8.5845871401072516E-003   5.1219713408798100E-002
  -5.2656205727369058E-002   1.0059460731664353E-002   5.2313887524014044E-002
  -5.2782236509213910E-002   1.1345295824789719E-002   5.3273316871044314E-002
  -5.2908267291058797E-002   1.2442092419483405E-002   5.4098001449888918E-002
  -6.0310510923462693E-002   8.1511312538315017E-003   5.0581128164132509E-002
  -6.0610322833679064E-002   1.0030560445345720E-002   5.1520272749939505E-002
  -6.0910134743895443E-002   1.1714500632635525E-002   5.2246599847189129E-002
  -6.1209946654111828E-002   1.3202951815700850E-002   5.2760109455881381E-002
  -6.1509758564328214E-002   1.4495913994541816E-002   5.3060801576016246E-002
  -2.9328383876655671E-002   6.2806276943081912E-003   5.8367243059012322E-002
  -2.8978927517403368E-002   6.6703328021085542E-003   5.9137746487197343E-002
  -2.8629471158151072E-002   6.9925354220593539E-003   5.9943665541930091E-002
  -2.8280014798898769E-002   7.2472355541606040E-003   6.0785000223210595E-002
  -2.7930558439646480E-002   7.4344331984122908E-003   6.1661750531038853E-002
  -3.6817579947222519E-002   8.3344492693665923E-003   5.6751222191386973E-002
  -3.6380666218006154E-002   8.8773628007755082E-003   5.7095767899928894E-002
  -3.5943752488789810E-002   9.2733100290502621E-003   5.7579812721851142E-002
  -3.5506838759573452E-002   9.5222909541907898E-003   5.8203356657153829E-002
  -3.5069925030357094E-002   9.6243055761971869E-003   5.8966399705836864E-002
  -4.4677541085356889E-002   1.0388270844425000E-002   5.5328141655012486E-002
  -4.4049086499343859E-002   1.1084392799442514E-002   5.5167265828626681E-002
  -4.3420631913330822E-002   1.1554084636041184E-002   5.5249972602453838E-002
  -4.2792177327317785E-002   1.1797346354221045E-002   5.5576261976493992E-002
  -4.2163722741304747E-002   1.1814177953982034E-002   5.6146133950747135E-002
  -5.2908267291058797E-002   1.2442092419483405E-002   5.4098001449888918E-002
  -5.1984188361416460E-002   1.3291422798109494E-002   5.3352240273290732E-002
  -5.1060109431774144E-002   1.3834859243032099E-002   5.2954145183738172E-002
  -5.0136030502131806E-002   1.4072401754251279E-002   5.2903716181231152E-002
  -4.9211951572489490E-002   1.4004050331766892E-002   5.3200953265769804E-002
  -6.1509758564328214E-002   1.4495913994541816E-002   5.3060801576016246E-002
  -6.0185971804223977E-002   1.5498452796776471E-002   5.1650691233921041E-002
  -5.8862185044119747E-002   1.6115633850023042E-002   5.0692330465704080E-002
  -5.7538398284015482E-002   1.6347457154281486E-002   5.0185719271365302E-002
  -5.6214611523911259E-002   1.6193922709551792E-002   5.0130857650904762E-002
  -2.7930558439646480E-002   7.4344331984122908E-003   6.1661750531038853E-002
  -2.7216067270985092E-002   7.5500729212302220E-003   6.1370462128582451E-002
  -2.6501576102323718E-002   7.5900992890302298E-003   6.1316336496271488E-002
  -2.5787084933662337E-002   7.5545123018123167E-003   6.1499373634105944E-002
  -2.5072593765000959E-002   7.4433119595763708E-003   6.1919573542085798E-002
  -3.5069925030357094E-002   9.6243055761971869E-003   5.8966399705836864E-002
  -3.4128731709918890E-002   9.6245349023568183E-003   5.8644110742986283E-002
  -3.3187538389480693E-002   9.5681599399574276E-003   5.8538063313543914E-002
  -3.2246345069042504E-002   9.4551806889989660E-003   5.8648257417509772E-002
  -3.1305151748604307E-002   9.2855971494813783E-003   5.8974693054883801E-002
  -4.2163722741304747E-002   1.1814177953982034E-002   5.6146133950747135E-002
  -4.1016748505826962E-002   1.1698996883483470E-002   5.5811853493961214E-002
  -3.9869774270349156E-002   1.1546220590884683E-002   5.5672893333846341E-002
  -3.8722800034871364E-002   1.1355849076185618E-002   5.5729253470402411E-002
  -3.7575825799393558E-002   1.1127882339386302E-002   5.5980933903629557E-002
  -4.9211951572489490E-002   1.4004050331766892E-002   5.3200953265769804E-002
  -4.7880117658709295E-002   1.3773458864610150E-002   5.2873690381507403E-002
  -4.6548283744929086E-002   1.3524281241811910E-002   5.2720826557178760E-002
  -4.5216449831148892E-002   1.3256517463372296E-002   5.2742361792783930E-002
  -4.3884615917368676E-002   1.2970167529291213E-002   5.2938296088322886E-002
  -5.6214611523911259E-002   1.6193922709551792E-002   5.0130857650904762E-002
  -5.4718839168565875E-002   1.5847920845736725E-002   4.9829621405624691E-002
  -5.3223066813220497E-002   1.5502341892739181E-002   4.9681862983541207E-002
  -5.1727294457875120E-002   1.5157185850558943E-002   4.9687582384654302E-002
  -5.0231522102529721E-002   1.4812452719196234E-002   4.9846779608963998E-002
  -2.5072593765000959E-002   7.4433119595763708E-003   6.1919573542085798E-002
  -2.4309429725455581E-002   7.2874075520182741E-003   6.1724287721622584E-002
  -2.3546265685910193E-002   7.1177083688337001E-003   6.1698654125931146E-002
  -2.2783101646364809E-002   6.9342144100227494E-003   6.1842672755011527E-002
  -2.2019937606819435E-002   6.7369256755853146E-003   6.2156343608863629E-002
  -3.1305151748604307E-002   9.2855971494813783E-003   5.8974693054883801E-002
  -3.0364596465489474E-002   9.0766959847744522E-003   5.8731117317309428E-002
  -2.9424041182374627E-002   8.8457638582482567E-003   5.8672671842102252E-002
  -2.8483485899259801E-002   8.5928007699026115E-003   5.8799356629262153E-002
  -2.7542930616144982E-002   8.3178067197375027E-003   5.9111171678789237E-002
  -3.7575825799393558E-002   1.1127882339386302E-002   5.5980933903629557E-002
  -3.6442401235113900E-002   1.0865984417530665E-002   5.5680832062751137E-002
  -3.5308976670834255E-002   1.0573819347662695E-002   5.5581338521835173E-002
  -3.4175552106554589E-002   1.0251387129782416E-002   5.5682453280881700E-002
  -3.3042127542274924E-002   9.8986877638897741E-003   5.5984176339890779E-002
  -4.3884615917368676E-002   1.2970167529291213E-002   5.2938296088322886E-002
  -4.2542844034328883E-002   1.2655272850286833E-002   5.2573431957947461E-002
  -4.1201072151289035E-002   1.2301874837077165E-002   5.2424654165129890E-002
  -3.9859300268249201E-002   1.1909973489662194E-002   5.2491962709870117E-002
  -3.8517528385209422E-002   1.1479568808042087E-002   5.2775357592168289E-002
  -5.0231522102529721E-002   1.4812452719196234E-002   4.9846779608963998E-002
  -4.8665924863134369E-002   1.4444561283043056E-002   4.9408917002898595E-002
  -4.7100327623739009E-002   1.4029930326491663E-002   4.9202618771986423E-002
  -4.5534730384343636E-002   1.3568559849542076E-002   4.9227884916227496E-002
  -4.3969133144948269E-002   1.3060449852194289E-002   4.9484715435621718E-002
  -2.2019937606819435E-002   6.7369256755853146E-003   6.2156343608863629E-002
  -2.1156565013248509E-002   6.5260797456423436E-003   6.1784208015505798E-002
  -2.0293192419677593E-002   6.3019142003150896E-003   6.1644763442573192E-002
  -1.9429819826106674E-002   6.0644290396031850E-003   6.1738009890065754E-002
  -1.8566447232535754E-002   5.8136242635069002E-003   6.2063947357983484E-002
  -2.7542930616144982E-002   8.3178067197375027E-003   5.9111171678789237E-002
  -2.6453227947491505E-002   8.0275601832873189E-003   5.8745574410216550E-002
  -2.5363525278838076E-002   7.7288396360860948E-003   5.8599946271383707E-002
  -2.4273822610184601E-002   7.4216450781336794E-003   5.8674287262290792E-002
  -2.3184119941531162E-002   7.1059765094304561E-003   5.8968597382937804E-002
  -3.3042127542274924E-002   9.8986877638897741E-003   5.5984176339890779E-002
  -3.1738816689224271E-002   9.5290406209322387E-003   5.5629963000736631E-002
  -3.0435505836173632E-002   9.1557650718570999E-003   5.5482996900637044E-002
  -2.9132194983122965E-002   8.7788611166642293E-003   5.5543278039592060E-002
  -2.7828884130072343E-002   8.3983287553539288E-003   5.5810806417601541E-002
  -3.8517528385209422E-002   1.1479568808042087E-002   5.2775357592168289E-002
  -3.7013331238446856E-002   1.1030521058577103E-002   5.2437373787066123E-002
  -3.5509134091684325E-002   1.0582690507628022E-002   5.2293915330333271E-002
  -3.4004936944921786E-002   1.0136077155194807E-002   5.2344982221969538E-002
  -3.2500739798159262E-002   9.6906810012773875E-003   5.2590574461975084E-002
  -4.3969133144948269E-002   1.3060449852194289E-002   4.9484715435621718E-002
  -4.2276771595159190E-002   1.2532001496222134E-002   4.9167806769205014E-002
  -4.0584410045370112E-002   1.2009615943399152E-002   4.9032701560472181E-002
  -3.8892048495581026E-002   1.1493293193725312E-002   4.9079399809423316E-002
  -3.7199686945791968E-002   1.0983033247200902E-002   4.9307901516058295E-002
  -1.8566447232535754E-002   5.8136242635069002E-003   6.2063947357983484E-002
  -1.7813406326392427E-002   5.5739658894742861E-003   6.1947690220846008E-002
  -1.7060365420249100E-002   5.3699199349527965E-003   6.2013034265643807E-002
  -1.6307324514105766E-002   5.2014863999430179E-003   6.2259979492376730E-002
  -1.5554283607962439E-002   5.0686652844442737E-003   6.2688525901044678E-002
  -2.3184119941531162E-002   7.1059765094304561E-003   5.8968597382937804E-002
  -2.2250323930614276E-002   6.7936758192579383E-003   5.8849813782755028E-002
  -2.1316527919697351E-002   6.4965848968981388E-003   5.8910939210184254E-002
  -2.0382731908780448E-002   6.2147037423510160E-003   5.9151973665225496E-002
  -1.9448935897863541E-002   5.9480323556166947E-003   5.9572917147878712E-002
  -2.7828884130072343E-002   8.3983287553539288E-003   5.5810806417601541E-002
  -2.6716025168704988E-002   8.0133857490417293E-003   5.5669093702674810E-002
  -2.5603166207337658E-002   7.6232498588435296E-003   5.5705597861036939E-002
  -2.4490307245970330E-002   7.2279210847592344E-003   5.5920318892687920E-002
  -2.3377448284602999E-002   6.8273994267888938E-003   5.6313256797627775E-002
  -3.2500739798159262E-002   9.6906810012773875E-003   5.2590574461975084E-002
  -3.1210510040664635E-002   9.2330956788254787E-003   5.2405529980605645E-002
  -2.9920280283170016E-002   8.7499148207888407E-003   5.2397010218201777E-002
  -2.8630050525675407E-002   8.2411384271674527E-003   5.2565015174763800E-002
  -2.7339820768180770E-002   7.7067664979610373E-003   5.2909544850291444E-002
  -3.7199686945791968E-002   1.0983033247200902E-002   4.9307901516058295E-002
  -3.5733778546493192E-002   1.0452805608609200E-002   4.9059122616547268E-002
  -3.4267870147194436E-002   9.8765797827342350E-003   4.8985176281678838E-002
  -3.2801961747895653E-002   9.2543557695755271E-003   4.9086062511453060E-002
  -3.1336053348596918E-002   8.5861335691334584E-003   4.9361781305869712E-002
  -1.5554283607962439E-002   5.0686652844442737E-003   6.2688525901044678E-002
  -1.4522906794519713E-002   5.0071540994618413E-003   6.2475122439925257E-002
  -1.3491529981076993E-002   5.0526503560001379E-003   6.2597467619985525E-002
  -1.2460153167634287E-002   5.2051540540596422E-003   6.3055561441226066E-002
  -1.1428776354191553E-002   5.4646651936396395E-003   6.3849403903646351E-002
  -1.9448935897863541E-002   5.9480323556166947E-003   5.9572917147878712E-002
  -1.8109542866097839E-002   5.7129799065982201E-003   5.9375438941634301E-002
  -1.6770149834332105E-002   5.5259555651996084E-003   5.9458244530855880E-002
  -1.5430756802566345E-002   5.3869593314207972E-003   5.9821333915543534E-002
  -1.4091363770800690E-002   5.2959912052615854E-003   6.0464707095697179E-002
  -2.3377448284602999E-002   6.8273994267888938E-003   5.6313256797627775E-002
  -2.1785503880228183E-002   6.4188057137347654E-003   5.6072724512356981E-002
  -2.0193559475853391E-002   5.9992607743991205E-003   5.6057011176838395E-002
  -1.8601615071478547E-002   5.5687646087819766E-003   5.6266116791071914E-002
  -1.7009670667103755E-002   5.1273172168834202E-003   5.6700041355057407E-002
  -2.7339820768180770E-002   7.7067664979610373E-003   5.2909544850291444E-002
  -2.5550789836910774E-002   7.1246315208711164E-003   5.2566979152093289E-002
  -2.3761758905640751E-002   6.4725659835984453E-003   5.2393767557933416E-002
  -2.1972727974370762E-002   5.7505698861432548E-003   5.2389910067811851E-002
  -2.0183697043100735E-002   4.9586432285052551E-003   5.2555406681728520E-002
  -3.1336053348596918E-002   8.5861335691334584E-003   4.9361781305869712E-002
  -2.9405400736145615E-002   7.8304573280074674E-003   4.8858202860843136E-002
  -2.7474748123694319E-002   6.9458711927980060E-003   4.8468513674140762E-002
  -2.5544095511242971E-002   5.9323751635044532E-003   4.8192713745762852E-002
  -2.3613442898791692E-002   4.7899692401272009E-003   4.8030803075709061E-002
  -5.7151819799261282E-002   0.0000000000000000        3.4691379374282787E-002
  -5.7941492580311629E-002   2.0832396533314581E-003   3.8343360805945470E-002
  -5.8731165361361977E-002   4.1361747467471965E-003   4.2208979414807987E-002
  -5.9520838142412331E-002   6.1588052802472055E-003   4.6288235200870331E-002
  -6.0310510923462693E-002   8.1511312538315017E-003   5.0581128164132509E-002
  -6.5820112516705984E-002   0.0000000000000000        3.7211710326813537E-002
  -6.6625201377263812E-002   2.9136424656356144E-003   4.0834578404031131E-002
  -6.7430290237821641E-002   5.7700299189980906E-003   4.4212977145033923E-002
  -6.8235379098379456E-002   8.5691623600874303E-003   4.7346906549821953E-002
  -6.9040467958937285E-002   1.1311039788903635E-002   5.0236366618395180E-002
  -7.4244685545794040E-002   0.0000000000000000        4.0575919317827155E-002
  -7.5523296999273973E-002   3.7440452779397711E-003   4.4142723588242241E-002
  -7.6801908452753892E-002   7.4038850912489934E-003   4.7006952009027908E-002
  -7.8080519906233811E-002   1.0979519439927660E-002   4.9168604580184183E-002
  -7.9359131359713744E-002   1.4470948323975767E-002   5.0627681301711046E-002
  -8.2425538886525429E-002   0.0000000000000000        4.4784006347323629E-002
  -8.4635779446342083E-002   4.5744480902439296E-003   4.8267796358578793E-002
  -8.6846020006158750E-002   9.0377402634998875E-003   5.0590904006789936E-002
  -8.9056260565975362E-002   1.3389876519767885E-002   5.1753329291957029E-002
  -9.1266501125792029E-002   1.7630856859047903E-002   5.1755072214080114E-002
  -9.0362672538900193E-002   0.0000000000000000        4.9835971415302979E-002
  -9.3962648718468184E-002   5.4048509025480841E-003   5.3209796715040801E-002
  -9.7562624898036160E-002   1.0671595435750790E-002   5.4964833138319978E-002
 -0.10116260107760415        1.5800233599608107E-002   5.5101080685140504E-002
 -0.10476257725717211        2.0790765394120031E-002   5.3618539355502398E-002
  -6.0310510923462693E-002   8.1511312538315017E-003   5.0581128164132509E-002
  -6.0610322833679064E-002   1.0030560445345720E-002   5.1520272749939505E-002
  -6.0910134743895443E-002   1.1714500632635525E-002   5.2246599847189129E-002
  -6.1209946654111828E-002   1.3202951815700850E-002   5.2760109455881381E-002
  -6.1509758564328214E-002   1.4495913994541816E-002   5.3060801576016246E-002
  -6.9040467958937285E-002   1.1311039788903635E-002   5.0236366618395180E-002
  -6.9315277758593696E-002   1.3755699856580195E-002   4.9458290080902405E-002
  -6.9590087558250066E-002   1.5663180214250626E-002   4.8943035253086992E-002
  -6.9864897357906477E-002   1.7033480861914873E-002   4.8690602134948933E-002
  -7.0139707157562875E-002   1.7866601799572994E-002   4.8700990726488216E-002
  -7.9359131359713744E-002   1.4470948323975767E-002   5.0627681301711046E-002
  -7.9133299850575448E-002   1.7480839267814675E-002   4.7790692935136811E-002
  -7.8907468341437123E-002   1.9611859795865712E-002   4.5692165476474630E-002
  -7.8681636832298799E-002   2.0864009908128877E-002   4.4332098925724518E-002
  -7.8455805323160488E-002   2.1237289604604182E-002   4.3710493282886467E-002
  -9.1266501125792029E-002   1.7630856859047903E-002   5.1755072214080114E-002
  -9.0064389109624263E-002   2.1205978679049154E-002   4.6517481312642668E-002
  -8.8862277093456524E-002   2.3560539377480798E-002   4.2493990517352004E-002
  -8.7660165077288799E-002   2.4694538954342860E-002   3.9684599828208170E-002
  -8.6458053061121046E-002   2.4607977409635370E-002   3.8089309245211082E-002
 -0.10476257725717211        2.0790765394120031E-002   5.3618539355502398E-002
 -0.10210854553574024        2.4931118090283633E-002   4.5638655213420046E-002
  -9.9454513814308351E-002   2.7509218959095909E-002   3.9348510375719181E-002
  -9.6800482092876478E-002   2.8525068000556892E-002   3.4748104842399867E-002
  -9.4146450371444590E-002   2.7978665214666548E-002   3.1837438613462013E-002
  -6.1509758564328214E-002   1.4495913994541816E-002   5.3060801576016246E-002
  -6.0185971804223977E-002   1.5498452796776471E-002   5.1650691233921041E-002
  -5.8862185044119747E-002   1.6115633850023042E-002   5.0692330465704080E-002
  -5.7538398284015482E-002   1.6347457154281486E-002   5.0185719271365302E-002
  -5.6214611523911259E-002   1.6193922709551792E-002   5.0130857650904762E-002
  -7.0139707157562875E-002   1.7866601799572994E-002   4.8700990726488216E-002
  -6.8410621429670970E-002   1.8320502481871389E-002   4.7254970931088797E-002
  -6.6681535701779093E-002   1.8553142363456579E-002   4.6167799497386461E-002
  -6.4952449973887230E-002   1.8564521444328463E-002   4.5439476425381244E-002
  -6.3223364245995298E-002   1.8354639724487143E-002   4.5070001715073076E-002
  -7.8455805323160488E-002   2.1237289604604182E-002   4.3710493282886467E-002
  -7.6414321839662069E-002   2.1142552166966352E-002   4.2392660982457711E-002
  -7.4372838356163651E-002   2.0990650876890130E-002   4.1340775831544906E-002
  -7.2331354872665232E-002   2.0781585734375468E-002   4.0554837830148051E-002
  -7.0289871389166828E-002   2.0515356739422431E-002   4.0034846978267133E-002
  -8.6458053061121046E-002   2.4607977409635370E-002   3.8089309245211082E-002
  -8.4197073034197240E-002   2.3964601852061299E-002   3.7063761388027833E-002
  -8.1936093007273475E-002   2.3428159390323652E-002   3.6211259468179366E-002
  -7.9675112980349683E-002   2.2998650024422473E-002   3.5531803485665793E-002
  -7.7414132953425877E-002   2.2676073754357724E-002   3.5025393440486934E-002
  -9.4146450371444590E-002   2.7978665214666548E-002   3.1837438613462013E-002
  -9.1758875013276522E-002   2.6786651537156217E-002   3.1268272147799064E-002
  -8.9371299655108496E-002   2.5865667903757213E-002   3.0779250407289876E-002
  -8.6983724296940429E-002   2.5215714314469444E-002   3.0370373391934307E-002
  -8.4596148938772389E-002   2.4836790769293057E-002   3.0041641101732477E-002
  -5.6214611523911259E-002   1.6193922709551792E-002   5.0130857650904762E-002
  -5.4718839168565875E-002   1.5847920845736725E-002   4.9829621405624691E-002
  -5.3223066813220497E-002   1.5502341892739181E-002   4.9681862983541207E-002
  -5.1727294457875120E-002   1.5157185850558943E-002   4.9687582384654302E-002
  -5.0231522102529721E-002   1.4812452719196234E-002   4.9846779608963998E-002
  -6.3223364245995298E-002   1.8354639724487143E-002   4.5070001715073076E-002
  -6.1556534422330736E-002   1.8016166530446798E-002   4.4710841075394525E-002
  -5.9889704598666153E-002   1.7641771188721921E-002   4.4540317549157826E-002
  -5.8222874775001592E-002   1.7231453699312414E-002   4.4558431136362819E-002
  -5.6556044951337002E-002   1.6785214062218362E-002   4.4765181837009727E-002
  -7.0289871389166828E-002   2.0515356739422431E-002   4.0034846978267133E-002
  -6.8416824806937851E-002   2.0184412215156881E-002   3.9581416885688114E-002
  -6.6543778224708874E-002   1.9781200484704713E-002   3.9351783196796074E-002
  -6.4670731642479898E-002   1.9305721548065854E-002   3.9345945911591032E-002
  -6.2797685060250935E-002   1.8757975405240462E-002   3.9563905030073038E-002
  -7.7414132953425877E-002   2.2676073754357724E-002   3.5025393440486934E-002
  -7.5299710322387275E-002   2.2352657899866943E-002   3.4441348836505403E-002
  -7.3185287691348674E-002   2.1920629780687508E-002   3.4116259926456088E-002
  -7.1070865060310073E-002   2.1379989396819350E-002   3.4050126710338961E-002
  -6.8956442429271472E-002   2.0730736748262549E-002   3.4242949188154161E-002
  -8.4596148938772389E-002   2.4836790769293057E-002   3.0041641101732477E-002
  -8.2205190968678968E-002   2.4520903584577008E-002   2.9290636927846420E-002
  -7.9814232998585533E-002   2.4060059076670252E-002   2.8833747738137717E-002
  -7.7423275028492070E-002   2.3454257245572777E-002   2.8670973532606597E-002
  -7.5032317058398634E-002   2.2703498091284718E-002   2.8802314311252797E-002
  -5.0231522102529721E-002   1.4812452719196234E-002   4.9846779608963998E-002
  -4.8665924863134369E-002   1.4444561283043056E-002   4.9408917002898595E-002
  -4.7100327623739009E-002   1.4029930326491663E-002   4.9202618771986423E-002
  -4.5534730384343636E-002   1.3568559849542076E-002   4.9227884916227496E-002
  -4.3969133144948269E-002   1.3060449852194289E-002   4.9484715435621718E-002
  -5.6556044951337002E-002   1.6785214062218362E-002   4.4765181837009727E-002
  -5.4769936753166659E-002   1.6308350248602527E-002   4.4363115691580954E-002
  -5.2983828554996323E-002   1.5806160229627754E-002   4.4170507088548930E-002
  -5.1197720356825953E-002   1.5278644005294226E-002   4.4187356027913613E-002
  -4.9411612158655645E-002   1.4725801575601771E-002   4.4413662509675156E-002
  -6.2797685060250935E-002   1.8757975405240462E-002   3.9563905030073038E-002
  -6.0813172736062057E-002   1.8172139214161970E-002   3.9219048660320215E-002
  -5.8828660411873193E-002   1.7582390132763900E-002   3.9061543000207741E-002
  -5.6844148087684329E-002   1.6988728161046348E-002   3.9091388049735491E-002
  -5.4859635763495465E-002   1.6391153299009226E-002   3.9308583808903660E-002
  -6.8956442429271472E-002   2.0730736748262549E-002   3.4242949188154161E-002
  -6.6795632811820507E-002   2.0035928179721399E-002   3.3976715909116550E-002
  -6.4634823194369556E-002   1.9358620035900075E-002   3.3875726506962883E-002
  -6.2474013576918584E-002   1.8698812316798485E-002   3.3939980981693020E-002
  -6.0313203959467702E-002   1.8056505022416749E-002   3.4169479333307079E-002
  -7.5032317058398634E-002   2.2703498091284718E-002   2.8802314311252797E-002
  -7.2717316980442065E-002   2.1899717145280842E-002   2.8636117437969844E-002
  -7.0402316902485482E-002   2.1134849939036145E-002   2.8613057608814371E-002
  -6.8087316824528898E-002   2.0408896472550619E-002   2.8733134823786192E-002
  -6.5772316746572329E-002   1.9721856745824107E-002   2.8996349082885509E-002
  -4.3969133144948269E-002   1.3060449852194289E-002   4.9484715435621718E-002
  -4.2276771595159190E-002   1.2532001496222134E-002   4.9167806769205014E-002
  -4.0584410045370112E-002   1.2009615943399152E-002   4.9032701560472181E-002
  -3.8892048495581026E-002   1.1493293193725312E-002   4.9079399809423316E-002
  -3.7199686945791968E-002   1.0983033247200902E-002   4.9307901516058295E-002
  -4.9411612158655645E-002   1.4725801575601771E-002   4.4413662509675156E-002
  -4.7534272583825359E-002   1.4161000566138240E-002   4.4098119743966144E-002
  -4.5656933008995079E-002   1.3597608602490818E-002   4.3970729570655620E-002
  -4.3779593434164779E-002   1.3035625684659879E-002   4.4031491989743612E-002
  -4.1902253859334521E-002   1.2475051812645133E-002   4.4280407001230176E-002
  -5.4859635763495465E-002   1.6391153299009226E-002   3.9308583808903660E-002
  -5.2790969028909333E-002   1.5789999636054097E-002   3.8989753186569429E-002
  -5.0722302294323181E-002   1.5185601261582381E-002   3.8865424291348281E-002
  -4.8653635559737049E-002   1.4577958175594227E-002   3.8935597123240323E-002
  -4.6584968825150896E-002   1.3967070378089391E-002   3.9200271682245491E-002
  -6.0313203959467702E-002   1.8056505022416749E-002   3.4169479333307079E-002
  -5.8046860930411087E-002   1.7418998705970079E-002   3.3842707097014701E-002
  -5.5780517901354479E-002   1.6773593920674051E-002   3.3716785722550137E-002
  -5.3514174872297884E-002   1.6120290666528574E-002   3.3791715209913330E-002
  -5.1247831843241304E-002   1.5459088943533719E-002   3.4067495559104273E-002
  -6.5772316746572329E-002   1.9721856745824107E-002   2.8996349082885509E-002
  -6.3301948288330689E-002   1.9047997775886061E-002   2.8656981475302129E-002
  -6.0831579830088967E-002   1.8361586579765665E-002   2.8524813864261117E-002
  -5.8361211371847230E-002   1.7662623157463017E-002   2.8599846249762667E-002
  -5.5890842913605576E-002   1.6951107508977881E-002   2.8882078631806529E-002
  -3.7199686945791968E-002   1.0983033247200902E-002   4.9307901516058295E-002
  -3.5733778546493192E-002   1.0452805608609200E-002   4.9059122616547268E-002
  -3.4267870147194436E-002   9.8765797827342350E-003   4.8985176281678838E-002
  -3.2801961747895653E-002   9.2543557695755271E-003   4.9086062511453060E-002
  -3.1336053348596918E-002   8.5861335691334584E-003   4.9361781305869712E-002
  -4.1902253859334521E-002   1.2475051812645133E-002   4.4280407001230176E-002
  -4.0266378943725659E-002   1.1898968519424846E-002   4.4007400963357146E-002
  -3.8630504028116797E-002   1.1290457337976623E-002   4.3899495393461732E-002
  -3.6994629112507935E-002   1.0649518268300601E-002   4.3956690291543886E-002
  -3.5358754196899086E-002   9.9761513103969190E-003   4.4178985657603698E-002
  -4.6584968825150896E-002   1.3967070378089391E-002   3.9200271682245491E-002
  -4.4788859489896943E-002   1.3345131430240312E-002   3.8916608805066089E-002
  -4.2992750154642982E-002   1.2704334893219191E-002   3.8788314299199406E-002
  -4.1196640819389022E-002   1.2044680767025733E-002   3.8815388164645297E-002
  -3.9400531484135068E-002   1.1366169051660407E-002   3.8997830401403741E-002
  -5.1247831843241304E-002   1.5459088943533719E-002   3.4067495559104273E-002
  -4.9301220185007211E-002   1.4791294341055923E-002   3.3786746141674255E-002
  -4.7354608526773083E-002   1.4118212448461724E-002   3.3651632998891873E-002
  -4.5407996868538955E-002   1.3439843265751003E-002   3.3662156130757293E-002
  -4.3461385210304820E-002   1.2756186792923771E-002   3.3818315537270091E-002
  -5.5890842913605576E-002   1.6951107508977881E-002   2.8882078631806529E-002
  -5.3803461029056282E-002   1.6237457251871396E-002   2.8617812973181445E-002
  -5.1716079144507002E-002   1.5532090003704244E-002   2.8489451492539120E-002
  -4.9628697259957701E-002   1.4835005764476047E-002   2.8496994189879651E-002
  -4.7541315375408427E-002   1.4146204534187412E-002   2.8640441065202638E-002
  -3.1336053348596918E-002   8.5861335691334584E-003   4.9361781305869712E-002
  -2.9405400736145615E-002   7.8304573280074674E-003   4.8858202860843136E-002
  -2.7474748123694319E-002   6.9458711927980060E-003   4.8468513674140762E-002
  -2.5544095511242971E-002   5.9323751635044532E-003   4.8192713745762852E-002
  -2.3613442898791692E-002   4.7899692401272009E-003   4.8030803075709061E-002
  -3.5358754196899086E-002   9.9761513103969190E-003   4.4178985657603698E-002
  -3.3293047167149821E-002   9.2554753534105638E-003   4.3581945930606353E-002
  -3.1227340137400542E-002   8.4726092864871178E-003   4.3141125779880468E-002
  -2.9161633107651262E-002   7.6275531096265496E-003   4.2856525205426571E-002
  -2.7095926077902011E-002   6.7203068228286478E-003   4.2728144207243801E-002
  -3.9400531484135068E-002   1.1366169051660407E-002   3.8997830401403741E-002
  -3.7157439719140588E-002   1.0680493378813494E-002   3.8374049176582478E-002
  -3.4914347954146101E-002   9.9993473801763336E-003   3.7948817845979789E-002
  -3.2671256189151530E-002   9.3227310557483945E-003   3.7722136409596152E-002
  -3.0428164424157217E-002   8.6506444055299836E-003   3.7694004867431186E-002
  -4.3461385210304820E-002   1.2756186792923771E-002   3.3818315537270091E-002
  -4.0998578392117874E-002   1.2105511404216618E-002   3.3234512598771249E-002
  -3.8535771573930899E-002   1.1526085473865553E-002   3.2891589872438697E-002
  -3.6072964755743946E-002   1.1017909001870309E-002   3.2789547358272247E-002
  -3.3610157937556978E-002   1.0580981988231430E-002   3.2928385056271353E-002
  -4.7541315375408427E-002   1.4146204534187412E-002   2.8640441065202638E-002
  -4.4816463186081790E-002   1.3530529429619575E-002   2.8163336197172983E-002
  -4.2091610996755055E-002   1.3052823567554675E-002   2.7969441859256844E-002
  -3.9366758807428383E-002   1.2713086947992339E-002   2.8058758051454094E-002
  -3.6641906618101738E-002   1.2511319570932766E-002   2.8431284773764665E-002
  -9.0362672538900193E-002   0.0000000000000000        4.9835971415302979E-002
  -9.3962648718468184E-002   5.4048509025480841E-003   5.3209796715040801E-002
  -9.7562624898036160E-002   1.0671595435750790E-002   5.4964833138319978E-002
 -0.10116260107760415        1.5800233599608107E-002   5.5101080685140504E-002
 -0.10476257725717211        2.0790765394120031E-002   5.3618539355502398E-002
 -0.10329432963835949        0.0000000000000000        5.8664517772981956E-002
 -0.10683152840229004        1.0884742011104277E-002   5.2119642980584538E-002
 -0.11036872716622061        1.9172590788142780E-002   4.7319111895920640E-002
 -0.11390592593015114        2.4863546331115503E-002   4.4262924518990263E-002
 -0.11744312469408170        2.7957608640022440E-002   4.2951080849793384E-002
 -0.12645875332034454        0.0000000000000000        7.4202348671577309E-002
 -0.12657004208444547        1.6364633119660472E-002   5.5279986922324262E-002
 -0.12668133084854644        2.7673586140534768E-002   4.1465101464996892E-002
 -0.12679261961264740        3.3926859062622904E-002   3.2757692299595201E-002
 -0.12690390837674834        3.5124451885924828E-002   2.9157759426119173E-002
 -0.15985594358485530        0.0000000000000000        9.6449464111089067E-002
 -0.15317818976493450        2.1844524228216661E-002   6.2690828540259994E-002
 -0.14650043594501372        3.6174581492926759E-002   3.7402801845548748E-002
 -0.13982268212509288        4.2990171794130297E-002   2.0585384026955311E-002
 -0.13314492830517211        4.2291295131827229E-002   1.2238575084479793E-002
 -0.20348590043189183        0.0000000000000000       0.12540586409151722     
 -0.18665597144375709        2.7324415336772864E-002   7.4352167834391719E-002
 -0.16982604245562238        4.4675576845318747E-002   3.5132213037576222E-002
 -0.15299611346748765        5.2053484525637690E-002   7.7459997010707049E-003
 -0.13616618447935291        4.9458138377729624E-002  -7.8064721751248123E-003
 -0.10476257725717211        2.0790765394120031E-002   5.3618539355502398E-002
 -0.10210854553574024        2.4931118090283633E-002   4.5638655213420046E-002
  -9.9454513814308351E-002   2.7509218959095909E-002   3.9348510375719181E-002
  -9.6800482092876478E-002   2.8525068000556892E-002   3.4748104842399867E-002
  -9.4146450371444590E-002   2.7978665214666548E-002   3.1837438613462013E-002
 -0.11744312469408170        2.7957608640022440E-002   4.2951080849793384E-002
 -0.11348734873998027        2.9429421411010053E-002   3.6698036555679853E-002
 -0.10953157278587886        3.0253628340224797E-002   3.1358741422523900E-002
 -0.10557579683177748        3.0430229427666662E-002   2.6933195450325475E-002
 -0.10162002087767602        2.9959224673335672E-002   2.3421398639084615E-002
 -0.12690390837674834        3.5124451885924828E-002   2.9157759426119173E-002
 -0.12242237833340140        3.3927724731736456E-002   2.5546200965552941E-002
 -0.11794084829005438        3.2998037721353672E-002   2.2072401522520331E-002
 -0.11345931824670744        3.2335390854776429E-002   1.8736361097021238E-002
 -0.10897778820336043        3.1939784132004809E-002   1.5538079689055784E-002
 -0.13314492830517211        4.2291295131827229E-002   1.2238575084479793E-002
 -0.12891363431600350        3.8426028052462910E-002   1.2183148443039322E-002
 -0.12468234032683491        3.5742447102482602E-002   1.1489490675708421E-002
 -0.12045104633766633        3.4240552281886244E-002   1.0157601782487247E-002
 -0.11621975234849775        3.3920343590673946E-002   8.1874817633755710E-003
 -0.13616618447935291        4.9458138377729624E-002  -7.8064721751248123E-003
 -0.13296111668778671        4.2924331373189309E-002  -3.3911210118612381E-003
 -0.12975604889622044        3.8486856483611477E-002  -3.8999111791180457E-004
 -0.12655098110465418        3.6145713708995997E-002   1.1969175067231327E-003
 -0.12334591331308797        3.5900903049343069E-002   1.3696048620438217E-003
  -9.4146450371444590E-002   2.7978665214666548E-002   3.1837438613462013E-002
  -9.1758875013276522E-002   2.6786651537156217E-002   3.1268272147799064E-002
  -8.9371299655108496E-002   2.5865667903757213E-002   3.0779250407289876E-002
  -8.6983724296940429E-002   2.5215714314469444E-002   3.0370373391934307E-002
  -8.4596148938772389E-002   2.4836790769293057E-002   3.0041641101732477E-002
 -0.10162002087767602        2.9959224673335672E-002   2.3421398639084615E-002
  -9.9138111304806764E-002   2.9189398770582482E-002   2.3142721638036202E-002
  -9.6656201731937466E-002   2.8469536412757710E-002   2.2972568341236656E-002
  -9.4174292159068210E-002   2.7799637599861406E-002   2.2910938748685779E-002
  -9.1692382586198912E-002   2.7179702331893471E-002   2.2957832860383720E-002
 -0.10897778820336043        3.1939784132004809E-002   1.5538079689055784E-002
 -0.10637316543669480        3.1592146004008718E-002   1.5328825653439012E-002
 -0.10376854267002919        3.1073404921758196E-002   1.5256474301166176E-002
 -0.10116391990336356        3.0383560885253288E-002   1.5321025632237171E-002
  -9.8559297136697921E-002   2.9522613894493864E-002   1.5522479646652074E-002
 -0.11621975234849775        3.3920343590673946E-002   8.1874817633755710E-003
 -0.11346403740894069        3.3994893237434987E-002   7.8265841940074674E-003
 -0.11070832246938359        3.3677273430758742E-002   7.6309682870784688E-003
 -0.10795260752982649        3.2967484170645114E-002   7.6006340425885111E-003
 -0.10519689259026943        3.1865525457094271E-002   7.7355814605374702E-003
 -0.12334591331308797        3.5900903049343069E-002   1.3696048620438217E-003
 -0.12041072722154433        3.6397640470861234E-002   6.3599725974167187E-004
 -0.11747554113000072        3.6281141939759218E-002   9.6050298973672510E-005
 -0.11454035503845711        3.5551407456037090E-002  -2.5023602026021628E-004
 -0.11160516894691347        3.4208437019694671E-002  -4.0286169796011073E-004
  -8.4596148938772389E-002   2.4836790769293057E-002   3.0041641101732477E-002
  -8.2205190968678968E-002   2.4520903584577008E-002   2.9290636927846420E-002
  -7.9814232998585533E-002   2.4060059076670252E-002   2.8833747738137717E-002
  -7.7423275028492070E-002   2.3454257245572777E-002   2.8670973532606597E-002
  -7.5032317058398634E-002   2.2703498091284718E-002   2.8802314311252797E-002
  -9.1692382586198912E-002   2.7179702331893471E-002   2.2957832860383720E-002
  -8.9037974752747134E-002   2.6561381007499593E-002   2.2309636172120534E-002
  -8.6383566919295357E-002   2.5896324025325396E-002   2.1894224226396614E-002
  -8.3729159085843552E-002   2.5184531385370922E-002   2.1711597023211876E-002
  -8.1074751252391747E-002   2.4426003087636067E-002   2.1761754562566335E-002
  -9.8559297136697921E-002   2.9522613894493864E-002   1.5522479646652074E-002
  -9.5702769681526009E-002   2.8601858430422220E-002   1.5075312109422135E-002
  -9.2846242226354125E-002   2.7732588973980593E-002   1.4799599073093099E-002
  -8.9989714771182172E-002   2.6914805525169040E-002   1.4695340537665261E-002
  -8.7133187316010302E-002   2.6148508083987346E-002   1.4762536503138350E-002
 -0.10519689259026943        3.1865525457094271E-002   7.7355814605374702E-003
 -0.10219957575501559        3.0642335853344770E-002   7.5876647397509394E-003
  -9.9202258919761768E-002   2.9568853922635849E-002   7.5498722782275582E-003
  -9.6204942084507958E-002   2.8645079664967172E-002   7.6222040759665686E-003
  -9.3207625249254092E-002   2.7871013080338743E-002   7.8046601329687468E-003
 -0.11160516894691347        3.4208437019694671E-002  -4.0286169796011073E-004
 -0.10852839297321593        3.2682813276267486E-002  -1.5330593689266703E-004
 -0.10545161699951838        3.1405118871290938E-002   1.4504384179946095E-004
 -0.10237484102582084        3.0375353804765248E-002   4.9218763811611707E-004
  -9.9298065052123297E-002   2.9593518076689973E-002   8.8812545205746440E-004
  -7.5032317058398634E-002   2.2703498091284718E-002   2.8802314311252797E-002
  -7.2717316980442065E-002   2.1899717145280842E-002   2.8636117437969844E-002
  -7.0402316902485482E-002   2.1134849939036145E-002   2.8613057608814371E-002
  -6.8087316824528898E-002   2.0408896472550619E-002   2.8733134823786192E-002
  -6.5772316746572329E-002   1.9721856745824107E-002   2.8996349082885509E-002
  -8.1074751252391747E-002   2.4426003087636067E-002   2.1761754562566335E-002
  -7.8612471576743781E-002   2.3646969025550732E-002   2.1606017307641376E-002
  -7.6150191901095773E-002   2.2873659092544803E-002   2.1601702203971791E-002
  -7.3687912225447766E-002   2.2106073288618105E-002   2.1748809251557730E-002
  -7.1225632549799800E-002   2.1344211613770869E-002   2.2047338450399107E-002
  -8.7133187316010302E-002   2.6148508083987346E-002   1.4762536503138350E-002
  -8.4515342935542831E-002   2.5394220905820615E-002   1.4584069255891528E-002
  -8.1897498555075304E-002   2.4612468246053402E-002   1.4565309267028179E-002
  -7.9279654174607778E-002   2.3803250104685703E-002   1.4706256536548454E-002
  -7.6661809794140306E-002   2.2966566481717493E-002   1.5006911064451955E-002
  -9.3207625249254092E-002   2.7871013080338743E-002   7.8046601329687468E-003
  -9.0425931056839090E-002   2.7141472786090474E-002   7.5702732827202957E-003
  -8.7644236864424047E-002   2.6351277399561807E-002   7.5038787979833507E-003
  -8.4862542672008962E-002   2.5500426920753161E-002   7.6054766787581364E-003
  -8.2080848479593960E-002   2.4588921349664103E-002   7.8750669250442183E-003
  -9.9298065052123297E-002   2.9593518076689973E-002   8.8812545205746440E-004
  -9.6344235940632628E-002   2.8888724666360277E-002   5.6462938812765207E-004
  -9.3390406829141986E-002   2.8090086553070548E-002   4.1741079683731142E-004
  -9.0436577717651331E-002   2.7197603736820675E-002   4.4646967818689695E-004
  -8.7482748606160676E-002   2.6211276217610879E-002   6.5180603217573907E-004
  -6.5772316746572329E-002   1.9721856745824107E-002   2.8996349082885509E-002
  -6.3301948288330689E-002   1.9047997775886061E-002   2.8656981475302129E-002
  -6.0831579830088967E-002   1.8361586579765665E-002   2.8524813864261117E-002
  -5.8361211371847230E-002   1.7662623157463017E-002   2.8599846249762667E-002
  -5.5890842913605576E-002   1.6951107508977881E-002   2.8882078631806529E-002
  -7.1225632549799800E-002   2.1344211613770869E-002   2.2047338450399107E-002
  -6.8551384858783065E-002   2.0585610740883206E-002   2.1715911262264173E-002
  -6.5877137167766345E-002   1.9827807342835749E-002   2.1585042543136812E-002
  -6.3202889476749680E-002   1.9070801419628265E-002   2.1654732293016912E-002
  -6.0528641785732903E-002   1.8314592971260812E-002   2.1924980511904807E-002
  -7.6661809794140306E-002   2.2966566481717493E-002   1.5006911064451955E-002
  -7.3790324397883411E-002   2.2123223705880324E-002   1.4696773996787690E-002
  -7.0918839001626446E-002   2.1294028105905666E-002   1.4580553870596286E-002
  -6.8047353605369482E-002   2.0478979681793456E-002   1.4658250685877887E-002
  -6.5175868209112586E-002   1.9678078433543522E-002   1.4929864442632085E-002
  -8.2080848479593960E-002   2.4588921349664103E-002   7.8750669250442183E-003
  -7.9018766905631574E-002   2.3660836670877455E-002   7.5995696788730173E-003
  -7.5956685331669174E-002   2.2760248868975444E-002   7.5113478466401137E-003
  -7.2894603757706830E-002   2.1887157943958454E-002   7.6104014283448571E-003
  -6.9832522183744375E-002   2.1041563895826398E-002   7.8967304239882484E-003
  -8.7482748606160676E-002   2.6211276217610879E-002   6.5180603217573907E-004
  -8.4236712382027679E-002   2.5198449635874531E-002   4.2429830852019901E-004
  -8.0990676157894625E-002   2.4226469632045833E-002   3.7742447126773437E-004
  -7.7744639933761572E-002   2.3295336206123743E-002   5.1118452041858803E-004
  -7.4498603709628575E-002   2.2405049358109275E-002   8.2557845597286406E-004
  -5.5890842913605576E-002   1.6951107508977881E-002   2.8882078631806529E-002
  -5.3803461029056282E-002   1.6237457251871396E-002   2.8617812973181445E-002
  -5.1716079144507002E-002   1.5532090003704244E-002   2.8489451492539120E-002
  -4.9628697259957701E-002   1.4835005764476047E-002   2.8496994189879651E-002
  -4.7541315375408427E-002   1.4146204534187412E-002   2.8640441065202638E-002
  -6.0528641785732903E-002   1.8314592971260812E-002   2.1924980511904807E-002
  -5.8295995011530197E-002   1.7560840958034313E-002   2.1666847215888935E-002
  -5.6063348237327386E-002   1.6811204340250172E-002   2.1563339521197419E-002
  -5.3830701463124644E-002   1.6065683117907788E-002   2.1614457427830226E-002
  -5.1598054688921868E-002   1.5324277291007604E-002   2.1820200935787071E-002
  -6.5175868209112586E-002   1.9678078433543522E-002   1.4929864442632085E-002
  -6.2779235121914731E-002   1.8884224664197466E-002   1.4673695895728145E-002
  -6.0382602034716945E-002   1.8090318676796162E-002   1.4590874373490194E-002
  -5.7985968947519083E-002   1.7296360471339589E-002   1.4681399875917964E-002
  -5.5589335860321297E-002   1.6502350047827768E-002   1.4945272403011758E-002
  -6.9832522183744375E-002   2.1041563895826398E-002   7.8967304239882484E-003
  -6.7253181360210010E-002   2.0207608370360251E-002   7.6383590126989261E-003
  -6.4673840536675561E-002   1.9369433013342454E-002   7.5720560494172886E-003
  -6.2094499713141176E-002   1.8527037824771470E-002   7.6978215341429101E-003
  -5.9515158889606755E-002   1.7680422804648058E-002   8.0156554668761835E-003
  -7.4498603709628575E-002   2.2405049358109275E-002   8.2557845597286406E-004
  -7.1717833726415936E-002   2.1530992076523481E-002   5.6083656680144811E-004
  -6.8937063743203353E-002   2.0648547349888108E-002   5.0688454897857005E-004
  -6.6156293759990714E-002   1.9757715178202913E-002   6.6372240250493764E-004
  -6.3375523776778131E-002   1.8858495561468347E-002   1.0313501273800929E-003
  -4.7541315375408427E-002   1.4146204534187412E-002   2.8640441065202638E-002
  -4.4816463186081790E-002   1.3530529429619575E-002   2.8163336197172983E-002
  -4.2091610996755055E-002   1.3052823567554675E-002   2.7969441859256844E-002
  -3.9366758807428383E-002   1.2713086947992339E-002   2.8058758051454094E-002
  -3.6641906618101738E-002   1.2511319570932766E-002   2.8431284773764665E-002
  -5.1598054688921868E-002   1.5324277291007604E-002   2.1820200935787071E-002
  -4.8629814784656306E-002   1.4600409793905283E-002   2.1453196648025419E-002
  -4.5661574880390743E-002   1.3907503560956949E-002   2.1289757260028269E-002
  -4.2693334976125256E-002   1.3245558592162480E-002   2.1329882771795358E-002
  -3.9725095071859673E-002   1.2614574887521934E-002   2.1573573183326755E-002
  -5.5589335860321297E-002   1.6502350047827768E-002   1.4945272403011758E-002
  -5.2457353871465814E-002   1.5670290158191019E-002   1.4581360717168909E-002
  -4.9325371882610311E-002   1.4762183554359216E-002   1.4341368300741585E-002
  -4.6193389893754773E-002   1.3778030236332619E-002   1.4225295153729996E-002
  -4.3061407904899346E-002   1.2717830204110880E-002   1.4233141276133399E-002
  -5.9515158889606755E-002   1.7680422804648058E-002   8.0156554668761835E-003
  -5.6299080446510268E-002   1.6740170522476963E-002   7.5478284046034405E-003
  -5.3083002003413843E-002   1.5616863547761876E-002   7.1242749813974302E-003
  -4.9866923560317342E-002   1.4310501880502924E-002   6.7449951972577337E-003
  -4.6650845117220875E-002   1.2821085520700104E-002   6.4099890521847058E-003
  -6.3375523776778131E-002   1.8858495561468347E-002   1.0313501273800929E-003
  -6.0154994509789672E-002   1.7810050886762574E-002   3.5259971032902682E-004
  -5.6934465242801102E-002   1.6471543541163924E-002  -3.6152269800462933E-004
  -5.3713935975812671E-002   1.4842973524673050E-002  -1.1110170976209380E-003
  -5.0493406708824073E-002   1.2924340837288995E-002  -1.8958834885194342E-003
 </DataArray>
 </PointData>
 </Piece>
 <Piece  NumberOfPoints="          1600 "  NumberOfCells="         1024 ">
 <Points>
 <DataArray  type="Float64" NumberOfComponents="3"  format="ascii" >
  0.50000000000000000        0.0000000000000000        0.0000000000000000     
  0.53125000000000000        0.0000000000000000        0.0000000000000000     
  0.56250000000000000        0.0000000000000000        0.0000000000000000     
  0.59375000000000000        0.0000000000000000        0.0000000000000000     
  0.62500000000000000        0.0000000000000000        0.0000000000000000     
  0.50000000000000000        3.1250000000000000E-002   0.0000000000000000     
  0.53125000000000000        3.1250000000000000E-002   0.0000000000000000     
  0.56250000000000000        3.1250000000000000E-002   0.0000000000000000     
  0.59375000000000000        3.1250000000000000E-002   0.0000000000000000     
  0.62500000000000000        3.1250000000000000E-002   0.0000000000000000     
  0.50000000000000000        6.2500000000000000E-002   0.0000000000000000     
  0.53125000000000000        6.2500000000000000E-002   0.0000000000000000     
  0.56250000000000000        6.2500000000000000E-002   0.0000000000000000     
  0.59375000000000000        6.2500000000000000E-002   0.0000000000000000     
  0.62500000000000000        6.2500000000000000E-002   0.0000000000000000     
  0.50000000000000000        9.3750000000000000E-002   0.0000000000000000     
  0.53125000000000000        9.3750000000000000E-002   0.0000000000000000     
  0.56250000000000000        9.3750000000000000E-002   0.0000000000000000     
  0.59375000000000000        9.3750000000000000E-002   0.0000000000000000     
  0.62500000000000000        9.3750000000000000E-002   0.0000000000000000     
  0.50000000000000000       0.12500000000000000        0.0000000000000000     
  0.53125000000000000       0.12500000000000000        0.0000000000000000     
  0.56250000000000000       0.12500000000000000        0.0000000000000000     
  0.59375000000000000       0.12500000000000000        0.0000000000000000     
  0.62500000000000000       0.12500000000000000        0.0000000000000000     
  0.62500000000000000        0.0000000000000000        0.0000000000000000     
  0.65625000000000000        0.0000000000000000        0.0000000000000000     
  0.68750000000000000        0.0000000000000000        0.0000000000000000     
  0.71875000000000000        0.0000000000000000        0.0000000000000000     
  0.75000000000000000        0.0000000000000000        0.0000000000000000     
  0.62500000000000000        3.1250000000000000E-002   0.0000000000000000     
  0.65625000000000000        3.1250000000000000E-002   0.0000000000000000     
  0.68750000000000000        3.1250000000000000E-002   0.0000000000000000     
  0.71875000000000000        3.1250000000000000E-002   0.0000000000000000     
  0.75000000000000000        3.1250000000000000E-002   0.0000000000000000     
  0.62500000000000000        6.2500000000000000E-002   0.0000000000000000     
  0.65625000000000000        6.2500000000000000E-002   0.0000000000000000     
  0.68750000000000000        6.2500000000000000E-002   0.0000000000000000     
  0.71875000000000000        6.2500000000000000E-002   0.0000000000000000     
  0.75000000000000000        6.2500000000000000E-002   0.0000000000000000     
  0.62500000000000000        9.3750000000000000E-002   0.0000000000000000     
  0.65625000000000000        9.3750000000000000E-002   0.0000000000000000     
  0.68750000000000000        9.3750000000000000E-002   0.0000000000000000     
  0.71875000000000000        9.3750000000000000E-002   0.0000000000000000     
  0.75000000000000000        9.3750000000000000E-002   0.0000000000000000     
  0.62500000000000000       0.12500000000000000        0.0000000000000000     
  0.65625000000000000       0.12500000000000000        0.0000000000000000     
  0.68750000000000000       0.12500000000000000        0.0000000000000000     
  0.71875000000000000       0.12500000000000000        0.0000000000000000     
  0.75000000000000000       0.12500000000000000        0.0000000000000000     
  0.75000000000000000        0.0000000000000000        0.0000000000000000     
  0.78125000000000000        0.0000000000000000        0.0000000000000000     
  0.81250000000000000        0.0000000000000000        0.0000000000000000     
  0.84375000000000000        0.0000000000000000        0.0000000000000000     
  0.87500000000000000        0.0000000000000000        0.0000000000000000     
  0.75000000000000000        3.1250000000000000E-002   0.0000000000000000     
  0.78125000000000000        3.1250000000000000E-002   0.0000000000000000     
  0.81250000000000000        3.1250000000000000E-002   0.0000000000000000     
  0.84375000000000000        3.1250000000000000E-002   0.0000000000000000     
  0.87500000000000000        3.1250000000000000E-002   0.0000000000000000     
  0.75000000000000000        6.2500000000000000E-002   0.0000000000000000     
  0.78125000000000000        6.2500000000000000E-002   0.0000000000000000     
  0.81250000000000000        6.2500000000000000E-002   0.0000000000000000     
  0.84375000000000000        6.2500000000000000E-002   0.0000000000000000     
  0.87500000000000000        6.2500000000000000E-002   0.0000000000000000     
  0.75000000000000000        9.3750000000000000E-002   0.0000000000000000     
  0.78125000000000000        9.3750000000000000E-002   0.0000000000000000     
  0.81250000000000000        9.3750000000000000E-002   0.0000000000000000     
  0.84375000000000000        9.3750000000000000E-002   0.0000000000000000     
  0.87500000000000000        9.3750000000000000E-002   0.0000000000000000     
  0.75000000000000000       0.12500000000000000        0.0000000000000000     
  0.78125000000000000       0.12500000000000000        0.0000000000000000     
  0.81250000000000000       0.12500000000000000        0.0000000000000000     
  0.84375000000000000       0.12500000000000000        0.0000000000000000     
  0.87500000000000000       0.12500000000000000        0.0000000000000000     
  0.87500000000000000        0.0000000000000000        0.0000000000000000     
  0.90625000000000000        0.0000000000000000        0.0000000000000000     
  0.93750000000000000        0.0000000000000000        0.0000000000000000     
  0.96875000000000000        0.0000000000000000        0.0000000000000000     
   1.0000000000000000        0.0000000000000000        0.0000000000000000     
  0.87500000000000000        3.1250000000000000E-002   0.0000000000000000     
  0.90625000000000000        3.1250000000000000E-002   0.0000000000000000     
  0.93750000000000000        3.1250000000000000E-002   0.0000000000000000     
  0.96875000000000000        3.1250000000000000E-002   0.0000000000000000     
   1.0000000000000000        3.1250000000000000E-002   0.0000000000000000     
  0.87500000000000000        6.2500000000000000E-002   0.0000000000000000     
  0.90625000000000000        6.2500000000000000E-002   0.0000000000000000     
  0.93750000000000000        6.2500000000000000E-002   0.0000000000000000     
  0.96875000000000000        6.2500000000000000E-002   0.0000000000000000     
   1.0000000000000000        6.2500000000000000E-002   0.0000000000000000     
  0.87500000000000000        9.3750000000000000E-002   0.0000000000000000     
  0.90625000000000000        9.3750000000000000E-002   0.0000000000000000     
  0.93750000000000000        9.3750000000000000E-002   0.0000000000000000     
  0.96875000000000000        9.3750000000000000E-002   0.0000000000000000     
   1.0000000000000000        9.3750000000000000E-002   0.0000000000000000     
  0.87500000000000000       0.12500000000000000        0.0000000000000000     
  0.90625000000000000       0.12500000000000000        0.0000000000000000     
  0.93750000000000000       0.12500000000000000        0.0000000000000000     
  0.96875000000000000       0.12500000000000000        0.0000000000000000     
   1.0000000000000000       0.12500000000000000        0.0000000000000000     
   1.0000000000000000        0.0000000000000000        0.0000000000000000     
   1.0312500000000000        0.0000000000000000        0.0000000000000000     
   1.0625000000000000        0.0000000000000000        0.0000000000000000     
   1.0937500000000000        0.0000000000000000        0.0000000000000000     
   1.1250000000000000        0.0000000000000000        0.0000000000000000     
   1.0000000000000000        3.1250000000000000E-002   0.0000000000000000     
   1.0312500000000000        3.1250000000000000E-002   0.0000000000000000     
   1.0625000000000000        3.1250000000000000E-002   0.0000000000000000     
   1.0937500000000000        3.1250000000000000E-002   0.0000000000000000     
   1.1250000000000000        3.1250000000000000E-002   0.0000000000000000     
   1.0000000000000000        6.2500000000000000E-002   0.0000000000000000     
   1.0312500000000000        6.2500000000000000E-002   0.0000000000000000     
   1.0625000000000000        6.2500000000000000E-002   0.0000000000000000     
   1.0937500000000000        6.2500000000000000E-002   0.0000000000000000     
   1.1250000000000000        6.2500000000000000E-002   0.0000000000000000     
   1.0000000000000000        9.3750000000000000E-002   0.0000000000000000     
   1.0312500000000000        9.3750000000000000E-002   0.0000000000000000     
   1.0625000000000000        9.3750000000000000E-002   0.0000000000000000     
   1.0937500000000000        9.3750000000000000E-002   0.0000000000000000     
   1.1250000000000000        9.3750000000000000E-002   0.0000000000000000     
   1.0000000000000000       0.12500000000000000        0.0000000000000000     
   1.0312500000000000       0.12500000000000000        0.0000000000000000     
   1.0625000000000000       0.12500000000000000        0.0000000000000000     
   1.0937500000000000       0.12500000000000000        0.0000000000000000     
   1.1250000000000000       0.12500000000000000        0.0000000000000000     
   1.1250000000000000        0.0000000000000000        0.0000000000000000     
   1.1562500000000000        0.0000000000000000        0.0000000000000000     
   1.1875000000000000        0.0000000000000000        0.0000000000000000     
   1.2187500000000000        0.0000000000000000        0.0000000000000000     
   1.2500000000000000        0.0000000000000000        0.0000000000000000     
   1.1250000000000000        3.1250000000000000E-002   0.0000000000000000     
   1.1562500000000000        3.1250000000000000E-002   0.0000000000000000     
   1.1875000000000000        3.1250000000000000E-002   0.0000000000000000     
   1.2187500000000000        3.1250000000000000E-002   0.0000000000000000     
   1.2500000000000000        3.1250000000000000E-002   0.0000000000000000     
   1.1250000000000000        6.2500000000000000E-002   0.0000000000000000     
   1.1562500000000000        6.2500000000000000E-002   0.0000000000000000     
   1.1875000000000000        6.2500000000000000E-002   0.0000000000000000     
   1.2187500000000000        6.2500000000000000E-002   0.0000000000000000     
   1.2500000000000000        6.2500000000000000E-002   0.0000000000000000     
   1.1250000000000000        9.3750000000000000E-002   0.0000000000000000     
   1.1562500000000000        9.3750000000000000E-002   0.0000000000000000     
   1.1875000000000000        9.3750000000000000E-002   0.0000000000000000     
   1.2187500000000000        9.3750000000000000E-002   0.0000000000000000     
   1.2500000000000000        9.3750000000000000E-002   0.0000000000000000     
   1.1250000000000000       0.12500000000000000        0.0000000000000000     
   1.1562500000000000       0.12500000000000000        0.0000000000000000     
   1.1875000000000000       0.12500000000000000        0.0000000000000000     
   1.2187500000000000       0.12500000000000000        0.0000000000000000     
   1.2500000000000000       0.12500000000000000        0.0000000000000000     
   1.2500000000000000        0.0000000000000000        0.0000000000000000     
   1.2812500000000000        0.0000000000000000        0.0000000000000000     
   1.3125000000000000        0.0000000000000000        0.0000000000000000     
   1.3437500000000000        0.0000000000000000        0.0000000000000000     
   1.3750000000000000        0.0000000000000000        0.0000000000000000     
   1.2500000000000000        3.1250000000000000E-002   0.0000000000000000     
   1.2812500000000000        3.1250000000000000E-002   0.0000000000000000     
   1.3125000000000000        3.1250000000000000E-002   0.0000000000000000     
   1.3437500000000000        3.1250000000000000E-002   0.0000000000000000     
   1.3750000000000000        3.1250000000000000E-002   0.0000000000000000     
   1.2500000000000000        6.2500000000000000E-002   0.0000000000000000     
   1.2812500000000000        6.2500000000000000E-002   0.0000000000000000     
   1.3125000000000000        6.2500000000000000E-002   0.0000000000000000     
   1.3437500000000000        6.2500000000000000E-002   0.0000000000000000     
   1.3750000000000000        6.2500000000000000E-002   0.0000000000000000     
   1.2500000000000000        9.3750000000000000E-002   0.0000000000000000     
   1.2812500000000000        9.3750000000000000E-002   0.0000000000000000     
   1.3125000000000000        9.3750000000000000E-002   0.0000000000000000     
   1.3437500000000000        9.3750000000000000E-002   0.0000000000000000     
   1.3750000000000000        9.3750000000000000E-002   0.0000000000000000     
   1.2500000000000000       0.12500000000000000        0.0000000000000000     
   1.2812500000000000       0.12500000000000000        0.0000000000000000     
   1.3125000000000000       0.12500000000000000        0.0000000000000000     
   1.3437500000000000       0.12500000000000000        0.0000000000000000     
   1.3750000000000000       0.12500000000000000        0.0000000000000000     
   1.3750000000000000        0.0000000000000000        0.0000000000000000     
   1.4062500000000000        0.0000000000000000        0.0000000000000000     
   1.4375000000000000        0.0000000000000000        0.0000000000000000     
   1.4687500000000000        0.0000000000000000        0.0000000000000000     
   1.5000000000000000        0.0000000000000000        0.0000000000000000     
   1.3750000000000000        3.1250000000000000E-002   0.0000000000000000     
   1.4062500000000000        3.1250000000000000E-002   0.0000000000000000     
   1.4375000000000000        3.1250000000000000E-002   0.0000000000000000     
   1.4687500000000000        3.1250000000000000E-002   0.0000000000000000     
   1.5000000000000000        3.1250000000000000E-002   0.0000000000000000     
   1.3750000000000000        6.2500000000000000E-002   0.0000000000000000     
   1.4062500000000000        6.2500000000000000E-002   0.0000000000000000     
   1.4375000000000000        6.2500000000000000E-002   0.0000000000000000     
   1.4687500000000000        6.2500000000000000E-002   0.0000000000000000     
   1.5000000000000000        6.2500000000000000E-002   0.0000000000000000     
   1.3750000000000000        9.3750000000000000E-002   0.0000000000000000     
   1.4062500000000000        9.3750000000000000E-002   0.0000000000000000     
   1.4375000000000000        9.3750000000000000E-002   0.0000000000000000     
   1.4687500000000000        9.3750000000000000E-002   0.0000000000000000     
   1.5000000000000000        9.3750000000000000E-002   0.0000000000000000     
   1.3750000000000000       0.12500000000000000        0.0000000000000000     
   1.4062500000000000       0.12500000000000000        0.0000000000000000     
   1.4375000000000000       0.12500000000000000        0.0000000000000000     
   1.4687500000000000       0.12500000000000000        0.0000000000000000     
   1.5000000000000000       0.12500000000000000        0.0000000000000000     
  0.50000000000000000       0.12500000000000000        0.0000000000000000     
  0.53125000000000000       0.12500000000000000        0.0000000000000000     
  0.56250000000000000       0.12500000000000000        0.0000000000000000     
  0.59375000000000000       0.12500000000000000        0.0000000000000000     
  0.62500000000000000       0.12500000000000000        0.0000000000000000     
  0.50000000000000000       0.15625000000000000        0.0000000000000000     
  0.53125000000000000       0.15625000000000000        0.0000000000000000     
  0.56250000000000000       0.15625000000000000        0.0000000000000000     
  0.59375000000000000       0.15625000000000000        0.0000000000000000     
  0.62500000000000000       0.15625000000000000        0.0000000000000000     
  0.50000000000000000       0.18750000000000000        0.0000000000000000     
  0.53125000000000000       0.18750000000000000        0.0000000000000000     
  0.56250000000000000       0.18750000000000000        0.0000000000000000     
  0.59375000000000000       0.18750000000000000        0.0000000000000000     
  0.62500000000000000       0.18750000000000000        0.0000000000000000     
  0.50000000000000000       0.21875000000000000        0.0000000000000000     
  0.53125000000000000       0.21875000000000000        0.0000000000000000     
  0.56250000000000000       0.21875000000000000        0.0000000000000000     
  0.59375000000000000       0.21875000000000000        0.0000000000000000     
  0.62500000000000000       0.21875000000000000        0.0000000000000000     
  0.50000000000000000       0.25000000000000000        0.0000000000000000     
  0.53125000000000000       0.25000000000000000        0.0000000000000000     
  0.56250000000000000       0.25000000000000000        0.0000000000000000     
  0.59375000000000000       0.25000000000000000        0.0000000000000000     
  0.62500000000000000       0.25000000000000000        0.0000000000000000     
  0.62500000000000000       0.12500000000000000        0.0000000000000000     
  0.65625000000000000       0.12500000000000000        0.0000000000000000     
  0.68750000000000000       0.12500000000000000        0.0000000000000000     
  0.71875000000000000       0.12500000000000000        0.0000000000000000     
  0.75000000000000000       0.12500000000000000        0.0000000000000000     
  0.62500000000000000       0.15625000000000000        0.0000000000000000     
  0.65625000000000000       0.15625000000000000        0.0000000000000000     
  0.68750000000000000       0.15625000000000000        0.0000000000000000     
  0.71875000000000000       0.15625000000000000        0.0000000000000000     
  0.75000000000000000       0.15625000000000000        0.0000000000000000     
  0.62500000000000000       0.18750000000000000        0.0000000000000000     
  0.65625000000000000       0.18750000000000000        0.0000000000000000     
  0.68750000000000000       0.18750000000000000        0.0000000000000000     
  0.71875000000000000       0.18750000000000000        0.0000000000000000     
  0.75000000000000000       0.18750000000000000        0.0000000000000000     
  0.62500000000000000       0.21875000000000000        0.0000000000000000     
  0.65625000000000000       0.21875000000000000        0.0000000000000000     
  0.68750000000000000       0.21875000000000000        0.0000000000000000     
  0.71875000000000000       0.21875000000000000        0.0000000000000000     
  0.75000000000000000       0.21875000000000000        0.0000000000000000     
  0.62500000000000000       0.25000000000000000        0.0000000000000000     
  0.65625000000000000       0.25000000000000000        0.0000000000000000     
  0.68750000000000000       0.25000000000000000        0.0000000000000000     
  0.71875000000000000       0.25000000000000000        0.0000000000000000     
  0.75000000000000000       0.25000000000000000        0.0000000000000000     
  0.75000000000000000       0.12500000000000000        0.0000000000000000     
  0.78125000000000000       0.12500000000000000        0.0000000000000000     
  0.81250000000000000       0.12500000000000000        0.0000000000000000     
  0.84375000000000000       0.12500000000000000        0.0000000000000000     
  0.87500000000000000       0.12500000000000000        0.0000000000000000     
  0.75000000000000000       0.15625000000000000        0.0000000000000000     
  0.78125000000000000       0.15625000000000000        0.0000000000000000     
  0.81250000000000000       0.15625000000000000        0.0000000000000000     
  0.84375000000000000       0.15625000000000000        0.0000000000000000     
  0.87500000000000000       0.15625000000000000        0.0000000000000000     
  0.75000000000000000       0.18750000000000000        0.0000000000000000     
  0.78125000000000000       0.18750000000000000        0.0000000000000000     
  0.81250000000000000       0.18750000000000000        0.0000000000000000     
  0.84375000000000000       0.18750000000000000        0.0000000000000000     
  0.87500000000000000       0.18750000000000000        0.0000000000000000     
  0.75000000000000000       0.21875000000000000        0.0000000000000000     
  0.78125000000000000       0.21875000000000000        0.0000000000000000     
  0.81250000000000000       0.21875000000000000        0.0000000000000000     
  0.84375000000000000       0.21875000000000000        0.0000000000000000     
  0.87500000000000000       0.21875000000000000        0.0000000000000000     
  0.75000000000000000       0.25000000000000000        0.0000000000000000     
  0.78125000000000000       0.25000000000000000        0.0000000000000000     
  0.81250000000000000       0.25000000000000000        0.0000000000000000     
  0.84375000000000000       0.25000000000000000        0.0000000000000000     
  0.87500000000000000       0.25000000000000000        0.0000000000000000     
  0.87500000000000000       0.12500000000000000        0.0000000000000000     
  0.90625000000000000       0.12500000000000000        0.0000000000000000     
  0.93750000000000000       0.12500000000000000        0.0000000000000000     
  0.96875000000000000       0.12500000000000000        0.0000000000000000     
   1.0000000000000000       0.12500000000000000        0.0000000000000000     
  0.87500000000000000       0.15625000000000000        0.0000000000000000     
  0.90625000000000000       0.15625000000000000        0.0000000000000000     
  0.93750000000000000       0.15625000000000000        0.0000000000000000     
  0.96875000000000000       0.15625000000000000        0.0000000000000000     
   1.0000000000000000       0.15625000000000000        0.0000000000000000     
  0.87500000000000000       0.18750000000000000        0.0000000000000000     
  0.90625000000000000       0.18750000000000000        0.0000000000000000     
  0.93750000000000000       0.18750000000000000        0.0000000000000000     
  0.96875000000000000       0.18750000000000000        0.0000000000000000     
   1.0000000000000000       0.18750000000000000        0.0000000000000000     
  0.87500000000000000       0.21875000000000000        0.0000000000000000     
  0.90625000000000000       0.21875000000000000        0.0000000000000000     
  0.93750000000000000       0.21875000000000000        0.0000000000000000     
  0.96875000000000000       0.21875000000000000        0.0000000000000000     
   1.0000000000000000       0.21875000000000000        0.0000000000000000     
  0.87500000000000000       0.25000000000000000        0.0000000000000000     
  0.90625000000000000       0.25000000000000000        0.0000000000000000     
  0.93750000000000000       0.25000000000000000        0.0000000000000000     
  0.96875000000000000       0.25000000000000000        0.0000000000000000     
   1.0000000000000000       0.25000000000000000        0.0000000000000000     
   1.0000000000000000       0.12500000000000000        0.0000000000000000     
   1.0312500000000000       0.12500000000000000        0.0000000000000000     
   1.0625000000000000       0.12500000000000000        0.0000000000000000     
   1.0937500000000000       0.12500000000000000        0.0000000000000000     
   1.1250000000000000       0.12500000000000000        0.0000000000000000     
   1.0000000000000000       0.15625000000000000        0.0000000000000000     
   1.0312500000000000       0.15625000000000000        0.0000000000000000     
   1.0625000000000000       0.15625000000000000        0.0000000000000000     
   1.0937500000000000       0.15625000000000000        0.0000000000000000     
   1.1250000000000000       0.15625000000000000        0.0000000000000000     
   1.0000000000000000       0.18750000000000000        0.0000000000000000     
   1.0312500000000000       0.18750000000000000        0.0000000000000000     
   1.0625000000000000       0.18750000000000000        0.0000000000000000     
   1.0937500000000000       0.18750000000000000        0.0000000000000000     
   1.1250000000000000       0.18750000000000000        0.0000000000000000     
   1.0000000000000000       0.21875000000000000        0.0000000000000000     
   1.0312500000000000       0.21875000000000000        0.0000000000000000     
   1.0625000000000000       0.21875000000000000        0.0000000000000000     
   1.0937500000000000       0.21875000000000000        0.0000000000000000     
   1.1250000000000000       0.21875000000000000        0.0000000000000000     
   1.0000000000000000       0.25000000000000000        0.0000000000000000     
   1.0312500000000000       0.25000000000000000        0.0000000000000000     
   1.0625000000000000       0.25000000000000000        0.0000000000000000     
   1.0937500000000000       0.25000000000000000        0.0000000000000000     
   1.1250000000000000       0.25000000000000000        0.0000000000000000     
   1.1250000000000000       0.12500000000000000        0.0000000000000000     
   1.1562500000000000       0.12500000000000000        0.0000000000000000     
   1.1875000000000000       0.12500000000000000        0.0000000000000000     
   1.2187500000000000       0.12500000000000000        0.0000000000000000     
   1.2500000000000000       0.12500000000000000        0.0000000000000000     
   1.1250000000000000       0.15625000000000000        0.0000000000000000     
   1.1562500000000000       0.15625000000000000        0.0000000000000000     
   1.1875000000000000       0.15625000000000000        0.0000000000000000     
   1.2187500000000000       0.15625000000000000        0.0000000000000000     
   1.2500000000000000       0.15625000000000000        0.0000000000000000     
   1.1250000000000000       0.18750000000000000        0.0000000000000000     
   1.1562500000000000       0.18750000000000000        0.0000000000000000     
   1.1875000000000000       0.18750000000000000        0.0000000000000000     
   1.2187500000000000       0.18750000000000000        0.0000000000000000     
   1.2500000000000000       0.18750000000000000        0.0000000000000000     
   1.1250000000000000       0.21875000000000000        0.0000000000000000     
   1.1562500000000000       0.21875000000000000        0.0000000000000000     
   1.1875000000000000       0.21875000000000000        0.0000000000000000     
   1.2187500000000000       0.21875000000000000        0.0000000000000000     
   1.2500000000000000       0.21875000000000000        0.0000000000000000     
   1.1250000000000000       0.25000000000000000        0.0000000000000000     
   1.1562500000000000       0.25000000000000000        0.0000000000000000     
   1.1875000000000000       0.25000000000000000        0.0000000000000000     
   1.2187500000000000       0.25000000000000000        0.0000000000000000     
   1.2500000000000000       0.25000000000000000        0.0000000000000000     
   1.2500000000000000       0.12500000000000000        0.0000000000000000     
   1.2812500000000000       0.12500000000000000        0.0000000000000000     
   1.3125000000000000       0.12500000000000000        0.0000000000000000     
   1.3437500000000000       0.12500000000000000        0.0000000000000000     
   1.3750000000000000       0.12500000000000000        0.0000000000000000     
   1.2500000000000000       0.15625000000000000        0.0000000000000000     
   1.2812500000000000       0.15625000000000000        0.0000000000000000     
   1.3125000000000000       0.15625000000000000        0.0000000000000000     
   1.3437500000000000       0.15625000000000000        0.0000000000000000     
   1.3750000000000000       0.15625000000000000        0.0000000000000000     
   1.2500000000000000       0.18750000000000000        0.0000000000000000     
   1.2812500000000000       0.18750000000000000        0.0000000000000000     
   1.3125000000000000       0.18750000000000000        0.0000000000000000     
   1.3437500000000000       0.18750000000000000        0.0000000000000000     
   1.3750000000000000       0.18750000000000000        0.0000000000000000     
   1.2500000000000000       0.21875000000000000        0.0000000000000000     
   1.2812500000000000       0.21875000000000000        0.0000000000000000     
   1.3125000000000000       0.21875000000000000        0.0000000000000000     
   1.3437500000000000       0.21875000000000000        0.0000000000000000     
   1.3750000000000000       0.21875000000000000        0.0000000000000000     
   1.2500000000000000       0.25000000000000000        0.0000000000000000     
   1.2812500000000000       0.25000000000000000        0.0000000000000000     
   1.3125000000000000       0.25000000000000000        0.0000000000000000     
   1.3437500000000000       0.25000000000000000        0.0000000000000000     
   1.3750000000000000       0.25000000000000000        0.0000000000000000     
   1.3750000000000000       0.12500000000000000        0.0000000000000000     
   1.4062500000000000       0.12500000000000000        0.0000000000000000     
   1.4375000000000000       0.12500000000000000        0.0000000000000000     
   1.4687500000000000       0.12500000000000000        0.0000000000000000     
   1.5000000000000000       0.12500000000000000        0.0000000000000000     
   1.3750000000000000       0.15625000000000000        0.0000000000000000     
   1.4062500000000000       0.15625000000000000        0.0000000000000000     
   1.4375000000000000       0.15625000000000000        0.0000000000000000     
   1.4687500000000000       0.15625000000000000        0.0000000000000000     
   1.5000000000000000       0.15625000000000000        0.0000000000000000     
   1.3750000000000000       0.18750000000000000        0.0000000000000000     
   1.4062500000000000       0.18750000000000000        0.0000000000000000     
   1.4375000000000000       0.18750000000000000        0.0000000000000000     
   1.4687500000000000       0.18750000000000000        0.0000000000000000     
   1.5000000000000000       0.18750000000000000        0.0000000000000000     
   1.3750000000000000       0.21875000000000000        0.0000000000000000     
   1.4062500000000000       0.21875000000000000        0.0000000000000000     
   1.4375000000000000       0.21875000000000000        0.0000000000000000     
   1.4687500000000000       0.21875000000000000        0.0000000000000000     
   1.5000000000000000       0.21875000000000000        0.0000000000000000     
   1.3750000000000000       0.25000000000000000        0.0000000000000000     
   1.4062500000000000       0.25000000000000000        0.0000000000000000     
   1.4375000000000000       0.25000000000000000        0.0000000000000000     
   1.4687500000000000       0.25000000000000000        0.0000000000000000     
   1.5000000000000000       0.25000000000000000        0.0000000000000000     
  0.50000000000000000       0.25000000000000000        0.0000000000000000     
  0.53125000000000000       0.25000000000000000        0.0000000000000000     
  0.56250000000000000       0.25000000000000000        0.0000000000000000     
  0.59375000000000000       0.25000000000000000        0.0000000000000000     
  0.62500000000000000       0.25000000000000000        0.0000000000000000     
  0.50000000000000000       0.28125000000000000        0.0000000000000000     
  0.53125000000000000       0.28125000000000000        0.0000000000000000     
  0.56250000000000000       0.28125000000000000        0.0000000000000000     
  0.59375000000000000       0.28125000000000000        0.0000000000000000     
  0.62500000000000000       0.28125000000000000        0.0000000000000000     
  0.50000000000000000       0.31250000000000000        0.0000000000000000     
  0.53125000000000000       0.31250000000000000        0.0000000000000000     
  0.56250000000000000       0.31250000000000000        0.0000000000000000     
  0.59375000000000000       0.31250000000000000        0.0000000000000000     
  0.62500000000000000       0.31250000000000000        0.0000000000000000     
  0.50000000000000000       0.34375000000000000        0.0000000000000000     
  0.53125000000000000       0.34375000000000000        0.0000000000000000     
  0.56250000000000000       0.34375000000000000        0.0000000000000000     
  0.59375000000000000       0.34375000000000000        0.0000000000000000     
  0.62500000000000000       0.34375000000000000        0.0000000000000000     
  0.50000000000000000       0.37500000000000000        0.0000000000000000     
  0.53125000000000000       0.37500000000000000        0.0000000000000000     
  0.56250000000000000       0.37500000000000000        0.0000000000000000     
  0.59375000000000000       0.37500000000000000        0.0000000000000000     
  0.62500000000000000       0.37500000000000000        0.0000000000000000     
  0.62500000000000000       0.25000000000000000        0.0000000000000000     
  0.65625000000000000       0.25000000000000000        0.0000000000000000     
  0.68750000000000000       0.25000000000000000        0.0000000000000000     
  0.71875000000000000       0.25000000000000000        0.0000000000000000     
  0.75000000000000000       0.25000000000000000        0.0000000000000000     
  0.62500000000000000       0.28125000000000000        0.0000000000000000     
  0.65625000000000000       0.28125000000000000        0.0000000000000000     
  0.68750000000000000       0.28125000000000000        0.0000000000000000     
  0.71875000000000000       0.28125000000000000        0.0000000000000000     
  0.75000000000000000       0.28125000000000000        0.0000000000000000     
  0.62500000000000000       0.31250000000000000        0.0000000000000000     
  0.65625000000000000       0.31250000000000000        0.0000000000000000     
  0.68750000000000000       0.31250000000000000        0.0000000000000000     
  0.71875000000000000       0.31250000000000000        0.0000000000000000     
  0.75000000000000000       0.31250000000000000        0.0000000000000000     
  0.62500000000000000       0.34375000000000000        0.0000000000000000     
  0.65625000000000000       0.34375000000000000        0.0000000000000000     
  0.68750000000000000       0.34375000000000000        0.0000000000000000     
  0.71875000000000000       0.34375000000000000        0.0000000000000000     
  0.75000000000000000       0.34375000000000000        0.0000000000000000     
  0.62500000000000000       0.37500000000000000        0.0000000000000000     
  0.65625000000000000       0.37500000000000000        0.0000000000000000     
  0.68750000000000000       0.37500000000000000        0.0000000000000000     
  0.71875000000000000       0.37500000000000000        0.0000000000000000     
  0.75000000000000000       0.37500000000000000        0.0000000000000000     
  0.75000000000000000       0.25000000000000000        0.0000000000000000     
  0.78125000000000000       0.25000000000000000        0.0000000000000000     
  0.81250000000000000       0.25000000000000000        0.0000000000000000     
  0.84375000000000000       0.25000000000000000        0.0000000000000000     
  0.87500000000000000       0.25000000000000000        0.0000000000000000     
  0.75000000000000000       0.28125000000000000        0.0000000000000000     
  0.78125000000000000       0.28125000000000000        0.0000000000000000     
  0.81250000000000000       0.28125000000000000        0.0000000000000000     
  0.84375000000000000       0.28125000000000000        0.0000000000000000     
  0.87500000000000000       0.28125000000000000        0.0000000000000000     
  0.75000000000000000       0.31250000000000000        0.0000000000000000     
  0.78125000000000000       0.31250000000000000        0.0000000000000000     
  0.81250000000000000       0.31250000000000000        0.0000000000000000     
  0.84375000000000000       0.31250000000000000        0.0000000000000000     
  0.87500000000000000       0.31250000000000000        0.0000000000000000     
  0.75000000000000000       0.34375000000000000        0.0000000000000000     
  0.78125000000000000       0.34375000000000000        0.0000000000000000     
  0.81250000000000000       0.34375000000000000        0.0000000000000000     
  0.84375000000000000       0.34375000000000000        0.0000000000000000     
  0.87500000000000000       0.34375000000000000        0.0000000000000000     
  0.75000000000000000       0.37500000000000000        0.0000000000000000     
  0.78125000000000000       0.37500000000000000        0.0000000000000000     
  0.81250000000000000       0.37500000000000000        0.0000000000000000     
  0.84375000000000000       0.37500000000000000        0.0000000000000000     
  0.87500000000000000       0.37500000000000000        0.0000000000000000     
  0.87500000000000000       0.25000000000000000        0.0000000000000000     
  0.90625000000000000       0.25000000000000000        0.0000000000000000     
  0.93750000000000000       0.25000000000000000        0.0000000000000000     
  0.96875000000000000       0.25000000000000000        0.0000000000000000     
   1.0000000000000000       0.25000000000000000        0.0000000000000000     
  0.87500000000000000       0.28125000000000000        0.0000000000000000     
  0.90625000000000000       0.28125000000000000        0.0000000000000000     
  0.93750000000000000       0.28125000000000000        0.0000000000000000     
  0.96875000000000000       0.28125000000000000        0.0000000000000000     
   1.0000000000000000       0.28125000000000000        0.0000000000000000     
  0.87500000000000000       0.31250000000000000        0.0000000000000000     
  0.90625000000000000       0.31250000000000000        0.0000000000000000     
  0.93750000000000000       0.31250000000000000        0.0000000000000000     
  0.96875000000000000       0.31250000000000000        0.0000000000000000     
   1.0000000000000000       0.31250000000000000        0.0000000000000000     
  0.87500000000000000       0.34375000000000000        0.0000000000000000     
  0.90625000000000000       0.34375000000000000        0.0000000000000000     
  0.93750000000000000       0.34375000000000000        0.0000000000000000     
  0.96875000000000000       0.34375000000000000        0.0000000000000000     
   1.0000000000000000       0.34375000000000000        0.0000000000000000     
  0.87500000000000000       0.37500000000000000        0.0000000000000000     
  0.90625000000000000       0.37500000000000000        0.0000000000000000     
  0.93750000000000000       0.37500000000000000        0.0000000000000000     
  0.96875000000000000       0.37500000000000000        0.0000000000000000     
   1.0000000000000000       0.37500000000000000        0.0000000000000000     
   1.0000000000000000       0.25000000000000000        0.0000000000000000     
   1.0312500000000000       0.25000000000000000        0.0000000000000000     
   1.0625000000000000       0.25000000000000000        0.0000000000000000     
   1.0937500000000000       0.25000000000000000        0.0000000000000000     
   1.1250000000000000       0.25000000000000000        0.0000000000000000     
   1.0000000000000000       0.28125000000000000        0.0000000000000000     
   1.0312500000000000       0.28125000000000000        0.0000000000000000     
   1.0625000000000000       0.28125000000000000        0.0000000000000000     
   1.0937500000000000       0.28125000000000000        0.0000000000000000     
   1.1250000000000000       0.28125000000000000        0.0000000000000000     
   1.0000000000000000       0.31250000000000000        0.0000000000000000     
   1.0312500000000000       0.31250000000000000        0.0000000000000000     
   1.0625000000000000       0.31250000000000000        0.0000000000000000     
   1.0937500000000000       0.31250000000000000        0.0000000000000000     
   1.1250000000000000       0.31250000000000000        0.0000000000000000     
   1.0000000000000000       0.34375000000000000        0.0000000000000000     
   1.0312500000000000       0.34375000000000000        0.0000000000000000     
   1.0625000000000000       0.34375000000000000        0.0000000000000000     
   1.0937500000000000       0.34375000000000000        0.0000000000000000     
   1.1250000000000000       0.34375000000000000        0.0000000000000000     
   1.0000000000000000       0.37500000000000000        0.0000000000000000     
   1.0312500000000000       0.37500000000000000        0.0000000000000000     
   1.0625000000000000       0.37500000000000000        0.0000000000000000     
   1.0937500000000000       0.37500000000000000        0.0000000000000000     
   1.1250000000000000       0.37500000000000000        0.0000000000000000     
   1.1250000000000000       0.25000000000000000        0.0000000000000000     
   1.1562500000000000       0.25000000000000000        0.0000000000000000     
   1.1875000000000000       0.25000000000000000        0.0000000000000000     
   1.2187500000000000       0.25000000000000000        0.0000000000000000     
   1.2500000000000000       0.25000000000000000        0.0000000000000000     
   1.1250000000000000       0.28125000000000000        0.0000000000000000     
   1.1562500000000000       0.28125000000000000        0.0000000000000000     
   1.1875000000000000       0.28125000000000000        0.0000000000000000     
   1.2187500000000000       0.28125000000000000        0.0000000000000000     
   1.2500000000000000       0.28125000000000000        0.0000000000000000     
   1.1250000000000000       0.31250000000000000        0.0000000000000000     
   1.1562500000000000       0.31250000000000000        0.0000000000000000     
   1.1875000000000000       0.31250000000000000        0.0000000000000000     
   1.2187500000000000       0.31250000000000000        0.0000000000000000     
   1.2500000000000000       0.31250000000000000        0.0000000000000000     
   1.1250000000000000       0.34375000000000000        0.0000000000000000     
   1.1562500000000000       0.34375000000000000        0.0000000000000000     
   1.1875000000000000       0.34375000000000000        0.0000000000000000     
   1.2187500000000000       0.34375000000000000        0.0000000000000000     
   1.2500000000000000       0.34375000000000000        0.0000000000000000     
   1.1250000000000000       0.37500000000000000        0.0000000000000000     
   1.1562500000000000       0.37500000000000000        0.0000000000000000     
   1.1875000000000000       0.37500000000000000        0.0000000000000000     
   1.2187500000000000       0.37500000000000000        0.0000000000000000     
   1.2500000000000000       0.37500000000000000        0.0000000000000000     
   1.2500000000000000       0.25000000000000000        0.0000000000000000     
   1.2812500000000000       0.25000000000000000        0.0000000000000000     
   1.3125000000000000       0.25000000000000000        0.0000000000000000     
   1.3437500000000000       0.25000000000000000        0.0000000000000000     
   1.3750000000000000       0.25000000000000000        0.0000000000000000     
   1.2500000000000000       0.28125000000000000        0.0000000000000000     
   1.2812500000000000       0.28125000000000000        0.0000000000000000     
   1.3125000000000000       0.28125000000000000        0.0000000000000000     
   1.3437500000000000       0.28125000000000000        0.0000000000000000     
   1.3750000000000000       0.28125000000000000        0.0000000000000000     
   1.2500000000000000       0.31250000000000000        0.0000000000000000     
   1.2812500000000000       0.31250000000000000        0.0000000000000000     
   1.3125000000000000       0.31250000000000000        0.0000000000000000     
   1.3437500000000000       0.31250000000000000        0.0000000000000000     
   1.3750000000000000       0.31250000000000000        0.0000000000000000     
   1.2500000000000000       0.34375000000000000        0.0000000000000000     
   1.2812500000000000       0.34375000000000000        0.0000000000000000     
   1.3125000000000000       0.34375000000000000        0.0000000000000000     
   1.3437500000000000       0.34375000000000000        0.0000000000000000     
   1.3750000000000000       0.34375000000000000        0.0000000000000000     
   1.2500000000000000       0.37500000000000000        0.0000000000000000     
   1.2812500000000000       0.37500000000000000        0.0000000000000000     
   1.3125000000000000       0.37500000000000000        0.0000000000000000     
   1.3437500000000000       0.37500000000000000        0.0000000000000000     
   1.3750000000000000       0.37500000000000000        0.0000000000000000     
   1.3750000000000000       0.25000000000000000        0.0000000000000000     
   1.4062500000000000       0.25000000000000000        0.0000000000000000     
   1.4375000000000000       0.25000000000000000        0.0000000000000000     
   1.4687500000000000       0.25000000000000000        0.0000000000000000     
   1.5000000000000000       0.25000000000000000        0.0000000000000000     
   1.3750000000000000       0.28125000000000000        0.0000000000000000     
   1.4062500000000000       0.28125000000000000        0.0000000000000000     
   1.4375000000000000       0.28125000000000000        0.0000000000000000     
   1.4687500000000000       0.28125000000000000        0.0000000000000000     
   1.5000000000000000       0.28125000000000000        0.0000000000000000     
   1.3750000000000000       0.31250000000000000        0.0000000000000000     
   1.4062500000000000       0.31250000000000000        0.0000000000000000     
   1.4375000000000000       0.31250000000000000        0.0000000000000000     
   1.4687500000000000       0.31250000000000000        0.0000000000000000     
   1.5000000000000000       0.31250000000000000        0.0000000000000000     
   1.3750000000000000       0.34375000000000000        0.0000000000000000     
   1.4062500000000000       0.34375000000000000        0.0000000000000000     
   1.4375000000000000       0.34375000000000000        0.0000000000000000     
   1.4687500000000000       0.34375000000000000        0.0000000000000000     
   1.5000000000000000       0.34375000000000000        0.0000000000000000     
   1.3750000000000000       0.37500000000000000        0.0000000000000000     
   1.4062500000000000       0.37500000000000000        0.0000000000000000     
   1.4375000000000000       0.37500000000000000        0.0000000000000000     
   1.4687500000000000       0.37500000000000000        0.0000000000000000     
   1.5000000000000000       0.37500000000000000        0.0000000000000000     
  0.50000000000000000       0.37500000000000000        0.0000000000000000     
  0.53125000000000000       0.37500000000000000        0.0000000000000000     
  0.56250000000000000       0.37500000000000000        0.0000000000000000     
  0.59375000000000000       0.37500000000000000        0.0000000000000000     
  0.62500000000000000       0.37500000000000000        0.0000000000000000     
  0.50000000000000000       0.40625000000000000        0.0000000000000000     
  0.53125000000000000       0.40625000000000000        0.0000000000000000     
  0.56250000000000000       0.40625000000000000        0.0000000000000000     
  0.59375000000000000       0.40625000000000000        0.0000000000000000     
  0.62500000000000000       0.40625000000000000        0.0000000000000000     
  0.50000000000000000       0.43750000000000000        0.0000000000000000     
  0.53125000000000000       0.43750000000000000        0.0000000000000000     
  0.56250000000000000       0.43750000000000000        0.0000000000000000     
  0.59375000000000000       0.43750000000000000        0.0000000000000000     
  0.62500000000000000       0.43750000000000000        0.0000000000000000     
  0.50000000000000000       0.46875000000000000        0.0000000000000000     
  0.53125000000000000       0.46875000000000000        0.0000000000000000     
  0.56250000000000000       0.46875000000000000        0.0000000000000000     
  0.59375000000000000       0.46875000000000000        0.0000000000000000     
  0.62500000000000000       0.46875000000000000        0.0000000000000000     
  0.50000000000000000       0.50000000000000000        0.0000000000000000     
  0.53125000000000000       0.50000000000000000        0.0000000000000000     
  0.56250000000000000       0.50000000000000000        0.0000000000000000     
  0.59375000000000000       0.50000000000000000        0.0000000000000000     
  0.62500000000000000       0.50000000000000000        0.0000000000000000     
  0.62500000000000000       0.37500000000000000        0.0000000000000000     
  0.65625000000000000       0.37500000000000000        0.0000000000000000     
  0.68750000000000000       0.37500000000000000        0.0000000000000000     
  0.71875000000000000       0.37500000000000000        0.0000000000000000     
  0.75000000000000000       0.37500000000000000        0.0000000000000000     
  0.62500000000000000       0.40625000000000000        0.0000000000000000     
  0.65625000000000000       0.40625000000000000        0.0000000000000000     
  0.68750000000000000       0.40625000000000000        0.0000000000000000     
  0.71875000000000000       0.40625000000000000        0.0000000000000000     
  0.75000000000000000       0.40625000000000000        0.0000000000000000     
  0.62500000000000000       0.43750000000000000        0.0000000000000000     
  0.65625000000000000       0.43750000000000000        0.0000000000000000     
  0.68750000000000000       0.43750000000000000        0.0000000000000000     
  0.71875000000000000       0.43750000000000000        0.0000000000000000     
  0.75000000000000000       0.43750000000000000        0.0000000000000000     
  0.62500000000000000       0.46875000000000000        0.0000000000000000     
  0.65625000000000000       0.46875000000000000        0.0000000000000000     
  0.68750000000000000       0.46875000000000000        0.0000000000000000     
  0.71875000000000000       0.46875000000000000        0.0000000000000000     
  0.75000000000000000       0.46875000000000000        0.0000000000000000     
  0.62500000000000000       0.50000000000000000        0.0000000000000000     
  0.65625000000000000       0.50000000000000000        0.0000000000000000     
  0.68750000000000000       0.50000000000000000        0.0000000000000000     
  0.71875000000000000       0.50000000000000000        0.0000000000000000     
  0.75000000000000000       0.50000000000000000        0.0000000000000000     
  0.75000000000000000       0.37500000000000000        0.0000000000000000     
  0.78125000000000000       0.37500000000000000        0.0000000000000000     
  0.81250000000000000       0.37500000000000000        0.0000000000000000     
  0.84375000000000000       0.37500000000000000        0.0000000000000000     
  0.87500000000000000       0.37500000000000000        0.0000000000000000     
  0.75000000000000000       0.40625000000000000        0.0000000000000000     
  0.78125000000000000       0.40625000000000000        0.0000000000000000     
  0.81250000000000000       0.40625000000000000        0.0000000000000000     
  0.84375000000000000       0.40625000000000000        0.0000000000000000     
  0.87500000000000000       0.40625000000000000        0.0000000000000000     
  0.75000000000000000       0.43750000000000000        0.0000000000000000     
  0.78125000000000000       0.43750000000000000        0.0000000000000000     
  0.81250000000000000       0.43750000000000000        0.0000000000000000     
  0.84375000000000000       0.43750000000000000        0.0000000000000000     
  0.87500000000000000       0.43750000000000000        0.0000000000000000     
  0.75000000000000000       0.46875000000000000        0.0000000000000000     
  0.78125000000000000       0.46875000000000000        0.0000000000000000     
  0.81250000000000000       0.46875000000000000        0.0000000000000000     
  0.84375000000000000       0.46875000000000000        0.0000000000000000     
  0.87500000000000000       0.46875000000000000        0.0000000000000000     
  0.75000000000000000       0.50000000000000000        0.0000000000000000     
  0.78125000000000000       0.50000000000000000        0.0000000000000000     
  0.81250000000000000       0.50000000000000000        0.0000000000000000     
  0.84375000000000000       0.50000000000000000        0.0000000000000000     
  0.87500000000000000       0.50000000000000000        0.0000000000000000     
  0.87500000000000000       0.37500000000000000        0.0000000000000000     
  0.90625000000000000       0.37500000000000000        0.0000000000000000     
  0.93750000000000000       0.37500000000000000        0.0000000000000000     
  0.96875000000000000       0.37500000000000000        0.0000000000000000     
   1.0000000000000000       0.37500000000000000        0.0000000000000000     
  0.87500000000000000       0.40625000000000000        0.0000000000000000     
  0.90625000000000000       0.40625000000000000        0.0000000000000000     
  0.93750000000000000       0.40625000000000000        0.0000000000000000     
  0.96875000000000000       0.40625000000000000        0.0000000000000000     
   1.0000000000000000       0.40625000000000000        0.0000000000000000     
  0.87500000000000000       0.43750000000000000        0.0000000000000000     
  0.90625000000000000       0.43750000000000000        0.0000000000000000     
  0.93750000000000000       0.43750000000000000        0.0000000000000000     
  0.96875000000000000       0.43750000000000000        0.0000000000000000     
   1.0000000000000000       0.43750000000000000        0.0000000000000000     
  0.87500000000000000       0.46875000000000000        0.0000000000000000     
  0.90625000000000000       0.46875000000000000        0.0000000000000000     
  0.93750000000000000       0.46875000000000000        0.0000000000000000     
  0.96875000000000000       0.46875000000000000        0.0000000000000000     
   1.0000000000000000       0.46875000000000000        0.0000000000000000     
  0.87500000000000000       0.50000000000000000        0.0000000000000000     
  0.90625000000000000       0.50000000000000000        0.0000000000000000     
  0.93750000000000000       0.50000000000000000        0.0000000000000000     
  0.96875000000000000       0.50000000000000000        0.0000000000000000     
   1.0000000000000000       0.50000000000000000        0.0000000000000000     
   1.0000000000000000       0.37500000000000000        0.0000000000000000     
   1.0312500000000000       0.37500000000000000        0.0000000000000000     
   1.0625000000000000       0.37500000000000000        0.0000000000000000     
   1.0937500000000000       0.37500000000000000        0.0000000000000000     
   1.1250000000000000       0.37500000000000000        0.0000000000000000     
   1.0000000000000000       0.40625000000000000        0.0000000000000000     
   1.0312500000000000       0.40625000000000000        0.0000000000000000     
   1.0625000000000000       0.40625000000000000        0.0000000000000000     
   1.0937500000000000       0.40625000000000000        0.0000000000000000     
   1.1250000000000000       0.40625000000000000        0.0000000000000000     
   1.0000000000000000       0.43750000000000000        0.0000000000000000     
   1.0312500000000000       0.43750000000000000        0.0000000000000000     
   1.0625000000000000       0.43750000000000000        0.0000000000000000     
   1.0937500000000000       0.43750000000000000        0.0000000000000000     
   1.1250000000000000       0.43750000000000000        0.0000000000000000     
   1.0000000000000000       0.46875000000000000        0.0000000000000000     
   1.0312500000000000       0.46875000000000000        0.0000000000000000     
   1.0625000000000000       0.46875000000000000        0.0000000000000000     
   1.0937500000000000       0.46875000000000000        0.0000000000000000     
   1.1250000000000000       0.46875000000000000        0.0000000000000000     
   1.0000000000000000       0.50000000000000000        0.0000000000000000     
   1.0312500000000000       0.50000000000000000        0.0000000000000000     
   1.0625000000000000       0.50000000000000000        0.0000000000000000     
   1.0937500000000000       0.50000000000000000        0.0000000000000000     
   1.1250000000000000       0.50000000000000000        0.0000000000000000     
   1.1250000000000000       0.37500000000000000        0.0000000000000000     
   1.1562500000000000       0.37500000000000000        0.0000000000000000     
   1.1875000000000000       0.37500000000000000        0.0000000000000000     
   1.2187500000000000       0.37500000000000000        0.0000000000000000     
   1.2500000000000000       0.37500000000000000        0.0000000000000000     
   1.1250000000000000       0.40625000000000000        0.0000000000000000     
   1.1562500000000000       0.40625000000000000        0.0000000000000000     
   1.1875000000000000       0.40625000000000000        0.0000000000000000     
   1.2187500000000000       0.40625000000000000        0.0000000000000000     
   1.2500000000000000       0.40625000000000000        0.0000000000000000     
   1.1250000000000000       0.43750000000000000        0.0000000000000000     
   1.1562500000000000       0.43750000000000000        0.0000000000000000     
   1.1875000000000000       0.43750000000000000        0.0000000000000000     
   1.2187500000000000       0.43750000000000000        0.0000000000000000     
   1.2500000000000000       0.43750000000000000        0.0000000000000000     
   1.1250000000000000       0.46875000000000000        0.0000000000000000     
   1.1562500000000000       0.46875000000000000        0.0000000000000000     
   1.1875000000000000       0.46875000000000000        0.0000000000000000     
   1.2187500000000000       0.46875000000000000        0.0000000000000000     
   1.2500000000000000       0.46875000000000000        0.0000000000000000     
   1.1250000000000000       0.50000000000000000        0.0000000000000000     
   1.1562500000000000       0.50000000000000000        0.0000000000000000     
   1.1875000000000000       0.50000000000000000        0.0000000000000000     
   1.2187500000000000       0.50000000000000000        0.0000000000000000     
   1.2500000000000000       0.50000000000000000        0.0000000000000000     
   1.2500000000000000       0.37500000000000000        0.0000000000000000     
   1.2812500000000000       0.37500000000000000        0.0000000000000000     
   1.3125000000000000       0.37500000000000000        0.0000000000000000     
   1.3437500000000000       0.37500000000000000        0.0000000000000000     
   1.3750000000000000       0.37500000000000000        0.0000000000000000     
   1.2500000000000000       0.40625000000000000        0.0000000000000000     
   1.2812500000000000       0.40625000000000000        0.0000000000000000     
   1.3125000000000000       0.40625000000000000        0.0000000000000000     
   1.3437500000000000       0.40625000000000000        0.0000000000000000     
   1.3750000000000000       0.40625000000000000        0.0000000000000000     
   1.2500000000000000       0.43750000000000000        0.0000000000000000     
   1.2812500000000000       0.43750000000000000        0.0000000000000000     
   1.3125000000000000       0.43750000000000000        0.0000000000000000     
   1.3437500000000000       0.43750000000000000        0.0000000000000000     
   1.3750000000000000       0.43750000000000000        0.0000000000000000     
   1.2500000000000000       0.46875000000000000        0.0000000000000000     
   1.2812500000000000       0.46875000000000000        0.0000000000000000     
   1.3125000000000000       0.46875000000000000        0.0000000000000000     
   1.3437500000000000       0.46875000000000000        0.0000000000000000     
   1.3750000000000000       0.46875000000000000        0.0000000000000000     
   1.2500000000000000       0.50000000000000000        0.0000000000000000     
   1.2812500000000000       0.50000000000000000        0.0000000000000000     
   1.3125000000000000       0.50000000000000000        0.0000000000000000     
   1.3437500000000000       0.50000000000000000        0.0000000000000000     
   1.3750000000000000       0.50000000000000000        0.0000000000000000     
   1.3750000000000000       0.37500000000000000        0.0000000000000000     
   1.4062500000000000       0.37500000000000000        0.0000000000000000     
   1.4375000000000000       0.37500000000000000        0.0000000000000000     
   1.4687500000000000       0.37500000000000000        0.0000000000000000     
   1.5000000000000000       0.37500000000000000        0.0000000000000000     
   1.3750000000000000       0.40625000000000000        0.0000000000000000     
   1.4062500000000000       0.40625000000000000        0.0000000000000000     
   1.4375000000000000       0.40625000000000000        0.0000000000000000     
   1.4687500000000000       0.40625000000000000        0.0000000000000000     
   1.5000000000000000       0.40625000000000000        0.0000000000000000     
   1.3750000000000000       0.43750000000000000        0.0000000000000000     
   1.4062500000000000       0.43750000000000000        0.0000000000000000     
   1.4375000000000000       0.43750000000000000        0.0000000000000000     
   1.4687500000000000       0.43750000000000000        0.0000000000000000     
   1.5000000000000000       0.43750000000000000        0.0000000000000000     
   1.3750000000000000       0.46875000000000000        0.0000000000000000     
   1.4062500000000000       0.46875000000000000        0.0000000000000000     
   1.4375000000000000       0.46875000000000000        0.0000000000000000     
   1.4687500000000000       0.46875000000000000        0.0000000000000000     
   1.5000000000000000       0.46875000000000000        0.0000000000000000     
   1.3750000000000000       0.50000000000000000        0.0000000000000000     
   1.4062500000000000       0.50000000000000000        0.0000000000000000     
   1.4375000000000000       0.50000000000000000        0.0000000000000000     
   1.4687500000000000       0.50000000000000000        0.0000000000000000     
   1.5000000000000000       0.50000000000000000        0.0000000000000000     
  0.50000000000000000       0.50000000000000000        0.0000000000000000     
  0.53125000000000000       0.50000000000000000        0.0000000000000000     
  0.56250000000000000       0.50000000000000000        0.0000000000000000     
  0.59375000000000000       0.50000000000000000        0.0000000000000000     
  0.62500000000000000       0.50000000000000000        0.0000000000000000     
  0.50000000000000000       0.53125000000000000        0.0000000000000000     
  0.53125000000000000       0.53125000000000000        0.0000000000000000     
  0.56250000000000000       0.53125000000000000        0.0000000000000000     
  0.59375000000000000       0.53125000000000000        0.0000000000000000     
  0.62500000000000000       0.53125000000000000        0.0000000000000000     
  0.50000000000000000       0.56250000000000000        0.0000000000000000     
  0.53125000000000000       0.56250000000000000        0.0000000000000000     
  0.56250000000000000       0.56250000000000000        0.0000000000000000     
  0.59375000000000000       0.56250000000000000        0.0000000000000000     
  0.62500000000000000       0.56250000000000000        0.0000000000000000     
  0.50000000000000000       0.59375000000000000        0.0000000000000000     
  0.53125000000000000       0.59375000000000000        0.0000000000000000     
  0.56250000000000000       0.59375000000000000        0.0000000000000000     
  0.59375000000000000       0.59375000000000000        0.0000000000000000     
  0.62500000000000000       0.59375000000000000        0.0000000000000000     
  0.50000000000000000       0.62500000000000000        0.0000000000000000     
  0.53125000000000000       0.62500000000000000        0.0000000000000000     
  0.56250000000000000       0.62500000000000000        0.0000000000000000     
  0.59375000000000000       0.62500000000000000        0.0000000000000000     
  0.62500000000000000       0.62500000000000000        0.0000000000000000     
  0.62500000000000000       0.50000000000000000        0.0000000000000000     
  0.65625000000000000       0.50000000000000000        0.0000000000000000     
  0.68750000000000000       0.50000000000000000        0.0000000000000000     
  0.71875000000000000       0.50000000000000000        0.0000000000000000     
  0.75000000000000000       0.50000000000000000        0.0000000000000000     
  0.62500000000000000       0.53125000000000000        0.0000000000000000     
  0.65625000000000000       0.53125000000000000        0.0000000000000000     
  0.68750000000000000       0.53125000000000000        0.0000000000000000     
  0.71875000000000000       0.53125000000000000        0.0000000000000000     
  0.75000000000000000       0.53125000000000000        0.0000000000000000     
  0.62500000000000000       0.56250000000000000        0.0000000000000000     
  0.65625000000000000       0.56250000000000000        0.0000000000000000     
  0.68750000000000000       0.56250000000000000        0.0000000000000000     
  0.71875000000000000       0.56250000000000000        0.0000000000000000     
  0.75000000000000000       0.56250000000000000        0.0000000000000000     
  0.62500000000000000       0.59375000000000000        0.0000000000000000     
  0.65625000000000000       0.59375000000000000        0.0000000000000000     
  0.68750000000000000       0.59375000000000000        0.0000000000000000     
  0.71875000000000000       0.59375000000000000        0.0000000000000000     
  0.75000000000000000       0.59375000000000000        0.0000000000000000     
  0.62500000000000000       0.62500000000000000        0.0000000000000000     
  0.65625000000000000       0.62500000000000000        0.0000000000000000     
  0.68750000000000000       0.62500000000000000        0.0000000000000000     
  0.71875000000000000       0.62500000000000000        0.0000000000000000     
  0.75000000000000000       0.62500000000000000        0.0000000000000000     
  0.75000000000000000       0.50000000000000000        0.0000000000000000     
  0.78125000000000000       0.50000000000000000        0.0000000000000000     
  0.81250000000000000       0.50000000000000000        0.0000000000000000     
  0.84375000000000000       0.50000000000000000        0.0000000000000000     
  0.87500000000000000       0.50000000000000000        0.0000000000000000     
  0.75000000000000000       0.53125000000000000        0.0000000000000000     
  0.78125000000000000       0.53125000000000000        0.0000000000000000     
  0.81250000000000000       0.53125000000000000        0.0000000000000000     
  0.84375000000000000       0.53125000000000000        0.0000000000000000     
  0.87500000000000000       0.53125000000000000        0.0000000000000000     
  0.75000000000000000       0.56250000000000000        0.0000000000000000     
  0.78125000000000000       0.56250000000000000        0.0000000000000000     
  0.81250000000000000       0.56250000000000000        0.0000000000000000     
  0.84375000000000000       0.56250000000000000        0.0000000000000000     
  0.87500000000000000       0.56250000000000000        0.0000000000000000     
  0.75000000000000000       0.59375000000000000        0.0000000000000000     
  0.78125000000000000       0.59375000000000000        0.0000000000000000     
  0.81250000000000000       0.59375000000000000        0.0000000000000000     
  0.84375000000000000       0.59375000000000000        0.0000000000000000     
  0.87500000000000000       0.59375000000000000        0.0000000000000000     
  0.75000000000000000       0.62500000000000000        0.0000000000000000     
  0.78125000000000000       0.62500000000000000        0.0000000000000000     
  0.81250000000000000       0.62500000000000000        0.0000000000000000     
  0.84375000000000000       0.62500000000000000        0.0000000000000000     
  0.87500000000000000       0.62500000000000000        0.0000000000000000     
  0.87500000000000000       0.50000000000000000        0.0000000000000000     
  0.90625000000000000       0.50000000000000000        0.0000000000000000     
  0.93750000000000000       0.50000000000000000        0.0000000000000000     
  0.96875000000000000       0.50000000000000000        0.0000000000000000     
   1.0000000000000000       0.50000000000000000        0.0000000000000000     
  0.87500000000000000       0.53125000000000000        0.0000000000000000     
  0.90625000000000000       0.53125000000000000        0.0000000000000000     
  0.93750000000000000       0.53125000000000000        0.0000000000000000     
  0.96875000000000000       0.53125000000000000        0.0000000000000000     
   1.0000000000000000       0.53125000000000000        0.0000000000000000     
  0.87500000000000000       0.56250000000000000        0.0000000000000000     
  0.90625000000000000       0.56250000000000000        0.0000000000000000     
  0.93750000000000000       0.56250000000000000        0.0000000000000000     
  0.96875000000000000       0.56250000000000000        0.0000000000000000     
   1.0000000000000000       0.56250000000000000        0.0000000000000000     
  0.87500000000000000       0.59375000000000000        0.0000000000000000     
  0.90625000000000000       0.59375000000000000        0.0000000000000000     
  0.93750000000000000       0.59375000000000000        0.0000000000000000     
  0.96875000000000000       0.59375000000000000        0.0000000000000000     
   1.0000000000000000       0.59375000000000000        0.0000000000000000     
  0.87500000000000000       0.62500000000000000        0.0000000000000000     
  0.90625000000000000       0.62500000000000000        0.0000000000000000     
  0.93750000000000000       0.62500000000000000        0.0000000000000000     
  0.96875000000000000       0.62500000000000000        0.0000000000000000     
   1.0000000000000000       0.62500000000000000        0.0000000000000000     
   1.0000000000000000       0.50000000000000000        0.0000000000000000     
   1.0312500000000000       0.50000000000000000        0.0000000000000000     
   1.0625000000000000       0.50000000000000000        0.0000000000000000     
   1.0937500000000000       0.50000000000000000        0.0000000000000000     
   1.1250000000000000       0.50000000000000000        0.0000000000000000     
   1.0000000000000000       0.53125000000000000        0.0000000000000000     
   1.0312500000000000       0.53125000000000000        0.0000000000000000     
   1.0625000000000000       0.53125000000000000        0.0000000000000000     
   1.0937500000000000       0.53125000000000000        0.0000000000000000     
   1.1250000000000000       0.53125000000000000        0.0000000000000000     
   1.0000000000000000       0.56250000000000000        0.0000000000000000     
   1.0312500000000000       0.56250000000000000        0.0000000000000000     
   1.0625000000000000       0.56250000000000000        0.0000000000000000     
   1.0937500000000000       0.56250000000000000        0.0000000000000000     
   1.1250000000000000       0.56250000000000000        0.0000000000000000     
   1.0000000000000000       0.59375000000000000        0.0000000000000000     
   1.0312500000000000       0.59375000000000000        0.0000000000000000     
   1.0625000000000000       0.59375000000000000        0.0000000000000000     
   1.0937500000000000       0.59375000000000000        0.0000000000000000     
   1.1250000000000000       0.59375000000000000        0.0000000000000000     
   1.0000000000000000       0.62500000000000000        0.0000000000000000     
   1.0312500000000000       0.62500000000000000        0.0000000000000000     
   1.0625000000000000       0.62500000000000000        0.0000000000000000     
   1.0937500000000000       0.62500000000000000        0.0000000000000000     
   1.1250000000000000       0.62500000000000000        0.0000000000000000     
   1.1250000000000000       0.50000000000000000        0.0000000000000000     
   1.1562500000000000       0.50000000000000000        0.0000000000000000     
   1.1875000000000000       0.50000000000000000        0.0000000000000000     
   1.2187500000000000       0.50000000000000000        0.0000000000000000     
   1.2500000000000000       0.50000000000000000        0.0000000000000000     
   1.1250000000000000       0.53125000000000000        0.0000000000000000     
   1.1562500000000000       0.53125000000000000        0.0000000000000000     
   1.1875000000000000       0.53125000000000000        0.0000000000000000     
   1.2187500000000000       0.53125000000000000        0.0000000000000000     
   1.2500000000000000       0.53125000000000000        0.0000000000000000     
   1.1250000000000000       0.56250000000000000        0.0000000000000000     
   1.1562500000000000       0.56250000000000000        0.0000000000000000     
   1.1875000000000000       0.56250000000000000        0.0000000000000000     
   1.2187500000000000       0.56250000000000000        0.0000000000000000     
   1.2500000000000000       0.56250000000000000        0.0000000000000000     
   1.1250000000000000       0.59375000000000000        0.0000000000000000     
   1.1562500000000000       0.59375000000000000        0.0000000000000000     
   1.1875000000000000       0.59375000000000000        0.0000000000000000     
   1.2187500000000000       0.59375000000000000        0.0000000000000000     
   1.2500000000000000       0.59375000000000000        0.0000000000000000     
   1.1250000000000000       0.62500000000000000        0.0000000000000000     
   1.1562500000000000       0.62500000000000000        0.0000000000000000     
   1.1875000000000000       0.62500000000000000        0.0000000000000000     
   1.2187500000000000       0.62500000000000000        0.0000000000000000     
   1.2500000000000000       0.62500000000000000        0.0000000000000000     
   1.2500000000000000       0.50000000000000000        0.0000000000000000     
   1.2812500000000000       0.50000000000000000        0.0000000000000000     
   1.3125000000000000       0.50000000000000000        0.0000000000000000     
   1.3437500000000000       0.50000000000000000        0.0000000000000000     
   1.3750000000000000       0.50000000000000000        0.0000000000000000     
   1.2500000000000000       0.53125000000000000        0.0000000000000000     
   1.2812500000000000       0.53125000000000000        0.0000000000000000     
   1.3125000000000000       0.53125000000000000        0.0000000000000000     
   1.3437500000000000       0.53125000000000000        0.0000000000000000     
   1.3750000000000000       0.53125000000000000        0.0000000000000000     
   1.2500000000000000       0.56250000000000000        0.0000000000000000     
   1.2812500000000000       0.56250000000000000        0.0000000000000000     
   1.3125000000000000       0.56250000000000000        0.0000000000000000     
   1.3437500000000000       0.56250000000000000        0.0000000000000000     
   1.3750000000000000       0.56250000000000000        0.0000000000000000     
   1.2500000000000000       0.59375000000000000        0.0000000000000000     
   1.2812500000000000       0.59375000000000000        0.0000000000000000     
   1.3125000000000000       0.59375000000000000        0.0000000000000000     
   1.3437500000000000       0.59375000000000000        0.0000000000000000     
   1.3750000000000000       0.59375000000000000        0.0000000000000000     
   1.2500000000000000       0.62500000000000000        0.0000000000000000     
   1.2812500000000000       0.62500000000000000        0.0000000000000000     
   1.3125000000000000       0.62500000000000000        0.0000000000000000     
   1.3437500000000000       0.62500000000000000        0.0000000000000000     
   1.3750000000000000       0.62500000000000000        0.0000000000000000     
   1.3750000000000000       0.50000000000000000        0.0000000000000000     
   1.4062500000000000       0.50000000000000000        0.0000000000000000     
   1.4375000000000000       0.50000000000000000        0.0000000000000000     
   1.4687500000000000       0.50000000000000000        0.0000000000000000     
   1.5000000000000000       0.50000000000000000        0.0000000000000000     
   1.3750000000000000       0.53125000000000000        0.0000000000000000     
   1.4062500000000000       0.53125000000000000        0.0000000000000000     
   1.4375000000000000       0.53125000000000000        0.0000000000000000     
   1.4687500000000000       0.53125000000000000        0.0000000000000000     
   1.5000000000000000       0.53125000000000000        0.0000000000000000     
   1.3750000000000000       0.56250000000000000        0.0000000000000000     
   1.4062500000000000       0.56250000000000000        0.0000000000000000     
   1.4375000000000000       0.56250000000000000        0.0000000000000000     
   1.4687500000000000       0.56250000000000000        0.0000000000000000     
   1.5000000000000000       0.56250000000000000        0.0000000000000000     
   1.3750000000000000       0.59375000000000000        0.0000000000000000     
   1.4062500000000000       0.59375000000000000        0.0000000000000000     
   1.4375000000000000       0.59375000000000000        0.0000000000000000     
   1.4687500000000000       0.59375000000000000        0.0000000000000000     
   1.5000000000000000       0.59375000000000000        0.0000000000000000     
   1.3750000000000000       0.62500000000000000        0.0000000000000000     
   1.4062500000000000       0.62500000000000000        0.0000000000000000     
   1.4375000000000000       0.62500000000000000        0.0000000000000000     
   1.4687500000000000       0.62500000000000000        0.0000000000000000     
   1.5000000000000000       0.62500000000000000        0.0000000000000000     
  0.50000000000000000       0.62500000000000000        0.0000000000000000     
  0.53125000000000000       0.62500000000000000        0.0000000000000000     
  0.56250000000000000       0.62500000000000000        0.0000000000000000     
  0.59375000000000000       0.62500000000000000        0.0000000000000000     
  0.62500000000000000       0.62500000000000000        0.0000000000000000     
  0.50000000000000000       0.65625000000000000        0.0000000000000000     
  0.53125000000000000       0.65625000000000000        0.0000000000000000     
  0.56250000000000000       0.65625000000000000        0.0000000000000000     
  0.59375000000000000       0.65625000000000000        0.0000000000000000     
  0.62500000000000000       0.65625000000000000        0.0000000000000000     
  0.50000000000000000       0.68750000000000000        0.0000000000000000     
  0.53125000000000000       0.68750000000000000        0.0000000000000000     
  0.56250000000000000       0.68750000000000000        0.0000000000000000     
  0.59375000000000000       0.68750000000000000        0.0000000000000000     
  0.62500000000000000       0.68750000000000000        0.0000000000000000     
  0.50000000000000000       0.71875000000000000        0.0000000000000000     
  0.53125000000000000       0.71875000000000000        0.0000000000000000     
  0.56250000000000000       0.71875000000000000        0.0000000000000000     
  0.59375000000000000       0.71875000000000000        0.0000000000000000     
  0.62500000000000000       0.71875000000000000        0.0000000000000000     
  0.50000000000000000       0.75000000000000000        0.0000000000000000     
  0.53125000000000000       0.75000000000000000        0.0000000000000000     
  0.56250000000000000       0.75000000000000000        0.0000000000000000     
  0.59375000000000000       0.75000000000000000        0.0000000000000000     
  0.62500000000000000       0.75000000000000000        0.0000000000000000     
  0.62500000000000000       0.62500000000000000        0.0000000000000000     
  0.65625000000000000       0.62500000000000000        0.0000000000000000     
  0.68750000000000000       0.62500000000000000        0.0000000000000000     
  0.71875000000000000       0.62500000000000000        0.0000000000000000     
  0.75000000000000000       0.62500000000000000        0.0000000000000000     
  0.62500000000000000       0.65625000000000000        0.0000000000000000     
  0.65625000000000000       0.65625000000000000        0.0000000000000000     
  0.68750000000000000       0.65625000000000000        0.0000000000000000     
  0.71875000000000000       0.65625000000000000        0.0000000000000000     
  0.75000000000000000       0.65625000000000000        0.0000000000000000     
  0.62500000000000000       0.68750000000000000        0.0000000000000000     
  0.65625000000000000       0.68750000000000000        0.0000000000000000     
  0.68750000000000000       0.68750000000000000        0.0000000000000000     
  0.71875000000000000       0.68750000000000000        0.0000000000000000     
  0.75000000000000000       0.68750000000000000        0.0000000000000000     
  0.62500000000000000       0.71875000000000000        0.0000000000000000     
  0.65625000000000000       0.71875000000000000        0.0000000000000000     
  0.68750000000000000       0.71875000000000000        0.0000000000000000     
  0.71875000000000000       0.71875000000000000        0.0000000000000000     
  0.75000000000000000       0.71875000000000000        0.0000000000000000     
  0.62500000000000000       0.75000000000000000        0.0000000000000000     
  0.65625000000000000       0.75000000000000000        0.0000000000000000     
  0.68750000000000000       0.75000000000000000        0.0000000000000000     
  0.71875000000000000       0.75000000000000000        0.0000000000000000     
  0.75000000000000000       0.75000000000000000        0.0000000000000000     
  0.75000000000000000       0.62500000000000000        0.0000000000000000     
  0.78125000000000000       0.62500000000000000        0.0000000000000000     
  0.81250000000000000       0.62500000000000000        0.0000000000000000     
  0.84375000000000000       0.62500000000000000        0.0000000000000000     
  0.87500000000000000       0.62500000000000000        0.0000000000000000     
  0.75000000000000000       0.65625000000000000        0.0000000000000000     
  0.78125000000000000       0.65625000000000000        0.0000000000000000     
  0.81250000000000000       0.65625000000000000        0.0000000000000000     
  0.84375000000000000       0.65625000000000000        0.0000000000000000     
  0.87500000000000000       0.65625000000000000        0.0000000000000000     
  0.75000000000000000       0.68750000000000000        0.0000000000000000     
  0.78125000000000000       0.68750000000000000        0.0000000000000000     
  0.81250000000000000       0.68750000000000000        0.0000000000000000     
  0.84375000000000000       0.68750000000000000        0.0000000000000000     
  0.87500000000000000       0.68750000000000000        0.0000000000000000     
  0.75000000000000000       0.71875000000000000        0.0000000000000000     
  0.78125000000000000       0.71875000000000000        0.0000000000000000     
  0.81250000000000000       0.71875000000000000        0.0000000000000000     
  0.84375000000000000       0.71875000000000000        0.0000000000000000     
  0.87500000000000000       0.71875000000000000        0.0000000000000000     
  0.75000000000000000       0.75000000000000000        0.0000000000000000     
  0.78125000000000000       0.75000000000000000        0.0000000000000000     
  0.81250000000000000       0.75000000000000000        0.0000000000000000     
  0.84375000000000000       0.75000000000000000        0.0000000000000000     
  0.87500000000000000       0.75000000000000000        0.0000000000000000     
  0.87500000000000000       0.62500000000000000        0.0000000000000000     
  0.90625000000000000       0.62500000000000000        0.0000000000000000     
  0.93750000000000000       0.62500000000000000        0.0000000000000000     
  0.96875000000000000       0.62500000000000000        0.0000000000000000     
   1.0000000000000000       0.62500000000000000        0.0000000000000000     
  0.87500000000000000       0.65625000000000000        0.0000000000000000     
  0.90625000000000000       0.65625000000000000        0.0000000000000000     
  0.93750000000000000       0.65625000000000000        0.0000000000000000     
  0.96875000000000000       0.65625000000000000        0.0000000000000000     
   1.0000000000000000       0.65625000000000000        0.0000000000000000     
  0.87500000000000000       0.68750000000000000        0.0000000000000000     
  0.90625000000000000       0.68750000000000000        0.0000000000000000     
  0.93750000000000000       0.68750000000000000        0.0000000000000000     
  0.96875000000000000       0.68750000000000000        0.0000000000000000     
   1.0000000000000000       0.68750000000000000        0.0000000000000000     
  0.87500000000000000       0.71875000000000000        0.0000000000000000     
  0.90625000000000000       0.71875000000000000        0.0000000000000000     
  0.93750000000000000       0.71875000000000000        0.0000000000000000     
  0.96875000000000000       0.71875000000000000        0.0000000000000000     
   1.0000000000000000       0.71875000000000000        0.0000000000000000     
  0.87500000000000000       0.75000000000000000        0.0000000000000000     
  0.90625000000000000       0.75000000000000000        0.0000000000000000     
  0.93750000000000000       0.75000000000000000        0.0000000000000000     
  0.96875000000000000       0.75000000000000000        0.0000000000000000     
   1.0000000000000000       0.75000000000000000        0.0000000000000000     
   1.0000000000000000       0.62500000000000000        0.0000000000000000     
   1.0312500000000000       0.62500000000000000        0.0000000000000000     
   1.0625000000000000       0.62500000000000000        0.0000000000000000     
   1.0937500000000000       0.62500000000000000        0.0000000000000000     
   1.1250000000000000       0.62500000000000000        0.0000000000000000     
   1.0000000000000000       0.65625000000000000        0.0000000000000000     
   1.0312500000000000       0.65625000000000000        0.0000000000000000     
   1.0625000000000000       0.65625000000000000        0.0000000000000000     
   1.0937500000000000       0.65625000000000000        0.0000000000000000     
   1.1250000000000000       0.65625000000000000        0.0000000000000000     
   1.0000000000000000       0.68750000000000000        0.0000000000000000     
   1.0312500000000000       0.68750000000000000        0.0000000000000000     
   1.0625000000000000       0.68750000000000000        0.0000000000000000     
   1.0937500000000000       0.68750000000000000        0.0000000000000000     
   1.1250000000000000       0.68750000000000000        0.0000000000000000     
   1.0000000000000000       0.71875000000000000        0.0000000000000000     
   1.0312500000000000       0.71875000000000000        0.0000000000000000     
   1.0625000000000000       0.71875000000000000        0.0000000000000000     
   1.0937500000000000       0.71875000000000000        0.0000000000000000     
   1.1250000000000000       0.71875000000000000        0.0000000000000000     
   1.0000000000000000       0.75000000000000000        0.0000000000000000     
   1.0312500000000000       0.75000000000000000        0.0000000000000000     
   1.0625000000000000       0.75000000000000000        0.0000000000000000     
   1.0937500000000000       0.75000000000000000        0.0000000000000000     
   1.1250000000000000       0.75000000000000000        0.0000000000000000     
   1.1250000000000000       0.62500000000000000        0.0000000000000000     
   1.1562500000000000       0.62500000000000000        0.0000000000000000     
   1.1875000000000000       0.62500000000000000        0.0000000000000000     
   1.2187500000000000       0.62500000000000000        0.0000000000000000     
   1.2500000000000000       0.62500000000000000        0.0000000000000000     
   1.1250000000000000       0.65625000000000000        0.0000000000000000     
   1.1562500000000000       0.65625000000000000        0.0000000000000000     
   1.1875000000000000       0.65625000000000000        0.0000000000000000     
   1.2187500000000000       0.65625000000000000        0.0000000000000000     
   1.2500000000000000       0.65625000000000000        0.0000000000000000     
   1.1250000000000000       0.68750000000000000        0.0000000000000000     
   1.1562500000000000       0.68750000000000000        0.0000000000000000     
   1.1875000000000000       0.68750000000000000        0.0000000000000000     
   1.2187500000000000       0.68750000000000000        0.0000000000000000     
   1.2500000000000000       0.68750000000000000        0.0000000000000000     
   1.1250000000000000       0.71875000000000000        0.0000000000000000     
   1.1562500000000000       0.71875000000000000        0.0000000000000000     
   1.1875000000000000       0.71875000000000000        0.0000000000000000     
   1.2187500000000000       0.71875000000000000        0.0000000000000000     
   1.2500000000000000       0.71875000000000000        0.0000000000000000     
   1.1250000000000000       0.75000000000000000        0.0000000000000000     
   1.1562500000000000       0.75000000000000000        0.0000000000000000     
   1.1875000000000000       0.75000000000000000        0.0000000000000000     
   1.2187500000000000       0.75000000000000000        0.0000000000000000     
   1.2500000000000000       0.75000000000000000        0.0000000000000000     
   1.2500000000000000       0.62500000000000000        0.0000000000000000     
   1.2812500000000000       0.62500000000000000        0.0000000000000000     
   1.3125000000000000       0.62500000000000000        0.0000000000000000     
   1.3437500000000000       0.62500000000000000        0.0000000000000000     
   1.3750000000000000       0.62500000000000000        0.0000000000000000     
   1.2500000000000000       0.65625000000000000        0.0000000000000000     
   1.2812500000000000       0.65625000000000000        0.0000000000000000     
   1.3125000000000000       0.65625000000000000        0.0000000000000000     
   1.3437500000000000       0.65625000000000000        0.0000000000000000     
   1.3750000000000000       0.65625000000000000        0.0000000000000000     
   1.2500000000000000       0.68750000000000000        0.0000000000000000     
   1.2812500000000000       0.68750000000000000        0.0000000000000000     
   1.3125000000000000       0.68750000000000000        0.0000000000000000     
   1.3437500000000000       0.68750000000000000        0.0000000000000000     
   1.3750000000000000       0.68750000000000000        0.0000000000000000     
   1.2500000000000000       0.71875000000000000        0.0000000000000000     
   1.2812500000000000       0.71875000000000000        0.0000000000000000     
   1.3125000000000000       0.71875000000000000        0.0000000000000000     
   1.3437500000000000       0.71875000000000000        0.0000000000000000     
   1.3750000000000000       0.71875000000000000        0.0000000000000000     
   1.2500000000000000       0.75000000000000000        0.0000000000000000     
   1.2812500000000000       0.75000000000000000        0.0000000000000000     
   1.3125000000000000       0.75000000000000000        0.0000000000000000     
   1.3437500000000000       0.75000000000000000        0.0000000000000000     
   1.3750000000000000       0.75000000000000000        0.0000000000000000     
   1.3750000000000000       0.62500000000000000        0.0000000000000000     
   1.4062500000000000       0.62500000000000000        0.0000000000000000     
   1.4375000000000000       0.62500000000000000        0.0000000000000000     
   1.4687500000000000       0.62500000000000000        0.0000000000000000     
   1.5000000000000000       0.62500000000000000        0.0000000000000000     
   1.3750000000000000       0.65625000000000000        0.0000000000000000     
   1.4062500000000000       0.65625000000000000        0.0000000000000000     
   1.4375000000000000       0.65625000000000000        0.0000000000000000     
   1.4687500000000000       0.65625000000000000        0.0000000000000000     
   1.5000000000000000       0.65625000000000000        0.0000000000000000     
   1.3750000000000000       0.68750000000000000        0.0000000000000000     
   1.4062500000000000       0.68750000000000000        0.0000000000000000     
   1.4375000000000000       0.68750000000000000        0.0000000000000000     
   1.4687500000000000       0.68750000000000000        0.0000000000000000     
   1.5000000000000000       0.68750000000000000        0.0000000000000000     
   1.3750000000000000       0.71875000000000000        0.0000000000000000     
   1.4062500000000000       0.71875000000000000        0.0000000000000000     
   1.4375000000000000       0.71875000000000000        0.0000000000000000     
   1.4687500000000000       0.71875000000000000        0.0000000000000000     
   1.5000000000000000       0.71875000000000000        0.0000000000000000     
   1.3750000000000000       0.75000000000000000        0.0000000000000000     
   1.4062500000000000       0.75000000000000000        0.0000000000000000     
   1.4375000000000000       0.75000000000000000        0.0000000000000000     
   1.4687500000000000       0.75000000000000000        0.0000000000000000     
   1.5000000000000000       0.75000000000000000        0.0000000000000000     
  0.50000000000000000       0.75000000000000000        0.0000000000000000     
  0.53125000000000000       0.75000000000000000        0.0000000000000000     
  0.56250000000000000       0.75000000000000000        0.0000000000000000     
  0.59375000000000000       0.75000000000000000        0.0000000000000000     
  0.62500000000000000       0.75000000000000000        0.0000000000000000     
  0.50000000000000000       0.78125000000000000        0.0000000000000000     
  0.53125000000000000       0.78125000000000000        0.0000000000000000     
  0.56250000000000000       0.78125000000000000        0.0000000000000000     
  0.59375000000000000       0.78125000000000000        0.0000000000000000     
  0.62500000000000000       0.78125000000000000        0.0000000000000000     
  0.50000000000000000       0.81250000000000000        0.0000000000000000     
  0.53125000000000000       0.81250000000000000        0.0000000000000000     
  0.56250000000000000       0.81250000000000000        0.0000000000000000     
  0.59375000000000000       0.81250000000000000        0.0000000000000000     
  0.62500000000000000       0.81250000000000000        0.0000000000000000     
  0.50000000000000000       0.84375000000000000        0.0000000000000000     
  0.53125000000000000       0.84375000000000000        0.0000000000000000     
  0.56250000000000000       0.84375000000000000        0.0000000000000000     
  0.59375000000000000       0.84375000000000000        0.0000000000000000     
  0.62500000000000000       0.84375000000000000        0.0000000000000000     
  0.50000000000000000       0.87500000000000000        0.0000000000000000     
  0.53125000000000000       0.87500000000000000        0.0000000000000000     
  0.56250000000000000       0.87500000000000000        0.0000000000000000     
  0.59375000000000000       0.87500000000000000        0.0000000000000000     
  0.62500000000000000       0.87500000000000000        0.0000000000000000     
  0.62500000000000000       0.75000000000000000        0.0000000000000000     
  0.65625000000000000       0.75000000000000000        0.0000000000000000     
  0.68750000000000000       0.75000000000000000        0.0000000000000000     
  0.71875000000000000       0.75000000000000000        0.0000000000000000     
  0.75000000000000000       0.75000000000000000        0.0000000000000000     
  0.62500000000000000       0.78125000000000000        0.0000000000000000     
  0.65625000000000000       0.78125000000000000        0.0000000000000000     
  0.68750000000000000       0.78125000000000000        0.0000000000000000     
  0.71875000000000000       0.78125000000000000        0.0000000000000000     
  0.75000000000000000       0.78125000000000000        0.0000000000000000     
  0.62500000000000000       0.81250000000000000        0.0000000000000000     
  0.65625000000000000       0.81250000000000000        0.0000000000000000     
  0.68750000000000000       0.81250000000000000        0.0000000000000000     
  0.71875000000000000       0.81250000000000000        0.0000000000000000     
  0.75000000000000000       0.81250000000000000        0.0000000000000000     
  0.62500000000000000       0.84375000000000000        0.0000000000000000     
  0.65625000000000000       0.84375000000000000        0.0000000000000000     
  0.68750000000000000       0.84375000000000000        0.0000000000000000     
  0.71875000000000000       0.84375000000000000        0.0000000000000000     
  0.75000000000000000       0.84375000000000000        0.0000000000000000     
  0.62500000000000000       0.87500000000000000        0.0000000000000000     
  0.65625000000000000       0.87500000000000000        0.0000000000000000     
  0.68750000000000000       0.87500000000000000        0.0000000000000000     
  0.71875000000000000       0.87500000000000000        0.0000000000000000     
  0.75000000000000000       0.87500000000000000        0.0000000000000000     
  0.75000000000000000       0.75000000000000000        0.0000000000000000     
  0.78125000000000000       0.75000000000000000        0.0000000000000000     
  0.81250000000000000       0.75000000000000000        0.0000000000000000     
  0.84375000000000000       0.75000000000000000        0.0000000000000000     
  0.87500000000000000       0.75000000000000000        0.0000000000000000     
  0.75000000000000000       0.78125000000000000        0.0000000000000000     
  0.78125000000000000       0.78125000000000000        0.0000000000000000     
  0.81250000000000000       0.78125000000000000        0.0000000000000000     
  0.84375000000000000       0.78125000000000000        0.0000000000000000     
  0.87500000000000000       0.78125000000000000        0.0000000000000000     
  0.75000000000000000       0.81250000000000000        0.0000000000000000     
  0.78125000000000000       0.81250000000000000        0.0000000000000000     
  0.81250000000000000       0.81250000000000000        0.0000000000000000     
  0.84375000000000000       0.81250000000000000        0.0000000000000000     
  0.87500000000000000       0.81250000000000000        0.0000000000000000     
  0.75000000000000000       0.84375000000000000        0.0000000000000000     
  0.78125000000000000       0.84375000000000000        0.0000000000000000     
  0.81250000000000000       0.84375000000000000        0.0000000000000000     
  0.84375000000000000       0.84375000000000000        0.0000000000000000     
  0.87500000000000000       0.84375000000000000        0.0000000000000000     
  0.75000000000000000       0.87500000000000000        0.0000000000000000     
  0.78125000000000000       0.87500000000000000        0.0000000000000000     
  0.81250000000000000       0.87500000000000000        0.0000000000000000     
  0.84375000000000000       0.87500000000000000        0.0000000000000000     
  0.87500000000000000       0.87500000000000000        0.0000000000000000     
  0.87500000000000000       0.75000000000000000        0.0000000000000000     
  0.90625000000000000       0.75000000000000000        0.0000000000000000     
  0.93750000000000000       0.75000000000000000        0.0000000000000000     
  0.96875000000000000       0.75000000000000000        0.0000000000000000     
   1.0000000000000000       0.75000000000000000        0.0000000000000000     
  0.87500000000000000       0.78125000000000000        0.0000000000000000     
  0.90625000000000000       0.78125000000000000        0.0000000000000000     
  0.93750000000000000       0.78125000000000000        0.0000000000000000     
  0.96875000000000000       0.78125000000000000        0.0000000000000000     
   1.0000000000000000       0.78125000000000000        0.0000000000000000     
  0.87500000000000000       0.81250000000000000        0.0000000000000000     
  0.90625000000000000       0.81250000000000000        0.0000000000000000     
  0.93750000000000000       0.81250000000000000        0.0000000000000000     
  0.96875000000000000       0.81250000000000000        0.0000000000000000     
   1.0000000000000000       0.81250000000000000        0.0000000000000000     
  0.87500000000000000       0.84375000000000000        0.0000000000000000     
  0.90625000000000000       0.84375000000000000        0.0000000000000000     
  0.93750000000000000       0.84375000000000000        0.0000000000000000     
  0.96875000000000000       0.84375000000000000        0.0000000000000000     
   1.0000000000000000       0.84375000000000000        0.0000000000000000     
  0.87500000000000000       0.87500000000000000        0.0000000000000000     
  0.90625000000000000       0.87500000000000000        0.0000000000000000     
  0.93750000000000000       0.87500000000000000        0.0000000000000000     
  0.96875000000000000       0.87500000000000000        0.0000000000000000     
   1.0000000000000000       0.87500000000000000        0.0000000000000000     
   1.0000000000000000       0.75000000000000000        0.0000000000000000     
   1.0312500000000000       0.75000000000000000        0.0000000000000000     
   1.0625000000000000       0.75000000000000000        0.0000000000000000     
   1.0937500000000000       0.75000000000000000        0.0000000000000000     
   1.1250000000000000       0.75000000000000000        0.0000000000000000     
   1.0000000000000000       0.78125000000000000        0.0000000000000000     
   1.0312500000000000       0.78125000000000000        0.0000000000000000     
   1.0625000000000000       0.78125000000000000        0.0000000000000000     
   1.0937500000000000       0.78125000000000000        0.0000000000000000     
   1.1250000000000000       0.78125000000000000        0.0000000000000000     
   1.0000000000000000       0.81250000000000000        0.0000000000000000     
   1.0312500000000000       0.81250000000000000        0.0000000000000000     
   1.0625000000000000       0.81250000000000000        0.0000000000000000     
   1.0937500000000000       0.81250000000000000        0.0000000000000000     
   1.1250000000000000       0.81250000000000000        0.0000000000000000     
   1.0000000000000000       0.84375000000000000        0.0000000000000000     
   1.0312500000000000       0.84375000000000000        0.0000000000000000     
   1.0625000000000000       0.84375000000000000        0.0000000000000000     
   1.0937500000000000       0.84375000000000000        0.0000000000000000     
   1.1250000000000000       0.84375000000000000        0.0000000000000000     
   1.0000000000000000       0.87500000000000000        0.0000000000000000     
   1.0312500000000000       0.87500000000000000        0.0000000000000000     
   1.0625000000000000       0.87500000000000000        0.0000000000000000     
   1.0937500000000000       0.87500000000000000        0.0000000000000000     
   1.1250000000000000       0.87500000000000000        0.0000000000000000     
   1.1250000000000000       0.75000000000000000        0.0000000000000000     
   1.1562500000000000       0.75000000000000000        0.0000000000000000     
   1.1875000000000000       0.75000000000000000        0.0000000000000000     
   1.2187500000000000       0.75000000000000000        0.0000000000000000     
   1.2500000000000000       0.75000000000000000        0.0000000000000000     
   1.1250000000000000       0.78125000000000000        0.0000000000000000     
   1.1562500000000000       0.78125000000000000        0.0000000000000000     
   1.1875000000000000       0.78125000000000000        0.0000000000000000     
   1.2187500000000000       0.78125000000000000        0.0000000000000000     
   1.2500000000000000       0.78125000000000000        0.0000000000000000     
   1.1250000000000000       0.81250000000000000        0.0000000000000000     
   1.1562500000000000       0.81250000000000000        0.0000000000000000     
   1.1875000000000000       0.81250000000000000        0.0000000000000000     
   1.2187500000000000       0.81250000000000000        0.0000000000000000     
   1.2500000000000000       0.81250000000000000        0.0000000000000000     
   1.1250000000000000       0.84375000000000000        0.0000000000000000     
   1.1562500000000000       0.84375000000000000        0.0000000000000000     
   1.1875000000000000       0.84375000000000000        0.0000000000000000     
   1.2187500000000000       0.84375000000000000        0.0000000000000000     
   1.2500000000000000       0.84375000000000000        0.0000000000000000     
   1.1250000000000000       0.87500000000000000        0.0000000000000000     
   1.1562500000000000       0.87500000000000000        0.0000000000000000     
   1.1875000000000000       0.87500000000000000        0.0000000000000000     
   1.2187500000000000       0.87500000000000000        0.0000000000000000     
   1.2500000000000000       0.87500000000000000        0.0000000000000000     
   1.2500000000000000       0.75000000000000000        0.0000000000000000     
   1.2812500000000000       0.75000000000000000        0.0000000000000000     
   1.3125000000000000       0.75000000000000000        0.0000000000000000     
   1.3437500000000000       0.75000000000000000        0.0000000000000000     
   1.3750000000000000       0.75000000000000000        0.0000000000000000     
   1.2500000000000000       0.78125000000000000        0.0000000000000000     
   1.2812500000000000       0.78125000000000000        0.0000000000000000     
   1.3125000000000000       0.78125000000000000        0.0000000000000000     
   1.3437500000000000       0.78125000000000000        0.0000000000000000     
   1.3750000000000000       0.78125000000000000        0.0000000000000000     
   1.2500000000000000       0.81250000000000000        0.0000000000000000     
   1.2812500000000000       0.81250000000000000        0.0000000000000000     
   1.3125000000000000       0.81250000000000000        0.0000000000000000     
   1.3437500000000000       0.81250000000000000        0.0000000000000000     
   1.3750000000000000       0.81250000000000000        0.0000000000000000     
   1.2500000000000000       0.84375000000000000        0.0000000000000000     
   1.2812500000000000       0.84375000000000000        0.0000000000000000     
   1.3125000000000000       0.84375000000000000        0.0000000000000000     
   1.3437500000000000       0.84375000000000000        0.0000000000000000     
   1.3750000000000000       0.84375000000000000        0.0000000000000000     
   1.2500000000000000       0.87500000000000000        0.0000000000000000     
   1.2812500000000000       0.87500000000000000        0.0000000000000000     
   1.3125000000000000       0.87500000000000000        0.0000000000000000     
   1.3437500000000000       0.87500000000000000        0.0000000000000000     
   1.3750000000000000       0.87500000000000000        0.0000000000000000     
   1.3750000000000000       0.75000000000000000        0.0000000000000000     
   1.4062500000000000       0.75000000000000000        0.0000000000000000     
   1.4375000000000000       0.75000000000000000        0.0000000000000000     
   1.4687500000000000       0.75000000000000000        0.0000000000000000     
   1.5000000000000000       0.75000000000000000        0.0000000000000000     
   1.3750000000000000       0.78125000000000000        0.0000000000000000     
   1.4062500000000000       0.78125000000000000        0.0000000000000000     
   1.4375000000000000       0.78125000000000000        0.0000000000000000     
   1.4687500000000000       0.78125000000000000        0.0000000000000000     
   1.5000000000000000       0.78125000000000000        0.0000000000000000     
   1.3750000000000000       0.81250000000000000        0.0000000000000000     
   1.4062500000000000       0.81250000000000000        0.0000000000000000     
   1.4375000000000000       0.81250000000000000        0.0000000000000000     
   1.4687500000000000       0.81250000000000000        0.0000000000000000     
   1.5000000000000000       0.81250000000000000        0.0000000000000000     
   1.3750000000000000       0.84375000000000000        0.0000000000000000     
   1.4062500000000000       0.84375000000000000        0.0000000000000000     
   1.4375000000000000       0.84375000000000000        0.0000000000000000     
   1.4687500000000000       0.84375000000000000        0.0000000000000000     
   1.5000000000000000       0.84375000000000000        0.0000000000000000     
   1.3750000000000000       0.87500000000000000        0.0000000000000000     
   1.4062500000000000       0.87500000000000000        0.0000000000000000     
   1.4375000000000000       0.87500000000000000        0.0000000000000000     
   1.4687500000000000       0.87500000000000000        0.0000000000000000     
   1.5000000000000000       0.87500000000000000        0.0000000000000000     
  0.50000000000000000       0.87500000000000000        0.0000000000000000     
  0.53125000000000000       0.87500000000000000        0.0000000000000000     
  0.56250000000000000       0.87500000000000000        0.0000000000000000     
  0.59375000000000000       0.87500000000000000        0.0000000000000000     
  0.62500000000000000       0.87500000000000000        0.0000000000000000     
  0.50000000000000000       0.90625000000000000        0.0000000000000000     
  0.53125000000000000       0.90625000000000000        0.0000000000000000     
  0.56250000000000000       0.90625000000000000        0.0000000000000000     
  0.59375000000000000       0.90625000000000000        0.0000000000000000     
  0.62500000000000000       0.90625000000000000        0.0000000000000000     
  0.50000000000000000       0.93750000000000000        0.0000000000000000     
  0.53125000000000000       0.93750000000000000        0.0000000000000000     
  0.56250000000000000       0.93750000000000000        0.0000000000000000     
  0.59375000000000000       0.93750000000000000        0.0000000000000000     
  0.62500000000000000       0.93750000000000000        0.0000000000000000     
  0.50000000000000000       0.96875000000000000        0.0000000000000000     
  0.53125000000000000       0.96875000000000000        0.0000000000000000     
  0.56250000000000000       0.96875000000000000        0.0000000000000000     
  0.59375000000000000       0.96875000000000000        0.0000000000000000     
  0.62500000000000000       0.96875000000000000        0.0000000000000000     
  0.50000000000000000        1.0000000000000000        0.0000000000000000     
  0.53125000000000000        1.0000000000000000        0.0000000000000000     
  0.56250000000000000        1.0000000000000000        0.0000000000000000     
  0.59375000000000000        1.0000000000000000        0.0000000000000000     
  0.62500000000000000        1.0000000000000000        0.0000000000000000     
  0.62500000000000000       0.87500000000000000        0.0000000000000000     
  0.65625000000000000       0.87500000000000000        0.0000000000000000     
  0.68750000000000000       0.87500000000000000        0.0000000000000000     
  0.71875000000000000       0.87500000000000000        0.0000000000000000     
  0.75000000000000000       0.87500000000000000        0.0000000000000000     
  0.62500000000000000       0.90625000000000000        0.0000000000000000     
  0.65625000000000000       0.90625000000000000        0.0000000000000000     
  0.68750000000000000       0.90625000000000000        0.0000000000000000     
  0.71875000000000000       0.90625000000000000        0.0000000000000000     
  0.75000000000000000       0.90625000000000000        0.0000000000000000     
  0.62500000000000000       0.93750000000000000        0.0000000000000000     
  0.65625000000000000       0.93750000000000000        0.0000000000000000     
  0.68750000000000000       0.93750000000000000        0.0000000000000000     
  0.71875000000000000       0.93750000000000000        0.0000000000000000     
  0.75000000000000000       0.93750000000000000        0.0000000000000000     
  0.62500000000000000       0.96875000000000000        0.0000000000000000     
  0.65625000000000000       0.96875000000000000        0.0000000000000000     
  0.68750000000000000       0.96875000000000000        0.0000000000000000     
  0.71875000000000000       0.96875000000000000        0.0000000000000000     
  0.75000000000000000       0.96875000000000000        0.0000000000000000     
  0.62500000000000000        1.0000000000000000        0.0000000000000000     
  0.65625000000000000        1.0000000000000000        0.0000000000000000     
  0.68750000000000000        1.0000000000000000        0.0000000000000000     
  0.71875000000000000        1.0000000000000000        0.0000000000000000     
  0.75000000000000000        1.0000000000000000        0.0000000000000000     
  0.75000000000000000       0.87500000000000000        0.0000000000000000     
  0.78125000000000000       0.87500000000000000        0.0000000000000000     
  0.81250000000000000       0.87500000000000000        0.0000000000000000     
  0.84375000000000000       0.87500000000000000        0.0000000000000000     
  0.87500000000000000       0.87500000000000000        0.0000000000000000     
  0.75000000000000000       0.90625000000000000        0.0000000000000000     
  0.78125000000000000       0.90625000000000000        0.0000000000000000     
  0.81250000000000000       0.90625000000000000        0.0000000000000000     
  0.84375000000000000       0.90625000000000000        0.0000000000000000     
  0.87500000000000000       0.90625000000000000        0.0000000000000000     
  0.75000000000000000       0.93750000000000000        0.0000000000000000     
  0.78125000000000000       0.93750000000000000        0.0000000000000000     
  0.81250000000000000       0.93750000000000000        0.0000000000000000     
  0.84375000000000000       0.93750000000000000        0.0000000000000000     
  0.87500000000000000       0.93750000000000000        0.0000000000000000     
  0.75000000000000000       0.96875000000000000        0.0000000000000000     
  0.78125000000000000       0.96875000000000000        0.0000000000000000     
  0.81250000000000000       0.96875000000000000        0.0000000000000000     
  0.84375000000000000       0.96875000000000000        0.0000000000000000     
  0.87500000000000000       0.96875000000000000        0.0000000000000000     
  0.75000000000000000        1.0000000000000000        0.0000000000000000     
  0.78125000000000000        1.0000000000000000        0.0000000000000000     
  0.81250000000000000        1.0000000000000000        0.0000000000000000     
  0.84375000000000000        1.0000000000000000        0.0000000000000000     
  0.87500000000000000        1.0000000000000000        0.0000000000000000     
  0.87500000000000000       0.87500000000000000        0.0000000000000000     
  0.90625000000000000       0.87500000000000000        0.0000000000000000     
  0.93750000000000000       0.87500000000000000        0.0000000000000000     
  0.96875000000000000       0.87500000000000000        0.0000000000000000     
   1.0000000000000000       0.87500000000000000        0.0000000000000000     
  0.87500000000000000       0.90625000000000000        0.0000000000000000     
  0.90625000000000000       0.90625000000000000        0.0000000000000000     
  0.93750000000000000       0.90625000000000000        0.0000000000000000     
  0.96875000000000000       0.90625000000000000        0.0000000000000000     
   1.0000000000000000       0.90625000000000000        0.0000000000000000     
  0.87500000000000000       0.93750000000000000        0.0000000000000000     
  0.90625000000000000       0.93750000000000000        0.0000000000000000     
  0.93750000000000000       0.93750000000000000        0.0000000000000000     
  0.96875000000000000       0.93750000000000000        0.0000000000000000     
   1.0000000000000000       0.93750000000000000        0.0000000000000000     
  0.87500000000000000       0.96875000000000000        0.0000000000000000     
  0.90625000000000000       0.96875000000000000        0.0000000000000000     
  0.93750000000000000       0.96875000000000000        0.0000000000000000     
  0.96875000000000000       0.96875000000000000        0.0000000000000000     
   1.0000000000000000       0.96875000000000000        0.0000000000000000     
  0.87500000000000000        1.0000000000000000        0.0000000000000000     
  0.90625000000000000        1.0000000000000000        0.0000000000000000     
  0.93750000000000000        1.0000000000000000        0.0000000000000000     
  0.96875000000000000        1.0000000000000000        0.0000000000000000     
   1.0000000000000000        1.0000000000000000        0.0000000000000000     
   1.0000000000000000       0.87500000000000000        0.0000000000000000     
   1.0312500000000000       0.87500000000000000        0.0000000000000000     
   1.0625000000000000       0.87500000000000000        0.0000000000000000     
   1.0937500000000000       0.87500000000000000        0.0000000000000000     
   1.1250000000000000       0.87500000000000000        0.0000000000000000     
   1.0000000000000000       0.90625000000000000        0.0000000000000000     
   1.0312500000000000       0.90625000000000000        0.0000000000000000     
   1.0625000000000000       0.90625000000000000        0.0000000000000000     
   1.0937500000000000       0.90625000000000000        0.0000000000000000     
   1.1250000000000000       0.90625000000000000        0.0000000000000000     
   1.0000000000000000       0.93750000000000000        0.0000000000000000     
   1.0312500000000000       0.93750000000000000        0.0000000000000000     
   1.0625000000000000       0.93750000000000000        0.0000000000000000     
   1.0937500000000000       0.93750000000000000        0.0000000000000000     
   1.1250000000000000       0.93750000000000000        0.0000000000000000     
   1.0000000000000000       0.96875000000000000        0.0000000000000000     
   1.0312500000000000       0.96875000000000000        0.0000000000000000     
   1.0625000000000000       0.96875000000000000        0.0000000000000000     
   1.0937500000000000       0.96875000000000000        0.0000000000000000     
   1.1250000000000000       0.96875000000000000        0.0000000000000000     
   1.0000000000000000        1.0000000000000000        0.0000000000000000     
   1.0312500000000000        1.0000000000000000        0.0000000000000000     
   1.0625000000000000        1.0000000000000000        0.0000000000000000     
   1.0937500000000000        1.0000000000000000        0.0000000000000000     
   1.1250000000000000        1.0000000000000000        0.0000000000000000     
   1.1250000000000000       0.87500000000000000        0.0000000000000000     
   1.1562500000000000       0.87500000000000000        0.0000000000000000     
   1.1875000000000000       0.87500000000000000        0.0000000000000000     
   1.2187500000000000       0.87500000000000000        0.0000000000000000     
   1.2500000000000000       0.87500000000000000        0.0000000000000000     
   1.1250000000000000       0.90625000000000000        0.0000000000000000     
   1.1562500000000000       0.90625000000000000        0.0000000000000000     
   1.1875000000000000       0.90625000000000000        0.0000000000000000     
   1.2187500000000000       0.90625000000000000        0.0000000000000000     
   1.2500000000000000       0.90625000000000000        0.0000000000000000     
   1.1250000000000000       0.93750000000000000        0.0000000000000000     
   1.1562500000000000       0.93750000000000000        0.0000000000000000     
   1.1875000000000000       0.93750000000000000        0.0000000000000000     
   1.2187500000000000       0.93750000000000000        0.0000000000000000     
   1.2500000000000000       0.93750000000000000        0.0000000000000000     
   1.1250000000000000       0.96875000000000000        0.0000000000000000     
   1.1562500000000000       0.96875000000000000        0.0000000000000000     
   1.1875000000000000       0.96875000000000000        0.0000000000000000     
   1.2187500000000000       0.96875000000000000        0.0000000000000000     
   1.2500000000000000       0.96875000000000000        0.0000000000000000     
   1.1250000000000000        1.0000000000000000        0.0000000000000000     
   1.1562500000000000        1.0000000000000000        0.0000000000000000     
   1.1875000000000000        1.0000000000000000        0.0000000000000000     
   1.2187500000000000        1.0000000000000000        0.0000000000000000     
   1.2500000000000000        1.0000000000000000        0.0000000000000000     
   1.2500000000000000       0.87500000000000000        0.0000000000000000     
   1.2812500000000000       0.87500000000000000        0.0000000000000000     
   1.3125000000000000       0.87500000000000000        0.0000000000000000     
   1.3437500000000000       0.87500000000000000        0.0000000000000000     
   1.3750000000000000       0.87500000000000000        0.0000000000000000     
   1.2500000000000000       0.90625000000000000        0.0000000000000000     
   1.2812500000000000       0.90625000000000000        0.0000000000000000     
   1.3125000000000000       0.90625000000000000        0.0000000000000000     
   1.3437500000000000       0.90625000000000000        0.0000000000000000     
   1.3750000000000000       0.90625000000000000        0.0000000000000000     
   1.2500000000000000       0.93750000000000000        0.0000000000000000     
   1.2812500000000000       0.93750000000000000        0.0000000000000000     
   1.3125000000000000       0.93750000000000000        0.0000000000000000     
   1.3437500000000000       0.93750000000000000        0.0000000000000000     
   1.3750000000000000       0.93750000000000000        0.0000000000000000     
   1.2500000000000000       0.96875000000000000        0.0000000000000000     
   1.2812500000000000       0.96875000000000000        0.0000000000000000     
   1.3125000000000000       0.96875000000000000        0.0000000000000000     
   1.3437500000000000       0.96875000000000000        0.0000000000000000     
   1.3750000000000000       0.96875000000000000        0.0000000000000000     
   1.2500000000000000        1.0000000000000000        0.0000000000000000     
   1.2812500000000000        1.0000000000000000        0.0000000000000000     
   1.3125000000000000        1.0000000000000000        0.0000000000000000     
   1.3437500000000000        1.0000000000000000        0.0000000000000000     
   1.3750000000000000        1.0000000000000000        0.0000000000000000     
   1.3750000000000000       0.87500000000000000        0.0000000000000000     
   1.4062500000000000       0.87500000000000000        0.0000000000000000     
   1.4375000000000000       0.87500000000000000        0.0000000000000000     
   1.4687500000000000       0.87500000000000000        0.0000000000000000     
   1.5000000000000000       0.87500000000000000        0.0000000000000000     
   1.3750000000000000       0.90625000000000000        0.0000000000000000     
   1.4062500000000000       0.90625000000000000        0.0000000000000000     
   1.4375000000000000       0.90625000000000000        0.0000000000000000     
   1.4687500000000000       0.90625000000000000        0.0000000000000000     
   1.5000000000000000       0.90625000000000000        0.0000000000000000     
   1.3750000000000000       0.93750000000000000        0.0000000000000000     
   1.4062500000000000       0.93750000000000000        0.0000000000000000     
   1.4375000000000000       0.93750000000000000        0.0000000000000000     
   1.4687500000000000       0.93750000000000000        0.0000000000000000     
   1.5000000000000000       0.93750000000000000        0.0000000000000000     
   1.3750000000000000       0.96875000000000000        0.0000000000000000     
   1.4062500000000000       0.96875000000000000        0.0000000000000000     
   1.4375000000000000       0.96875000000000000        0.0000000000000000     
   1.4687500000000000       0.96875000000000000        0.0000000000000000     
   1.5000000000000000       0.96875000000000000        0.0000000000000000     
   1.3750000000000000        1.0000000000000000        0.0000000000000000     
   1.4062500000000000        1.0000000000000000        0.0000000000000000     
   1.4375000000000000        1.0000000000000000        0.0000000000000000     
   1.4687500000000000        1.0000000000000000        0.0000000000000000     
   1.5000000000000000        1.0000000000000000        0.0000000000000000     
 </DataArray>
 </Points>
 <Cells>
 <DataArray  type="Int32"  Name="connectivity"  format="ascii">
           0           1           6           5
           1           2           7           6
           2           3           8           7
           3           4           9           8
           5           6          11          10
           6           7          12          11
           7           8          13          12
           8           9          14          13
          10          11          16          15
          11          12          17          16
          12          13          18          17
          13          14          19          18
          15          16          21          20
          16          17          22          21
          17          18          23          22
          18          19          24          23
          25          26          31          30
          26          27          32          31
          27          28          33          32
          28          29          34          33
          30          31          36          35
          31          32          37          36
          32          33          38          37
          33          34          39          38
          35          36          41          40
          36          37          42          41
          37          38          43          42
          38          39          44          43
          40          41          46          45
          41          42          47          46
          42          43          48          47
          43          44          49          48
          50          51          56          55
          51          52          57          56
          52          53          58          57
          53          54          59          58
          55          56          61          60
          56          57          62          61
          57          58          63          62
          58          59          64          63
          60          61          66          65
          61          62          67          66
          62          63          68          67
          63          64          69          68
          65          66          71          70
          66          67          72          71
          67          68          73          72
          68          69          74          73
          75          76          81          80
          76          77          82          81
          77          78          83          82
          78          79          84          83
          80          81          86          85
          81          82          87          86
          82          83          88          87
          83          84          89          88
          85          86          91          90
          86          87          92          91
          87          88          93          92
          88          89          94          93
          90          91          96          95
          91          92          97          96
          92          93          98          97
          93          94          99          98
         100         101         106         105
         101         102         107         106
         102         103         108         107
         103         104         109         108
         105         106         111         110
         106         107         112         111
         107         108         113         112
         108         109         114         113
         110         111         116         115
         111         112         117         116
         112         113         118         117
         113         114         119         118
         115         116         121         120
         116         117         122         121
         117         118         123         122
         118         119         124         123
         125         126         131         130
         126         127         132         131
         127         128         133         132
         128         129         134         133
         130         131         136         135
         131         132         137         136
         132         133         138         137
         133         134         139         138
         135         136         141         140
         136         137         142         141
         137         138         143         142
         138         139         144         143
         140         141         146         145
         141         142         147         146
         142         143         148         147
         143         144         149         148
         150         151         156         155
         151         152         157         156
         152         153         158         157
         153         154         159         158
         155         156         161         160
         156         157         162         161
         157         158         163         162
         158         159         164         163
         160         161         166         165
         161         162         167         166
         162         163         168         167
         163         164         169         168
         165         166         171         170
         166         167         172         171
         167         168         173         172
         168         169         174         173
         175         176         181         180
         176         177         182         181
         177         178         183         182
         178         179         184         183
         180         181         186         185
         181         182         187         186
         182         183         188         187
         183         184         189         188
         185         186         191         190
         186         187         192         191
         187         188         193         192
         188         189         194         193
         190         191         196         195
         191         192         197         196
         192         193         198         197
         193         194         199         198
         200         201         206         205
         201         202         207         206
         202         203         208         207
         203         204         209         208
         205         206         211         210
         206         207         212         211
         207         208         213         212
         208         209         214         213
         210         211         216         215
         211         212         217         216
         212         213         218         217
         213         214         219         218
         215         216         221         220
         216         217         222         221
         217         218         223         222
         218         219         224         223
         225         226         231         230
         226         227         232         231
         227         228         233         232
         228         229         234         233
         230         231         236         235
         231         232         237         236
         232         233         238         237
         233         234         239         238
         235         236         241         240
         236         237         242         241
         237         238         243         242
         238         239         244         243
         240         241         246         245
         241         242         247         246
         242         243         248         247
         243         244         249         248
         250         251         256         255
         251         252         257         256
         252         253         258         257
         253         254         259         258
         255         256         261         260
         256         257         262         261
         257         258         263         262
         258         259         264         263
         260         261         266         265
         261         262         267         266
         262         263         268         267
         263         264         269         268
         265         266         271         270
         266         267         272         271
         267         268         273         272
         268         269         274         273
         275         276         281         280
         276         277         282         281
         277         278         283         282
         278         279         284         283
         280         281         286         285
         281         282         287         286
         282         283         288         287
         283         284         289         288
         285         286         291         290
         286         287         292         291
         287         288         293         292
         288         289         294         293
         290         291         296         295
         291         292         297         296
         292         293         298         297
         293         294         299         298
         300         301         306         305
         301         302         307         306
         302         303         308         307
         303         304         309         308
         305         306         311         310
         306         307         312         311
         307         308         313         312
         308         309         314         313
         310         311         316         315
         311         312         317         316
         312         313         318         317
         313         314         319         318
         315         316         321         320
         316         317         322         321
         317         318         323         322
         318         319         324         323
         325         326         331         330
         326         327         332         331
         327         328         333         332
         328         329         334         333
         330         331         336         335
         331         332         337         336
         332         333         338         337
         333         334         339         338
         335         336         341         340
         336         337         342         341
         337         338         343         342
         338         339         344         343
         340         341         346         345
         341         342         347         346
         342         343         348         347
         343         344         349         348
         350         351         356         355
         351         352         357         356
         352         353         358         357
         353         354         359         358
         355         356         361         360
         356         357         362         361
         357         358         363         362
         358         359         364         363
         360         361         366         365
         361         362         367         366
         362         363         368         367
         363         364         369         368
         365         366         371         370
         366         367         372         371
         367         368         373         372
         368         369         374         373
         375         376         381         380
         376         377         382         381
         377         378         383         382
         378         379         384         383
         380         381         386         385
         381         382         387         386
         382         383         388         387
         383         384         389         388
         385         386         391         390
         386         387         392         391
         387         388         393         392
         388         389         394         393
         390         391         396         395
         391         392         397         396
         392         393         398         397
         393         394         399         398
         400         401         406         405
         401         402         407         406
         402         403         408         407
         403         404         409         408
         405         406         411         410
         406         407         412         411
         407         408         413         412
         408         409         414         413
         410         411         416         415
         411         412         417         416
         412         413         418         417
         413         414         419         418
         415         416         421         420
         416         417         422         421
         417         418         423         422
         418         419         424         423
         425         426         431         430
         426         427         432         431
         427         428         433         432
         428         429         434         433
         430         431         436         435
         431         432         437         436
         432         433         438         437
         433         434         439         438
         435         436         441         440
         436         437         442         441
         437         438         443         442
         438         439         444         443
         440         441         446         445
         441         442         447         446
         442         443         448         447
         443         444         449         448
         450         451         456         455
         451         452         457         456
         452         453         458         457
         453         454         459         458
         455         456         461         460
         456         457         462         461
         457         458         463         462
         458         459         464         463
         460         461         466         465
         461         462         467         466
         462         463         468         467
         463         464         469         468
         465         466         471         470
         466         467         472         471
         467         468         473         472
         468         469         474         473
         475         476         481         480
         476         477         482         481
         477         478         483         482
         478         479         484         483
         480         481         486         485
         481         482         487         486
         482         483         488         487
         483         484         489         488
         485         486         491         490
         486         487         492         491
         487         488         493         492
         488         489         494         493
         490         491         496         495
         491         492         497         496
         492         493         498         497
         493         494         499         498
         500         501         506         505
         501         502         507         506
         502         503         508         507
         503         504         509         508
         505         506         511         510
         506         507         512         511
         507         508         513         512
         508         509         514         513
         510         511         516         515
         511         512         517         516
         512         513         518         517
         513         514         519         518
         515         516         521         520
         516         517         522         521
         517         518         523         522
         518         519         524         523
         525         526         531         530
         526         527         532         531
         527         528         533         532
         528         529         534         533
         530         531         536         535
         531         532         537         536
         532         533         538         537
         533         534         539         538
         535         536         541         540
         536         537         542         541
         537         538         543         542
         538         539         544         543
         540         541         546         545
         541         542         547         546
         542         543         548         547
         543         544         549         548
         550         551         556         555
         551         552         557         556
         552         553         558         557
         553         554         559         558
         555         556         561         560
         556         557         562         561
         557         558         563         562
         558         559         564         563
         560         561         566         565
         561         562         567         566
         562         563         568         567
         563         564         569         568
         565         566         571         570
         566         567         572         571
         567         568         573         572
         568         569         574         573
         575         576         581         580
         576         577         582         581
         577         578         583         582
         578         579         584         583
         580         581         586         585
         581         582         587         586
         582         583         588         587
         583         584         589         588
         585         586         591         590
         586         587         592         591
         587         588         593         592
         588         589         594         593
         590         591         596         595
         591         592         597         596
         592         593         598         597
         593         594         599         598
         600         601         606         605
         601         602         607         606
         602         603         608         607
         603         604         609         608
         605         606         611         610
         606         607         612         611
         607         608         613         612
         608         609         614         613
         610         611         616         615
         611         612         617         616
         612         613         618         617
         613         614         619         618
         615         616         621         620
         616         617         622         621
         617         618         623         622
         618         619         624         623
         625         626         631         630
         626         627         632         631
         627         628         633         632
         628         629         634         633
         630         631         636         635
         631         632         637         636
         632         633         638         637
         633         634         639         638
         635         636         641         640
         636         637         642         641
         637         638         643         642
         638         639         644         643
         640         641         646         645
         641         642         647         646
         642         643         648         647
         643         644         649         648
         650         651         656         655
         651         652         657         656
         652         653         658         657
         653         654         659         658
         655         656         661         660
         656         657         662         661
         657         658         663         662
         658         659         664         663
         660         661         666         665
         661         662         667         666
         662         663         668         667
         663         664         669         668
         665         666         671         670
         666         667         672         671
         667         668         673         672
         668         669         674         673
         675         676         681         680
         676         677         682         681
         677         678         683         682
         678         679         684         683
         680         681         686         685
         681         682         687         686
         682         683         688         687
         683         684         689         688
         685         686         691         690
         686         687         692         691
         687         688         693         692
         688         689         694         693
         690         691         696         695
         691         692         697         696
         692         693         698         697
         693         694         699         698
         700         701         706         705
         701         702         707         706
         702         703         708         707
         703         704         709         708
         705         706         711         710
         706         707         712         711
         707         708         713         712
         708         709         714         713
         710         711         716         715
         711         712         717         716
         712         713         718         717
         713         714         719         718
         715         716         721         720
         716         717         722         721
         717         718         723         722
         718         719         724         723
         725         726         731         730
         726         727         732         731
         727         728         733         732
         728         729         734         733
         730         731         736         735
         731         732         737         736
         732         733         738         737
         733         734         739         738
         735         736         741         740
         736         737         742         741
         737         738         743         742
         738         739         744         743
         740         741         746         745
         741         742         747         746
         742         743         748         747
         743         744         749         748
         750         751         756         755
         751         752         757         756
         752         753         758         757
         753         754         759         758
         755         756         761         760
         756         757         762         761
         757         758         763         762
         758         759         764         763
         760         761         766         765
         761         762         767         766
         762         763         768         767
         763         764         769         768
         765         766         771         770
         766         767         772         771
         767         768         773         772
         768         769         774         773
         775         776         781         780
         776         777         782         781
         777         778         783         782
         778         779         784         783
         780         781         786         785
         781         782         787         786
         782         783         788         787
         783         784         789         788
         785         786         791         790
         786         787         792         791
         787         788         793         792
         788         789         794         793
         790         791         796         795
         791         792         797         796
         792         793         798         797
         793         794         799         798
         800         801         806         805
         801         802         807         806
         802         803         808         807
         803         804         809         808
         805         806         811         810
         806         807         812         811
         807         808         813         812
         808         809         814         813
         810         811         816         815
         811         812         817         816
         812         813         818         817
         813         814         819         818
         815         816         821         820
         816         817         822         821
         817         818         823         822
         818         819         824         823
         825         826         831         830
         826         827         832         831
         827         828         833         832
         828         829         834         833
         830         831         836         835
         831         832         837         836
         832         833         838         837
         833         834         839         838
         835         836         841         840
         836         837         842         841
         837         838         843         842
         838         839         844         843
         840         841         846         845
         841         842         847         846
         842         843         848         847
         843         844         849         848
         850         851         856         855
         851         852         857         856
         852         853         858         857
         853         854         859         858
         855         856         861         860
         856         857         862         861
         857         858         863         862
         858         859         864         863
         860         861         866         865
         861         862         867         866
         862         863         868         867
         863         864         869         868
         865         866         871         870
         866         867         872         871
         867         868         873         872
         868         869         874         873
         875         876         881         880
         876         877         882         881
         877         878         883         882
         878         879         884         883
         880         881         886         885
         881         882         887         886
         882         883         888         887
         883         884         889         888
         885         886         891         890
         886         887         892         891
         887         888         893         892
         888         889         894         893
         890         891         896         895
         891         892         897         896
         892         893         898         897
         893         894         899         898
         900         901         906         905
         901         902         907         906
         902         903         908         907
         903         904         909         908
         905         906         911         910
         906         907         912         911
         907         908         913         912
         908         909         914         913
         910         911         916         915
         911         912         917         916
         912         913         918         917
         913         914         919         918
         915         916         921         920
         916         917         922         921
         917         918         923         922
         918         919         924         923
         925         926         931         930
         926         927         932         931
         927         928         933         932
         928         929         934         933
         930         931         936         935
         931         932         937         936
         932         933         938         937
         933         934         939         938
         935         936         941         940
         936         937         942         941
         937         938         943         942
         938         939         944         943
         940         941         946         945
         941         942         947         946
         942         943         948         947
         943         944         949         948
         950         951         956         955
         951         952         957         956
         952         953         958         957
         953         954         959         958
         955         956         961         960
         956         957         962         961
         957         958         963         962
         958         959         964         963
         960         961         966         965
         961         962         967         966
         962         963         968         967
         963         964         969         968
         965         966         971         970
         966         967         972         971
         967         968         973         972
         968         969         974         973
         975         976         981         980
         976         977         982         981
         977         978         983         982
         978         979         984         983
         980         981         986         985
         981         982         987         986
         982         983         988         987
         983         984         989         988
         985         986         991         990
         986         987         992         991
         987         988         993         992
         988         989         994         993
         990         991         996         995
         991         992         997         996
         992         993         998         997
         993         994         999         998
        1000        1001        1006        1005
        1001        1002        1007        1006
        1002        1003        1008        1007
        1003        1004        1009        1008
        1005        1006        1011        1010
        1006        1007        1012        1011
        1007        1008        1013        1012
        1008        1009        1014        1013
        1010        1011        1016        1015
        1011        1012        1017        1016
        1012        1013        1018        1017
        1013        1014        1019        1018
        1015        1016        1021        1020
        1016        1017        1022        1021
        1017        1018        1023        1022
        1018        1019        1024        1023
        1025        1026        1031        1030
        1026        1027        1032        1031
        1027        1028        1033        1032
        1028        1029        1034        1033
        1030        1031        1036        1035
        1031        1032        1037        1036
        1032        1033        1038        1037
        1033        1034        1039        1038
        1035        1036        1041        1040
        1036        1037        1042        1041
        1037        1038        1043        1042
        1038        1039        1044        1043
        1040        1041        1046        1045
        1041        1042        1047        1046
        1042        1043        1048        1047
        1043        1044        1049        1048
        1050        1051        1056        1055
        1051        1052        1057        1056
        1052        1053        1058        1057
        1053        1054        1059        1058
        1055        1056        1061        1060
        1056        1057        1062        1061
        1057        1058        1063        1062
        1058        1059        1064        1063
        1060        1061        1066        1065
        1061        1062        1067        1066
        1062        1063        1068        1067
        1063        1064        1069        1068
        1065        1066        1071        1070
        1066        1067        1072        1071
        1067        1068        1073        1072
        1068        1069        1074        1073
        1075        1076        1081        1080
        1076        1077        1082        1081
        1077        1078        1083        1082
        1078        1079        1084        1083
        1080        1081        1086        1085
        1081        1082        1087        1086
        1082        1083        1088        1087
        1083        1084        1089        1088
        1085        1086        1091        1090
        1086        1087        1092        1091
        1087        1088        1093        1092
        1088        1089        1094        1093
        1090        1091        1096        1095
        1091        1092        1097        1096
        1092        1093        1098        1097
        1093        1094        1099        1098
        1100        1101        1106        1105
        1101        1102        1107        1106
        1102        1103        1108        1107
        1103        1104        1109        1108
        1105        1106        1111        1110
        1106        1107        1112        1111
        1107        1108        1113        1112
        1108        1109        1114        1113
        1110        1111        1116        1115
        1111        1112        1117        1116
        1112        1113        1118        1117
        1113        1114        1119        1118
        1115        1116        1121        1120
        1116        1117        1122        1121
        1117        1118        1123        1122
        1118        1119        1124        1123
        1125        1126        1131        1130
        1126        1127        1132        1131
        1127        1128        1133        1132
        1128        1129        1134        1133
        1130        1131        1136        1135
        1131        1132        1137        1136
        1132        1133        1138        1137
        1133        1134        1139        1138
        1135        1136        1141        1140
        1136        1137        1142        1141
        1137        1138        1143        1142
        1138        1139        1144        1143
        1140        1141        1146        1145
        1141        1142        1147        1146
        1142        1143        1148        1147
        1143        1144        1149        1148
        1150        1151        1156        1155
        1151        1152        1157        1156
        1152        1153        1158        1157
        1153        1154        1159        1158
        1155        1156        1161        1160
        1156        1157        1162        1161
        1157        1158        1163        1162
        1158        1159        1164        1163
        1160        1161        1166        1165
        1161        1162        1167        1166
        1162        1163        1168        1167
        1163        1164        1169        1168
        1165        1166        1171        1170
        1166        1167        1172        1171
        1167        1168        1173        1172
        1168        1169        1174        1173
        1175        1176        1181        1180
        1176        1177        1182        1181
        1177        1178        1183        1182
        1178        1179        1184        1183
        1180        1181        1186        1185
        1181        1182        1187        1186
        1182        1183        1188        1187
        1183        1184        1189        1188
        1185        1186        1191        1190
        1186        1187        1192        1191
        1187        1188        1193        1192
        1188        1189        1194        1193
        1190        1191        1196        1195
        1191        1192        1197        1196
        1192        1193        1198        1197
        1193        1194        1199        1198
        1200        1201        1206        1205
        1201        1202        1207        1206
        1202        1203        1208        1207
        1203        1204        1209        1208
        1205        1206        1211        1210
        1206        1207        1212        1211
        1207        1208        1213        1212
        1208        1209        1214        1213
        1210        1211        1216        1215
        1211        1212        1217        1216
        1212        1213        1218        1217
        1213        1214        1219        1218
        1215        1216        1221        1220
        1216        1217        1222        1221
        1217        1218        1223        1222
        1218        1219        1224        1223
        1225        1226        1231        1230
        1226        1227        1232        1231
        1227        1228        1233        1232
        1228        1229        1234        1233
        1230        1231        1236        1235
        1231        1232        1237        1236
        1232        1233        1238        1237
        1233        1234        1239        1238
        1235        1236        1241        1240
        1236        1237        1242        1241
        1237        1238        1243        1242
        1238        1239        1244        1243
        1240        1241        1246        1245
        1241        1242        1247        1246
        1242        1243        1248        1247
        1243        1244        1249        1248
        1250        1251        1256        1255
        1251        1252        1257        1256
        1252        1253        1258        1257
        1253        1254        1259        1258
        1255        1256        1261        1260
        1256        1257        1262        1261
        1257        1258        1263        1262
        1258        1259        1264        1263
        1260        1261        1266        1265
        1261        1262        1267        1266
        1262        1263        1268        1267
        1263        1264        1269        1268
        1265        1266        1271        1270
        1266        1267        1272        1271
        1267        1268        1273        1272
        1268        1269        1274        1273
        1275        1276        1281        1280
        1276        1277        1282        1281
        1277        1278        1283        1282
        1278        1279        1284        1283
        1280        1281        1286        1285
        1281        1282        1287        1286
        1282        1283        1288        1287
        1283        1284        1289        1288
        1285        1286        1291        1290
        1286        1287        1292        1291
        1287        1288        1293        1292
        1288        1289        1294        1293
        1290        1291        1296        1295
        1291        1292        1297        1296
        1292        1293        1298        1297
        1293        1294        1299        1298
        1300        1301        1306        1305
        1301        1302        1307        1306
        1302        1303        1308        1307
        1303        1304        1309        1308
        1305        1306        1311        1310
        1306        1307        1312        1311
        1307        1308        1313        1312
        1308        1309        1314        1313
        1310        1311        1316        1315
        1311        1312        1317        1316
        1312        1313        1318        1317
        1313        1314        1319        1318
        1315        1316        1321        1320
        1316        1317        1322        1321
        1317        1318        1323        1322
        1318        1319        1324        1323
        1325        1326        1331        1330
        1326        1327        1332        1331
        1327        1328        1333        1332
        1328        1329        1334        1333
        1330        1331        1336        1335
        1331        1332        1337        1336
        1332        1333        1338        1337
        1333        1334        1339        1338
        1335        1336        1341        1340
        1336        1337        1342        1341
        1337        1338        1343        1342
        1338        1339        1344        1343
        1340        1341        1346        1345
        1341        1342        1347        1346
        1342        1343        1348        1347
        1343        1344        1349        1348
        1350        1351        1356        1355
        1351        1352        1357        1356
        1352        1353        1358        1357
        1353        1354        1359        1358
        1355        1356        1361        1360
        1356        1357        1362        1361
        1357        1358        1363        1362
        1358        1359        1364        1363
        1360        1361        1366        1365
        1361        1362        1367        1366
        1362        1363        1368        1367
        1363        1364        1369        1368
        1365        1366        1371        1370
        1366        1367        1372        1371
        1367        1368        1373        1372
        1368        1369        1374        1373
        1375        1376        1381        1380
        1376        1377        1382        1381
        1377        1378        1383        1382
        1378        1379        1384        1383
        1380        1381        1386        1385
        1381        1382        1387        1386
        1382        1383        1388        1387
        1383        1384        1389        1388
        1385        1386        1391        1390
        1386        1387        1392        1391
        1387        1388        1393        1392
        1388        1389        1394        1393
        1390        1391        1396        1395
        1391        1392        1397        1396
        1392        1393        1398        1397
        1393        1394        1399        1398
        1400        1401        1406        1405
        1401        1402        1407        1406
        1402        1403        1408        1407
        1403        1404        1409        1408
        1405        1406        1411        1410
        1406        1407        1412        1411
        1407        1408        1413        1412
        1408        1409        1414        1413
        1410        1411        1416        1415
        1411        1412        1417        1416
        1412        1413        1418        1417
        1413        1414        1419        1418
        1415        1416        1421        1420
        1416        1417        1422        1421
        1417        1418        1423        1422
        1418        1419        1424        1423
        1425        1426        1431        1430
        1426        1427        1432        1431
        1427        1428        1433        1432
        1428        1429        1434        1433
        1430        1431        1436        1435
        1431        1432        1437        1436
        1432        1433        1438        1437
        1433        1434        1439        1438
        1435        1436        1441        1440
        1436        1437        1442        1441
        1437        1438        1443        1442
        1438        1439        1444        1443
        1440        1441        1446        1445
        1441        1442        1447        1446
        1442        1443        1448        1447
        1443        1444        1449        1448
        1450        1451        1456        1455
        1451        1452        1457        1456
        1452        1453        1458        1457
        1453        1454        1459        1458
        1455        1456        1461        1460
        1456        1457        1462        1461
        1457        1458        1463        1462
        1458        1459        1464        1463
        1460        1461        1466        1465
        1461        1462        1467        1466
        1462        1463        1468        1467
        1463        1464        1469        1468
        1465        1466        1471        1470
        1466        1467        1472        1471
        1467        1468        1473        1472
        1468        1469        1474        1473
        1475        1476        1481        1480
        1476        1477        1482        1481
        1477        1478        1483        1482
        1478        1479        1484        1483
        1480        1481        1486        1485
        1481        1482        1487        1486
        1482        1483        1488        1487
        1483        1484        1489        1488
        1485        1486        1491        1490
        1486        1487        1492        1491
        1487        1488        1493        1492
        1488        1489        1494        1493
        1490        1491        1496        1495
        1491        1492        1497        1496
        1492        1493        1498        1497
        1493        1494        1499        1498
        1500        1501        1506        1505
        1501        1502        1507        1506
        1502        1503        1508        1507
        1503        1504        1509        1508
        1505        1506        1511        1510
        1506        1507        1512        1511
        1507        1508        1513        1512
        1508        1509        1514        1513
        1510        1511        1516        1515
        1511        1512        1517        1516
        1512        1513        1518        1517
        1513        1514        1519        1518
        1515        1516        1521        1520
        1516        1517        1522        1521
        1517        1518        1523        1522
        1518        1519        1524        1523
        1525        1526        1531        1530
        1526        1527        1532        1531
        1527        1528        1533        1532
        1528        1529        1534        1533
        1530        1531        1536        1535
        1531        1532        1537        1536
        1532        1533        1538        1537
        1533        1534        1539        1538
        1535        1536        1541        1540
        1536        1537        1542        1541
        1537        1538        1543        1542
        1538        1539        1544        1543
        1540        1541        1546        1545
        1541        1542        1547        1546
        1542        1543        1548        1547
        1543        1544        1549        1548
        1550        1551        1556        1555
        1551        1552        1557        1556
        1552        1553        1558        1557
        1553        1554        1559        1558
        1555        1556        1561        1560
        1556        1557        1562        1561
        1557        1558        1563        1562
        1558        1559        1564        1563
        1560        1561        1566        1565
        1561        1562        1567        1566
        1562        1563        1568        1567
        1563        1564        1569        1568
        1565        1566        1571        1570
        1566        1567        1572        1571
        1567        1568        1573        1572
        1568        1569        1574        1573
        1575        1576        1581        1580
        1576        1577        1582        1581
        1577        1578        1583        1582
        1578        1579        1584        1583
        1580        1581        1586        1585
        1581        1582        1587        1586
        1582        1583        1588        1587
        1583        1584        1589        1588
        1585        1586        1591        1590
        1586        1587        1592        1591
        1587        1588        1593        1592
        1588        1589        1594        1593
        1590        1591        1596        1595
        1591        1592        1597        1596
        1592        1593        1598        1597
        1593        1594        1599        1598
 </DataArray>
 <DataArray  type="Int32"  Name="offsets"  format="ascii"> 
           4
           8
          12
          16
          20
          24
          28
          32
          36
          40
          44
          48
          52
          56
          60
          64
          68
          72
          76
          80
          84
          88
          92
          96
         100
         104
         108
         112
         116
         120
         124
         128
         132
         136
         140
         144
         148
         152
         156
         160
         164
         168
         172
         176
         180
         184
         188
         192
         196
         200
         204
         208
         212
         216
         220
         224
         228
         232
         236
         240
         244
         248
         252
         256
         260
         264
         268
         272
         276
         280
         284
         288
         292
         296
         300
         304
         308
         312
         316
         320
         324
         328
         332
         336
         340
         344
         348
         352
         356
         360
         364
         368
         372
         376
         380
         384
         388
         392
         396
         400
         404
         408
         412
         416
         420
         424
         428
         432
         436
         440
         444
         448
         452
         456
         460
         464
         468
         472
         476
         480
         484
         488
         492
         496
         500
         504
         508
         512
         516
         520
         524
         528
         532
         536
         540
         544
         548
         552
         556
         560
         564
         568
         572
         576
         580
         584
         588
         592
         596
         600
         604
         608
         612
         616
         620
         624
         628
         632
         636
         640
         644
         648
         652
         656
         660
         664
         668
         672
         676
         680
         684
         688
         692
         696
         700
         704
         708
         712
         716
         720
         724
         728
         732
         736
         740
         744
         748
         752
         756
         760
         764
         768
         772
         776
         780
         784
         788
         792
         796
         800
         804
         808
         812
         816
         820
         824
         828
         832
         836
         840
         844
         848
         852
         856
         860
         864
         868
         872
         876
         880
         884
         888
         892
         896
         900
         904
         908
         912
         916
         920
         924
         928
         932
         936
         940
         944
         948
         952
         956
         960
         964
         968
         972
         976
         980
         984
         988
         992
         996
        1000
        1004
        1008
        1012
        1016
        1020
        1024
        1028
        1032
        1036
        1040
        1044
        1048
        1052
        1056
        1060
        1064
        1068
        1072
        1076
        1080
        1084
        1088
        1092
        1096
        1100
        1104
        1108
        1112
        1116
        1120
        1124
        1128
        1132
        1136
        1140
        1144
        1148
        1152
        1156
        1160
        1164
        1168
        1172
        1176
        1180
        1184
        1188
        1192
        1196
        1200
        1204
        1208
        1212
        1216
        1220
        1224
        1228
        1232
        1236
        1240
        1244
        1248
        1252
        1256
        1260
        1264
        1268
        1272
        1276
        1280
        1284
        1288
        1292
        1296
        1300
        1304
        1308
        1312
        1316
        1320
        1324
        1328
        1332
        1336
        1340
        1344
        1348
        1352
        1356
        1360
        1364
        1368
        1372
        1376
        1380
        1384
        1388
        1392
        1396
        1400
        1404
        1408
        1412
        1416
        1420
        1424
        1428
        1432
        1436
        1440
        1444
        1448
        1452
        1456
        1460
        1464
        1468
        1472
        1476
        1480
        1484
        1488
        1492
        1496
        1500
        1504
        1508
        1512
        1516
        1520
        1524
        1528
        1532
        1536
        1540
        1544
        1548
        1552
        1556
        1560
        1564
        1568
        1572
        1576
        1580
        1584
        1588
        1592
        1596
        1600
        1604
        1608
        1612
        1616
        1620
        1624
        1628
        1632
        1636
        1640
        1644
        1648
        1652
        1656
        1660
        1664
        1668
        1672
        1676
        1680
        1684
        1688
        1692
        1696
        1700
        1704
        1708
        1712
        1716
        1720
        1724
        1728
        1732
        1736
        1740
        1744
        1748
        1752
        1756
        1760
        1764
        1768
        1772
        1776
        1780
        1784
        1788
        1792
        1796
        1800
        1804
        1808
        1812
        1816
        1820
        1824
        1828
        1832
        1836
        1840
        1844
        1848
        1852
        1856
        1860
        1864
        1868
        1872
        1876
        1880
        1884
        1888
        1892
        1896
        1900
        1904
        1908
        1912
        1916
        1920
        1924
        1928
        1932
        1936
        1940
        1944
        1948
        1952
        1956
        1960
        1964
        1968
        1972
        1976
        1980
        1984
        1988
        1992
        1996
        2000
        2004
        2008
        2012
        2016
        2020
        2024
        2028
        2032
        2036
        2040
        2044
        2048
        2052
        2056
        2060
        2064
        2068
        2072
        2076
        2080
        2084
        2088
        2092
        2096
        2100
        2104
        2108
        2112
        2116
        2120
        2124
        2128
        2132
        2136
        2140
        2144
        2148
        2152
        2156
        2160
        2164
        2168
        2172
        2176
        2180
        2184
        2188
        2192
        2196
        2200
        2204
        2208
        2212
        2216
        2220
        2224
        2228
        2232
        2236
        2240
        2244
        2248
        2252
        2256
        2260
        2264
        2268
        2272
        2276
        2280
        2284
        2288
        2292
        2296
        2300
        2304
        2308
        2312
        2316
        2320
        2324
        2328
        2332
        2336
        2340
        2344
        2348
        2352
        2356
        2360
        2364
        2368
        2372
        2376
        2380
        2384
        2388
        2392
        2396
        2400
        2404
        2408
        2412
        2416
        2420
        2424
        2428
        2432
        2436
        2440
        2444
        2448
        2452
        2456
        2460
        2464
        2468
        2472
        2476
        2480
        2484
        2488
        2492
        2496
        2500
        2504
        2508
        2512
        2516
        2520
        2524
        2528
        2532
        2536
        2540
        2544
        2548
        2552
        2556
        2560
        2564
        2568
        2572
        2576
        2580
        2584
        2588
        2592
        2596
        2600
        2604
        2608
        2612
        2616
        2620
        2624
        2628
        2632
        2636
        2640
        2644
        2648
        2652
        2656
        2660
        2664
        2668
        2672
        2676
        2680
        2684
        2688
        2692
        2696
        2700
        2704
        2708
        2712
        2716
        2720
        2724
        2728
        2732
        2736
        2740
        2744
        2748
        2752
        2756
        2760
        2764
        2768
        2772
        2776
        2780
        2784
        2788
        2792
        2796
        2800
        2804
        2808
        2812
        2816
        2820
        2824
        2828
        2832
        2836
        2840
        2844
        2848
        2852
        2856
        2860
        2864
        2868
        2872
        2876
        2880
        2884
        2888
        2892
        2896
        2900
        2904
        2908
        2912
        2916
        2920
        2924
        2928
        2932
        2936
        2940
        2944
        2948
        2952
        2956
        2960
        2964
        2968
        2972
        2976
        2980
        2984
        2988
        2992
        2996
        3000
        3004
        3008
        3012
        3016
        3020
        3024
        3028
        3032
        3036
        3040
        3044
        3048
        3052
        3056
        3060
        3064
        3068
        3072
        3076
        3080
        3084
        3088
        3092
        3096
        3100
        3104
        3108
        3112
        3116
        3120
        3124
        3128
        3132
        3136
        3140
        3144
        3148
        3152
        3156
        3160
        3164
        3168
        3172
        3176
        3180
        3184
        3188
        3192
        3196
        3200
        3204
        3208
        3212
        3216
        3220
        3224
        3228
        3232
        3236
        3240
        3244
        3248
        3252
        3256
        3260
        3264
        3268
        3272
        3276
        3280
        3284
        3288
        3292
        3296
        3300
        3304
        3308
        3312
        3316
        3320
        3324
        3328
        3332
        3336
        3340
        3344
        3348
        3352
        3356
        3360
        3364
        3368
        3372
        3376
        3380
        3384
        3388
        3392
        3396
        3400
        3404
        3408
        3412
        3416
        3420
        3424
        3428
        3432
        3436
        3440
        3444
        3448
        3452
        3456
        3460
        3464
        3468
        3472
        3476
        3480
        3484
        3488
        3492
        3496
        3500
        3504
        3508
        3512
        3516
        3520
        3524
        3528
        3532
        3536
        3540
        3544
        3548
        3552
        3556
        3560
        3564
        3568
        3572
        3576
        3580
        3584
        3588
        3592
        3596
        3600
        3604
        3608
        3612
        3616
        3620
        3624
        3628
        3632
        3636
        3640
        3644
        3648
        3652
        3656
        3660
        3664
        3668
        3672
        3676
        3680
        3684
        3688
        3692
        3696
        3700
        3704
        3708
        3712
        3716
        3720
        3724
        3728
        3732
        3736
        3740
        3744
        3748
        3752
        3756
        3760
        3764
        3768
        3772
        3776
        3780
        3784
        3788
        3792
        3796
        3800
        3804
        3808
        3812
        3816
        3820
        3824
        3828
        3832
        3836
        3840
        3844
        3848
        3852
        3856
        3860
        3864
        3868
        3872
        3876
        3880
        3884
        3888
        3892
        3896
        3900
        3904
        3908
        3912
        3916
        3920
        3924
        3928
        3932
        3936
        3940
        3944
        3948
        3952
        3956
        3960
        3964
        3968
        3972
        3976
        3980
        3984
        3988
        3992
        3996
        4000
        4004
        4008
        4012
        4016
        4020
        4024
        4028
        4032
        4036
        4040
        4044
        4048
        4052
        4056
        4060
        4064
        4068
        4072
        4076
        4080
        4084
        4088
        4092
        4096
 </DataArray>
 <DataArray  type="UInt8"  Name="types"  format="ascii">
 9
 9
 9
 9
 9
 9
 9
 9
 9
 9
 9
 9
 9
 9
 9
 9
 9
 9
 9
 9
 9
 9
 9
 9
 9
 9
 9
 9
 9
 9
 9
 9
 9
 9
 9
 9
 9
 9
 9
 9
 9
 9
 9
 9
 9
 9
 9
 9
 9
 9
 9
 9
 9
 9
 9
 9
 9
 9
 9
 9
 9
 9
 9
 9
 9
 9
 9
 9
 9
 9
 9
 9
 9
 9
 9
 9
 9
 9
 9
 9
 9
 9
 9
 9
 9
 9
 9
 9
 9
 9
 9
 9
 9
 9
 9
 9
 9
 9
 9
 9
 9
 9
 9
 9
 9
 9
 9
 9
 9
 9
 9
 9
 9
 9
 9
 9
 9
 9
 9
 9
 9
 9
 9
 9
 9
 9
 9
 9
 9
 9
 9
 9
 9
 9
 9
 9
 9
 9
 9
 9
 9
 9
 9
 9
 9
 9
 9
 9
 9
 9
 9
 9
 9
 9
 9
 9
 9
 9
 9
 9
 9
 9
 9
 9
 9
 9
 9
 9
 9
 9
 9
 9
 9
 9
 9
 9
 9
 9
 9
 9
 9
 9
 9
 9
 9
 9
 9
 9
 9
 9
 9
 9
 9
 9
 9
 9
 9
 9
 9
 9
 9
 9
 9
 9
 9
 9
 9
 9
 9
 9
 9
 9
 9
 9
 9
 9
 9
 9
 9
 9
 9
 9
 9
 9
 9
 9
 9
 9
 9
 9
 9
 9
 9
 9
 9
 9
 9
 9
 9
 9
 9
 9
 9
 9
 9
 9
 9
 9
 9
 9
 9
 9
 9
 9
 9
 9
 9
 9
 9
 9
 9
 9
 9
 9
 9
 9
 9
 9
 9
 9
 9
 9
 9
 9
 9
 9
 9
 9
 9
 9
 9
 9
 9
 9
 9
 9
 9
 9
 9
 9
 9
 9
 9
 9
 9
 9
 9
 9
 9
 9
 9
 9
 9
 9
 9
 9
 9
 9
 9
 9
 9
 9
 9
 9
 9
 9
 9
 9
 9
 9
 9
 9
 9
 9
 9
 9
 9
 9
 9
 9
 9
 9
 9
 9
 9
 9
 9
 9
 9
 9
 9
 9
 9
 9
 9
 9
 9
 9
 9
 9
 9
 9
 9
 9
 9
 9
 9
 9
 9
 9
 9
 9
 9
 9
 9
 9
 9
 9
 9
 9
 9
 9
 9
 9
 9
 9
 9
 9
 9
 9
 9
 9
 9
 9
 9
 9
 9
 9
 9
 9
 9
 9
 9
 9
 9
 9
 9
 9
 9
 9
 9
 9
 9
 9
 9
 9
 9
 9
 9
 9
 9
 9
 9
 9
 9
 9
 9
 9
 9
 9
 9
 9
 9
 9
 9
 9
 9
 9
 9
 9
 9
 9
 9
 9
 9
 9
 9
 9
 9
 9
 9
 9
 9
 9
 9
 9
 9
 9
 9
 9
 9
 9
 9
 9
 9
 9
 9
 9
 9
 9
 9
 9
 9
 9
 9
 9
 9
 9
 9
 9
 9
 9
 9
 9
 9
 9
 9
 9
 9
 9
 9
 9
 9
 9
 9
 9
 9
 9
 9
 9
 9
 9
 9
 9
 9
 9
 9
 9
 9
 9
 9
 9
 9
 9
 9
 9
 9
 9
 9
 9
 9
 9
 9
 9
 9
 9
 9
 9
 9
 9
 9
 9
 9
 9
 9
 9
 9
 9
 9
 9
 9
 9
 9
 9
 9
 9
 9
 9
 9
 9
 9
 9
 9
 9
 9
 9
 9
 9
 9
 9
 9
 9
 9
 9
 9
 9
 9
 9
 9
 9
 9
 9
 9
 9
 9
 9
 9
 9
 9
 9
 9
 9
 9
 9
 9
 9
 9
 9
 9
 9
 9
 9
 9
 9
 9
 9
 9
 9
 9
 9
 9
 9
 9
 9
 9
 9
 9
 9
 9
 9
 9
 9
 9
 9
 9
 9
 9
 9
 9
 9
 9
 9
 9
 9
 9
 9
 9
 9
 9
 9
 9
 9
 9
 9
 9
 9
 9
 9
 9
 9
 9
 9
 9
 9
 9
 9
 9
 9
 9
 9
 9
 9
 9
 9
 9
 9
 9
 9
 9
 9
 9
 9
 9
 9
 9
 9
 9
 9
 9
 9
 9
 9
 9
 9
 9
 9
 9
 9
 9
 9
 9
 9
 9
 9
 9
 9
 9
 9
 9
 9
 9
 9
 9
 9
 9
 9
 9
 9
 9
 9
 9
 9
 9
 9
 9
 9
 9
 9
 9
 9
 9
 9
 9
 9
 9
 9
 9
 9
 9
 9
 9
 9
 9
 9
 9
 9
 9
 9
 9
 9
 9
 9
 9
 9
 9
 9
 9
 9
 9
 9
 9
 9
 9
 9
 9
 9
 9
 9
 9
 9
 9
 9
 9
 9
 9
 9
 9
 9
 9
 9
 9
 9
 9
 9
 9
 9
 9
 9
 9
 9
 9
 9
 9
 9
 9
 9
 9
 9
 9
 9
 9
 9
 9
 9
 9
 9
 9
 9
 9
 9
 9
 9
 9
 9
 9
 9
 9
 9
 9
 9
 9
 9
 9
 9
 9
 9
 9
 9
 9
 9
 9
 9
 9
 9
 9
 9
 9
 9
 9
 9
 9
 9
 9
 9
 9
 9
 9
 9
 9
 9
 9
 9
 9
 9
 9
 9
 9
 9
 9
 9
 9
 9
 9
 9
 9
 9
 9
 9
 9
 9
 9
 9
 9
 9
 9
 9
 9
 9
 9
 9
 9
 9
 9
 9
 9
 9
 9
 9
 9
 9
 9
 9
 9
 9
 9
 9
 9
 9
 9
 9
 9
 9
 9
 9
 9
 9
 9
 9
 9
 9
 9
 9
 9
 9
 9
 9
 9
 9
 9
 9
 9
 9
 9
 9
 9
 9
 9
 9
 9
 9
 9
 9
 9
 9
 9
 9
 9
 9
 9
 9
 9
 9
 9
 9
 9
 9
 9
 9
 9
 9
 9
 9
 9
 9
 9
 9
 9
 9
 9
 9
 9
 9
 9
 9
 9
 9
 9
 9
 9
 9
 9
 9
 9
 9
 9
 9
 9
 9
 9
 9
 9
 9
 9
 9
 9
 9
 9
 9
 9
 9
 9
 9
 9
 9
 9
 9
 9
 9
 9
 9
 9
 9
 9
 9
 9
 9
 9
 9
 9
 9
 9
 9
 9
 9
 9
 9
 9
 9
 9
 9
 9
 9
 9
 9
 9
 9
 9
 9
 9
 9
 9
 9
 9
 9
 9
 9
 9
 9
 9
 9
 9
 9
 9
 9
 9
 9
 9
 9
 9
 9
 9
 9
 9
 9
 </DataArray>
 </Cells> 
 <PointData>
 <DataArray  type="Float64" Name="disp" NumberOfComponents="3" format="ascii">
   6.5330044772195728E-002   6.2752853093850300E-002   0.0000000000000000     
   6.8382960698646106E-002   6.8163802809206753E-002   0.0000000000000000     
   7.1341021366271434E-002   7.3745352351131610E-002   0.0000000000000000     
   7.4204226775071713E-002   7.9497501719624858E-002   0.0000000000000000     
   7.6972576925046957E-002   8.5420250914686496E-002   0.0000000000000000     
   6.0133921443800219E-002   6.1884790182914040E-002   0.0000000000000000     
   6.3013667045993371E-002   6.7301944959572910E-002   0.0000000000000000     
   6.5798427542325719E-002   7.2897265260092950E-002   0.0000000000000000     
   6.8488202932797240E-002   7.8670751084474175E-002   0.0000000000000000     
   7.1082993217407964E-002   8.4622402432716542E-002   0.0000000000000000     
   5.5141114034004617E-002   6.1056081796425354E-002   0.0000000000000000     
   5.7841458178771926E-002   6.6487822832831014E-002   0.0000000000000000     
   6.0449044660287325E-002   7.2101897669120521E-002   0.0000000000000000     
   6.2963873478550786E-002   7.7898306305293860E-002   0.0000000000000000     
   6.5385944633562315E-002   8.3877048741351046E-002   0.0000000000000000     
   5.0351622542808942E-002   6.0266727934384222E-002   0.0000000000000000     
   5.2866334096981792E-002   6.5721436428981053E-002   0.0000000000000000     
   5.5292872720156254E-002   7.1359249578214282E-002   0.0000000000000000     
   5.7631238412332343E-002   7.7180167382083956E-002   0.0000000000000000     
   5.9881431173510045E-002   8.3184189840589978E-002   0.0000000000000000     
   4.5765446970213161E-002   5.9516728596790677E-002   0.0000000000000000     
   4.8088294800622933E-002   6.5002785748023040E-002   0.0000000000000000     
   5.0329911721932519E-002   7.0669320987374273E-002   0.0000000000000000     
   5.2490297734141912E-002   7.6516334314844392E-002   0.0000000000000000     
   5.4569452837251120E-002   8.2543825730433409E-002   0.0000000000000000     
   7.6972576925046957E-002   8.5420250914686496E-002   0.0000000000000000     
   7.9647597547637367E-002   9.1508713311851175E-002   0.0000000000000000     
   8.2230814374283145E-002   9.7758002286653434E-002   0.0000000000000000     
   8.4722227404984293E-002  0.10416811783909333        0.0000000000000000     
   8.7121836639740824E-002  0.11073905996917083        0.0000000000000000     
   7.1082993217407964E-002   8.4622402432716542E-002   0.0000000000000000     
   7.3588065363758323E-002   9.0742731992201398E-002   0.0000000000000000     
   7.6008686339448808E-002   9.7022252450310015E-002   0.0000000000000000     
   7.8344856144479377E-002  0.10346096380704244        0.0000000000000000     
   8.0596574778850100E-002  0.11005886606239863        0.0000000000000000     
   6.5385944633562315E-002   8.3877048741351046E-002   0.0000000000000000     
   6.7722686378802757E-002   9.0026058200760400E-002   0.0000000000000000     
   6.9981526967752908E-002   9.6333267906990344E-002   0.0000000000000000     
   7.2162466400412767E-002  0.10279867786004084        0.0000000000000000     
   7.4265504676782348E-002  0.10942228805991190        0.0000000000000000     
   5.9881431173510045E-002   8.3184189840589978E-002   0.0000000000000000     
   6.2051460592770648E-002   8.9358691937528226E-002   0.0000000000000000     
   6.4149336259195444E-002   9.5691048656694394E-002   0.0000000000000000     
   6.6175058172784434E-002  0.10218125999808854        0.0000000000000000     
   6.8128626333537612E-002  0.10882932596171060        0.0000000000000000     
   5.4569452837251120E-002   8.2543825730433409E-002   0.0000000000000000     
   5.6574388005662009E-002   8.8740633202504832E-002   0.0000000000000000     
   5.8512114213776424E-002   9.5095594699422192E-002   0.0000000000000000     
   6.0382631461594373E-002  0.10160871022118552        0.0000000000000000     
   6.2185939749115855E-002  0.10827997976779477        0.0000000000000000     
   8.7121836639740824E-002  0.11073905996917083        0.0000000000000000     
   8.9425500568251645E-002  0.11745630776865328        0.0000000000000000     
   9.1629077680215665E-002  0.12430534032930797        0.0000000000000000     
   9.3732567975632897E-002  0.13128615765113491        0.0000000000000000     
   9.5735971454503327E-002  0.13839875973413412        0.0000000000000000     
   8.0596574778850100E-002  0.11005886606239863        0.0000000000000000     
   8.2758681501864065E-002  0.11680257287254325        0.0000000000000000     
   8.4826015572824515E-002  0.12367869789364089        0.0000000000000000     
   8.6798576991731408E-002  0.13068724112569161        0.0000000000000000     
   8.8676365758584785E-002  0.13782820256869532        0.0000000000000000     
   7.4265504676782348E-002  0.10942228805991190        0.0000000000000000     
   7.6284966767252799E-002  0.11619141091163573        0.0000000000000000     
   7.8215177642215250E-002  0.12309335882024466        0.0000000000000000     
   8.0056137301669730E-002  0.13012813178573862        0.0000000000000000     
   8.1807845745616184E-002  0.13729572980811763        0.0000000000000000     
   6.8128626333537612E-002  0.10882932596171060        0.0000000000000000     
   7.0004356364417805E-002  0.11562282188593077        0.0000000000000000     
   7.1796563888387857E-002  0.12254932310911926        0.0000000000000000     
   7.3505248905447795E-002  0.12960882963127601        0.0000000000000000     
   7.5130411415597592E-002  0.13680134145240103        0.0000000000000000     
   6.2185939749115855E-002  0.10827997976779477        0.0000000000000000     
   6.3916850293359112E-002  0.11509680579542836        0.0000000000000000     
   6.5570174311342377E-002  0.12204659076026469        0.0000000000000000     
   6.7145911803065658E-002  0.12912933466230375        0.0000000000000000     
   6.8644062768528954E-002  0.13634503750154553        0.0000000000000000     
   9.5735971454503327E-002  0.13839875973413412        0.0000000000000000     
   9.7643841480581250E-002  0.14563255623243612        0.0000000000000000     
   9.9460731417620948E-002  0.15297695680017151        0.0000000000000000     
  0.10118664126562241       0.16043196143734023        0.0000000000000000     
  0.10282157102458561       0.16799757014394237        0.0000000000000000     
   8.8676365758584785E-002  0.13782820256869532        0.0000000000000000     
   9.0464202866066060E-002  0.14509020060815445        0.0000000000000000     
   9.2166909306856767E-002  0.15246185362957118        0.0000000000000000     
   9.3784485080956825E-002  0.15994316163294561        0.0000000000000000     
   9.5316930188366289E-002  0.16753412461827766        0.0000000000000000     
   8.1807845745616184E-002  0.13729572980811763        0.0000000000000000     
   8.3475013555697988E-002  0.14458431879115016        0.0000000000000000     
   8.5062351313558382E-002  0.15198206463860459        0.0000000000000000     
   8.6569859019197323E-002  0.15948896735048101        0.0000000000000000     
   8.7997536672614909E-002  0.16710502692677931        0.0000000000000000     
   7.5130411415597592E-002  0.13680134145240103        0.0000000000000000     
   7.6676273549476995E-002  0.14411491078142336        0.0000000000000000     
   7.8147057437725764E-002  0.15153758982727178        0.0000000000000000     
   7.9542763080343928E-002  0.15906937858994646        0.0000000000000000     
   8.0863390477331473E-002  0.16671027706944730        0.0000000000000000     
   6.8644062768528954E-002  0.13634503750154553        0.0000000000000000     
   7.0067982847403107E-002  0.14368197657897394        0.0000000000000000     
   7.1421027679358998E-002  0.15112842919557271        0.0000000000000000     
   7.2703197264396627E-002  0.15868439535134196        0.0000000000000000     
   7.3914491602515980E-002  0.16634987504628165        0.0000000000000000     
  0.10282157102458561       0.16799757014394237        0.0000000000000000     
  0.10436808224826891       0.17566320350539813        0.0000000000000000     
  0.10582873649043058       0.18341828210712779        0.0000000000000000     
  0.10720353375107063       0.19126280594913136        0.0000000000000000     
  0.10849247403018905       0.19919677503140887        0.0000000000000000     
   9.5316930188366289E-002  0.16753412461827766        0.0000000000000000     
   9.6764794869630189E-002  0.17522497780839019        0.0000000000000000     
   9.8128629365293568E-002  0.18300595642610590        0.0000000000000000     
   9.9408433675356442E-002  0.19087706047142489        0.0000000000000000     
  0.10060420779981877       0.19883828994434705        0.0000000000000000     
   8.7997536672614909E-002  0.16710502692677931        0.0000000000000000     
   8.9344507797282244E-002  0.17482085078216544        0.0000000000000000     
   9.0609895916670513E-002  0.18262704633130528        0.0000000000000000     
   9.1793701030779704E-002  0.19052361357419881        0.0000000000000000     
   9.2895923139609857E-002  0.19851055251084609        0.0000000000000000     
   8.0863390477331473E-002  0.16671027706944730        0.0000000000000000     
   8.2107221031225072E-002  0.17445082242672391        0.0000000000000000     
   8.3272536144561399E-002  0.18228155182272593        0.0000000000000000     
   8.4359335817340522E-002  0.19020246525745327        0.0000000000000000     
   8.5367620049562346E-002  0.19821356273090590        0.0000000000000000     
   7.3914491602515980E-002  0.16634987504628165        0.0000000000000000     
   7.5052934571458660E-002  0.17411489274206562        0.0000000000000000     
   7.6116550048966253E-002  0.18196947290036780        0.0000000000000000     
   7.7105338035038773E-002  0.18991361552118810        0.0000000000000000     
   7.8019298529676220E-002  0.19794732060452663        0.0000000000000000     
  0.10849247403018905       0.19919677503140887        0.0000000000000000     
  0.10970075996742765       0.20721630551740566        0.0000000000000000     
  0.11083359420242819       0.21531751357056714        0.0000000000000000     
  0.11189097673519069       0.22350039919089337        0.0000000000000000     
  0.11287290756571514       0.23176496237838431        0.0000000000000000     
  0.10060420779981877       0.19883828994434705        0.0000000000000000     
  0.10172137052262777       0.20688333701849806        0.0000000000000000     
  0.10276534062773070       0.21500589386750357        0.0000000000000000     
  0.10373611811512753       0.22320596049136354        0.0000000000000000     
  0.10463370298481826       0.23148353689007800        0.0000000000000000     
   9.2895923139609857E-002  0.19851055251084609        0.0000000000000000     
   9.3921319803450268E-002  0.20658020866080265        0.0000000000000000     
   9.4874648582590301E-002  0.21472492754362416        0.0000000000000000     
   9.5755909477029930E-002  0.22294470915931064        0.0000000000000000     
   9.6565102486769208E-002  0.23123955350786204        0.0000000000000000     
   8.5367620049562346E-002  0.19821356273090590        0.0000000000000000     
   8.6300607809895111E-002  0.20630692044431936        0.0000000000000000     
   8.7161518067006949E-002  0.21447461459892894        0.0000000000000000     
   8.7950350820897930E-002  0.22271664519473466        0.0000000000000000     
   8.8667106071567955E-002  0.23103301223173656        0.0000000000000000     
   7.8019298529676220E-002  0.19794732060452663        0.0000000000000000     
   7.8859234541962281E-002  0.20606347236904823        0.0000000000000000     
   7.9625949080980682E-002  0.21425495503341793        0.0000000000000000     
   8.0319442146731437E-002  0.22252176859763567        0.0000000000000000     
   8.0939713739214533E-002  0.23086391306170145        0.0000000000000000     
  0.11287290756571514       0.23176496237838431        0.0000000000000000     
  0.11380760446507920       0.24012781431352972        0.0000000000000000     
  0.11472328520436050       0.24860556617681936        0.0000000000000000     
  0.11561994978355904       0.25719821796825326        0.0000000000000000     
  0.11649759820267480       0.26590576968783136        0.0000000000000000     
  0.10463370298481826       0.23148353689007800        0.0000000000000000     
  0.10546312062793664       0.23986212563116138        0.0000000000000000     
  0.10622939643561639       0.24836522928212831        0.0000000000000000     
  0.10693253040785755       0.25699284784297871        0.0000000000000000     
  0.10757252254466006       0.26574498131371255        0.0000000000000000     
   9.6565102486769208E-002  0.23123955350786204        0.0000000000000000     
   9.7293048220757128E-002  0.23963592447306153        0.0000000000000000     
   9.7930567287942749E-002  0.24816028593869230        0.0000000000000000     
   9.8477659688326002E-002  0.25681263790475423        0.0000000000000000     
   9.8934325421906971E-002  0.26559298037124746        0.0000000000000000     
   8.8667106071567955E-002  0.23103301223173656        0.0000000000000000     
   8.9297387243540638E-002  0.23944921083923024        0.0000000000000000     
   8.9826797761339464E-002  0.24799073614651138        0.0000000000000000     
   9.0255337624964460E-002  0.25665758815357997        0.0000000000000000     
   9.0583006834415558E-002  0.26544976686043609        0.0000000000000000     
   8.0939713739214533E-002  0.23086391306170145        0.0000000000000000     
   8.1476137696287185E-002  0.23930198472966741        0.0000000000000000     
   8.1918087855806621E-002  0.24785657990558552        0.0000000000000000     
   8.2265564217772813E-002  0.25652769858945584        0.0000000000000000     
   8.2518566782185804E-002  0.26531534078127839        0.0000000000000000     
  0.11649759820267480       0.26590576968783136        0.0000000000000000     
  0.11729657171319428       0.27489278527167171        0.0000000000000000     
  0.11795721156660395       0.28432382865589223        0.0000000000000000     
  0.11847951776290376       0.29419889984049308        0.0000000000000000     
  0.11886349030209375       0.30451799882547415        0.0000000000000000     
  0.10757252254466006       0.26574498131371255        0.0000000000000000     
  0.10813040204263127       0.27475375576392580        0.0000000000000000     
  0.10858719809837848       0.28415129726321420        0.0000000000000000     
  0.10894291071190168       0.29393760581157791        0.0000000000000000     
  0.10919753988320088       0.30411268140901682        0.0000000000000000     
   9.8934325421906971E-002  0.26559298037124746        0.0000000000000000     
   9.9311596994667781E-002  0.27459960094169023        0.0000000000000000     
   9.9620506912590598E-002  0.28393078721960119        0.0000000000000000     
   9.9861055175675381E-002  0.29358653920498001        0.0000000000000000     
  0.10003324178392220       0.30356685689782698        0.0000000000000000     
   9.0583006834415558E-002  0.26544976686043609        0.0000000000000000     
   9.0840156569303845E-002  0.27443032080496516        0.0000000000000000     
   9.1057138009240313E-002  0.28366229852505298        0.0000000000000000     
   9.1233951154224918E-002  0.29314570002069940        0.0000000000000000     
   9.1370596004257731E-002  0.30288052529190457        0.0000000000000000     
   8.2518566782185804E-002  0.26531534078127839        0.0000000000000000     
   8.2716080766539440E-002  0.27424591535375059        0.0000000000000000     
   8.2897091388327585E-002  0.28334583117956980        0.0000000000000000     
   8.3061598647550264E-002  0.29261508825873617        0.0000000000000000     
   8.3209602544207451E-002  0.30205368659124954        0.0000000000000000     
   4.5765446970213161E-002   5.9516728596790677E-002   0.0000000000000000     
   4.8088294800622933E-002   6.5002785748023040E-002   0.0000000000000000     
   5.0329911721932519E-002   7.0669320987374273E-002   0.0000000000000000     
   5.2490297734141912E-002   7.6516334314844392E-002   0.0000000000000000     
   5.4569452837251120E-002   8.2543825730433409E-002   0.0000000000000000     
   4.1351892389560038E-002   5.8822649170744638E-002   0.0000000000000000     
   4.3480350449821008E-002   6.4339974931498969E-002   0.0000000000000000     
   4.5535378404848711E-002   7.0034500263580171E-002   0.0000000000000000     
   4.7516976254643122E-002   7.5906225166988237E-002   0.0000000000000000     
   4.9425143999204259E-002   8.1955149641723166E-002   0.0000000000000000     
   3.7080263874192290E-002   5.8201055043346064E-002   0.0000000000000000     
   3.9015511204701654E-002   6.3741108120950907E-002   0.0000000000000000     
   4.0884489508137431E-002   6.9457175773811691E-002   0.0000000000000000     
   4.2687198784499593E-002   7.5349258001928446E-002   0.0000000000000000     
   4.4423639033788147E-002   8.1417354805301143E-002   0.0000000000000000     
   3.2950561424109917E-002   5.7651946214594969E-002   0.0000000000000000     
   3.4693777065264872E-002   6.3206185316378810E-002   0.0000000000000000     
   3.6377245031798670E-002   6.8937347518068820E-002   0.0000000000000000     
   3.8000965323711305E-002   7.4845432819664992E-002   0.0000000000000000     
   3.9564937941002791E-002   8.0930441221167382E-002   0.0000000000000000     
   2.8962785039312919E-002   5.7175322684491325E-002   0.0000000000000000     
   3.0515148031510647E-002   6.2735206517782707E-002   0.0000000000000000     
   3.2013644975832430E-002   6.8475015496351571E-002   0.0000000000000000     
   3.3458275872278273E-002   7.4394749620197931E-002   0.0000000000000000     
   3.4849040720848178E-002   8.0494408889321800E-002   0.0000000000000000     
   5.4569452837251120E-002   8.2543825730433409E-002   0.0000000000000000     
   5.6574388005662009E-002   8.8740633202504832E-002   0.0000000000000000     
   5.8512114213776424E-002   9.5095594699422192E-002   0.0000000000000000     
   6.0382631461594373E-002  0.10160871022118552        0.0000000000000000     
   6.2185939749115855E-002  0.10827997976779477        0.0000000000000000     
   4.9425143999204259E-002   8.1955149641723166E-002   0.0000000000000000     
   5.1265346847208015E-002   8.8172028554772644E-002   0.0000000000000000     
   5.3043050007330318E-002   9.4547616773124316E-002   0.0000000000000000     
   5.4758253479571167E-002  0.10108191429677818        0.0000000000000000     
   5.6410957263930528E-002  0.10777492112573428        0.0000000000000000     
   4.4423639033788147E-002   8.1417354805301143E-002   0.0000000000000000     
   4.6098215347139898E-002   8.7653024553414033E-002   0.0000000000000000     
   4.7715332815691638E-002   9.4047825615751326E-002   0.0000000000000000     
   4.9274991439443347E-002  0.10060175799231300        0.0000000000000000     
   5.0777191218395065E-002  0.10731482168309907        0.0000000000000000     
   3.9564937941002791E-002   8.0930441221167382E-002   0.0000000000000000     
   4.1072993505457636E-002   8.7183621198429040E-002   0.0000000000000000     
   4.2528962638860350E-002   9.3596221227303239E-002   0.0000000000000000     
   4.3932845341210974E-002  0.10016824130778991        0.0000000000000000     
   4.5284641612509460E-002  0.10689968143988909        0.0000000000000000     
   3.4849040720848178E-002   8.0494408889321800E-002   0.0000000000000000     
   3.6189681322161223E-002   8.6763818489817665E-002   0.0000000000000000     
   3.7483939476836488E-002   9.3192803607780039E-002   0.0000000000000000     
   3.8731815184873980E-002   9.9781364243208964E-002   0.0000000000000000     
   3.9933308446273699E-002  0.10652950039610438        0.0000000000000000     
   6.2185939749115855E-002  0.10827997976779477        0.0000000000000000     
   6.3916850293359112E-002  0.11509680579542836        0.0000000000000000     
   6.5570174311342377E-002  0.12204659076026469        0.0000000000000000     
   6.7145911803065658E-002  0.12912933466230375        0.0000000000000000     
   6.8644062768528954E-002  0.13634503750154553        0.0000000000000000     
   5.6410957263930528E-002  0.10777492112573428        0.0000000000000000     
   5.7996627877751041E-002  0.11461371974919393        0.0000000000000000     
   5.9510731838375304E-002  0.12158539265635850        0.0000000000000000     
   6.0953269145803325E-002  0.12868993984722790        0.0000000000000000     
   6.2324239800035097E-002  0.13592736132180225        0.0000000000000000     
   5.0777191218395065E-002  0.10731482168309907        0.0000000000000000     
   5.2217868441267939E-002  0.11417392085629295        0.0000000000000000     
   5.3592959396783206E-002  0.12116595968007814        0.0000000000000000     
   5.4902464084940830E-002  0.12829093815445458        0.0000000000000000     
   5.6146382505740840E-002  0.13554885627942223        0.0000000000000000     
   4.5284641612509460E-002  0.10689968143988909        0.0000000000000000     
   4.6580571983909816E-002  0.11377740911672544        0.0000000000000000     
   4.7816856986566063E-002  0.12078829183142366        0.0000000000000000     
   4.8993496620478173E-002  0.12793232958398371        0.0000000000000000     
   5.0110490885646175E-002  0.13520952237440562        0.0000000000000000     
   3.9933308446273699E-002  0.10652950039610438        0.0000000000000000     
   4.1084738505676670E-002  0.11342418453049138        0.0000000000000000     
   4.2182424607723881E-002  0.12045238911039503        0.0000000000000000     
   4.3226366752415368E-002  0.12761411413581533        0.0000000000000000     
   4.4216564939751096E-002  0.13490935960675227        0.0000000000000000     
   6.8644062768528954E-002  0.13634503750154553        0.0000000000000000     
   7.0067982847403107E-002  0.14368197657897394        0.0000000000000000     
   7.1421027679358998E-002  0.15112842919557271        0.0000000000000000     
   7.2703197264396627E-002  0.15868439535134196        0.0000000000000000     
   7.3914491602515980E-002  0.16634987504628165        0.0000000000000000     
   6.2324239800035097E-002  0.13592736132180225        0.0000000000000000     
   6.3626066231158726E-002  0.14328626121748664        0.0000000000000000     
   6.4861170869262325E-002  0.15075524367168627        0.0000000000000000     
   6.6029553714345893E-002  0.15833430868440113        0.0000000000000000     
   6.7131214766409431E-002  0.16602345625563120        0.0000000000000000     
   5.6146382505740840E-002  0.13554885627942223        0.0000000000000000     
   5.7326448482426233E-002  0.14292850973064616        0.0000000000000000     
   5.8444395838240015E-002  0.15041869418379122        0.0000000000000000     
   5.9500224573182235E-002  0.15801940963885749        0.0000000000000000     
   6.0493934687252837E-002  0.16573065609584486        0.0000000000000000     
   5.0110490885646175E-002  0.13520952237440562        0.0000000000000000     
   5.1169129601205621E-002  0.14260872211845255        0.0000000000000000     
   5.2170702586292111E-002  0.15011878073188775        0.0000000000000000     
   5.3115209840905633E-002  0.15773969821471107        0.0000000000000000     
   5.4002651365046193E-002  0.16547147456692268        0.0000000000000000     
   4.4216564939751096E-002  0.13490935960675227        0.0000000000000000     
   4.5154109587496910E-002  0.14232689838090576        0.0000000000000000     
   4.6040091113418571E-002  0.14985550331597564        0.0000000000000000     
   4.6874509517516101E-002  0.15749517441196192        0.0000000000000000     
   4.7657364799789499E-002  0.16524591166886465        0.0000000000000000     
   7.3914491602515980E-002  0.16634987504628165        0.0000000000000000     
   7.5052934571458660E-002  0.17411489274206562        0.0000000000000000     
   7.6116550048966253E-002  0.18196947290036780        0.0000000000000000     
   7.7105338035038773E-002  0.18991361552118810        0.0000000000000000     
   7.8019298529676220E-002  0.19794732060452663        0.0000000000000000     
   6.7131214766409431E-002  0.16602345625563120        0.0000000000000000     
   6.8164186463110968E-002  0.17381207941946822        0.0000000000000000     
   6.9126501242108535E-002  0.18168957121000373        0.0000000000000000     
   7.0018159103402131E-002  0.18965593162723779        0.0000000000000000     
   7.0839160046991756E-002  0.19771116067117039        0.0000000000000000     
   6.0493934687252837E-002  0.16573065609584486        0.0000000000000000     
   6.1423514751309971E-002  0.17354140015020930        0.0000000000000000     
   6.2286953336211752E-002  0.18144060839740656        0.0000000000000000     
   6.3084250441958159E-002  0.18942828083743662        0.0000000000000000     
   6.3815406068549227E-002  0.19750441747029954        0.0000000000000000     
   5.4002651365046193E-002  0.16547147456692268        0.0000000000000000     
   5.4830919436055656E-002  0.17330285493428896        0.0000000000000000     
   5.5597906331275877E-002  0.18122258446257627        0.0000000000000000     
   5.6303612050706872E-002  0.18923066315178463        0.0000000000000000     
   5.6948036594348626E-002  0.19732709100191406        0.0000000000000000     
   4.7657364799789499E-002  0.16524591166886465        0.0000000000000000     
   4.8386400517348022E-002  0.17309644377170713        0.0000000000000000     
   4.9059360227300945E-002  0.18103549940551289        0.0000000000000000     
   4.9676243929648256E-002  0.18906307857028179        0.0000000000000000     
   5.0237051624389961E-002  0.19717918126601391        0.0000000000000000     
   7.8019298529676220E-002  0.19794732060452663        0.0000000000000000     
   7.8859234541962281E-002  0.20606347236904823        0.0000000000000000     
   7.9625949080980682E-002  0.21425495503341793        0.0000000000000000     
   8.0319442146731437E-002  0.22252176859763567        0.0000000000000000     
   8.0939713739214533E-002  0.23086391306170145        0.0000000000000000     
   7.0839160046991756E-002  0.19771116067117039        0.0000000000000000     
   7.1587974420425901E-002  0.20584907046807568        0.0000000000000000     
   7.2263072571253056E-002  0.21406347314422772        0.0000000000000000     
   7.2864454499473236E-002  0.22235436869962655        0.0000000000000000     
   7.3392120205086453E-002  0.23072175713427223        0.0000000000000000     
   6.3815406068549227E-002  0.19750441747029954        0.0000000000000000     
   6.4477601866059997E-002  0.20566292077448806        0.0000000000000000     
   6.5068019484565601E-002  0.21389769322849500        0.0000000000000000     
   6.5586658924066024E-002  0.22220873483232037        0.0000000000000000     
   6.6033520184561240E-002  0.23059604558596414        0.0000000000000000     
   5.6948036594348626E-002  0.19732709100191406        0.0000000000000000     
   5.7528116878864631E-002  0.20550502328828549        0.0000000000000000     
   5.8040789820918329E-002  0.21375761528621981        0.0000000000000000     
   5.8486055420509761E-002  0.22208486699571708        0.0000000000000000     
   5.8863913677638914E-002  0.23048677841677734        0.0000000000000000     
   5.0237051624389961E-002  0.19717918126601391        0.0000000000000000     
   5.0739519458839734E-002  0.20537537800946784        0.0000000000000000     
   5.1181383580311227E-002  0.21364323931740209        0.0000000000000000     
   5.1562643988804481E-002  0.22198276518981669        0.0000000000000000     
   5.1883300684319469E-002  0.23039395562671164        0.0000000000000000     
   8.0939713739214533E-002  0.23086391306170145        0.0000000000000000     
   8.1476137696287185E-002  0.23930198472966741        0.0000000000000000     
   8.1918087855806621E-002  0.24785657990558552        0.0000000000000000     
   8.2265564217772813E-002  0.25652769858945584        0.0000000000000000     
   8.2518566782185804E-002  0.26531534078127839        0.0000000000000000     
   7.3392120205086453E-002  0.23072175713427223        0.0000000000000000     
   7.3842811075971668E-002  0.23917927553912186        0.0000000000000000     
   7.4213268500007923E-002  0.24774056100513281        0.0000000000000000     
   7.4503492477195205E-002  0.25640561353230518        0.0000000000000000     
   7.4713483007533485E-002  0.26517443312063882        0.0000000000000000     
   6.6033520184561240E-002  0.23059604558596414        0.0000000000000000     
   6.6410918879569042E-002  0.23906611266234243        0.0000000000000000     
   6.6721170622607170E-002  0.24762542323437148        0.0000000000000000     
   6.6964275413675611E-002  0.25627397730205120        0.0000000000000000     
   6.7140233252774378E-002  0.26501177486538158        0.0000000000000000     
   5.8863913677638914E-002  0.23048677841677734        0.0000000000000000     
   5.9180461107079273E-002  0.23896249609932912        0.0000000000000000     
   5.9441794223604329E-002  0.24751116659330130        0.0000000000000000     
   5.9647913027214061E-002  0.25613278989869387        0.0000000000000000     
   5.9798817517908498E-002  0.26482736601550677        0.0000000000000000     
   5.1883300684319469E-002  0.23039395562671164        0.0000000000000000     
   5.2151437758502381E-002  0.23886842585008192        0.0000000000000000     
   5.2375139302999411E-002  0.24739779108192247        0.0000000000000000     
   5.2554405317810554E-002  0.25598205132223334        0.0000000000000000     
   5.2689235802935816E-002  0.26462120657101434        0.0000000000000000     
   8.2518566782185804E-002  0.26531534078127839        0.0000000000000000     
   8.2716080766539440E-002  0.27424591535375059        0.0000000000000000     
   8.2897091388327585E-002  0.28334583117956980        0.0000000000000000     
   8.3061598647550264E-002  0.29261508825873617        0.0000000000000000     
   8.3209602544207451E-002  0.30205368659124954        0.0000000000000000     
   7.4713483007533485E-002  0.26517443312063882        0.0000000000000000     
   7.4884184615434085E-002  0.27404069684406168        0.0000000000000000     
   7.5056541825308298E-002  0.28299808177650165        0.0000000000000000     
   7.5230554637156111E-002  0.29204658791795890        0.0000000000000000     
   7.5406223050977522E-002  0.30118621526843320        0.0000000000000000     
   6.7140233252774378E-002  0.26501177486538158        0.0000000000000000     
   6.7289283145047313E-002  0.27380897753191369        0.0000000000000000     
   6.7451664095638270E-002  0.28263574690919868        0.0000000000000000     
   6.7627376104547207E-002  0.29149208299723628        0.0000000000000000     
   6.7816419171774153E-002  0.30037798579602670        0.0000000000000000     
   5.9798817517908498E-002  0.26482736601550677        0.0000000000000000     
   5.9931376355379117E-002  0.27355075741730683        0.0000000000000000     
   6.0082458199317477E-002  0.28225882657766072        0.0000000000000000     
   6.0252063049723546E-002  0.29095157349656847        0.0000000000000000     
   6.0440190906597323E-002  0.29962899817403010        0.0000000000000000     
   5.2689235802935816E-002  0.26462120657101434        0.0000000000000000     
   5.2810464246429503E-002  0.27326603650024084        0.0000000000000000     
   5.2948924136345929E-002  0.28186732078188786        0.0000000000000000     
   5.3104615472685114E-002  0.29042505941595531        0.0000000000000000     
   5.3277538255447031E-002  0.29893925240244340        0.0000000000000000     
   2.8962785039312919E-002   5.7175322684491325E-002   0.0000000000000000     
   3.0515148031510647E-002   6.2735206517782707E-002   0.0000000000000000     
   3.2013644975832430E-002   6.8475015496351571E-002   0.0000000000000000     
   3.3458275872278273E-002   7.4394749620197931E-002   0.0000000000000000     
   3.4849040720848178E-002   8.0494408889321800E-002   0.0000000000000000     
   2.5091129954083490E-002   5.6756504748334824E-002   0.0000000000000000     
   2.6452268666998544E-002   6.2319776212722777E-002   0.0000000000000000     
   2.7765398424873175E-002   6.8066226209051561E-002   0.0000000000000000     
   2.9030519227707378E-002   7.3995854737321204E-002   0.0000000000000000     
   3.0247631075501165E-002   8.0108661797531677E-002   0.0000000000000000     
   2.1309791402703802E-002   5.6380812701425122E-002   0.0000000000000000     
   2.2477783535288114E-002   6.1951498888759220E-002   0.0000000000000000     
   2.3604214463555349E-002   6.7707026156560449E-002   0.0000000000000000     
   2.4689084187505508E-002   7.3647394504828781E-002   0.0000000000000000     
   2.5732392707138587E-002   7.9772603933564237E-002   0.0000000000000000     
   1.7618769385173868E-002   5.6048246543762226E-002   0.0000000000000000     
   1.8591692636379352E-002   6.1630374545892042E-002   0.0000000000000000     
   1.9530093091878951E-002   6.7397415338878178E-002   0.0000000000000000     
   2.0433970751672643E-002   7.3349368922720662E-002   0.0000000000000000     
   2.1303325615760448E-002   7.9486235297419466E-002   0.0000000000000000     
   1.4018063901493676E-002   5.5758806275346129E-002   0.0000000000000000     
   1.4793995970272270E-002   6.1356403184121236E-002   0.0000000000000000     
   1.5543034309843978E-002   6.7137393756004818E-002   0.0000000000000000     
   1.6265178920208803E-002   7.3101777990996861E-002   0.0000000000000000     
   1.6960429801366746E-002   7.9249555889097378E-002   0.0000000000000000     
   3.4849040720848178E-002   8.0494408889321800E-002   0.0000000000000000     
   3.6189681322161223E-002   8.6763818489817665E-002   0.0000000000000000     
   3.7483939476836488E-002   9.3192803607780039E-002   0.0000000000000000     
   3.8731815184873980E-002   9.9781364243208964E-002   0.0000000000000000     
   3.9933308446273699E-002  0.10652950039610438        0.0000000000000000     
   3.0247631075501165E-002   8.0108661797531677E-002   0.0000000000000000     
   3.1420466623671539E-002   8.6392871968899540E-002   0.0000000000000000     
   3.2552758527635561E-002   9.2836709830641337E-002   0.0000000000000000     
   3.3644506787393197E-002   9.9440175382757082E-002   0.0000000000000000     
   3.4695711402944467E-002  0.10620326862524673        0.0000000000000000     
   2.5732392707138587E-002   7.9772603933564237E-002   0.0000000000000000     
   2.6737537236409481E-002   8.6070037176994352E-002   0.0000000000000000     
   2.7707914989273084E-002   9.2527076969346672E-002   0.0000000000000000     
   2.8643525965729381E-002   9.9143723310621212E-002   0.0000000000000000     
   2.9544370165778391E-002  0.10591997620081792        0.0000000000000000     
   2.1303325615760448E-002   7.9486235297419466E-002   0.0000000000000000     
   2.2140893160375024E-002   8.5795314114102114E-002   0.0000000000000000     
   2.2949408861749062E-002   9.2263905023896059E-002   0.0000000000000000     
   2.3728872719882541E-002   9.8892008026801356E-002   0.0000000000000000     
   2.4479284734775477E-002  0.10567962312281796        0.0000000000000000     
   1.6960429801366746E-002   7.9249555889097378E-002   0.0000000000000000     
   1.7630534395568179E-002   8.5568702780222786E-002   0.0000000000000000     
   1.8277240145063489E-002   9.2047193994289497E-002   0.0000000000000000     
   1.8900547049852674E-002   9.8685029531297527E-002   0.0000000000000000     
   1.9500455109935731E-002  0.10548220939124688        0.0000000000000000     
   3.9933308446273699E-002  0.10652950039610438        0.0000000000000000     
   4.1084738505676670E-002  0.11342418453049138        0.0000000000000000     
   4.2182424607723881E-002  0.12045238911039503        0.0000000000000000     
   4.3226366752415368E-002  0.12761411413581533        0.0000000000000000     
   4.4216564939751096E-002  0.13490935960675227        0.0000000000000000     
   3.4695711402944467E-002  0.10620326862524673        0.0000000000000000     
   3.5702784150879449E-002  0.11311314621975249        0.0000000000000000     
   3.6662136807788244E-002  0.12015696482791660        0.0000000000000000     
   3.7573769373670837E-002  0.12733472444973901        0.0000000000000000     
   3.8437681848527236E-002  0.13464642508521973        0.0000000000000000     
   2.9544370165778391E-002  0.10591997620081792        0.0000000000000000     
   3.0407125063829140E-002  0.11284319330667050        0.0000000000000000     
   3.1228468134290695E-002  0.11990073229491262        0.0000000000000000     
   3.2008399377163030E-002  0.12709259316554428        0.0000000000000000     
   3.2746918792446171E-002  0.13441877591856546        0.0000000000000000     
   2.4479284734775477E-002  0.10567962312281796        0.0000000000000000     
   2.5197761244525753E-002  0.11261432579124539        0.0000000000000000     
   2.5881418587231250E-002  0.11968369151138310        0.0000000000000000     
   2.6530256762891960E-002  0.12688772028323111        0.0000000000000000     
   2.7144275771507898E-002  0.13422641210678940        0.0000000000000000     
   1.9500455109935731E-002  0.10548220939124688        0.0000000000000000     
   2.0074692692969267E-002  0.11242654367347718        0.0000000000000000     
   2.0620988166609899E-002  0.11950584247732807        0.0000000000000000     
   2.1139341530857617E-002  0.12672010580279955        0.0000000000000000     
   2.1629752785712435E-002  0.13406933364989163        0.0000000000000000     
   4.4216564939751096E-002  0.13490935960675227        0.0000000000000000     
   4.5154109587496910E-002  0.14232689838090576        0.0000000000000000     
   4.6040091113418571E-002  0.14985550331597564        0.0000000000000000     
   4.6874509517516101E-002  0.15749517441196192        0.0000000000000000     
   4.7657364799789499E-002  0.16524591166886465        0.0000000000000000     
   3.8437681848527236E-002  0.13464642508521973        0.0000000000000000     
   3.9254866646468982E-002  0.14208071631390143        0.0000000000000000     
   4.0026316181607631E-002  0.14962624771532679        0.0000000000000000     
   4.0752030453943169E-002  0.15728301928949578        0.0000000000000000     
   4.1432009463475611E-002  0.16505103103640842        0.0000000000000000     
   3.2746918792446171E-002  0.13441877591856546        0.0000000000000000     
   3.3444878983290766E-002  0.14186785371333530        0.0000000000000000     
   3.4103132552847498E-002  0.14942839970921296        0.0000000000000000     
   3.4721679501116376E-002  0.15710041390619847        0.0000000000000000     
   3.5300519828097399E-002  0.16488389630429179        0.0000000000000000     
   2.7144275771507898E-002  0.13422641210678940        0.0000000000000000     
   2.7724146597962240E-002  0.14168831057920728        0.0000000000000000     
   2.8270540227138184E-002  0.14926195929763419        0.0000000000000000     
   2.8783456659035721E-002  0.15694735826206999        0.0000000000000000     
   2.9262895893654859E-002  0.16474450747251476        0.0000000000000000     
   2.1629752785712435E-002  0.13406933364989163        0.0000000000000000     
   2.2092669490483424E-002  0.14154208691151748        0.0000000000000000     
   2.2528539204479680E-002  0.14912692648059039        0.0000000000000000     
   2.2937361927701200E-002  0.15682385235711035        0.0000000000000000     
   2.3319137660147985E-002  0.16463286454107728        0.0000000000000000     
   4.7657364799789499E-002  0.16524591166886465        0.0000000000000000     
   4.8386400517348022E-002  0.17309644377170713        0.0000000000000000     
   4.9059360227300945E-002  0.18103549940551289        0.0000000000000000     
   4.9676243929648256E-002  0.18906307857028179        0.0000000000000000     
   5.0237051624389961E-002  0.19717918126601391        0.0000000000000000     
   4.1432009463475611E-002  0.16505103103640842        0.0000000000000000     
   4.2063901133881046E-002  0.17291901813163779        0.0000000000000000     
   4.2645353388835551E-002  0.18087571575075692        0.0000000000000000     
   4.3176366228339119E-002  0.18892112389376592        0.0000000000000000     
   4.3656939652391785E-002  0.19705524256066467        0.0000000000000000     
   3.5300519828097399E-002  0.16488389630429179        0.0000000000000000     
   3.5837364424348678E-002  0.17276742948325471        0.0000000000000000     
   3.6329924180428311E-002  0.18073959602284906        0.0000000000000000     
   3.6778199096336305E-002  0.18880039592307474        0.0000000000000000     
   3.7182189172072673E-002  0.19694982918393189        0.0000000000000000     
   2.9262895893654859E-002  0.16474450747251476        0.0000000000000000     
   2.9706790388750921E-002  0.17264167782655795        0.0000000000000000     
   3.0113072602079231E-002  0.18062714022178916        0.0000000000000000     
   3.0481742533639798E-002  0.18870089465820836        0.0000000000000000     
   3.0812800183432621E-002  0.19686294113581554        0.0000000000000000     
   2.3319137660147985E-002  0.16463286454107728        0.0000000000000000     
   2.3672179027087775E-002  0.17254176316154754        0.0000000000000000     
   2.3994798653788313E-002  0.18053834834757732        0.0000000000000000     
   2.4286996540249593E-002  0.18862262009916669        0.0000000000000000     
   2.4548772686471626E-002  0.19679457841631559        0.0000000000000000     
   5.0237051624389961E-002  0.19717918126601391        0.0000000000000000     
   5.0739519458839734E-002  0.20537537800946784        0.0000000000000000     
   5.1181383580311227E-002  0.21364323931740209        0.0000000000000000     
   5.1562643988804481E-002  0.22198276518981669        0.0000000000000000     
   5.1883300684319469E-002  0.23039395562671164        0.0000000000000000     
   4.3656939652391785E-002  0.19705524256066467        0.0000000000000000     
   4.4085982115140240E-002  0.20526772275668878        0.0000000000000000     
   4.4462402070731218E-002  0.21354821548707378        0.0000000000000000     
   4.4786199519164724E-002  0.22189672075181968        0.0000000000000000     
   4.5057374460440745E-002  0.23031323855092647        0.0000000000000000     
   3.7182189172072673E-002  0.19694982918393189        0.0000000000000000     
   3.7541677356921078E-002  0.20517579534860203        0.0000000000000000     
   3.7856446600165197E-002  0.21346619396026698        0.0000000000000000     
   3.8126496901805036E-002  0.22182102501892656        0.0000000000000000     
   3.8351828261840595E-002  0.23024028852458098        0.0000000000000000     
   3.0812800183432621E-002  0.19686294113581554        0.0000000000000000     
   3.1106605184182231E-002  0.20509959578520762        0.0000000000000000     
   3.1363517168613166E-002  0.21339717473698158        0.0000000000000000     
   3.1583536136725432E-002  0.22175567799113738        0.0000000000000000     
   3.1766662088519013E-002  0.23017510554767515        0.0000000000000000     
   2.4548772686471626E-002  0.19679457841631559        0.0000000000000000     
   2.4780765596923701E-002  0.20503912406650546        0.0000000000000000     
   2.4983613776075123E-002  0.21334115781721760        0.0000000000000000     
   2.5157317223925894E-002  0.22170067966845214        0.0000000000000000     
   2.5301875940476011E-002  0.23011768962020898        0.0000000000000000     
   5.1883300684319469E-002  0.23039395562671164        0.0000000000000000     
   5.2151437758502381E-002  0.23886842585008192        0.0000000000000000     
   5.2375139302999411E-002  0.24739779108192247        0.0000000000000000     
   5.2554405317810554E-002  0.25598205132223334        0.0000000000000000     
   5.2689235802935816E-002  0.26462120657101434        0.0000000000000000     
   4.5057374460440745E-002  0.23031323855092647        0.0000000000000000     
   4.5284716425788032E-002  0.23878246701365108        0.0000000000000000     
   4.5477014946435329E-002  0.24728910426925046        0.0000000000000000     
   4.5634270022382628E-002  0.25583315031772458        0.0000000000000000     
   4.5756481653629957E-002  0.26441460515907350        0.0000000000000000     
   3.8351828261840595E-002  0.23024028852458098        0.0000000000000000     
   3.8541164700885901E-002  0.23870318468908677        0.0000000000000000     
   3.8703230239554985E-002  0.24718891372430077        0.0000000000000000     
   3.8838024877847849E-002  0.25569747563022288        0.0000000000000000     
   3.8945548615764498E-002  0.26422887040685317        0.0000000000000000     
   3.1766662088519013E-002  0.23017510554767515        0.0000000000000000     
   3.1920782583795979E-002  0.23863057887638905        0.0000000000000000     
   3.2053785182358380E-002  0.24709721944707339        0.0000000000000000     
   3.2165669884206202E-002  0.25557502725972819        0.0000000000000000     
   3.2256436689339460E-002  0.26406400231435356        0.0000000000000000     
   2.5301875940476011E-002  0.23011768962020898        0.0000000000000000     
   2.5423570074518287E-002  0.23856464957555784        0.0000000000000000     
   2.5528679774845513E-002  0.24701402143756837        0.0000000000000000     
   2.5617205041457695E-002  0.25546580520624063        0.0000000000000000     
   2.5689145874354835E-002  0.26392000088157441        0.0000000000000000     
   5.2689235802935816E-002  0.26462120657101434        0.0000000000000000     
   5.2810464246429503E-002  0.27326603650024084        0.0000000000000000     
   5.2948924136345929E-002  0.28186732078188786        0.0000000000000000     
   5.3104615472685114E-002  0.29042505941595531        0.0000000000000000     
   5.3277538255447031E-002  0.29893925240244340        0.0000000000000000     
   4.5756481653629957E-002  0.26441460515907350        0.0000000000000000     
   4.5867792860293820E-002  0.27298352333867210        0.0000000000000000     
   4.5992346662490781E-002  0.28148995940189558        0.0000000000000000     
   4.6130143060220841E-002  0.28993391334874380        0.0000000000000000     
   4.6281182053483992E-002  0.29831538517921685        0.0000000000000000     
   3.8945548615764498E-002  0.26422887040685317        0.0000000000000000     
   3.9044608239067427E-002  0.27273192649055700        0.0000000000000000     
   3.9154010533519142E-002  0.28115547231769950        0.0000000000000000     
   3.9273755499119642E-002  0.28949950788828072        0.0000000000000000     
   3.9403843135868921E-002  0.29776403320230072        0.0000000000000000     
   3.2256436689339460E-002  0.26406400231435356        0.0000000000000000     
   3.2340910382750339E-002  0.27251124595589521        0.0000000000000000     
   3.2433915749431018E-002  0.28086385952929943        0.0000000000000000     
   3.2535452789381518E-002  0.28912184303456612        0.0000000000000000     
   3.2645521502601825E-002  0.29728519647169516        0.0000000000000000     
   2.5689145874354835E-002  0.26392000088157441        0.0000000000000000     
   2.5756699291342541E-002  0.27232148173468707        0.0000000000000000     
   2.5832062310226420E-002  0.28061512103669556        0.0000000000000000     
   2.5915234931006469E-002  0.28880091878759978        0.0000000000000000     
   2.6006217153682690E-002  0.29687887498740001        0.0000000000000000     
   1.4018063901493676E-002   5.5758806275346129E-002   0.0000000000000000     
   1.4793995970272270E-002   6.1356403184121236E-002   0.0000000000000000     
   1.5543034309843978E-002   6.7137393756004818E-002   0.0000000000000000     
   1.6265178920208803E-002   7.3101777990996861E-002   0.0000000000000000     
   1.6960429801366746E-002   7.9249555889097378E-002   0.0000000000000000     
   1.0475036652856852E-002   5.5532043607386228E-002   0.0000000000000000     
   1.1054070567950665E-002   6.1143036348360456E-002   0.0000000000000000     
   1.1613819135841599E-002   6.6935767494660611E-002   0.0000000000000000     
   1.2154282356529652E-002   7.2910237046286686E-002   0.0000000000000000     
   1.2675460230014824E-002   7.9066445003238686E-002   0.0000000000000000     
   6.9570493404570149E-003   5.5387510251091912E-002   0.0000000000000000     
   7.3412934603983597E-003   6.1003725583523342E-002   0.0000000000000000     
   7.7132285882629764E-003   6.6801342641565856E-002   0.0000000000000000     
   8.0728547240508670E-003   7.2780361425219472E-002   0.0000000000000000     
   8.4201718677620295E-003   7.8940781934484144E-002   0.0000000000000000     
   3.4641019642941652E-003   5.5325206206463182E-002   0.0000000000000000     
   3.6556646476153479E-003   6.0938470889609908E-002   0.0000000000000000     
   3.8412626671081081E-003   6.6734119196720579E-002   0.0000000000000000     
   4.0208960227724458E-003   7.2712151127795180E-002   0.0000000000000000     
   4.1945647146083599E-003   7.8872566682833767E-002   0.0000000000000000     
  -3.8054756316976100E-006   5.5345131473500037E-002   0.0000000000000000     
  -2.8158703983679426E-006   6.0947272266620132E-002   0.0000000000000000     
  -2.0786276230062763E-006   6.6734097160124739E-002   0.0000000000000000     
  -1.5937473056112559E-006   7.2705606154013877E-002   0.0000000000000000     
  -1.3612294461843449E-006   7.8861799248287540E-002   0.0000000000000000     
   1.6960429801366746E-002   7.9249555889097378E-002   0.0000000000000000     
   1.7630534395568179E-002   8.5568702780222786E-002   0.0000000000000000     
   1.8277240145063489E-002   9.2047193994289497E-002   0.0000000000000000     
   1.8900547049852674E-002   9.8685029531297527E-002   0.0000000000000000     
   1.9500455109935731E-002  0.10548220939124688        0.0000000000000000     
   1.2675460230014824E-002   7.9066445003238686E-002   0.0000000000000000     
   1.3178135419495644E-002   8.5393176107264046E-002   0.0000000000000000     
   1.3663090588170643E-002   9.1879215100110212E-002   0.0000000000000000     
   1.4130325736039824E-002   9.8524561981777156E-002   0.0000000000000000     
   1.4579840863103181E-002  0.10532921675226489        0.0000000000000000     
   8.4201718677620295E-003   7.8940781934484144E-002   0.0000000000000000     
   8.7553707096641210E-003   8.5271707027133589E-002   0.0000000000000000     
   9.0786419400247891E-003   9.1762239560941414E-002   0.0000000000000000     
   9.3899855588440388E-003   9.8412379535907632E-002   0.0000000000000000     
   9.6894015661218701E-003  0.10522212695203226        0.0000000000000000     
   4.1945647146083599E-003   7.8872566682833767E-002   0.0000000000000000     
   4.3622402660736014E-003   8.5204295539831387E-002   0.0000000000000000     
   4.5238942006259218E-003   9.1696267376783130E-002   0.0000000000000000     
   4.6795265182653202E-003   9.8348482193688982E-002   0.0000000000000000     
   4.8291372189917950E-003  0.10516093999054896        0.0000000000000000     
  -1.3612294461843449E-006   7.8861799248287540E-002   0.0000000000000000     
  -1.2559112759066501E-006   8.5190941645357426E-002   0.0000000000000000     
  -1.1526300259560255E-006   9.1681298547635320E-002   0.0000000000000000     
  -1.0513856963356694E-006   9.8332869955121194E-002   0.0000000000000000     
  -9.5217828704292559E-007  0.10514565586781503        0.0000000000000000     
   1.9500455109935731E-002  0.10548220939124688        0.0000000000000000     
   2.0074692692969267E-002  0.11242654367347718        0.0000000000000000     
   2.0620988166609899E-002  0.11950584247732807        0.0000000000000000     
   2.1139341530857617E-002  0.12672010580279955        0.0000000000000000     
   2.1629752785712435E-002  0.13406933364989163        0.0000000000000000     
   1.4579840863103181E-002  0.10532921675226489        0.0000000000000000     
   1.5010030970410780E-002  0.11228112670852872        0.0000000000000000     
   1.5419291059012687E-002  0.11936823914752404        0.0000000000000000     
   1.5807621128908902E-002  0.12659055406925071        0.0000000000000000     
   1.6175021180099419E-002  0.13394807147370888        0.0000000000000000     
   9.6894015661218701E-003  0.10522212695203226        0.0000000000000000     
   9.9758876381013748E-003  0.11217935465156298        0.0000000000000000     
   1.0248441451025653E-002  0.11927193547674750        0.0000000000000000     
   1.0507063004894698E-002  0.12649986942758584        0.0000000000000000     
   1.0751752299708517E-002  0.13386315650407798        0.0000000000000000     
   4.8291372189917950E-003  0.10516093999054896        0.0000000000000000     
   4.9722626960410502E-003  0.11212122750257986        0.0000000000000000     
   5.1084393426487898E-003  0.11921693146499852        0.0000000000000000     
   5.2376671588150120E-003  0.12644805187780486        0.0000000000000000     
   5.3599461445397187E-003  0.13381458874099900        0.0000000000000000     
  -9.5217828704292559E-007  0.10514565586781503        0.0000000000000000     
  -8.4385577019227727E-007  0.11210674526157946        0.0000000000000000     
  -7.1526611789712348E-007  0.11920322711227707        0.0000000000000000     
  -5.6640933015686791E-007  0.12643510141990782        0.0000000000000000     
  -3.9728540697026374E-007  0.13380236818447180        0.0000000000000000     
   2.1629752785712435E-002  0.13406933364989163        0.0000000000000000     
   2.2092669490483424E-002  0.14154208691151748        0.0000000000000000     
   2.2528539204479680E-002  0.14912692648059039        0.0000000000000000     
   2.2937361927701200E-002  0.15682385235711035        0.0000000000000000     
   2.3319137660147985E-002  0.16463286454107728        0.0000000000000000     
   1.6175021180099419E-002  0.13394807147370888        0.0000000000000000     
   1.6521725094034073E-002  0.14142937866478827        0.0000000000000000     
   1.6847966752162682E-002  0.14902306294637871        0.0000000000000000     
   1.7153746154485248E-002  0.15672912431848016        0.0000000000000000     
   1.7439063301001770E-002  0.16454756278109270        0.0000000000000000     
   1.0751752299708517E-002  0.13386315650407798        0.0000000000000000     
   1.0982590841793961E-002  0.14135038179354206        0.0000000000000000     
   1.1199660137477890E-002  0.14895013038329616        0.0000000000000000     
   1.1402960186760300E-002  0.15666240227334016        0.0000000000000000     
   1.1592490989641196E-002  0.16448719746367418        0.0000000000000000     
   5.3599461445397187E-003  0.13381458874099900        0.0000000000000000     
   5.4752667337630897E-003  0.14130509629777888        0.0000000000000000     
   5.5836193604253048E-003  0.14890812879134260        0.0000000000000000     
   5.6850040245263640E-003  0.15662368622169023        0.0000000000000000     
   5.7794207260662665E-003  0.16445176858882180        0.0000000000000000     
  -3.9728540697026374E-007  0.13380236818447180        0.0000000000000000     
  -2.4723005854110532E-007  0.14129352217749869        0.0000000000000000     
  -1.5557899507416279E-007  0.14889705817051826        0.0000000000000000     
  -1.2233221656675277E-007  0.15661297616353054        0.0000000000000000     
  -1.4748972301976970E-007  0.16444127615653545        0.0000000000000000     
   2.3319137660147985E-002  0.16463286454107728        0.0000000000000000     
   2.3672179027087775E-002  0.17254176316154754        0.0000000000000000     
   2.3994798653788313E-002  0.18053834834757732        0.0000000000000000     
   2.4286996540249593E-002  0.18862262009916669        0.0000000000000000     
   2.4548772686471626E-002  0.19679457841631559        0.0000000000000000     
   1.7439063301001770E-002  0.16454756278109270        0.0000000000000000     
   1.7702683765857562E-002  0.17246573719088684        0.0000000000000000     
   1.7943373123197937E-002  0.18047100640453329        0.0000000000000000     
   1.8161131373022887E-002  0.18856337042203197        0.0000000000000000     
   1.8355958515332428E-002  0.19674282924338291        0.0000000000000000     
   1.1592490989641196E-002  0.16448719746367418        0.0000000000000000     
   1.1767458031558584E-002  0.17241165161723934        0.0000000000000000     
   1.1927066797950477E-002  0.18042290039697670        0.0000000000000000     
   1.2071317288816871E-002  0.18852094380288636        0.0000000000000000     
   1.2200209504157769E-002  0.19670578183496826        0.0000000000000000     
   5.7794207260662665E-003  0.16445176858882180        0.0000000000000000     
   5.8665018241908472E-003  0.17237950644060498        0.0000000000000000     
   5.9458796780459382E-003  0.18039403032490772        0.0000000000000000     
   6.0175542876315397E-003  0.18849534024172993        0.0000000000000000     
   6.0815256529476499E-003  0.19668343619107168        0.0000000000000000     
  -1.4748972301976970E-007  0.16444127615653545        0.0000000000000000     
  -1.8485624565171659E-007  0.17236930166098377        0.0000000000000000     
  -1.8823651568022903E-007  0.18038439618832613        0.0000000000000000     
  -1.5763053310617441E-007  0.18848655973856260        0.0000000000000000     
  -9.3038297929552705E-008  0.19667579231169313        0.0000000000000000     
   2.4548772686471626E-002  0.19679457841631559        0.0000000000000000     
   2.4780765596923701E-002  0.20503912406650546        0.0000000000000000     
   2.4983613776075123E-002  0.21334115781721760        0.0000000000000000     
   2.5157317223925894E-002  0.22170067966845214        0.0000000000000000     
   2.5301875940476011E-002  0.23011768962020898        0.0000000000000000     
   1.8355958515332428E-002  0.19674282924338291        0.0000000000000000     
   1.8528548734847692E-002  0.20499308583177520        0.0000000000000000     
   1.8679596216289829E-002  0.21329784315039801        0.0000000000000000     
   1.8809100959658841E-002  0.22165710119925128        0.0000000000000000     
   1.8917062964954719E-002  0.23007085997833512        0.0000000000000000     
   1.2200209504157769E-002  0.19670578183496826        0.0000000000000000     
   1.2314344737656415E-002  0.20496018672029664        0.0000000000000000     
   1.2414324282996049E-002  0.21326693068594574        0.0000000000000000     
   1.2500148140176677E-002  0.22162601373191557        0.0000000000000000     
   1.2571816309198290E-002  0.23003743585820613        0.0000000000000000     
   6.0815256529476499E-003  0.19668343619107168        0.0000000000000000     
   6.1381536053498678E-003  0.20494042673206966        0.0000000000000000     
   6.1877979761937848E-003  0.21324842042386075        0.0000000000000000     
   6.2304587654794007E-003  0.22160741726644487        0.0000000000000000     
   6.2661359732067174E-003  0.23001741725982203        0.0000000000000000     
  -9.3038297929552705E-008  0.19667579231169313        0.0000000000000000     
  -2.4662071951460363E-008  0.20493380586709442        0.0000000000000000     
   1.7295883031342996E-008  0.21324231236414312        0.0000000000000000     
   3.2835567015387923E-008  0.22160131180283923        0.0000000000000000     
   2.1956980001975462E-008  0.23001080418318276        0.0000000000000000     
   2.5301875940476011E-002  0.23011768962020898        0.0000000000000000     
   2.5423570074518287E-002  0.23856464957555784        0.0000000000000000     
   2.5528679774845513E-002  0.24701402143756837        0.0000000000000000     
   2.5617205041457695E-002  0.25546580520624063        0.0000000000000000     
   2.5689145874354835E-002  0.26392000088157441        0.0000000000000000     
   1.8917062964954719E-002  0.23007085997833512        0.0000000000000000     
   1.9007876330400238E-002  0.23850988341094204        0.0000000000000000     
   1.9085935154218154E-002  0.24694493542036464        0.0000000000000000     
   1.9151239436408465E-002  0.25537601600660298        0.0000000000000000     
   1.9203789176971173E-002  0.26380312516965693        0.0000000000000000     
   1.2571816309198290E-002  0.23003743585820613        0.0000000000000000     
   1.2632050508789294E-002  0.23847076700689027        0.0000000000000000     
   1.2683572457678082E-002  0.24689557712004098        0.0000000000000000     
   1.2726382155864658E-002  0.25531186619765817        0.0000000000000000     
   1.2760479603349017E-002  0.26371963423974187        0.0000000000000000     
   6.2661359732067174E-003  0.23001741725982203        0.0000000000000000     
   6.2960926096854459E-003  0.23844730036340273        0.0000000000000000     
   6.3215916852252963E-003  0.24686594653659749        0.0000000000000000     
   6.3426331998262721E-003  0.25527335577940635        0.0000000000000000     
   6.3592171534883699E-003  0.26366952809182925        0.0000000000000000     
   2.1956980001975462E-008  0.23001080418318276        0.0000000000000000     
   2.6330886947808357E-009  0.23843948348047925        0.0000000000000000     
  -7.1631402025207347E-009  0.24685604367003411        0.0000000000000000     
  -7.4317066894955680E-009  0.25526048475184743        0.0000000000000000     
   1.8273892325552932E-009  0.26365280672591918        0.0000000000000000     
   2.5689145874354835E-002  0.26392000088157441        0.0000000000000000     
   2.5756699291342541E-002  0.27232148173468707        0.0000000000000000     
   2.5832062310226420E-002  0.28061512103669556        0.0000000000000000     
   2.5915234931006469E-002  0.28880091878759978        0.0000000000000000     
   2.6006217153682690E-002  0.29687887498740001        0.0000000000000000     
   1.9203789176971173E-002  0.26380312516965693        0.0000000000000000     
   1.9253555610631384E-002  0.27216896417488279        0.0000000000000000     
   1.9310509972114222E-002  0.28041623428763646        0.0000000000000000     
   1.9374652261419684E-002  0.28854493550791810        0.0000000000000000     
   1.9445982478547754E-002  0.29655506783572760        0.0000000000000000     
   1.2760479603349017E-002  0.26371963423974187        0.0000000000000000     
   1.2793059986404219E-002  0.27206002362443260        0.0000000000000000     
   1.2831318491303326E-002  0.28027417672987093        0.0000000000000000     
   1.2875255118046332E-002  0.28836209355605674        0.0000000000000000     
   1.2924869866633238E-002  0.29632377410299010        0.0000000000000000     
   6.3592171534883699E-003  0.26366952809182925        0.0000000000000000     
   6.3752124186610380E-003  0.27199466008333667        0.0000000000000000     
   6.3944878677937222E-003  0.28018894836339886        0.0000000000000000     
   6.4170435008864234E-003  0.28825239293201588        0.0000000000000000     
   6.4428793179391389E-003  0.29618499378918772        0.0000000000000000     
   1.8273892325552932E-009  0.26365280672591918        0.0000000000000000     
   1.2907401843523236E-008  0.27197287355159488        0.0000000000000000     
   1.8101585417119696E-008  0.28016054918822036        0.0000000000000000     
   1.7409939956461755E-008  0.28821583363579539        0.0000000000000000     
   1.0832465459353902E-008  0.29613872689432019        0.0000000000000000     
  -3.8054756316976100E-006   5.5345131473500037E-002   0.0000000000000000     
  -2.8158703983679426E-006   6.0947272266620132E-002   0.0000000000000000     
  -2.0786276230062763E-006   6.6734097160124739E-002   0.0000000000000000     
  -1.5937473056112559E-006   7.2705606154013877E-002   0.0000000000000000     
  -1.3612294461843449E-006   7.8861799248287540E-002   0.0000000000000000     
  -3.4710701378451629E-003   5.5418605806654045E-002   0.0000000000000000     
  -3.6608365824083115E-003   6.1008876947987935E-002   0.0000000000000000     
  -3.8450944404940122E-003   6.6785947255394773E-002   0.0000000000000000     
  -4.0238437121022643E-003   7.2749816728874539E-002   0.0000000000000000     
  -4.1970843972330670E-003   7.8900485368427253E-002   0.0000000000000000     
  -6.9620891808708212E-003   5.5516948960376768E-002   0.0000000000000000     
  -7.3450859771800108E-003   6.1102032167147227E-002   0.0000000000000000     
  -7.7160839160685642E-003   6.6874340206147048E-002   0.0000000000000000     
  -8.0750829975364761E-003   7.2833873077376210E-002   0.0000000000000000     
  -8.4220832215837534E-003   7.8980630780834685E-002   0.0000000000000000     
  -1.0476862604708670E-002   5.5640160934668191E-002   0.0000000000000000     
  -1.1055564054713463E-002   6.1226737924098031E-002   0.0000000000000000     
  -1.1615047054346656E-002   6.6999276012381592E-002   0.0000000000000000     
  -1.2155311603608249E-002   7.2957775199518862E-002   0.0000000000000000     
  -1.2676357702498241E-002   7.9102235485509875E-002   0.0000000000000000     
  -1.4015390409358711E-002   5.5788241729528343E-002   0.0000000000000000     
  -1.4792270815008668E-002   6.1382994218840303E-002   0.0000000000000000     
  -1.5541983855328290E-002   6.7160754674098377E-002   0.0000000000000000     
  -1.6264529530317578E-002   7.3121523095302524E-002   0.0000000000000000     
  -1.6959907839976533E-002   7.9265299482452783E-002   0.0000000000000000     
  -1.3612294461843449E-006   7.8861799248287540E-002   0.0000000000000000     
  -1.2559112759066501E-006   8.5190941645357426E-002   0.0000000000000000     
  -1.1526300259560255E-006   9.1681298547635320E-002   0.0000000000000000     
  -1.0513856963356694E-006   9.8332869955121194E-002   0.0000000000000000     
  -9.5217828704292559E-007  0.10514565586781503        0.0000000000000000     
  -4.1970843972330670E-003   7.8900485368427253E-002   0.0000000000000000     
  -4.3645617167580499E-003   8.5225560671767481E-002   0.0000000000000000     
  -4.5260208915488421E-003   9.1712650136609841E-002   0.0000000000000000     
  -4.6814619216054417E-003   9.8361753762954349E-002   0.0000000000000000     
  -4.8308848069278498E-003  0.10517287155080096        0.0000000000000000     
  -8.4220832215837534E-003   7.8980630780834685E-002   0.0000000000000000     
  -8.7571210447464770E-003   8.5302067947117213E-002   0.0000000000000000     
  -9.0802329235607319E-003   9.1785639206818481E-002   0.0000000000000000     
  -9.3914188580265130E-003   9.8431344559938488E-002   0.0000000000000000     
  -9.6906788481438307E-003  0.10523918400647725        0.0000000000000000     
  -1.2676357702498241E-002   7.9102235485509875E-002   0.0000000000000000     
  -1.3178933895241180E-002   8.5420463471406638E-002   0.0000000000000000     
  -1.3663788726061618E-002   9.1900265758261240E-002   0.0000000000000000     
  -1.4130922194959558E-002   9.8541642346073655E-002   0.0000000000000000     
  -1.4580334301934988E-002  0.10534459323484388        0.0000000000000000     
  -1.6959907839976533E-002   7.9265299482452783E-002   0.0000000000000000     
  -1.7630000268242171E-002   8.5580747244635755E-002   0.0000000000000000     
  -1.8276688299051515E-002   9.2056529790938105E-002   0.0000000000000000     
  -1.8899971932404561E-002   9.8692647121359792E-002   0.0000000000000000     
  -1.9499851168301319E-002  0.10548909923590086        0.0000000000000000     
  -9.5217828704292559E-007  0.10514565586781503        0.0000000000000000     
  -8.4385577019227727E-007  0.11210674526157946        0.0000000000000000     
  -7.1526611789712348E-007  0.11920322711227707        0.0000000000000000     
  -5.6640933015686791E-007  0.12643510141990782        0.0000000000000000     
  -3.9728540697026374E-007  0.13380236818447180        0.0000000000000000     
  -4.8308848069278498E-003  0.10517287155080096        0.0000000000000000     
  -4.9738060709957317E-003  0.11213264949770303        0.0000000000000000     
  -5.1097422372887490E-003  0.11922773360121386        0.0000000000000000     
  -5.2386933058069024E-003  0.12645812386133345        0.0000000000000000     
  -5.3606592765501953E-003  0.13382382027806183        0.0000000000000000     
  -9.6906788481438307E-003  0.10523918400647725        0.0000000000000000     
  -9.9769980032989418E-003  0.11219568178009190        0.0000000000000000     
  -1.0249361432878105E-002  0.11928736211443966        0.0000000000000000     
  -1.0507769136881324E-002  0.12651422500952050        0.0000000000000000     
  -1.0752221115308597E-002  0.13387627046533440        0.0000000000000000     
  -1.4580334301934988E-002  0.10534459323484388        0.0000000000000000     
  -1.5010419652679822E-002  0.11229584210874607        0.0000000000000000     
  -1.5419572852885966E-002  0.11938211265195443        0.0000000000000000     
  -1.5807793902553418E-002  0.12660340486446892        0.0000000000000000     
  -1.6175082801682176E-002  0.13395971874628959        0.0000000000000000     
  -1.9499851168301319E-002  0.10548909923590086        0.0000000000000000     
  -2.0074071019138374E-002  0.11243313048366556        0.0000000000000000     
  -2.0620376497312329E-002  0.11951198521375819        0.0000000000000000     
  -2.1138767602823180E-002  0.12672566342617875        0.0000000000000000     
  -2.1629244335670934E-002  0.13407416512092729        0.0000000000000000     
  -3.9728540697026374E-007  0.13380236818447180        0.0000000000000000     
  -2.4723005854110532E-007  0.14129352217749869        0.0000000000000000     
  -1.5557899507416279E-007  0.14889705817051826        0.0000000000000000     
  -1.2233221656675277E-007  0.15661297616353054        0.0000000000000000     
  -1.4748972301976970E-007  0.16444127615653545        0.0000000000000000     
  -5.3606592765501953E-003  0.13382382027806183        0.0000000000000000     
  -5.4757026699903434E-003  0.14131326977109715        0.0000000000000000     
  -5.5838860065990639E-003  0.14891491926013758        0.0000000000000000     
  -5.6852092863763602E-003  0.15662876874518319        0.0000000000000000     
  -5.7796725093222298E-003  0.16445481822623392        0.0000000000000000     
  -1.0752221115308597E-002  0.13387627046533440        0.0000000000000000     
  -1.0982851206351719E-002  0.14136194941696986        0.0000000000000000     
  -1.1199793248202482E-002  0.14895971279951525        0.0000000000000000     
  -1.1403047240860883E-002  0.15666956061297060        0.0000000000000000     
  -1.1592613184326927E-002  0.16449149285733586        0.0000000000000000     
  -1.6175082801682176E-002  0.13395971874628959        0.0000000000000000     
  -1.6521692839142670E-002  0.14143956111511685        0.0000000000000000     
  -1.6847877303805329E-002  0.14903143878865122        0.0000000000000000     
  -1.7153636195670136E-002  0.15673535176689271        0.0000000000000000     
  -1.7438969514737113E-002  0.16455130004984134        0.0000000000000000     
  -2.1629244335670934E-002  0.13407416512092729        0.0000000000000000     
  -2.2092227568363203E-002  0.14154610486553806        0.0000000000000000     
  -2.2528138173407600E-002  0.14913009722754547        0.0000000000000000     
  -2.2936976150804131E-002  0.15682614220694954        0.0000000000000000     
  -2.3318741500552791E-002  0.16463423980375025        0.0000000000000000     
  -1.4748972301976970E-007  0.16444127615653545        0.0000000000000000     
  -1.8485624565171659E-007  0.17236930166098377        0.0000000000000000     
  -1.8823651568022903E-007  0.18038439618832613        0.0000000000000000     
  -1.5763053310617441E-007  0.18848655973856260        0.0000000000000000     
  -9.3038297929552705E-008  0.19667579231169313        0.0000000000000000     
  -5.7796725093222298E-003  0.16445481822623392        0.0000000000000000     
  -5.8668233304973259E-003  0.17238069089686511        0.0000000000000000     
  -5.9462094049622998E-003  0.18039400995065213        0.0000000000000000     
  -6.0178307327171544E-003  0.18849477538759490        0.0000000000000000     
  -6.0816873137618868E-003  0.19668298720769350        0.0000000000000000     
  -1.1592613184326927E-002  0.16449149285733586        0.0000000000000000     
  -1.1767634919310588E-002  0.17241332776673843        0.0000000000000000     
  -1.1927256286521843E-002  0.18042288357530561        0.0000000000000000     
  -1.2071477285960693E-002  0.18852016028303734        0.0000000000000000     
  -1.2200297917627136E-002  0.19670515788993367        0.0000000000000000     
  -1.7438969514737113E-002  0.16455130004984134        0.0000000000000000     
  -1.7702619622685437E-002  0.17246721227060369        0.0000000000000000     
  -1.7943328881194306E-002  0.18047101706228658        0.0000000000000000     
  -1.8161097290263720E-002  0.18856271442488984        0.0000000000000000     
  -1.8355924849893675E-002  0.19674230435841367        0.0000000000000000     
  -2.3318741500552791E-002  0.16463423980375025        0.0000000000000000     
  -2.3671777440621881E-002  0.17254234440846095        0.0000000000000000     
  -2.3994427188979695E-002  0.18053841041159499        0.0000000000000000     
  -2.4286690745626238E-002  0.18862243781315252        0.0000000000000000     
  -2.4548568110561511E-002  0.19679442661313346        0.0000000000000000     
  -9.3038297929552705E-008  0.19667579231169313        0.0000000000000000     
  -2.4662071951460363E-008  0.20493380586709442        0.0000000000000000     
   1.7295883031342996E-008  0.21324231236414312        0.0000000000000000     
   3.2835567015387923E-008  0.22160131180283923        0.0000000000000000     
   2.1956980001975462E-008  0.23001080418318276        0.0000000000000000     
  -6.0816873137618868E-003  0.19668298720769350        0.0000000000000000     
  -6.1381933209418999E-003  0.20494034902095409        0.0000000000000000     
  -6.1877629271025946E-003  0.21324856443738274        0.0000000000000000     
  -6.2303961322439762E-003  0.22160763345697948        0.0000000000000000     
  -6.2660929363660351E-003  0.23001755607974433        0.0000000000000000     
  -1.2200297917627136E-002  0.19670515788993367        0.0000000000000000     
  -1.2314355627592843E-002  0.20496008108923200        0.0000000000000000     
  -1.2414287861929486E-002  0.21326713457416957        0.0000000000000000     
  -1.2500094620637062E-002  0.22162631834474644        0.0000000000000000     
  -1.2571775903715575E-002  0.23003763240096259        0.0000000000000000     
  -1.8355924849893675E-002  0.19674230435841367        0.0000000000000000     
  -1.8528511582024780E-002  0.20499300207192817        0.0000000000000000     
  -1.8679557508597639E-002  0.21329802277450369        0.0000000000000000     
  -1.8809062629612256E-002  0.22165736646614018        0.0000000000000000     
  -1.8917026945068617E-002  0.23007103314683761        0.0000000000000000     
  -2.4548568110561511E-002  0.19679442661313346        0.0000000000000000     
  -2.4780661184237714E-002  0.20503911196904262        0.0000000000000000     
  -2.4983571867107056E-002  0.21334122903838498        0.0000000000000000     
  -2.5157300159169543E-002  0.22170077782116054        0.0000000000000000     
  -2.5301846060425164E-002  0.23011775831736930        0.0000000000000000     
   2.1956980001975462E-008  0.23001080418318276        0.0000000000000000     
   2.6330886947808357E-009  0.23843948348047925        0.0000000000000000     
  -7.1631402025207347E-009  0.24685604367003411        0.0000000000000000     
  -7.4317066894955680E-009  0.25526048475184743        0.0000000000000000     
   1.8273892325552932E-009  0.26365280672591918        0.0000000000000000     
  -6.2660929363660351E-003  0.23001755607974433        0.0000000000000000     
  -6.2960842368783273E-003  0.23844731364305111        0.0000000000000000     
  -6.3216009311903906E-003  0.24686588748427354        0.0000000000000000     
  -6.3426430193022319E-003  0.25527327760341167        0.0000000000000000     
  -6.3592105012138488E-003  0.26366948400046553        0.0000000000000000     
  -1.2571775903715575E-002  0.23003763240096259        0.0000000000000000     
  -1.2632032816092981E-002  0.23847078813604947        0.0000000000000000     
  -1.2683566462697242E-002  0.24689549694323840        0.0000000000000000     
  -1.2726376843528356E-002  0.25531175882252938        0.0000000000000000     
  -1.2760463958586325E-002  0.26371957377392247        0.0000000000000000     
  -1.8917026945068617E-002  0.23007103314683761        0.0000000000000000     
  -1.9007843104555278E-002  0.23850990695947433        0.0000000000000000     
  -1.9085903757660758E-002  0.24694487204692867        0.0000000000000000     
  -1.9151208904385066E-002  0.25537592840920048        0.0000000000000000     
  -1.9203758544728194E-002  0.26380307604628994        0.0000000000000000     
  -2.5301846060425164E-002  0.23011775831736930        0.0000000000000000     
  -2.5423515102265207E-002  0.23856467011332572        0.0000000000000000     
  -2.5528612816080935E-002  0.24701401279534432        0.0000000000000000     
  -2.5617139201872356E-002  0.25546578636342510        0.0000000000000000     
  -2.5689094259639462E-002  0.26391999081756801        0.0000000000000000     
   1.8273892325552932E-009  0.26365280672591918        0.0000000000000000     
   1.2907401843523236E-008  0.27197287355159488        0.0000000000000000     
   1.8101585417119696E-008  0.28016054918822036        0.0000000000000000     
   1.7409939956461755E-008  0.28821583363579539        0.0000000000000000     
   1.0832465459353902E-008  0.29613872689432019        0.0000000000000000     
  -6.3592105012138488E-003  0.26366948400046553        0.0000000000000000     
  -6.3751860196447751E-003  0.27199466331055921        0.0000000000000000     
  -6.3944522173145502E-003  0.28018897216881694        0.0000000000000000     
  -6.4170090942231705E-003  0.28825241057523870        0.0000000000000000     
  -6.4428566503706396E-003  0.29618497852982456        0.0000000000000000     
  -1.2760463958586325E-002  0.26371957377392247        0.0000000000000000     
  -1.2793031834750225E-002  0.27206002864158146        0.0000000000000000     
  -1.2831284498899137E-002  0.28027421026967037        0.0000000000000000     
  -1.2875221951033062E-002  0.28836211865818917        0.0000000000000000     
  -1.2924844191152002E-002  0.29632375380713777        0.0000000000000000     
  -1.9203758544728194E-002  0.26380307604628994        0.0000000000000000     
  -1.9253524537914506E-002  0.27216896954466174        0.0000000000000000     
  -1.9310478743168349E-002  0.28041626349078064        0.0000000000000000     
  -1.9374621160489713E-002  0.28854495788464657        0.0000000000000000     
  -1.9445951789878620E-002  0.29655505272625976        0.0000000000000000     
  -2.5689094259639462E-002  0.26391999081756801        0.0000000000000000     
  -2.5756664129137623E-002  0.27232148601980000        0.0000000000000000     
  -2.5832034950122179E-002  0.28061513183214776        0.0000000000000000     
  -2.5915206722593141E-002  0.28880092825461123        0.0000000000000000     
  -2.6006179446550502E-002  0.29687887528719059        0.0000000000000000     
  -1.4015390409358711E-002   5.5788241729528343E-002   0.0000000000000000     
  -1.4792270815008668E-002   6.1382994218840303E-002   0.0000000000000000     
  -1.5541983855328290E-002   6.7160754674098377E-002   0.0000000000000000     
  -1.6264529530317578E-002   7.3121523095302524E-002   0.0000000000000000     
  -1.6959907839976533E-002   7.9265299482452783E-002   0.0000000000000000     
  -1.7612313924060478E-002   5.5993887121750227E-002   0.0000000000000000     
  -1.8587227552638759E-002   6.1595188991563930E-002   0.0000000000000000     
  -1.9527071686324966E-002   6.7376502030450022E-002   0.0000000000000000     
  -2.0431846325119084E-002   7.3337826238408496E-002   0.0000000000000000     
  -2.1301551469021126E-002   7.9479161615439345E-002   0.0000000000000000     
  -2.1302274478053509E-002   5.6289792888126890E-002   0.0000000000000000     
  -2.2472455562176880E-002   6.1887710182458741E-002   0.0000000000000000     
  -2.3600487914648170E-002   6.7664243920589132E-002   0.0000000000000000     
  -2.4686371535467384E-002   7.3619394102518054E-002   0.0000000000000000     
  -2.5730106424634518E-002   7.9753160728245495E-002   0.0000000000000000     
  -2.5085272071337799E-002   5.6675959028658331E-002   0.0000000000000000     
  -2.6447954843623018E-002   6.2260557791524770E-002   0.0000000000000000     
  -2.7762232540297912E-002   6.8023980344515733E-002   0.0000000000000000     
  -2.9028105161362470E-002   7.3966226687631226E-002   0.0000000000000000     
  -3.0245572706816708E-002   8.0087296820871234E-002   0.0000000000000000     
  -2.8961306703913350E-002   5.7152385543344536E-002   0.0000000000000000     
  -3.0513725396977179E-002   6.2713731818761984E-002   0.0000000000000000     
  -3.2012305563274182E-002   6.8455711302229799E-002   0.0000000000000000     
  -3.3457047202804353E-002   7.4378323993747997E-002   0.0000000000000000     
  -3.4847950315567706E-002   8.0481569893316535E-002   0.0000000000000000     
  -1.6959907839976533E-002   7.9265299482452783E-002   0.0000000000000000     
  -1.7630000268242171E-002   8.5580747244635755E-002   0.0000000000000000     
  -1.8276688299051515E-002   9.2056529790938105E-002   0.0000000000000000     
  -1.8899971932404561E-002   9.8692647121359792E-002   0.0000000000000000     
  -1.9499851168301319E-002  0.10548909923590086        0.0000000000000000     
  -2.1301551469021126E-002   7.9479161615439345E-002   0.0000000000000000     
  -2.2139191311629215E-002   8.5790022883165673E-002   0.0000000000000000     
  -2.2947770046541485E-002   9.2259924763210557E-002   0.0000000000000000     
  -2.3727287673757935E-002   9.8888867255573984E-002   0.0000000000000000     
  -2.4477744193278569E-002  0.10567685036025591        0.0000000000000000     
  -2.5730106424634518E-002   7.9753160728245495E-002   0.0000000000000000     
  -2.6735378173282091E-002   8.6055394003357488E-002   0.0000000000000000     
  -2.7705872372542604E-002   9.2515944133440053E-002   0.0000000000000000     
  -2.8641589022416068E-002   9.9134811118493177E-002   0.0000000000000000     
  -2.9542528122902478E-002  0.10591199495851682        0.0000000000000000     
  -3.0245572706816708E-002   8.0087296820871234E-002   0.0000000000000000     
  -3.1418560853200779E-002   8.6376860605211228E-002   0.0000000000000000     
  -3.2550995277054871E-002   9.2824587901626579E-002   0.0000000000000000     
  -3.3642875978378957E-002   9.9430478710117370E-002   0.0000000000000000     
  -3.4694202957173056E-002  0.10619453303068355        0.0000000000000000     
  -3.4847950315567706E-002   8.0481569893316535E-002   0.0000000000000000     
  -3.6188739351385314E-002   8.6754422688726809E-002   0.0000000000000000     
  -3.7483138760078284E-002   9.3185856067770162E-002   0.0000000000000000     
  -3.8731148541646616E-002   9.9775870030446578E-002   0.0000000000000000     
  -3.9932768696090290E-002  0.10652446457675607        0.0000000000000000     
  -1.9499851168301319E-002  0.10548909923590086        0.0000000000000000     
  -2.0074071019138374E-002  0.11243313048366556        0.0000000000000000     
  -2.0620376497312329E-002  0.11951198521375819        0.0000000000000000     
  -2.1138767602823180E-002  0.12672566342617875        0.0000000000000000     
  -2.1629244335670934E-002  0.13407416512092729        0.0000000000000000     
  -2.4477744193278569E-002  0.10567685036025591        0.0000000000000000     
  -2.5196286032442349E-002  0.11261164797130388        0.0000000000000000     
  -2.5880059618588254E-002  0.11968103398276532        0.0000000000000000     
  -2.6529064951716270E-002  0.12688500839464023        0.0000000000000000     
  -2.7143302031826414E-002  0.13422357120692857        0.0000000000000000     
  -2.9542528122902478E-002  0.10591199495851682        0.0000000000000000     
  -3.0405398622359501E-002  0.11283549563811462        0.0000000000000000     
  -3.1226909469144779E-002  0.11989331314189017        0.0000000000000000     
  -3.2007060663258334E-002  0.12708544746984346        0.0000000000000000     
  -3.2745852204700159E-002  0.13441189862197445        0.0000000000000000     
  -3.4694202957173056E-002  0.10619453303068355        0.0000000000000000     
  -3.5701408788889819E-002  0.11310467348409776        0.0000000000000000     
  -3.6660926048981933E-002  0.12014882269113276        0.0000000000000000     
  -3.7572754737449379E-002  0.12732698065178846        0.0000000000000000     
  -3.8436894854292171E-002  0.13463914736606494        0.0000000000000000     
  -3.9932768696090290E-002  0.10652446457675607        0.0000000000000000     
  -4.1084316532033323E-002  0.11341918150925336        0.0000000000000000     
  -4.2182109358099698E-002  0.12044756263049307        0.0000000000000000     
  -4.3226147174289395E-002  0.12760960794047532        0.0000000000000000     
  -4.4216429980602455E-002  0.13490531743920003        0.0000000000000000     
  -2.1629244335670934E-002  0.13407416512092729        0.0000000000000000     
  -2.2092227568363203E-002  0.14154610486553806        0.0000000000000000     
  -2.2528138173407600E-002  0.14913009722754547        0.0000000000000000     
  -2.2936976150804131E-002  0.15682614220694954        0.0000000000000000     
  -2.3318741500552791E-002  0.16463423980375025        0.0000000000000000     
  -2.7143302031826414E-002  0.13422357120692857        0.0000000000000000     
  -2.7723376821365563E-002  0.14168544584246914        0.0000000000000000     
  -2.8269895282780608E-002  0.14925935572410065        0.0000000000000000     
  -2.8782857416071554E-002  0.15694530085182309        0.0000000000000000     
  -2.9262263221238396E-002  0.16474328122563647        0.0000000000000000     
  -3.2745852204700159E-002  0.13441189862197445        0.0000000000000000     
  -3.3444062025502014E-002  0.14186144922014557        0.0000000000000000     
  -3.4102468057695665E-002  0.14942288188621922        0.0000000000000000     
  -3.4721070301281118E-002  0.15709619662019531        0.0000000000000000     
  -3.5299868756258374E-002  0.16488139342207389        0.0000000000000000     
  -3.8436894854292171E-002  0.13463914736606494        0.0000000000000000     
  -3.9254283180772558E-002  0.14207411499856740        0.0000000000000000     
  -4.0025856498152768E-002  0.14962067571390114        0.0000000000000000     
  -4.0751614806432829E-002  0.15727882951206620        0.0000000000000000     
  -4.1431558105612720E-002  0.16504857639306256        0.0000000000000000     
  -4.4216429980602455E-002  0.13490531743920003        0.0000000000000000     
  -4.5154040287177184E-002  0.14232344317773463        0.0000000000000000     
  -4.6040060604151924E-002  0.14985273720714656        0.0000000000000000     
  -4.6874490931526673E-002  0.15749319952743582        0.0000000000000000     
  -4.7657331269301439E-002  0.16524483013860231        0.0000000000000000     
  -2.3318741500552791E-002  0.16463423980375025        0.0000000000000000     
  -2.3671777440621881E-002  0.17254234440846095        0.0000000000000000     
  -2.3994427188979695E-002  0.18053841041159499        0.0000000000000000     
  -2.4286690745626238E-002  0.18862243781315252        0.0000000000000000     
  -2.4548568110561511E-002  0.19679442661313346        0.0000000000000000     
  -2.9262263221238396E-002  0.16474328122563647        0.0000000000000000     
  -2.9706121044346483E-002  0.17264127477855601        0.0000000000000000     
  -3.0112439231461161E-002  0.18062725944359700        0.0000000000000000     
  -3.0481217782582431E-002  0.18870123522075941        0.0000000000000000     
  -3.0812456697710291E-002  0.19686320211004324        0.0000000000000000     
  -3.5299868756258374E-002  0.16488139342207389        0.0000000000000000     
  -3.5836663105085827E-002  0.17276655397913498        0.0000000000000000     
  -3.6329253030221852E-002  0.18073975997865863        0.0000000000000000     
  -3.6777638531666476E-002  0.18880101142064470        0.0000000000000000     
  -3.7181819609419665E-002  0.19695030830509333        0.0000000000000000     
  -4.1431558105612720E-002  0.16504857639306256        0.0000000000000000     
  -4.2063403622839890E-002  0.17291818201019782        0.0000000000000000     
  -4.2644868585261772E-002  0.18087591201677977        0.0000000000000000     
  -4.3175952992878353E-002  0.18892176641280845        0.0000000000000000     
  -4.3656656845689645E-002  0.19705574519828378        0.0000000000000000     
  -4.7657331269301439E-002  0.16524483013860231        0.0000000000000000     
  -4.8386342597608697E-002  0.17309615887174448        0.0000000000000000     
  -4.9059285896580915E-002  0.18103571555796058        0.0000000000000000     
  -4.9676161166218098E-002  0.18906350019725057        0.0000000000000000     
  -5.0236968406520227E-002  0.19717951278961451        0.0000000000000000     
  -2.4548568110561511E-002  0.19679442661313346        0.0000000000000000     
  -2.4780661184237714E-002  0.20503911196904262        0.0000000000000000     
  -2.4983571867107056E-002  0.21334122903838498        0.0000000000000000     
  -2.5157300159169543E-002  0.22170077782116054        0.0000000000000000     
  -2.5301846060425164E-002  0.23011775831736930        0.0000000000000000     
  -3.0812456697710291E-002  0.19686320211004324        0.0000000000000000     
  -3.1106444725165765E-002  0.20509966503996202        0.0000000000000000     
  -3.1363470613269905E-002  0.21339712893902943        0.0000000000000000     
  -3.1583534362022700E-002  0.22175559380724533        0.0000000000000000     
  -3.1766635971424144E-002  0.23017505964460983        0.0000000000000000     
  -3.7181819609419665E-002  0.19695030830509333        0.0000000000000000     
  -3.7541502495743083E-002  0.20517591554407316        0.0000000000000000     
  -3.7856393422898357E-002  0.21346609804965272        0.0000000000000000     
  -3.8126492390885482E-002  0.22182085582183211        0.0000000000000000     
  -3.8351799399704484E-002  0.23024018886061129        0.0000000000000000     
  -4.3656656845689645E-002  0.19705574519828378        0.0000000000000000     
  -4.4085834495969665E-002  0.20526786348137591        0.0000000000000000     
  -4.4462340295992428E-002  0.21354813637025494        0.0000000000000000     
  -4.4786174245757933E-002  0.22189656386492088        0.0000000000000000     
  -4.5057336345266187E-002  0.23031314596537372        0.0000000000000000     
  -5.0236968406520227E-002  0.19717951278961451        0.0000000000000000     
  -5.0739440725845499E-002  0.20537550885187034        0.0000000000000000     
  -5.1181311232552103E-002  0.21364324390083608        0.0000000000000000     
  -5.1562579926640012E-002  0.22198271793651167        0.0000000000000000     
  -5.1883246808109254E-002  0.23039393095889710        0.0000000000000000     
  -2.5301846060425164E-002  0.23011775831736930        0.0000000000000000     
  -2.5423515102265207E-002  0.23856467011332572        0.0000000000000000     
  -2.5528612816080935E-002  0.24701401279534432        0.0000000000000000     
  -2.5617139201872356E-002  0.25546578636342510        0.0000000000000000     
  -2.5689094259639462E-002  0.26391999081756801        0.0000000000000000     
  -3.1766635971424144E-002  0.23017505964460983        0.0000000000000000     
  -3.1920709616461033E-002  0.23863059534609549        0.0000000000000000     
  -3.2053689472120166E-002  0.24709726980667501        0.0000000000000000     
  -3.2165575538401533E-002  0.25557508302634829        0.0000000000000000     
  -3.2256367815305137E-002  0.26406403500511555        0.0000000000000000     
  -3.8351799399704484E-002  0.23024018886061129        0.0000000000000000     
  -3.8541087454381028E-002  0.23870320040627560        0.0000000000000000     
  -3.8703129559940833E-002  0.24718899369911038        0.0000000000000000     
  -3.8837925716383913E-002  0.25569756873911559        0.0000000000000000     
  -3.8945475923710234E-002  0.26422892552629124        0.0000000000000000     
  -4.5057336345266187E-002  0.23031314596537372        0.0000000000000000     
  -4.5284648616025179E-002  0.23878248529386600        0.0000000000000000     
  -4.5476933079542953E-002  0.24728918447265036        0.0000000000000000     
  -4.5634189735819460E-002  0.25583324350172670        0.0000000000000000     
  -4.5756418584854741E-002  0.26441466238109512        0.0000000000000000     
  -5.1883246808109254E-002  0.23039393095889710        0.0000000000000000     
  -5.2151393101393516E-002  0.23886845000886675        0.0000000000000000     
  -5.2375100030926505E-002  0.24739784212729504        0.0000000000000000     
  -5.2554367596708229E-002  0.25598210731418186        0.0000000000000000     
  -5.2689195798738674E-002  0.26462124556952726        0.0000000000000000     
  -2.5689094259639462E-002  0.26391999081756801        0.0000000000000000     
  -2.5756664129137623E-002  0.27232148601980000        0.0000000000000000     
  -2.5832034950122179E-002  0.28061513183214776        0.0000000000000000     
  -2.5915206722593141E-002  0.28880092825461123        0.0000000000000000     
  -2.6006179446550502E-002  0.29687887528719059        0.0000000000000000     
  -3.2256367815305137E-002  0.26406403500511555        0.0000000000000000     
  -3.2340871232497820E-002  0.27251124965788065        0.0000000000000000     
  -3.2433890719646426E-002  0.28086385089954813        0.0000000000000000     
  -3.2535426276750948E-002  0.28912183873011776        0.0000000000000000     
  -3.2645477903811407E-002  0.29728521314958956        0.0000000000000000     
  -3.8945475923710234E-002  0.26422892552629124        0.0000000000000000     
  -3.9044566472073376E-002  0.27273193204978841        0.0000000000000000     
  -3.9153983651626902E-002  0.28115545629875838        0.0000000000000000     
  -3.9273727462370796E-002  0.28949949827320098        0.0000000000000000     
  -3.9403797904305073E-002  0.29776405797311628        0.0000000000000000     
  -4.5756418584854741E-002  0.26441466238109512        0.0000000000000000     
  -4.5867749847864285E-002  0.27298353319552321        0.0000000000000000     
  -4.5992313746063586E-002  0.28148994802977845        0.0000000000000000     
  -4.6130110279452664E-002  0.28993390688386089        0.0000000000000000     
  -4.6281139448031507E-002  0.29831540975777066        0.0000000000000000     
  -5.2689195798738674E-002  0.26462124556952726        0.0000000000000000     
  -5.2810421359870539E-002  0.27326605309508489        0.0000000000000000     
  -5.2948881002956492E-002  0.28186732609260834        0.0000000000000000     
  -5.3104574727996554E-002  0.29042506456209755        0.0000000000000000     
  -5.3277502534990709E-002  0.29893926850355268        0.0000000000000000     
  -2.8961306703913350E-002   5.7152385543344536E-002   0.0000000000000000     
  -3.0513725396977179E-002   6.2713731818761984E-002   0.0000000000000000     
  -3.2012305563274182E-002   6.8455711302229799E-002   0.0000000000000000     
  -3.3457047202804353E-002   7.4378323993747997E-002   0.0000000000000000     
  -3.4847950315567706E-002   8.0481569893316535E-002   0.0000000000000000     
  -3.2953548556970559E-002   5.7691433606300510E-002   0.0000000000000000     
  -3.4695355778774466E-002   6.3227211337951381E-002   0.0000000000000000     
  -3.6377857382188128E-002   6.8945423220450663E-002   0.0000000000000000     
  -3.8001053367211553E-002   7.4846069253798359E-002   0.0000000000000000     
  -3.9564943733844747E-002   8.0929149437994480E-002   0.0000000000000000     
  -3.7085167811699842E-002   5.8265464391641202E-002   0.0000000000000000     
  -3.9018434545549978E-002   6.3780975422873906E-002   0.0000000000000000     
  -4.0886038395650894E-002   6.9479102525897646E-002   0.0000000000000000     
  -4.2687979362002595E-002   7.5359845700712372E-002   0.0000000000000000     
  -4.4424257444605077E-002   8.1423204947318112E-002   0.0000000000000000     
  -4.1356164468101170E-002   5.8874477899366624E-002   0.0000000000000000     
  -4.3482961697303715E-002   6.4375024073529602E-002   0.0000000000000000     
  -4.5536848603662472E-002   7.0056749218570705E-002   0.0000000000000000     
  -4.7517825187177475E-002   7.5919653334489981E-002   0.0000000000000000     
  -4.9425891447848688E-002   8.1963736421287403E-002   0.0000000000000000     
  -4.5766538526174572E-002   5.9518474129476778E-002   0.0000000000000000     
  -4.8088937234035664E-002   6.5009357289918426E-002   0.0000000000000000     
  -5.0330288006222870E-002   7.0678363298469910E-002   0.0000000000000000     
  -5.2490590842736176E-002   7.6525492155131242E-002   0.0000000000000000     
  -5.4569845743575603E-002   8.2550743859902395E-002   0.0000000000000000     
  -3.4847950315567706E-002   8.0481569893316535E-002   0.0000000000000000     
  -3.6188739351385314E-002   8.6754422688726809E-002   0.0000000000000000     
  -3.7483138760078284E-002   9.3185856067770162E-002   0.0000000000000000     
  -3.8731148541646616E-002   9.9775870030446578E-002   0.0000000000000000     
  -3.9932768696090290E-002  0.10652446457675607        0.0000000000000000     
  -3.9564943733844747E-002   8.0929149437994480E-002   0.0000000000000000     
  -4.1073133466693224E-002   8.7183016974926392E-002   0.0000000000000000     
  -4.2529227550362550E-002   9.3596025066481514E-002   0.0000000000000000     
  -4.3933225984852706E-002  0.10016817371265981        0.0000000000000000     
  -4.5285128770163705E-002  0.10689946291346128        0.0000000000000000     
  -4.4424257444605077E-002   8.1423204947318112E-002   0.0000000000000000     
  -4.6098962997982079E-002   8.7657580184832024E-002   0.0000000000000000     
  -4.7716186376657373E-002   9.4051371332371320E-002   0.0000000000000000     
  -4.9275927580630950E-002  0.10060457838993597        0.0000000000000000     
  -5.0778186609902812E-002  0.10731720135752598        0.0000000000000000     
  -4.9425891447848688E-002   8.1963736421287403E-002   0.0000000000000000     
  -5.1266227945251874E-002   8.8178112318443733E-002   0.0000000000000000     
  -5.3044015238962752E-002   9.4551894865439606E-002   0.0000000000000000     
  -5.4759253328981329E-002  0.10108508406227511        0.0000000000000000     
  -5.6411942215307584E-002  0.10777767990895019        0.0000000000000000     
  -5.4569845743575603E-002   8.2550743859902395E-002   0.0000000000000000     
  -5.6574928308502609E-002   8.8744613375761436E-002   0.0000000000000000     
  -5.8512714137278689E-002   9.5097595665686360E-002   0.0000000000000000     
  -6.0383203229903842E-002  0.10160969072967718        0.0000000000000000     
  -6.2186395586378077E-002  0.10828089856773393        0.0000000000000000     
  -3.9932768696090290E-002  0.10652446457675607        0.0000000000000000     
  -4.1084316532033323E-002  0.11341918150925336        0.0000000000000000     
  -4.2182109358099698E-002  0.12044756263049307        0.0000000000000000     
  -4.3226147174289395E-002  0.12760960794047532        0.0000000000000000     
  -4.4216429980602455E-002  0.13490531743920003        0.0000000000000000     
  -4.5285128770163705E-002  0.10689946291346128        0.0000000000000000     
  -4.6581137415786344E-002  0.11377699279442914        0.0000000000000000     
  -4.7817453431211430E-002  0.12078786348110664        0.0000000000000000     
  -4.8994076816438983E-002  0.12793207497349379        0.0000000000000000     
  -5.0111007571468989E-002  0.13520962727159053        0.0000000000000000     
  -5.0778186609902812E-002  0.10731720135752598        0.0000000000000000     
  -5.2218887004145238E-002  0.11417608042047309        0.0000000000000000     
  -5.3593952303030538E-002  0.12116805576410900        0.0000000000000000     
  -5.4903382506558733E-002  0.12829312738843371        0.0000000000000000     
  -5.6147177614729787E-002  0.13555129529344725        0.0000000000000000     
  -5.6411942215307584E-002  0.10777767990895019        0.0000000000000000     
  -5.7997565297110018E-002  0.11461644438738512        0.0000000000000000     
  -5.9511605973557022E-002  0.12158813947950010        0.0000000000000000     
  -6.0954064244648623E-002  0.12869276518529510        0.0000000000000000     
  -6.2324940110384829E-002  0.13593032150477022        0.0000000000000000     
  -6.2186395586378077E-002  0.10828089856773393        0.0000000000000000     
  -6.3917172294680649E-002  0.11509808469516529        0.0000000000000000     
  -6.5570414442790853E-002  0.12204811462727996        0.0000000000000000     
  -6.7146122030708674E-002  0.12913098836407802        0.0000000000000000     
  -6.8644295058434127E-002  0.13634670590555936        0.0000000000000000     
  -4.4216429980602455E-002  0.13490531743920003        0.0000000000000000     
  -4.5154040287177184E-002  0.14232344317773463        0.0000000000000000     
  -4.6040060604151924E-002  0.14985273720714656        0.0000000000000000     
  -4.6874490931526673E-002  0.15749319952743582        0.0000000000000000     
  -4.7657331269301439E-002  0.16524483013860231        0.0000000000000000     
  -5.0111007571468989E-002  0.13520962727159053        0.0000000000000000     
  -5.1169572379211818E-002  0.14260919418594656        0.0000000000000000     
  -5.2171097922577875E-002  0.15011944952711145        0.0000000000000000     
  -5.3115584201567138E-002  0.15774039329508527        0.0000000000000000     
  -5.4003031216179609E-002  0.16547202548986803        0.0000000000000000     
  -5.6147177614729787E-002  0.13555129529344725        0.0000000000000000     
  -5.7327118491372425E-002  0.14293112845150238        0.0000000000000000     
  -5.8444986000315398E-002  0.15042119583495195        0.0000000000000000     
  -5.9500780141558685E-002  0.15802149744379590        0.0000000000000000     
  -6.0494500915102285E-002  0.16573203327803424        0.0000000000000000     
  -6.2324940110384829E-002  0.13593032150477022        0.0000000000000000     
  -6.3626678623659005E-002  0.14328924597440221        0.0000000000000000     
  -6.4861724837364493E-002  0.15075797613066799        0.0000000000000000     
  -6.6030078751501325E-002  0.15833651197356760        0.0000000000000000     
  -6.7131740366069476E-002  0.16602485350310101        0.0000000000000000     
  -6.8644295058434127E-002  0.13634670590555936        0.0000000000000000     
  -7.0068252776071524E-002  0.14368354675464595        0.0000000000000000     
  -7.1421314433725153E-002  0.15112979041425961        0.0000000000000000     
  -7.2703480031395054E-002  0.15868543688440040        0.0000000000000000     
  -7.3914749569081173E-002  0.16635048616506831        0.0000000000000000     
  -4.7657331269301439E-002  0.16524483013860231        0.0000000000000000     
  -4.8386342597608697E-002  0.17309615887174448        0.0000000000000000     
  -4.9059285896580915E-002  0.18103571555796058        0.0000000000000000     
  -4.9676161166218098E-002  0.18906350019725057        0.0000000000000000     
  -5.0236968406520227E-002  0.19717951278961451        0.0000000000000000     
  -5.4003031216179609E-002  0.16547202548986803        0.0000000000000000     
  -5.4831297062374912E-002  0.17330320591997536        0.0000000000000000     
  -5.5598239836112659E-002  0.18122279439392314        0.0000000000000000     
  -5.6303859537392850E-002  0.18923079091171124        0.0000000000000000     
  -5.6948156166215499E-002  0.19732719547333977        0.0000000000000000     
  -6.0494500915102285E-002  0.16573203327803424        0.0000000000000000     
  -6.1424084050121182E-002  0.17354204451109084        0.0000000000000000     
  -6.2287465275790370E-002  0.18144077231638964        0.0000000000000000     
  -6.3084644592109815E-002  0.18942821669393056        0.0000000000000000     
  -6.3815621999079558E-002  0.19750437764371373        0.0000000000000000     
  -6.7131740366069476E-002  0.16602485350310101        0.0000000000000000     
  -6.8164703560847514E-002  0.17381267464509093        0.0000000000000000     
  -6.9126962215614013E-002  0.18168964932536014        0.0000000000000000     
  -7.0018516330368957E-002  0.18965577754390864        0.0000000000000000     
  -7.0839365905112375E-002  0.19771105930073637        0.0000000000000000     
  -7.3914749569081173E-002  0.16635048616506831        0.0000000000000000     
  -7.5053155594553930E-002  0.17411509632197561        0.0000000000000000     
  -7.6116730655583636E-002  0.18196942542083464        0.0000000000000000     
  -7.7105474752170333E-002  0.18991347346164536        0.0000000000000000     
  -7.8019387884313993E-002  0.19794724044440776        0.0000000000000000     
  -5.0236968406520227E-002  0.19717951278961451        0.0000000000000000     
  -5.0739440725845499E-002  0.20537550885187034        0.0000000000000000     
  -5.1181311232552103E-002  0.21364324390083608        0.0000000000000000     
  -5.1562579926640012E-002  0.22198271793651167        0.0000000000000000     
  -5.1883246808109254E-002  0.23039393095889710        0.0000000000000000     
  -5.6948156166215499E-002  0.19732719547333977        0.0000000000000000     
  -5.7528113196924156E-002  0.20550512931752404        0.0000000000000000     
  -5.8040714103862384E-002  0.21375771368297941        0.0000000000000000     
  -5.8485958887030211E-002  0.22208494856970584        0.0000000000000000     
  -5.8863847546427608E-002  0.23048683397770342        0.0000000000000000     
  -6.3815621999079558E-002  0.19750437764371373        0.0000000000000000     
  -6.4477643920759178E-002  0.20566300254030445        0.0000000000000000     
  -6.5067956781208330E-002  0.21389783875826812        0.0000000000000000     
  -6.5586560580427014E-002  0.22220888629760482        0.0000000000000000     
  -6.6033455318415188E-002  0.23059614515831450        0.0000000000000000     
  -7.0839365905112375E-002  0.19771105930073637        0.0000000000000000     
  -7.1588032897350592E-002  0.20584912852021159        0.0000000000000000     
  -7.2263039264589921E-002  0.21406361912670233        0.0000000000000000     
  -7.2864385006830401E-002  0.22235453112020859        0.0000000000000000     
  -7.3392070124072006E-002  0.23072186450073048        0.0000000000000000     
  -7.8019387884313993E-002  0.19794724044440776        0.0000000000000000     
  -7.8859280126698350E-002  0.20606350725724545        0.0000000000000000     
  -7.9625961554007155E-002  0.21425505478828191        0.0000000000000000     
  -8.0319432166240379E-002  0.22252188303751722        0.0000000000000000     
  -8.0939691963398050E-002  0.23086399200495125        0.0000000000000000     
  -5.1883246808109254E-002  0.23039393095889710        0.0000000000000000     
  -5.2151393101393516E-002  0.23886845000886675        0.0000000000000000     
  -5.2375100030926505E-002  0.24739784212729504        0.0000000000000000     
  -5.2554367596708229E-002  0.25598210731418186        0.0000000000000000     
  -5.2689195798738674E-002  0.26462124556952726        0.0000000000000000     
  -5.8863847546427608E-002  0.23048683397770342        0.0000000000000000     
  -5.9180440038179918E-002  0.23896252619183056        0.0000000000000000     
  -5.9441796318412489E-002  0.24751118149694593        0.0000000000000000     
  -5.9647916387125320E-002  0.25613279989304943        0.0000000000000000     
  -5.9798800244318405E-002  0.26482738138014106        0.0000000000000000     
  -6.6033455318415188E-002  0.23059614515831450        0.0000000000000000     
  -6.6410908554078343E-002  0.23906614548331012        0.0000000000000000     
  -6.6721187846321917E-002  0.24762541741550459        0.0000000000000000     
  -6.6964293195145908E-002  0.25627396095489791        0.0000000000000000     
  -6.7140224600550302E-002  0.26501177610149007        0.0000000000000000     
  -7.3392070124072006E-002  0.23072186450073048        0.0000000000000000     
  -7.3842798649088784E-002  0.23917930788330538        0.0000000000000000     
  -7.4213274614654767E-002  0.24774054988297103        0.0000000000000000     
  -7.4503498020769984E-002  0.25640559049972728        0.0000000000000000     
  -7.4713468867434366E-002  0.26517442973357419        0.0000000000000000     
  -8.0939691963398050E-002  0.23086399200495125        0.0000000000000000     
  -8.1476110323211240E-002  0.23930201339181645        0.0000000000000000     
  -8.1918056623411076E-002  0.24785657889934523        0.0000000000000000     
  -8.2265530863997530E-002  0.25652768852753760        0.0000000000000000     
  -8.2518533044970616E-002  0.26531534227639347        0.0000000000000000     
  -5.2689195798738674E-002  0.26462124556952726        0.0000000000000000     
  -5.2810421359870539E-002  0.27326605309508489        0.0000000000000000     
  -5.2948881002956492E-002  0.28186732609260834        0.0000000000000000     
  -5.3104574727996554E-002  0.29042506456209755        0.0000000000000000     
  -5.3277502534990709E-002  0.29893926850355268        0.0000000000000000     
  -5.9798800244318405E-002  0.26482738138014106        0.0000000000000000     
  -5.9931334650924754E-002  0.27355078010580097        0.0000000000000000     
  -6.0082406367877379E-002  0.28225885021760888        0.0000000000000000     
  -6.0252015395176294E-002  0.29095159171556484        0.0000000000000000     
  -6.0440161732821497E-002  0.29962900459966901        0.0000000000000000     
  -6.7140224600550302E-002  0.26501177610149007        0.0000000000000000     
  -6.7289243363859511E-002  0.27380900258499852        0.0000000000000000     
  -6.7451610786397997E-002  0.28263578013514074        0.0000000000000000     
  -6.7627326868165707E-002  0.29149210875191667        0.0000000000000000     
  -6.7816391609162682E-002  0.30037798843532626        0.0000000000000000     
  -7.4713468867434366E-002  0.26517442973357419        0.0000000000000000     
  -7.4884147498674863E-002  0.27404072053267781        0.0000000000000000     
  -7.5056494258518319E-002  0.28299811584520407        0.0000000000000000     
  -7.5230509146964816E-002  0.29204661567115292        0.0000000000000000     
  -7.5406192164014257E-002  0.30118622001052453        0.0000000000000000     
  -8.2518533044970616E-002  0.26531534227639347        0.0000000000000000     
  -8.2716047055370751E-002  0.27424593394883862        0.0000000000000000     
  -8.2897056784238421E-002  0.28334585734779866        0.0000000000000000     
  -8.3061562231573557E-002  0.29261511247327371        0.0000000000000000     
  -8.3209563397376229E-002  0.30205369932526360        0.0000000000000000     
  -4.5766538526174572E-002   5.9518474129476778E-002   0.0000000000000000     
  -4.8088937234035664E-002   6.5009357289918426E-002   0.0000000000000000     
  -5.0330288006222870E-002   7.0678363298469910E-002   0.0000000000000000     
  -5.2490590842736176E-002   7.6525492155131242E-002   0.0000000000000000     
  -5.4569845743575603E-002   8.2550743859902395E-002   0.0000000000000000     
  -5.0349424930120096E-002   6.0222997176382922E-002   0.0000000000000000     
  -5.2865012110155735E-002   6.5700094799204189E-002   0.0000000000000000     
  -5.5292192795071450E-002   7.1353134743441474E-002   0.0000000000000000     
  -5.7630966984867249E-002   7.7182117009094761E-002   0.0000000000000000     
  -5.9881334679543131E-002   8.3187041596164066E-002   0.0000000000000000     
  -5.5137958624137812E-002   6.1013591134496281E-002   0.0000000000000000     
  -5.7839837280073775E-002   6.6463356328550646E-002   0.0000000000000000     
  -6.0448399161947573E-002   7.2090253531331638E-002   0.0000000000000000     
  -6.2963644269759186E-002   7.7894282742839216E-002   0.0000000000000000     
  -6.5385572603508649E-002   8.3875443963073421E-002   0.0000000000000000     
  -6.0132139608227712E-002   6.1890256003816882E-002   0.0000000000000000     
  -6.3013412743789798E-002   6.7299141877957838E-002   0.0000000000000000     
  -6.5798907106851240E-002   7.2889719662140390E-002   0.0000000000000000     
  -6.8488622697411988E-002   7.8661989356364592E-002   0.0000000000000000     
  -7.1082559515472113E-002   8.4615950960630446E-002   0.0000000000000000     
  -6.5331967882389819E-002   6.2852991784344711E-002   0.0000000000000000     
  -6.8385738501303819E-002   6.8207451447425682E-002   0.0000000000000000     
  -7.1343716629782450E-002   7.3751533135867756E-002   0.0000000000000000     
  -7.4205902267825696E-002   7.9485236849670918E-002   0.0000000000000000     
  -7.6972295415433545E-002   8.5408562588835168E-002   0.0000000000000000     
  -5.4569845743575603E-002   8.2550743859902395E-002   0.0000000000000000     
  -5.6574928308502609E-002   8.8744613375761436E-002   0.0000000000000000     
  -5.8512714137278689E-002   9.5097595665686360E-002   0.0000000000000000     
  -6.0383203229903842E-002  0.10160969072967718        0.0000000000000000     
  -6.2186395586378077E-002  0.10828089856773393        0.0000000000000000     
  -5.9881334679543131E-002   8.3187041596164066E-002   0.0000000000000000     
  -6.2051400413669827E-002   8.9359280702119750E-002   0.0000000000000000     
  -6.4149268721818017E-002   9.5690206524432164E-002   0.0000000000000000     
  -6.6174939603987737E-002  0.10217981906310133        0.0000000000000000     
  -6.8128413060178944E-002  0.10882811831812726        0.0000000000000000     
  -6.5385572603508649E-002   8.3875443963073421E-002   0.0000000000000000     
  -6.7721980586689060E-002   9.0024311642853225E-002   0.0000000000000000     
  -6.9980664642793594E-002   9.6331460232997643E-002   0.0000000000000000     
  -7.2161624771822197E-002  0.10279688973350667        0.0000000000000000     
  -7.4264860973774910E-002  0.10942060014438032        0.0000000000000000     
  -7.1082559515472113E-002   8.4615950960630446E-002   0.0000000000000000     
  -7.3586668827560320E-002   9.0739706197961859E-002   0.0000000000000000     
  -7.6006901900205370E-002   9.7021356791382768E-002   0.0000000000000000     
  -7.8343258733407278E-002  0.10346090274089317        0.0000000000000000     
  -8.0595739327166002E-002  0.11005834404649306        0.0000000000000000     
  -7.6972295415433545E-002   8.5408562588835168E-002   0.0000000000000000     
  -7.9645465136283594E-002   9.1505464367445652E-002   0.0000000000000000     
  -8.2227980494053388E-002   9.7759896199587554E-002   0.0000000000000000     
  -8.4719841488742897E-002  0.10417185808526085        0.0000000000000000     
  -8.7121048120352165E-002  0.11074135002446556        0.0000000000000000     
  -6.2186395586378077E-002  0.10828089856773393        0.0000000000000000     
  -6.3917172294680649E-002  0.11509808469516529        0.0000000000000000     
  -6.5570414442790853E-002  0.12204811462727996        0.0000000000000000     
  -6.7146122030708674E-002  0.12913098836407802        0.0000000000000000     
  -6.8644295058434127E-002  0.13634670590555936        0.0000000000000000     
  -6.8128413060178944E-002  0.10882811831812726        0.0000000000000000     
  -7.0004057062315397E-002  0.11562216511466508        0.0000000000000000     
  -7.1796239582320787E-002  0.12254902027786997        0.0000000000000000     
  -7.3504960620195126E-002  0.12960868380774193        0.0000000000000000     
  -7.5130220175938428E-002  0.13680115570428097        0.0000000000000000     
  -7.4264860973774910E-002  0.10942060014438032        0.0000000000000000     
  -7.6284568665472466E-002  0.11618984941673609        0.0000000000000000     
  -7.8214943263735584E-002  0.12309189550169149        0.0000000000000000     
  -8.0055984768564251E-002  0.13012673839924654        0.0000000000000000     
  -8.1807693179958466E-002  0.13729437810940126        0.0000000000000000     
  -8.0595739327166002E-002  0.11005834404649306        0.0000000000000000     
  -8.2758707104151882E-002  0.11680113760137825        0.0000000000000000     
  -8.4826525487035218E-002  0.12367674029874451        0.0000000000000000     
  -8.6799194475816036E-002  0.13068515213859183        0.0000000000000000     
  -8.8676714070494281E-002  0.13782637312092022        0.0000000000000000     
  -8.7121048120352165E-002  0.11074135002446556        0.0000000000000000     
  -8.9426472378353605E-002  0.11745602966859162        0.0000000000000000     
  -9.1630986252219715E-002  0.12430355466902902        0.0000000000000000     
  -9.3734589741950439E-002  0.13128392502577774        0.0000000000000000     
  -9.5737282847545818E-002  0.13839714073883785        0.0000000000000000     
  -6.8644295058434127E-002  0.13634670590555936        0.0000000000000000     
  -7.0068252776071524E-002  0.14368354675464595        0.0000000000000000     
  -7.1421314433725153E-002  0.15112979041425961        0.0000000000000000     
  -7.2703480031395054E-002  0.15868543688440040        0.0000000000000000     
  -7.3914749569081173E-002  0.16635048616506831        0.0000000000000000     
  -7.5130220175938428E-002  0.13680115570428097        0.0000000000000000     
  -7.6676185510202291E-002  0.14411461527285432        0.0000000000000000     
  -7.8147023883638339E-002  0.15153724181882922        0.0000000000000000     
  -7.9542735296246600E-002  0.15906903534220573        0.0000000000000000     
  -8.0863319748027060E-002  0.16670999584298379        0.0000000000000000     
  -8.1807693179958466E-002  0.13729437810940126        0.0000000000000000     
  -8.3474821387643616E-002  0.14458303600964800        0.0000000000000000     
  -8.5062122281345048E-002  0.15198093347747924        0.0000000000000000     
  -8.6569595861062748E-002  0.15948807051289490        0.0000000000000000     
  -8.7997242126796715E-002  0.16710444711589509        0.0000000000000000     
  -8.8676714070494281E-002  0.13782637312092022        0.0000000000000000     
  -9.0464160408395514E-002  0.14508880896502702        0.0000000000000000     
  -9.2166609626845253E-002  0.15246086539020964        0.0000000000000000     
  -9.3784061725843457E-002  0.15994254239646802        0.0000000000000000     
  -9.5316516705390208E-002  0.16753383998380225        0.0000000000000000     
  -9.5737282847545818E-002  0.13839714073883785        0.0000000000000000     
  -9.7644202572457942E-002  0.14563193413899136        0.0000000000000000     
  -9.9460485920138925E-002  0.15297703755702041        0.0000000000000000     
 -0.10118613289058880       0.16043245099292502        0.0000000000000000     
 -0.10282114348380750       0.16799817444670517        0.0000000000000000     
  -7.3914749569081173E-002  0.16635048616506831        0.0000000000000000     
  -7.5053155594553930E-002  0.17411509632197561        0.0000000000000000     
  -7.6116730655583636E-002  0.18196942542083464        0.0000000000000000     
  -7.7105474752170333E-002  0.18991347346164536        0.0000000000000000     
  -7.8019387884313993E-002  0.19794724044440776        0.0000000000000000     
  -8.0863319748027060E-002  0.16670999584298379        0.0000000000000000     
  -8.2107101325304591E-002  0.17445062575781564        0.0000000000000000     
  -8.3272404114404119E-002  0.18228142752335358        0.0000000000000000     
  -8.4359228115325702E-002  0.19020240113959758        0.0000000000000000     
  -8.5367573328069268E-002  0.19821354660654764        0.0000000000000000     
  -8.7997242126796715E-002  0.16710444711589509        0.0000000000000000     
  -8.9344201927163705E-002  0.17482057916868191        0.0000000000000000     
  -9.0609616110780444E-002  0.18262698255345766        0.0000000000000000     
  -9.1793484677646878E-002  0.19052365727022230        0.0000000000000000     
  -9.2895807627763102E-002  0.19851060331897577        0.0000000000000000     
  -9.5316516705390208E-002  0.16753383998380225        0.0000000000000000     
  -9.6764457400131274E-002  0.17522495655457440        0.0000000000000000     
  -9.8128366644712500E-002  0.18300609051114680        0.0000000000000000     
  -9.9408244439133903E-002  0.19087724185351937        0.0000000000000000     
 -0.10060409078339548       0.19883841058169224        0.0000000000000000     
 -0.10282114348380750       0.16799817444670517        0.0000000000000000     
 -0.10436786774420731       0.17566375791549307        0.0000000000000000     
 -0.10582865571620038       0.18341875139642100        0.0000000000000000     
 -0.10720350739978675       0.19126315488948897        0.0000000000000000     
 -0.10849242279496642       0.19919696839469692        0.0000000000000000     
  -7.8019387884313993E-002  0.19794724044440776        0.0000000000000000     
  -7.8859280126698350E-002  0.20606350725724545        0.0000000000000000     
  -7.9625961554007155E-002  0.21425505478828191        0.0000000000000000     
  -8.0319432166240379E-002  0.22252188303751722        0.0000000000000000     
  -8.0939691963398050E-002  0.23086399200495125        0.0000000000000000     
  -8.5367573328069268E-002  0.19821354660654764        0.0000000000000000     
  -8.6300623580095367E-002  0.20630693899038430        0.0000000000000000     
  -8.7161562698864575E-002  0.21447465335728816        0.0000000000000000     
  -8.7950390684376850E-002  0.22271668970725908        0.0000000000000000     
  -8.8667107536632234E-002  0.23103304804029726        0.0000000000000000     
  -9.2895807627763102E-002  0.19851060331897577        0.0000000000000000     
  -9.3921301228834533E-002  0.20658022395860631        0.0000000000000000     
  -9.4874681748566767E-002  0.21472492244800204        0.0000000000000000     
  -9.5755949186959760E-002  0.22294469878716291        0.0000000000000000     
  -9.6565103544013528E-002  0.23123955297608889        0.0000000000000000     
 -0.10060409078339548       0.19883841058169224        0.0000000000000000     
 -0.10172131307291589       0.20688336216191153        0.0000000000000000     
 -0.10276531870311373       0.21500586206042363        0.0000000000000000     
 -0.10373610767398907       0.22320591027722847        0.0000000000000000     
 -0.10463367998554188       0.23148350681232621        0.0000000000000000     
 -0.10849242279496642       0.19919696839469692        0.0000000000000000     
 -0.10970065911233932       0.20721635360029989        0.0000000000000000     
 -0.11083347356250545       0.21531747219455294        0.0000000000000000     
 -0.11189086614546478       0.22350032417745599        0.0000000000000000     
 -0.11287283686121734       0.23176490954900913        0.0000000000000000     
  -8.0939691963398050E-002  0.23086399200495125        0.0000000000000000     
  -8.1476110323211240E-002  0.23930201339181645        0.0000000000000000     
  -8.1918056623411076E-002  0.24785657889934523        0.0000000000000000     
  -8.2265530863997530E-002  0.25652768852753760        0.0000000000000000     
  -8.2518533044970616E-002  0.26531534227639347        0.0000000000000000     
  -8.8667107536632234E-002  0.23103304804029726        0.0000000000000000     
  -8.9297343879408145E-002  0.23944923313835698        0.0000000000000000     
  -8.9826730336482002E-002  0.24799074978339258        0.0000000000000000     
  -9.0255266907853821E-002  0.25665759797540411        0.0000000000000000     
  -9.0582953593523613E-002  0.26544977771439160        0.0000000000000000     
  -9.6565103544013528E-002  0.23123955297608889        0.0000000000000000     
  -9.7292999620641904E-002  0.23963593825244056        0.0000000000000000     
  -9.7930492217758791E-002  0.24816030785387838        0.0000000000000000     
  -9.8477581335364148E-002  0.25681266178040235        0.0000000000000000     
  -9.8934266973458015E-002  0.26559300003201231        0.0000000000000000     
 -0.10463367998554188       0.23148350681232621        0.0000000000000000     
 -0.10546307754691253       0.23986212873406734        0.0000000000000000     
 -0.10622934226724140       0.24836525311080263        0.0000000000000000     
 -0.10693247414652850       0.25699287994253217        0.0000000000000000     
 -0.10757247318477380       0.26574500922925570        0.0000000000000000     
 -0.11287283686121734       0.23176490954900913        0.0000000000000000     
 -0.11380757765822005       0.24012780458323729        0.0000000000000000     
 -0.11472328048492988       0.24860558555416540        0.0000000000000000     
 -0.11561994534134686       0.25719825246179351        0.0000000000000000     
 -0.11649757222747092       0.26590580530612162        0.0000000000000000     
  -8.2518533044970616E-002  0.26531534227639347        0.0000000000000000     
  -8.2716047055370751E-002  0.27424593394883862        0.0000000000000000     
  -8.2897056784238421E-002  0.28334585734779866        0.0000000000000000     
  -8.3061562231573557E-002  0.29261511247327371        0.0000000000000000     
  -8.3209563397376229E-002  0.30205369932526360        0.0000000000000000     
  -9.0582953593523613E-002  0.26544977771439160        0.0000000000000000     
  -9.0840124658102137E-002  0.27443033483401225        0.0000000000000000     
  -9.1057114366200134E-002  0.28366231516792334        0.0000000000000000     
  -9.1233922717817620E-002  0.29314571871612483        0.0000000000000000     
  -9.1370549712954566E-002  0.30288054547861665        0.0000000000000000     
  -9.8934266973458015E-002  0.26559300003201231        0.0000000000000000     
  -9.9311562931023903E-002  0.27459961518872994        0.0000000000000000     
  -9.9620483007045416E-002  0.28393079983057656        0.0000000000000000     
  -9.9861027201522498E-002  0.29358655395755201        0.0000000000000000     
 -0.10003319551445521       0.30356687756965650        0.0000000000000000     
 -0.10757247318477380       0.26574500922925570        0.0000000000000000     
 -0.10813036187413611       0.27475377501299170        0.0000000000000000     
 -0.10858716270677425       0.28415131133575822        0.0000000000000000     
 -0.10894287568268828       0.29393761819755548        0.0000000000000000     
 -0.10919750080187814       0.30411269559838328        0.0000000000000000     
 -0.11649757222747092       0.26590580530612162        0.0000000000000000     
 -0.11729652148743869       0.27489281430679741        0.0000000000000000     
 -0.11795715346538668       0.28432384968346858        0.0000000000000000     
 -0.11847946816131491       0.29419891143613502        0.0000000000000000     
 -0.11886346557522337       0.30451799956479686        0.0000000000000000     
 </DataArray>
 <DataArray  type="Float64" Name="stress" NumberOfComponents="3" format="ascii">
   5979473942.3259068        89381050.230489016        20579826.001317829     
   5780614857.9458275        33591092.110519648        20982338.416447159     
   5587619838.3640223       -2651983.3485593796        20418579.920988832     
   5400488883.5804853       -19348176.146742344        18888550.514924910     
   5219221993.5952053       -16497486.284048796        16392250.198281012     
   5639150685.9108295        62844760.245301247        172509522.92878678     
   5445322660.8662224        24656020.939161062        173897559.62021065     
   5255208244.9588203       -1154021.2429928780        176060093.13863707     
   5068807438.1886044       -14585366.301172972        178997123.48405778     
   4886120240.5555897       -15638014.235365629        182708650.65647337     
   5283193612.1961613        31618325.070229292        331882845.02259976     
   5099370268.5944319        12522891.210150719        331747541.05240005     
   4917110078.4688377       -1362031.0628683567        334127501.64679003     
   4736413041.8193598       -10036441.748813629        339022726.80576956     
   4557279158.6459990       -13500340.847685099        346433216.52933103     
   4911602721.1819029       -4298255.2947189808        498699792.28275710     
   4742757681.1304712       -2808297.0765190125        494532282.71301097     
   4573325338.8940763       -3276012.8081705570        494620805.44544584     
   4403305694.4727373       -5701402.4896538258        498965360.48005843     
   4232698747.8664384       -10084466.120994329        507565947.81685436     
   4524378012.8680792       -44904980.849534035        672960364.70924890     
   4375484898.4743328       -21337543.920836210        662251784.60204399     
   4223854026.2345495       -6895966.4789032936        657540004.53460419     
   4069485396.1487455       -1580248.5237176418        658825024.50693595     
   3912379008.2169132       -5390390.0552859306        666106844.51904619     
   5219221993.5952053       -16497486.284048796        16392250.198281012     
   5046705651.6750889       -4007665.3054862022        9058635.7976839822     
   4872949838.3828754        4350584.4327297211        7451001.0221739970     
   4697954553.7185316        8577262.9305267334        11569345.871749138     
   4521719797.6820850        8672370.1879742146        21413670.346402358     
   4886120240.5555897       -15638014.235365629        182708650.65647337     
   4727099697.9836025       -5218997.2520332336        175362036.46481991     
   4567247964.9991770        2429385.0231797695        173148704.60706425     
   4406565041.6023302        7307132.5903117657        176068655.08323461     
   4245050927.7930493        9414245.4493389130        184121887.89330536     
   4557279158.6459990       -13500340.847685099        346433216.52933103     
   4410060994.5902081       -5660154.1091809273        339549930.33291113     
   4262419921.0816669        770334.45350575447        337207229.17922252     
   4114355938.1203766        5791124.8403642178        339405113.06827784     
   3965869045.7063413        9402217.0513913631        346143582.00006759     
   4232698747.8664384       -10084466.120994329        507565947.81685436     
   4095589541.4949160       -5331135.8768868446        501622317.40196657     
   3958465706.6303363       -626567.27631402016        499626574.73864216     
   3821327243.2726789        4029239.6806764603        501578719.82687896     
   3684174151.4219689        8636284.9941534996        507478752.66668284     
   3912379008.2169132       -5390390.0552859306        666106844.51904619     
   3783685338.6977382       -4231942.5551505089        661579197.67198515     
   3655385321.6451812       -1761320.1663038731        660406741.28531766     
   3527478957.0592465        2021477.1112878323        662589475.35903668     
   3399966244.9399285        7116449.2776117325        668127399.89315450     
   4521719797.6820850        8672370.1879742146        21413670.346402358     
   4327625377.3166389        2246594.8693051338        14598607.600879719     
   4134003626.1623812       -2603616.4120800495        11631319.723374680     
   3940854544.2193308       -5878263.6561098099        12511806.713874426     
   3748178131.4874587       -7577346.8628597260        17240068.572396897     
   4245050927.7930493        9414245.4493389130        184121887.89330536     
   4061508645.4883547        4151610.9096860886        176971580.39756474     
   3878295599.6290331       -13568.812059164047        173822110.20847565     
   3695411790.2150860       -3081293.7158873081        174673477.32599804     
   3512857217.2464914       -5051563.8018639088        179525681.75017515     
   3965869045.7063413        9402217.0513913631        346143582.00006759     
   3793316222.7156014        5433919.6667201519        338490691.52732158     
   3620949203.4044123        2084967.8805525303        334991700.79984236     
   3448767987.7727690       -644638.30712676048        335646609.81761134     
   3276772575.8206716       -2754898.8963172436        340455418.58064044     
   3684174151.4219689        8636284.9941534996        507478752.66668284     
   3523048108.9983850        6093521.1404316425        499155940.99014586     
   3361964437.4885249        3691993.6657843590        495140091.49748504     
   3200923136.8923979        1431702.5702440739        495431204.18870258     
   3039924207.2099867       -687352.14623379707        500029279.06379044     
   3399966244.9399285        7116449.2776117325        668127399.89315450     
   3250704304.3366995        6130415.3307842016        658967328.78602874     
   3101341301.8813791        4807508.5436496735        654267282.30139554     
   2951877237.5739603        3147728.9161813259        654027260.43926334     
   2802312111.4144492        1151076.4484074116        658247263.19962943     
   3748178131.4874587       -7577346.8628597260        17240068.572396897     
   3574580514.8469748       -3963499.1531162262        10512196.748275066     
   3400239432.5705442       -2827870.2298409939        8306535.1051975638     
   3225154884.6581421       -4170460.0931448936        10623083.643188091     
   3049326871.1097860       -7991268.7429702282        17461842.362213980     
   3512857217.2464914       -5051563.8018639088        179525681.75017515     
   3350581783.7920160       -1133408.4968996048        171627004.05879161     
   3187848333.8064413        1258025.0377156734        167845263.03824612     
   3024656867.2897754        2122736.8020520210        168180458.68851820     
   2861007384.2420220        1460726.7960747480        172632591.00963345     
   3276772575.8206716       -2754898.8963172436        340455418.58064044     
   3124661401.2372780        1120186.7093431950        331718958.97768342     
   2972377659.2276440        4420047.5608723164        326694162.53533459     
   2819921349.7917905        7144683.6583571434        325381029.25359696     
   2667292472.9297247        9294095.0017729998        327779559.13246751     
   3039924207.2099867       -687352.14623379707        500029279.06379044     
   2896819367.1827517        2797286.4656295776        490788061.50493717     
   2753827408.8341546        6658197.3396370411        484853233.59646553     
   2610948332.1642036        10895380.475791574        482224795.33838677     
   2468182137.1729031        15508835.874107361        482902746.73069376     
   2802312111.4144492        1151076.4484074116        658247263.19962943     
   2667055681.6284480        3897890.7719993591        648834311.64055979     
   2532197582.6259646        7972474.3739682436        642322476.22165561     
   2397737814.4069953        13374827.254330039        638711756.94291687     
   2263676376.9715476        20104949.413088202        638002153.80434096     
   3049326871.1097860       -7991268.7429702282        17461842.362213980     
   2884220251.1527734       -8861986.8612903357        11496701.397130702     
   2719681496.2520018       -7839821.4588183165        6651513.9490246177     
   2555710606.4075046       -4924772.5354326963        2926280.0179085368     
   2392307581.6192288       -116840.09129738808        320999.60376965097     
   2861007384.2420220        1460726.7960747480        172632591.00963345     
   2699597390.7243719        1220602.9139456749        165510408.67997226     
   2538480604.4618745        1957836.5489594936        159966309.88601711     
   2377657025.4544954        3672427.7010746002        156000294.62777638     
   2217126653.7023063        6364376.3704425097        153612362.90525070     
   2667292472.9297247        9294095.0017729998        327779559.13246751     
   2510888048.7620912        10077248.229028106        319179901.33693117     
   2354502174.0484977        10922232.969749212        312616457.09583420     
   2198134848.7889361        11829049.223909855        308089226.40918505     
   2041786072.9834197        12797696.991559744        305598209.27696121     
   2468182137.1729031        15508835.874107361        482902746.73069376     
   2318092225.2659283        17707949.083953977        472505179.36800116     
   2167746205.0118837        19053367.803561211        464601955.57848233     
   2017144076.4107780        19545092.032952189        459193075.36211962     
   1866285839.4625950        19183121.772112250        456278538.71892494     
   2263676376.9715476        20104949.413088202        638002153.80434096     
   2121209920.2358792        24112705.478704214        625486242.77319849     
   1978212697.3520403        26351241.050417423        615922805.33395374     
   1834684708.3200197        26820556.128191113        609311841.48660171     
   1690625953.1398242        25520650.712061048        605653351.23113227     
   2392307581.6192288       -116840.09129738808        320999.60376965097     
   2249551153.0875955        6919292.4600856304       -6416889.6235488728     
   2103612060.3108442        3346544.1944001913       -11067694.325289218     
   1954490303.2889311       -10835084.888486743       -13631414.501427045     
   1802185882.0219190       -35625594.788369894       -14108050.151979007     
   2217126653.7023063        6364376.3704425097        153612362.90525070     
   2078562219.8833070        12915683.626125813        143322003.38922352     
   1937904300.0441649        12488704.148000360        134281053.42555991     
   1795152894.1848738        5083437.9360342026        126489513.01427907     
   1650308002.3054388       -9300115.0097345114        119947382.15535666     
   2041786072.9834197        12797696.991559744        305598209.27696121     
   1905020276.8107185        18146171.831656218        293026087.40138191     
   1767250172.8428633        20146954.021240473        280865700.10494775     
   1628475761.0798345        18800043.560247123        269117047.38767022     
   1488697041.5216467        14105440.448720574        257780129.24953648     
   1866285839.4625950        19183121.772112250        456278538.71892494     
   1728925323.8698497        22610757.076725483        442695362.41293597     
   1591649678.7069244        26321293.814082742        428686245.71287942     
   1454458903.9738150        30314731.984159470        414251188.61874425     
   1317352999.6705260        34591071.586983740        399390191.13054091     
   1690625953.1398242        25520650.712061048        605653351.23113227     
   1550277361.0606899        26309439.361301005        592329828.42388248     
   1411102817.6363528        31011723.526536882        577742690.24934089     
   1273102322.8668303        39627503.207812548        561891936.70751071     
   1136275876.7520959        52156778.405060709        544777567.79838240     
   1802185882.0219190       -35625594.788369894       -14108050.151979007     
   1771377412.1605008       -16617069.796768665       -8409343.6848265715     
   1748597924.8759565        29154730.451057315       -41513909.108332060     
   1733847420.1683073        101689805.95520496       -113421746.42250189     
   1727125898.0375202        200988156.71557200       -224132855.62733731     
   1650308002.3054388       -9300115.0097345114        119947382.15535666     
   1527693888.6938186       -13906080.241310537        135557962.23812574     
   1409222725.4323814       -4702210.9722589254        124801585.99367283     
   1294894512.5211020        18311492.797298610        87678253.421983838     
   1184709249.9599934        55135031.067448556        24187964.523093317     
   1488697041.5216467        14105440.448720574        257780129.24953648     
   1309809614.3411047       -3455315.9515820742        278768878.68340701     
   1131179105.2840166       -20159678.607040346        285826987.35350358     
   952805514.35038924       -36007647.517633617        278954455.25983077     
   774688841.54022193       -50999222.683355033        258151282.40237504     
   1317352999.6705260        34591071.586983740        399390191.13054091     
   1117724589.1023254        14735223.072286844        421223405.65102732     
   914467064.43087173       -17217672.453254998        441562294.97118723     
   707580425.65617299       -61267614.989603490        460406859.09101617     
   497064672.77821070       -117414604.53682712        477757098.01050818     
   1136275876.7520959        52156778.405060709        544777567.79838240     
   951438812.97750258        40665536.830362618        562921543.14099205     
   759086602.87294555        4123807.4891192615        592007508.84671175     
   559219246.43843508       -57468409.618643939        632035464.91554284     
   351836743.67394745       -144111114.49298155        683005411.34747636     
   1727125898.0375202        200988156.71557200       -224132855.62733731     
   1456597718.1135321        184562962.47187370       -96607383.014641210     
   1153920853.8547540        60975487.112197936        60097975.359826222     
   819095305.26120567       -169774269.36335522        245983219.49608418     
   452121072.33287221       -507686306.95489275        461048349.39412624     
   1184709249.9599934        55135031.067448556        24187964.523093317     
   977638950.03848922        11834728.229371130        155572146.82160059     
   732760866.86566031       -157491518.77978855        312792145.34353995     
   450075000.44146949       -452843709.96010989        495847960.08894992     
   129581350.76597410       -874221845.31149089        704739591.05780220     
   774688841.54022193       -50999222.683355033        258151282.40237504     
   621521937.22596335       -124040979.43434972        386791892.31738406     
   424888150.74381638       -341972343.41164184        537924248.91750598     
   184787482.09379381       -704793314.61518037        711548352.20274854     
  -98780068.724125445       -1212503893.0450494        907664202.17308545     
   497064672.77821070       -117414604.53682712        477757098.01050818     
   388246679.67595220       -223064160.51932949        597051853.47271001     
   230302705.48925358       -492466986.78327662        735494286.08168197     
   23232750.218122423       -925623083.32869589        893084395.83744335     
  -232963186.13745293       -1522532450.1555767        1069822182.7399682     
   351836743.67394745       -144111114.49298155        683005411.34747636     
   277813177.38844985       -285234815.02554327        786352030.28757119     
   149004531.10197037       -608975448.89472246        905502256.83608437     
  -34589195.185517192       -1115333016.1006005        1040456090.9930627     
  -272968001.47398746       -1804307516.6430657        1191213532.7584531     
   4524378012.8680792       -44904980.849534035        672960364.70924890     
   4375484898.4743328       -21337543.920836210        662251784.60204399     
   4223854026.2345495       -6895966.4789032936        657540004.53460419     
   4069485396.1487455       -1580248.5237176418        658825024.50693595     
   3912379008.2169132       -5390390.0552859306        666106844.51904619     
   4151888344.3219547       -17480108.010238409        802068499.99788225     
   4014047712.1762142       -6996208.3363850117        789809537.32219005     
   3874794451.7837381       -1221069.4849591255        783074961.85631108     
   3734128563.1445389       -154691.45596122742        781864773.60024774     
   3592050046.2586145       -3797074.2493784428        786178972.55399561     
   3782561196.9203796        10893521.172425032        924096226.89363289     
   3654423296.0799189        7888958.3086154461        911832866.18196273     
   3526197896.5920229        4592733.2867059708        904621479.85015488     
   3397884998.4567022        1004846.1067066193        902462067.89820850     
   3269484601.6739569       -2874703.2313852310        905354630.32611787     
   3416396570.6633606        40215906.698454618        1039043545.3964902     
   3296611650.1854510        23317956.014161825        1028321771.1813598     
   3178064360.6594119        10545441.836108208        1022179558.5161389     
   3060754702.0852385        1898364.1642841101        1020616907.4008207     
   2944682674.4629445       -2623277.0012953281        1023633817.8354117     
   3053394465.5508943        70487048.567848325        1146910455.5064566     
   2940612774.4928088        39290784.780260921        1139276252.3203831     
   2830393843.9858923        16637056.163232446        1135749197.8542633     
   2722737674.0301490        2525862.7167776823        1136329292.1080933     
   2617644264.6255727       -3042795.5591130257        1141016535.0818756     
   3912379008.2169132       -5390390.0552859306        666106844.51904619     
   3783685338.6977382       -4231942.5551505089        661579197.67198515     
   3655385321.6451812       -1761320.1663038731        660406741.28531766     
   3527478957.0592465        2021477.1112878323        662589475.35903668     
   3399966244.9399285        7116449.2776117325        668127399.89315450     
   3592050046.2586145       -3797074.2493784428        786178972.55399561     
   3472481842.7064495       -2359750.3152244091        781401036.13995063     
   3353222935.1334033        108560.21597838402        780223142.37074792     
   3234273323.5394669        3607857.3442252874        782645291.24638891     
   3115633007.9246454        8138141.0695225000        788667482.76687169     
   3269484601.6739569       -2874703.2313852310        905354630.32611787     
   3159741441.7586756       -948629.56223297119        900227988.44299424     
   3050223221.3350010        1727242.4122720957        898946241.38916612     
   2940929940.4029331        5152912.6921366453        901509389.16463494     
   2831861598.9624734        9328381.2773585320        907917431.76940215     
   2944682674.4629445       -2623277.0012953281        1023633817.8354117     
   2845464135.8544073        1419.7038078308105        1018060054.5811200     
   2746386180.2499728        3094726.4225753546        1016576038.3405759     
   2647448807.6496396        6656643.1550190449        1019181769.1137811     
   2548652018.0534053        10687169.901127934        1025877246.9007393     
   2617644264.6255727       -3042795.5591130257        1141016535.0818756     
   2529649924.9936481        490397.48289489746        1134897234.5543191     
   2441711811.8783207        4211012.2468922138        1133112533.2249727     
   2353829925.2795863        8119048.7328671217        1135662431.0938282     
   2266004265.1974492        12214506.940834403        1142546928.1608851     
   3399966244.9399285        7116449.2776117325        668127399.89315450     
   3250704304.3366995        6130415.3307842016        658967328.78602874     
   3101341301.8813791        4807508.5436496735        654267282.30139554     
   2951877237.5739603        3147728.9161813259        654027260.43926334     
   2802312111.4144492        1151076.4484074116        658247263.19962943     
   3115633007.9246454        8138141.0695225000        788667482.76687169     
   2978013987.9076867        7434654.8023169041        779626958.22757566     
   2840388863.9961100        6710822.2197284698        775017298.51377225     
   2702757636.1899157        5966643.3217505217        774838503.62545168     
   2565120304.4891057        5202118.1083815098        779090573.56262159     
   2831861598.9624734        9328381.2773585320        907917431.76940215     
   2705802185.8260388        8882448.5780614614        899107238.08166599     
   2579831626.7524633        8732696.0883036852        894698749.42240465     
   2453949921.7417455        8879123.8080818653        894691965.79162323     
   2328157070.7938967        9321731.7374024391        899086887.18931651     
   2548652018.0534053        10687169.901127934        1025877246.9007393     
   2434068898.0917506        10473796.658012867        1017408168.3482862     
   2319669590.1504345        10873130.149365902        1013311635.0272982     
   2205454094.2294569        11885170.375177622        1013587646.9377767     
   2091422410.3288186        13509917.335456133        1018236204.0797269     
   2266004265.1974492        12214506.940834403        1142546928.1608851     
   2162814124.7048254        12208699.042169809        1134529749.0274386     
   2059902754.1900227        13132124.402900696        1130855955.3284497     
   1957270153.6530385        14984783.023029685        1131525547.0639141     
   1854916323.0938735        17766674.902559757        1136538524.2338376     
   2802312111.4144492        1151076.4484074116        658247263.19962943     
   2667055681.6284480        3897890.7719993591        648834311.64055979     
   2532197582.6259646        7972474.3739682436        642322476.22165561     
   2397737814.4069953        13374827.254330039        638711756.94291687     
   2263676376.9715476        20104949.413088202        638002153.80434096     
   2565120304.4891057        5202118.1083815098        779090573.56262159     
   2437863048.5052166        8030740.1569337845        770343871.35032380     
   2310927802.7105727        11932729.502961993        764830384.90911305     
   2184314567.1051621        16908086.146450043        762550114.23897326     
   2058023341.6890006        22956810.087428808        763503059.33992445     
   2328157070.7938967        9321731.7374024391        899086887.18931651     
   2209847844.7004423        12516818.337413430        890917393.63048267     
   2091784308.2019541        16530870.253981113        886313215.47364008     
   1973966461.2984350        21363887.487108231        885274352.71879339     
   1856394303.9898839        27015870.036801934        887800805.36593854     
   2091422410.3288186        13509917.335456133        1018236204.0797269     
   1983010070.2141240        17356125.313422322        1010554878.4810245     
   1874767099.1001241        21766896.627040029        1006770967.9152344     
   1766693496.9868109        26742231.276290774        1006884472.3823553     
   1658789263.8742056        32282129.261211455        1010895391.8823791     
   1854916323.0938735        17766674.902559757        1136538524.2338376     
   1757349725.0462604        22548661.084981203        1129256325.9019599     
   1659876175.4050691        27640808.622130632        1126203642.2339077     
   1562495674.1702948        33043117.514008820        1127380473.2296698     
   1465208221.3419461        38755587.760633349        1132786818.8892565     
   2263676376.9715476        20104949.413088202        638002153.80434096     
   2121209920.2358792        24112705.478704214        625486242.77319849     
   1978212697.3520403        26351241.050417423        615922805.33395374     
   1834684708.3200197        26820556.128191113        609311841.48660171     
   1690625953.1398242        25520650.712061048        605653351.23113227     
   2058023341.6890006        22956810.087428808        763503059.33992445     
   1923416648.5895827        26472106.394798398        752010511.09803009     
   1788462371.2381129        28828788.528661013        743725105.85172331     
   1653160509.6345618        30026856.488930762        738646843.60100818     
   1517511063.7789645        30066310.275697052        736775724.34587753     
   1856394303.9898839        27015870.036801934        887800805.36593854     
   1730375001.3944335        30256994.646261573        877545332.12541759     
   1604191296.4430304        32950111.402558148        870751671.28418577     
   1477843189.1356757        35095220.305668473        867419822.84223974     
   1351330679.4723678        36692321.355615258        867549786.79957974     
   1658789263.8742056        32282129.261211455        1010895391.8823791     
   1542084978.6504202        35467370.233056605        1002090705.8553671     
   1425399472.9667964        38715209.672096610        997002501.63133514     
   1308732746.8233335        42025647.578349292        995630779.21029127     
   1192084800.2200356        45398683.951807857        997975538.59223413     
   1465208221.3419461        38755587.760633349        1132786818.8892565     
   1358546580.3575454        42103233.155196488        1125646632.2878745     
   1252086900.8094146        46124083.337312222        1122477596.8931770     
   1145829182.6975539        50818138.307004392        1123279712.7051628     
   1039773426.0219736        56185398.064288259        1128052979.7238266     
   1690625953.1398242        25520650.712061048        605653351.23113227     
   1550277361.0606899        26309439.361301005        592329828.42388248     
   1411102817.6363528        31011723.526536882        577742690.24934089     
   1273102322.8668303        39627503.207812548        561891936.70751071     
   1136275876.7520959        52156778.405060709        544777567.79838240     
   1517511063.7789645        30066310.275697052        736775724.34587753     
   1375381498.9643214        28084918.911549032        727635617.41109788     
   1233548874.7996230        27093329.713897645        719028419.12706697     
   1092013191.2848916        27091542.682791054        710954129.49379385     
   950774448.42010653        28079557.818182290        703412748.51128864     
   1351330679.4723678        36692321.355615258        867549786.79957974     
   1212553067.6880724        33480627.707822800        861569803.06493485     
   1073195288.5488834        28335042.877048075        857919251.99909770     
   933257342.05481243        21255566.863333702        856598133.60207939     
   792739228.20584893        12242199.666646779        857606447.87386453     
   1192084800.2200356        45398683.951807857        997975538.59223413     
   1061792067.2319572        42496565.750135243        994132385.38540244     
   930042058.88414145        34736863.016004860        994415188.86544549     
   796834775.17659843        22119575.749449372        998823949.03234696     
   662170216.10931051        4644703.9504120052        1007358665.8861209     
   1039773426.0219736        56185398.064288259        1128052979.7238266     
   923098497.59597564        55132733.038497686        1125323364.3725033     
   804089185.80538988        46298790.130750388        1128516229.7261031     
   682745490.65023077        29683569.341085255        1137631575.7846115     
   559067412.13049817        5287070.6695084572        1152669402.5480404     
   1136275876.7520959        52156778.405060709        544777567.79838240     
   951438812.97750258        40665536.830362618        562921543.14099205     
   759086602.87294555        4123807.4891192615        592007508.84671175     
   559219246.43843508       -57468409.618643939        632035464.91554284     
   351836743.67394745       -144111114.49298155        683005411.34747636     
   950774448.42010653        28079557.818182290        703412748.51128864     
   791616711.79673374        11047828.907058865        721323712.29877961     
   623825300.95046782       -34762814.080367029        749324588.30172563     
   447400215.88131154       -109352371.14409190        787415376.52015054     
   262341456.58925384       -212720842.28416666        835596076.95402181     
   792739228.20584893        12242199.666646779        857606447.87386453     
   656826309.74040985       -11060369.278901458        873979450.89781308     
   511161189.15915209       -66870278.610516280        899590287.98958361     
   355743866.46207249       -155187528.32820076        934438959.14916527     
   190574341.64916074       -276012118.43199497        978525464.37656832     
   662170216.10931051        4644703.9504120052        1007358665.8861209     
   547067606.80853212       -25659057.727536231        1020888758.9381126     
   421094267.49900252       -92198586.101316541        1042804607.9102755     
   284250198.18072009       -194973881.17093712        1073106212.8026077     
   136535398.85367751       -333984942.93643522        1111793573.6151025     
   559067412.13049817        5287070.6695084572        1152669402.5480404     
   462340603.00109756       -32748236.438828051        1162051636.4196587     
   353624535.97002202       -110747736.55274779        1178967548.0637970     
   232919211.03725803       -228711429.67229849        1203417137.4804530     
   100224628.20280251       -386639315.79749310        1235400404.6696355     
   351836743.67394745       -144111114.49298155        683005411.34747636     
   277813177.38844985       -285234815.02554327        786352030.28757119     
   149004531.10197037       -608975448.89472246        905502256.83608437     
  -34589195.185517192       -1115333016.1006005        1040456090.9930627     
  -272968001.47398746       -1804307516.6430657        1191213532.7584531     
   262341456.58925384       -212720842.28416666        835596076.95402181     
   223624585.02725711       -352372933.45521259        884991151.15228510     
   140671374.71014914       -639479487.14330149        945402011.52289999     
   13481825.637909591       -1074040503.3484983        1016828658.0658840     
  -157944062.18945527       -1656055982.0707574        1099271090.7812440     
   190574341.64916074       -276012118.43199497        978525464.37656832     
   173484674.99331784       -418296447.18669248        986275858.61984432     
   122707410.82822794       -672872767.63888276        1000254217.5994083     
   38242549.153868675       -1039741079.7886361        1020460541.3152602     
  -79909910.029733360       -1518901383.6358657        1046894829.7674034     
   136535398.85367751       -333984942.93643522        1111793573.6151025     
   127393447.28662845       -483005356.21998417        1090206152.6902511     
   95112639.456179231       -709155290.38152289        1070058875.0656064     
   39692975.362364054       -1012434745.4209731        1051351740.7411674     
  -38865544.994867742       -1392843721.3384507        1034084749.7169416     
   100224628.20280251       -386639315.79749310        1235400404.6696355     
   85350901.907170951       -546499660.55515289        1196782033.3634927     
   57887060.594030231       -748327055.37117648        1154815983.9214926     
   17833104.263358951       -992121500.24564612        1109502256.3436108     
  -34810967.084817648       -1277882995.1784670        1060840850.6298790     
   3053394465.5508943        70487048.567848325        1146910455.5064566     
   2940612774.4928088        39290784.780260921        1139276252.3203831     
   2830393843.9858923        16637056.163232446        1135749197.8542633     
   2722737674.0301490        2525862.7167776823        1136329292.1080933     
   2617644264.6255727       -3042795.5591130257        1141016535.0818756     
   2671050604.9589567        38585597.744131446        1214906126.8526592     
   2573175752.5267444        19593401.895480275        1208254879.1978638     
   2476856712.5501509        5787247.5655560493        1206146958.3955731     
   2382093485.0291767       -2832865.2456370592        1208582364.4457881     
   2288886069.9638181       -6266936.5381083488        1215561097.3485069     
   2284027788.7795196        5280460.2441632748        1286463037.0306931     
   2202305998.2090454       -1133800.6947884560        1279619972.1290355     
   2121133071.9986384       -5718513.7668542862        1277756412.2124312     
   2040509010.1483028       -8473678.9720259905        1280872357.2808850     
   1960433812.6580267       -9399296.3103176355        1288967807.3343987     
   1892326017.0125844       -29428363.932054520        1361581186.0405591     
   1828003511.5397143       -22890822.990549564        1353371531.1138918     
   1763222922.3313608       -17880227.833992839        1350577559.3048353     
   1697984249.3875215       -14396578.462390184        1353199270.6133835     
   1632287492.7081981       -12439874.875733495        1361236665.0395467     
   1495945289.6581533       -65540874.784519315        1440260573.8822551     
   1450268292.5187521       -45677664.991798580        1429509556.1524367     
   1403126263.5483143       -30697894.635862768        1424610399.6727810     
   1354519202.7468405       -20601563.716717899        1425563104.4432867     
   1304447110.1143284       -15388672.234368205        1432367670.4639504     
   2617644264.6255727       -3042795.5591130257        1141016535.0818756     
   2529649924.9936481        490397.48289489746        1134897234.5543191     
   2441711811.8783207        4211012.2468922138        1133112533.2249727     
   2353829925.2795863        8119048.7328671217        1135662431.0938282     
   2266004265.1974492        12214506.940834403        1142546928.1608851     
   2288886069.9638181       -6266936.5381083488        1215561097.3485069     
   2212212457.0944028       -2366323.1820532084        1209564534.4090767     
   2135548665.1692033        1567026.6547278166        1207856834.3239777     
   2058894694.1882195        5533112.9722263813        1210437997.0932105     
   1982250544.1514487        9531935.7704323530        1217308022.7167735     
   1960433812.6580267       -9399296.3103176355        1288967807.3343987     
   1894950251.2829113       -5170465.2206753492        1283039842.1486471     
   1829430105.2796354       -1063582.8915723562        1281355003.4733553     
   1763873374.6481895        2921350.6769697666        1283913291.3085201     
   1698280059.3885832        6784335.4849706888        1290714705.6541452     
   1632287492.7081981       -12439874.875733495        1361236665.0395467     
   1577863307.5591767       -7922028.6329670548        1355323157.7730331     
   1523356132.2096133       -3680816.3920069337        1353607040.6731055     
   1468765966.6595025        283761.84712433815        1356088313.7397635     
   1414092810.9088492        3971706.0844551325        1362766976.9730077     
   1304447110.1143284       -15388672.234368205        1432367670.4639504     
   1260951625.9231946       -10621013.418936372        1426414481.2822320     
   1217326745.9591379       -6284673.8465824127        1424612945.9232268     
   1173572470.2221546       -2379653.5173195601        1426963064.3869336     
   1129688798.7122476        1094047.5688693523        1433464836.6733508     
   2266004265.1974492        12214506.940834403        1142546928.1608851     
   2162814124.7048254        12208699.042169809        1134529749.0274386     
   2059902754.1900227        13132124.402900696        1130855955.3284497     
   1957270153.6530385        14984783.023029685        1131525547.0639141     
   1854916323.0938735        17766674.902559757        1136538524.2338376     
   1982250544.1514487        9531935.7704323530        1217308022.7167735     
   1890596611.1973720        9427408.4911638498        1209630557.8421001     
   1799196319.8030648        10168353.077786565        1206506494.7273757     
   1708049669.9685321        11754769.530326128        1207935833.3726020     
   1617156661.6937730        14186657.848778725        1213918573.7777817     
   1698280059.3885832        6784335.4849706888        1290714705.6541452     
   1618762380.6173241        6761102.8183745146        1283347638.5505214     
   1539473214.9877875        7499580.6241861582        1280743989.5323448     
   1460412562.4999762        8999768.9024145007        1282903758.5996115     
   1381580423.1538894        11261667.653054416        1289826945.7523274     
   1414092810.9088492        3971706.0844551325        1362766976.9730077     
   1347311432.9646783        4209782.0238066316        1355680991.1527116     
   1280733439.7441881        5125807.0420859456        1353568439.7433543     
   1214358831.2473695        6719781.1392776370        1356429322.7449412     
   1148187607.4742296        8991704.3153979778        1364263640.1574671     
   1129688798.7122476        1094047.5688693523        1433464836.6733508     
   1076243768.2394402        1773446.1074577570        1426630615.6486650     
   1022976994.0722622        3047032.3314843774        1424979845.3604100     
   969888476.21071339        4914806.2409392595        1428512525.8085933     
   916978214.65479219        7376767.8358184099        1437228656.9932139     
   1854916323.0938735        17766674.902559757        1136538524.2338376     
   1757349725.0462604        22548661.084981203        1129256325.9019599     
   1659876175.4050691        27640808.622130632        1126203642.2339077     
   1562495674.1702948        33043117.514008820        1127380473.2296698     
   1465208221.3419461        38755587.760633349        1132786818.8892565     
   1617156661.6937730        14186657.848778725        1213918573.7777817     
   1530641863.1833985        18509678.087391794        1207603209.5634127     
   1444254303.7665713        23256828.637827873        1205665630.1624436     
   1357993983.4432819        28428109.500060439        1208105835.5748587     
   1271860902.2135441        34023520.674125969        1214923825.8006692     
   1381580423.1538894        11261667.653054416        1289826945.7523274     
   1306541053.1795356        15252810.647505581        1284518304.7904465     
   1231663112.9858484        19782052.910851419        1283735718.7915323     
   1156946602.5728295        24849394.443086922        1287479187.7555826     
   1082391521.9404800        30454835.244220018        1295748711.6826010     
   1148187607.4742296        8991704.3153979778        1364263640.1574671     
   1085047295.0346720        12778058.765323997        1360001611.5830538     
   1022102603.0629060        17216481.441218853        1360413908.1211734     
   959353531.55892837        22306972.343078792        1365500529.7718327     
   896800080.52274394        28049531.470912457        1375261476.5350380     
   916978214.65479219        7376767.8358184099        1437228656.9932139     
   866160588.74880815        11085422.440842390        1434053129.9412355     
   815572773.99773777        15560114.228909433        1435700198.1513741     
   765214770.40158057        20800843.200021058        1442169861.6236203     
   715086577.96034527        26807609.354206055        1453462120.3579810     
   1465208221.3419461        38755587.760633349        1132786818.8892565     
   1358546580.3575454        42103233.155196488        1125646632.2878745     
   1252086900.8094146        46124083.337312222        1122477596.8931770     
   1145829182.6975539        50818138.307004392        1123279712.7051628     
   1039773426.0219736        56185398.064288259        1128052979.7238266     
   1271860902.2135441        34023520.674125969        1214923825.8006692     
   1175883575.0233309        36911355.592655361        1209470260.1904676     
   1079941007.1127205        39915054.776528120        1208370356.4020300     
   984033198.48171937        43034618.225764990        1211624114.4353688     
   888160149.13031745        46270045.940332323        1219231534.2904902     
   1082391521.9404800        30454835.244220018        1295748711.6826010     
   998191396.01614499        33210725.928237975        1291786697.8807874     
   913858827.21473801        35525140.355356604        1292560856.5158403     
   829393815.53627706        37398078.525626391        1298071187.5877545     
   744796360.98075771        38829540.439025432        1308317691.0965421     
   896800080.52274394        28049531.470912457        1375261476.5350380     
   825470043.33597267        31001344.161910444        1372595945.3588431     
   753840361.11546183        32954340.073787391        1375049097.2346046     
   681911033.86123288        33908519.206602305        1382620932.1623225     
   609682061.57328069        33863881.560333341        1395311450.1420021     
   715086577.96034527        26807609.354206055        1453462120.3579810     
   657719516.98282480        30283210.293700218        1451898002.6246307     
   599885608.81490278        32202653.931853354        1455835078.5583274     
   541584853.45659602        32565940.268723756        1465273348.1590719     
   482817250.90789258        31373069.304274574        1480212811.4268610     
   1039773426.0219736        56185398.064288259        1128052979.7238266     
   923098497.59597564        55132733.038497686        1125323364.3725033     
   804089185.80538988        46298790.130750388        1128516229.7261031     
   682745490.65023077        29683569.341085255        1137631575.7846115     
   559067412.13049817        5287070.6695084572        1152669402.5480404     
   888160149.13031745        46270045.940332323        1219231534.2904902     
   786553972.83134496        44366837.418285608        1216663689.0426385     
   682658950.55889392        34834142.317977279        1219960990.1482582     
   576475082.31297123        17671960.639430434        1229123437.6073437     
   468002368.09356654       -7119707.6173914671        1244151031.4199023     
   744796360.98075771        38829540.439025432        1308317691.0965421     
   658095124.37608874        36026644.690880954        1305964742.9084594     
   569150579.18905246        25746053.668167949        1309419606.7223945     
   477962725.41965240        7987767.3709114492        1318682282.5383484     
   384531563.06787938       -17248214.200921431        1333752770.3563242     
   609682061.57328069        33863881.560333341        1395311450.1420021     
   537721952.23021328        30112154.856289595        1393226525.9699738     
   463564071.69588393        19034524.181373402        1396892079.4485183     
   387208419.97029173        630989.53558313847        1406308110.5776346     
   308654997.05343950       -25098449.081078812        1421474619.3573203     
   482817250.90789258        31373069.304274574        1480212811.4268610     
   425434456.39371473        26623367.914521337        1478449038.2271767     
   365899428.07938105        14699553.857581899        1482378408.3266208     
   304212165.96488911       -4398372.8665486127        1492000921.7251842     
   240372670.05024597       -30670412.257855669        1507316578.4228749     
   559067412.13049817        5287070.6695084572        1152669402.5480404     
   462340603.00109756       -32748236.438828051        1162051636.4196587     
   353624535.97002202       -110747736.55274779        1178967548.0637970     
   232919211.03725803       -228711429.67229849        1203417137.4804530     
   100224628.20280251       -386639315.79749310        1235400404.6696355     
   468002368.09356654       -7119707.6173914671        1244151031.4199023     
   390401551.85515916       -41511048.998804092        1242680367.0304563     
   302653597.51182294       -109726184.06332107        1247547411.9245815     
   204758505.06356114       -211765112.81091231        1258752166.1022668     
   96716274.510366306       -347627835.24162745        1276294629.5635304     
   384531563.06787938       -17248214.200921431        1333752770.3563242     
   322639686.89488465       -49020705.703102618        1323578347.4687004     
   252442792.41371739       -108476591.56585214        1318545665.3756855     
   173940879.62437469       -195615871.78919277        1318654724.0772913     
   87133948.526861235       -310438546.37310237        1323905523.5735128     
   308654997.05343950       -25098449.081078812        1421474619.3573203     
   259055008.12028185       -55277206.551692113        1404745577.7343862     
   202992120.67570508       -106998959.06036232        1391962308.4171226     
   140466334.71970755       -180263706.60710084        1383124811.4055212     
   71477650.252292424       -275071449.19190645        1378233086.6995862     
   240372670.05024597       -30670412.257855669        1507316578.4228749     
   199647515.53134468       -60280551.544578597        1486182057.8275206     
   154301582.29778126       -105293286.54684761        1467797341.0488863     
   104334870.34955509       -165708617.26465499        1452162428.0869601     
   49747379.686670482       -241526543.69799316        1439277318.9417553     
   100224628.20280251       -386639315.79749310        1235400404.6696355     
   85350901.907170951       -546499660.55515289        1196782033.3634927     
   57887060.594030231       -748327055.37117648        1154815983.9214926     
   17833104.263358951       -992121500.24564612        1109502256.3436108     
  -34810967.084817648       -1277882995.1784670        1060840850.6298790     
   96716274.510366306       -347627835.24162745        1276294629.5635304     
   79787610.678501070       -488809326.09298730        1221968579.2467833     
   51476740.927128166       -667931503.34270608        1165098981.1365805     
   11783665.256245911       -884994366.99078679        1105685835.2329221     
  -39291616.334122956       -1139997917.0371616        1043729141.5357721     
   87133948.526861235       -310438546.37310237        1323905523.5735128     
   70447862.422765106       -432251928.73897171        1255281021.5271878     
   43587479.497181714       -587979633.84313750        1184917102.0297971     
   6552799.7501059473       -777621661.68561244        1112813765.0813394     
  -40656176.818451703       -1001178012.2663629        1038971010.6818533     
   71477650.252292424       -275071449.19190645        1378233086.6995862     
   57331657.139985770       -376827468.49304736        1296719360.2046947     
   34219276.304184139       -508471446.87249655        1214270346.6011422     
   2140507.7449241877       -670003384.33014202        1130886045.8889410     
  -38904648.537823319       -861423280.86608398        1046566458.0680722     
   49747379.686670482       -241526543.69799316        1439277318.9417553     
   40438994.830141380       -322535945.35526264        1346283595.2793133     
   23372131.348142892       -429406942.43076056        1253158714.8506119     
  -1453210.7593118548       -562139534.92444599        1159902677.6556573     
  -34037031.492219388       -720733722.83629906        1066515483.6944627     
   1495945289.6581533       -65540874.784519315        1440260573.8822551     
   1450268292.5187521       -45677664.991798580        1429509556.1524367     
   1403126263.5483143       -30697894.635862768        1424610399.6727810     
   1354519202.7468405       -20601563.716717899        1425563104.4432867     
   1304447110.1143284       -15388672.234368205        1432367670.4639504     
   1124533840.9996443       -19084030.984151542        1469255082.6778591     
   1089736301.8606210       -11649606.015791535        1458838662.4247861     
   1054308347.3378112       -6316565.6600545049        1453807375.8813140     
   1018249977.4312152       -3084909.9169349670        1454161223.0474381     
   981561192.14083052       -1954638.7864471674        1459900203.9231586     
   758237550.78593576        28907360.349658102        1491727107.9467387     
   732985962.38853073        23512948.316027075        1482619004.3588746     
   707938575.05458939        18799206.493941903        1478429306.9400475     
   683095388.78411162        14766134.883402944        1479158015.6902480     
   658456403.57709694        11413733.484406501        1484805130.6094770     
   397056419.01703042        78433299.216909498        1507676649.6888976     
   380017274.10248280        59809998.003658667        1500850581.9547043     
   364016946.69865119        44649421.826124847        1498476192.8489752     
   349055436.80553085        32951570.684296727        1500553482.3717139     
   335132744.42312503        24716444.578183636        1507082450.5229135     
   40990445.692921393        129493785.61759648        1517103707.9043372     
   30830237.002475098        97241543.047104031        1513533395.2122700     
   22543462.269992072        71234080.336485669        1513948033.6081028     
   16130121.495473798        51471397.485751227        1518347623.0918324     
   11590214.678918382        37953494.494893663        1526732163.6634612     
   1304447110.1143284       -15388672.234368205        1432367670.4639504     
   1260951625.9231946       -10621013.418936372        1426414481.2822320     
   1217326745.9591379       -6284673.8465824127        1424612945.9232268     
   1173572470.2221546       -2379653.5173195601        1426963064.3869336     
   1129688798.7122476        1094047.5688693523        1433464836.6733508     
   981561192.14083052       -1954638.7864471674        1459900203.9231586     
   947901502.13175726       -745472.32610225677        1453885444.0495212     
   914325084.70127559        741269.39621454477        1452106216.4213154     
   880831939.84938824        2505586.3805116415        1454562521.0385406     
   847422067.57609487        4547478.6267887354        1461254357.9011948     
   658456403.57709694        11413733.484406501        1484805130.6094770     
   634872160.38641727        9136303.3805610836        1478976913.1206951     
   611583858.12584889        7845343.0437522233        1477468106.3000584     
   588591496.79539049        7540852.4739768505        1480278710.1475697     
   565895076.39504027        8222831.6712291837        1487408724.6632288     
   335132744.42312503        24716444.578183636        1507082450.5229135     
   321863600.68717772        19024313.701061204        1501688888.4957509     
   309103066.23285586        15027547.096023351        1500698615.5594549     
   296851141.06015962        12726144.763072088        1504111631.7140212     
   285107825.16909009        12120106.702208459        1511927936.9594524     
   11590214.678918382        37953494.494893663        1526732163.6634612     
   8875823.0340320356        28918558.635376167        1522021370.1746922     
   6882709.0222904636        22287881.553008605        1521797744.1995032     
   5610872.6436954690        18061463.247796312        1526061285.7378945     
   5060313.8982376074        16239303.719707096        1534811994.7898667     
   1129688798.7122476        1094047.5688693523        1433464836.6733508     
   1076243768.2394402        1773446.1074577570        1426630615.6486650     
   1022976994.0722622        3047032.3314843774        1424979845.3604100     
   969888476.21071339        4914806.2409392595        1428512525.8085933     
   916978214.65479219        7376767.8358184099        1437228656.9932139     
   847422067.57609487        4547478.6267887354        1461254357.9011948     
   807342582.15586543        4901313.6091295481        1454849479.5290740     
   767386083.50658798        5665104.4946437180        1453617468.9739399     
   727552571.62826288        6838851.2833310962        1457558326.2357993     
   687842046.52089036        8422553.9751986265        1466672051.3146410     
   565895076.39504027        8222831.6712291837        1487408724.6632288     
   539150899.11468065        8242032.0234984457        1481368707.8198855     
   512474439.07060140        8486956.4967025816        1480490975.8740866     
   485865696.26279795        8957605.0908253491        1484775528.8258281     
   459324670.69127011        9653977.8058682978        1494222366.6751125     
   285107825.16909009        12120106.702208459        1511927936.9594524     
   271668719.11589581        11795601.350600526        1506188300.5211010     
   258242060.76430124        11512588.337657392        1505600366.0608475     
   244827850.11431205        11271067.663399935        1510164133.5786862     
   231426087.16592667        11071039.327821836        1519879603.0746219     
   5060313.8982376074        16239303.719707096        1534811994.7898667     
   4896042.1595051661        15562021.590415934        1529308257.6327200     
   4688948.5876993909        14742000.017548377        1528945639.5342224     
   4439033.1828179015        13779239.001093721        1533724140.4943697     
   4146295.9448608826        12673738.541055351        1543643760.5131662     
   916978214.65479219        7376767.8358184099        1437228656.9932139     
   866160588.74880815        11085422.440842390        1434053129.9412355     
   815572773.99773777        15560114.228909433        1435700198.1513741     
   765214770.40158057        20800843.200021058        1442169861.6236203     
   715086577.96034527        26807609.354206055        1453462120.3579810     
   687842046.52089036        8422553.9751986265        1466672051.3146410     
   649249093.63055456        10737814.832750112        1463967811.9312093     
   610794441.77183712        13514079.129032195        1466166124.3163488     
   572478090.94474328        16751346.864059687        1473266988.4700606     
   534300041.14925462        20449618.037773788        1485270404.3923483     
   459324670.69127011        9653977.8058682978        1494222366.6751125     
   433184837.97789991        10644379.064340800        1491882653.1497068     
   407091796.17285538        11790750.017230183        1494525447.8993378     
   381045545.27613354        13093090.664529815        1502150750.9240024     
   355046085.28773260        14551401.006232142        1514758562.2237062     
   231426087.16592667        11071039.327821836        1519879603.0746219     
   217967821.79084665        10805115.135616921        1517797653.5967357     
   204464837.20079273        10390126.893500820        1520778168.9003448     
   190917133.39576727        9826074.6014780328        1528821148.9854529     
   177324710.37576991        9112958.2595516220        1541926593.8520582     
   4146295.9448608826        12673738.541055351        1543643760.5131662     
   3598045.0693890951        11220023.046561755        1541712813.2722857     
   2913564.8556524301        9312209.7578539774        1544924287.3193631     
   2092855.3036482790        6950298.6749202050        1553278182.6544001     
   1135916.4133679948        4134289.7977326578        1566774499.2773969     
   715086577.96034527        26807609.354206055        1453462120.3579810     
   657719516.98282480        30283210.293700218        1451898002.6246307     
   599885608.81490278        32202653.931853354        1455835078.5583274     
   541584853.45659602        32565940.268723756        1465273348.1590719     
   482817250.90789258        31373069.304274574        1480212811.4268610     
   534300041.14925462        20449618.037773788        1485270404.3923483     
   490840994.00830287        22345215.666610867        1483836047.2288215     
   447099662.75355750        23299866.249471858        1487963584.7288382     
   403076047.38503224        23313569.786398396        1497653016.8923929     
   358770147.90272468        22386326.277383924        1512904343.7194862     
   355046085.28773260        14551401.006232142        1514758562.2237062     
   325668483.40189642        14919024.749957785        1513669289.2193799     
   296193160.47888303        14960911.703091577        1518202611.8750904     
   266620116.51869631        14677061.865648046        1528358530.1908369     
   236949351.52133518        14067475.237623468        1544137044.1666188     
   177324710.37576991        9112958.2595516220        1541926593.8520582     
   162201985.16360211        8004637.5437242016        1541397728.5963116     
   147166101.99087903        7185790.2927157804        1546552159.9970918     
   132217060.85758847        6656416.5064794198        1557389888.0544043     
   117354861.76372245        6416516.1849943809        1573910912.7682445     
   1135916.4133679948        4134289.7977326578        1566774499.2773969     
   441499.29343628348        1602054.0479691359        1567021365.3596067     
   18487.289545111817       -25497.981660641140        1573012229.0948398     
  -133119.59830547438       -748366.29115374549        1584747090.4830930     
  -13321.370109756244       -566550.88049388991        1602225949.5243709     
   482817250.90789258        31373069.304274574        1480212811.4268610     
   425434456.39371473        26623367.914521337        1478449038.2271767     
   365899428.07938105        14699553.857581899        1482378408.3266208     
   304212165.96488911       -4398372.8665486127        1492000921.7251842     
   240372670.05024597       -30670412.257855669        1507316578.4228749     
   358770147.90272468        22386326.277383924        1512904343.7194862     
   316437623.30876166        19151434.632184878        1509634356.0915122     
   272475518.69494742        10484609.587487623        1511898784.3927505     
   226883834.06127977       -3614148.8567252308        1519697628.6232138     
   179662569.40776414       -23144840.700428724        1533030888.7828965     
   236949351.52133518        14067475.237623468        1544137044.1666188     
   209213590.07644153        12211341.305643328        1539970604.8540270     
   180370902.39200005        6665453.2418342009        1541179854.1007550     
   150421288.46801347       -2570188.9537918568        1547764791.9068096     
   119364748.30448075       -15495585.281235561        1559725418.2721789     
   117354861.76372245        6416516.1849943809        1573910912.7682445     
   103762356.69675554        5803087.9348928332        1569457784.5147336     
   89585579.170545071        3242084.8206443228        1570221617.4506390     
   74824529.185087875       -1266493.1577598006        1576202411.5759678     
   59479206.740394264       -7722646.0002866723        1587400166.8907135     
  -13321.370109756244       -566550.88049388991        1602225949.5243709     
   83923.169699892518       -73325.480075224536        1598095895.0736282     
   119549.03056688565        214504.32386584042        1599024074.4423976     
   93556.212497902801        296938.53135503986        1605010487.6306901     
   5944.7155020026694        173977.14242048786        1616055134.6385038     
   240372670.05024597       -30670412.257855669        1507316578.4228749     
   199647515.53134468       -60280551.544578597        1486182057.8275206     
   154301582.29778126       -105293286.54684761        1467797341.0488863     
   104334870.34955509       -165708617.26465499        1452162428.0869601     
   49747379.686670482       -241526543.69799316        1439277318.9417553     
   179662569.40776414       -23144840.700428724        1533030888.7828965     
   148438595.51279336       -45595687.267003857        1507405246.6340330     
   113754525.62637740       -79580187.138394818        1484686256.6745186     
   75610359.748530343       -125098340.31455618        1464873918.9043603     
   34006097.879256874       -182150146.79547364        1447968233.3235455     
   119364748.30448075       -15495585.281235561        1559725418.2721789     
   98090093.240969136       -30652697.665435933        1530962784.4135618     
   74516024.909248829       -53474520.943665266        1505263651.1169307     
   48642543.309320576       -83961055.115919366        1482628018.3822956     
   20469648.441189297       -122112300.18218699        1463055886.2096488     
   59479206.740394264       -7722646.0002866723        1587400166.8907135     
   48602008.715885356       -15451582.739836730        1556854671.1661055     
   36586080.146397881       -26976287.962652832        1529529524.3761320     
   23431421.031932369       -42296761.668726176        1505424726.5207815     
   9138031.3724809214       -61413003.858087569        1484540277.6000710     
   5944.7155020026694        173977.14242048786        1616055134.6385038     
  -25658.062460584762        7657.5097871597245        1585080906.8916731     
  -35308.662174680852       -85488.195351891118        1557483876.4521096     
  -23007.083642527381       -105459.97300274954        1533264043.3198192     
   11246.673138391954       -52257.823158415660        1512421407.4947999     
   49747379.686670482       -241526543.69799316        1439277318.9417553     
   40438994.830141380       -322535945.35526264        1346283595.2793133     
   23372131.348142892       -429406942.43076056        1253158714.8506119     
  -1453210.7593118548       -562139534.92444599        1159902677.6556573     
  -34037031.492219388       -720733722.83629906        1066515483.6944627     
   34006097.879256874       -182150146.79547364        1447968233.3235455     
   29837392.949495241       -242048567.95944729        1347496546.3536787     
   19847059.770616025       -321352416.62048090        1246237851.3645155     
   4035098.3426084518       -420061692.77860278        1144192148.3560538     
  -17598491.334525198       -538176396.43381715        1041359437.3282751     
   20469648.441189297       -122112300.18218699        1463055886.2096488     
   19566762.715231396       -161461899.06968057        1357365894.7047439     
   14779099.116471782       -213760757.53318059        1250233043.9274950     
   6106657.6449193507       -279008875.57265246        1141657333.8778975     
  -6450561.6994355917       -357206253.18814313        1031638764.5559498     
   9138031.3724809214       -61413003.858087569        1484540277.6000710     
   9627104.1273333430       -80775938.686015815        1375891640.3325050     
   8168249.3857077807       -106631965.16886914        1265144292.5395503     
   4761467.1476199105       -138981083.30660024        1152298234.2212079     
  -593242.58693820983       -177823293.09922683        1037353465.3774720     
   11246.673138391954       -52257.823158415660        1512421407.4947999     
   18417.185803069631        9313.1915526124030        1403073783.2369676     
   14510.578322109304        33960.472444153245        1290971597.2006917     
  -473.14928305470130        21684.019588001538        1176114849.3859792     
  -26533.997039667080       -27516.167103535849        1058503539.7928296     
   40990445.692921393        129493785.61759648        1517103707.9043372     
   30830237.002475098        97241543.047104031        1513533395.2122700     
   22543462.269992072        71234080.336485669        1513948033.6081028     
   16130121.495473798        51471397.485751227        1518347623.0918324     
   11590214.678918382        37953494.494893663        1526732163.6634612     
  -351820198.19681531        59398727.942607254        1490015782.6544223     
  -345596130.97921968        44890665.212253332        1486180187.8002760     
  -338567964.01293409        33062934.977532431        1486868120.2859235     
  -330735697.29795825        23915537.238447323        1492079580.1113629     
  -322099330.83429712        17448471.994976789        1501814567.2765958     
  -750620741.94437599       -12493299.689729095        1468485826.8731453     
  -726473609.52761233       -8795545.7925992310        1463137393.2794363     
  -702591711.57143307       -5981906.7640863955        1462851063.2774103     
  -678975048.07584321       -4052382.6042025387        1467626836.8670731     
  -655623619.04083681       -3006973.3129323423        1477464714.0484204     
  -1155411185.5497618       -86182297.279412270        1452513840.5605133     
  -1111802198.6427057       -63817089.967465699        1444405011.6497471     
  -1069527780.4055113       -45900444.888390481        1441896862.5825629     
  -1028587930.8381761       -32432362.042178392        1444989393.3589602     
  -988982649.94070315       -23412841.428843617        1453682603.9789355     
  -1566191529.0129721       -161668264.82644439        1442099823.7165165     
  -1501581898.3244972       -120173967.31233674        1429983042.9112117     
  -1439376170.5151603       -86692679.395354152        1424005518.2013822     
  -1379574345.5849597       -61224401.075494826        1424167249.5870245     
  -1322176423.5338943       -43769132.352748990        1430468237.0681429     
   11590214.678918382        37953494.494893663        1526732163.6634612     
   8875823.0340320356        28918558.635376167        1522021370.1746922     
   6882709.0222904636        22287881.553008605        1521797744.1995032     
   5610872.6436954690        18061463.247796312        1526061285.7378945     
   5060313.8982376074        16239303.719707096        1534811994.7898667     
  -322099330.83429712        17448471.994976789        1501814567.2765958     
  -311840285.31464672        13129164.094987229        1497710634.3552129     
  -301290205.28433853        9779971.2305228263        1498010879.1330774     
  -290449090.74337137        7400893.4015897810        1502715301.6101899     
  -279316941.69174218        5991930.6081947833        1511823901.7865512     
  -655623619.04083681       -3006973.3129323423        1477464714.0484204     
  -632628250.11188877       -2681787.3799723685        1473465691.3848608     
  -609772089.79476726       -2820630.1530990899        1473787856.6062150     
  -587055138.08947194       -3423501.6323134601        1478431209.7124829     
  -564477394.99599957       -4490401.8176057339        1487395750.7036669     
  -988982649.94070315       -23412841.428843617        1453682603.9789355     
  -953488071.35769451       -18514295.789501846        1449286541.2636318     
  -918562944.50899696       -15513922.597863197        1449128676.6189103     
  -884207269.39461005       -14411721.853924632        1453209010.0447693     
  -850421046.01453400       -15207693.557693601        1461527541.5412135     
  -1322176423.5338943       -43769132.352748990        1430468237.0681429     
  -1274419749.0520635       -34368361.133600414        1425173183.9915314     
  -1227662769.4270287       -28299906.103771269        1424033339.1711664     
  -1181905484.6587884       -25563767.263258755        1427048702.6070526     
  -1137147894.7473412       -26159944.612053216        1434219274.2991879     
   5060313.8982376074        16239303.719707096        1534811994.7898667     
   4896042.1595051661        15562021.590415934        1529308257.6327200     
   4688948.5876993909        14742000.017548377        1528945639.5342224     
   4439033.1828179015        13779239.001093721        1533724140.4943697     
   4146295.9448608826        12673738.541055351        1543643760.5131662     
  -279316941.69174218        5991930.6081947833        1511823901.7865512     
  -266032325.07129824        5569360.2505504042        1505984456.4495356     
  -252814137.13835257        4925360.9345776290        1505290411.1520839     
  -239662377.89290595        4059932.6602741778        1509741765.8942027     
  -226577047.33496255        2973075.4276283830        1519338520.6758938     
  -564477394.99599957       -4490401.8176057339        1487395750.7036669     
  -537731658.64231277       -4654590.9913659692        1481193055.8566098     
  -511075957.83055389       -5118898.6382212639        1480140042.0300467     
  -484510292.56072527       -5883324.7581740022        1484236709.2239702     
  -458034662.83282316       -6947869.3512180448        1493483057.4383855     
  -850421046.01453400       -15207693.557693601        1461527541.5412135     
  -810201958.55354667       -15109832.135359377        1454934055.8539529     
  -770096513.48891461       -15390778.700877964        1453494532.1681089     
  -730104710.82063770       -16050533.254246742        1457208970.4836712     
  -690226550.54871953       -17089095.795477718        1466077370.8006537     
  -1137147894.7473412       -26159944.612053216        1434219274.2991879     
  -1083443224.8049917       -25796363.181404471        1427207456.4415648     
  -1029875804.1134284       -25890279.253375530        1425353881.5662699     
  -976445632.67264521       -26441692.827949286        1428658549.6733093     
  -923152710.48264718       -27450603.905136764        1437121460.7626834     
   4146295.9448608826        12673738.541055351        1543643760.5131662     
   3598045.0693890951        11220023.046561755        1541712813.2722857     
   2913564.8556524301        9312209.7578539774        1544924287.3193631     
   2092855.3036482790        6950298.6749202050        1553278182.6544001     
   1135916.4133679948        4134289.7977326578        1566774499.2773969     
  -226577047.33496255        2973075.4276283830        1519338520.6758938     
  -213835841.62551191        1539397.4046726674        1516982771.3658826     
  -201188811.62576258       -208199.65062045306        1519702635.6474991     
  -188635957.33570957       -2269715.7382355258        1527498113.5207419     
  -176177278.75536293       -4645150.8582024276        1540369204.9856055     
  -458034662.83282316       -6947869.3512180448        1493483057.4383855     
  -432194879.67083192       -8418773.6423471123        1490751568.6259086     
  -406407218.58997405       -10063418.203920096        1493028885.7087233     
  -380671679.59025156       -11881803.035943061        1500315008.6868351     
  -354988262.67166060       -13873928.138407513        1512609937.5602317     
  -690226550.54871953       -17089095.795477718        1466077370.8006537     
  -651479069.06657112       -18654490.094493479        1463019205.0523694     
  -612741656.03699160       -20253445.902071714        1464903037.5030453     
  -574014311.45997810       -21885963.218204349        1471728868.1526787     
  -535297035.33552969       -23552042.042887360        1483496697.0012705     
  -923152710.48264718       -27450603.905136764        1437121460.7626834     
  -871688409.81272888       -29167751.951765388        1433785680.6452606     
  -820192123.96680760       -30778282.745055437        1435325091.0304596     
  -768663852.94489014       -32282196.285024405        1441739691.9182823     
  -717103596.74696720       -33679492.571637750        1453029483.3087261     
   1135916.4133679948        4134289.7977326578        1566774499.2773969     
   441499.29343628348        1602054.0479691359        1567021365.3596067     
   18487.289545111817       -25497.981660641140        1573012229.0948398     
  -133119.59830547438       -748366.29115374549        1584747090.4830930     
  -13321.370109756244       -566550.88049388991        1602225949.5243709     
  -176177278.75536293       -4645150.8582024276        1540369204.9856055     
  -161753737.75507990       -6261059.8020360321        1540335382.6535113     
  -147123888.66039512       -7189275.0978644043        1545975301.1902633     
  -132287731.47128958       -7429796.7456235811        1557288960.5958698     
  -117245266.18778811       -6982624.7453959361        1574276360.8703246     
  -354988262.67166060       -13873928.138407513        1512609937.5602317     
  -325647497.22023046       -14633730.377038166        1512219480.2885876     
  -296165520.69602656       -14922829.039754719        1517432507.1016231     
  -266542333.09904742       -14741224.126555309        1528249017.9993391     
  -236777934.42929500       -14088915.637446553        1544669012.9817255     
  -535297035.33552969       -23552042.042887360        1483496697.0012705     
  -491239779.10201371       -23515957.677023441        1482673658.2648444     
  -447106408.81735569       -23226159.807354778        1487383846.8289177     
  -402896924.48156285       -22682648.433902755        1497627262.6934988     
  -358611326.09462869       -21885423.556645200        1513403905.8585804     
  -717103596.74696720       -33679492.571637750        1453029483.3087261     
  -658530583.40043223       -32907741.702005982        1451697916.5822730     
  -599946553.02438998       -32099267.400684655        1455829320.3721483     
  -541351505.61884153       -31254069.667675436        1465423694.6783574     
  -482745441.18379098       -30372148.502992406        1480481039.5008976     
  -13321.370109756244       -566550.88049388991        1602225949.5243709     
   83923.169699892518       -73325.480075224536        1598095895.0736282     
   119549.03056688565        214504.32386584042        1599024074.4423976     
   93556.212497902801        296938.53135503986        1605010487.6306901     
   5944.7155020026694        173977.14242048786        1616055134.6385038     
  -117245266.18778811       -6982624.7453959361        1574276360.8703246     
  -103588269.04556152       -5852267.4616032057        1569690928.3083012     
  -89413079.519085765       -2994602.2303153239        1570330810.4170725     
  -74719697.608375266        1590370.9484234042        1576196007.1966307     
  -59508123.313426822        7902652.0746206045        1587286518.6469939     
  -236777934.42929500       -14088915.637446553        1544669012.9817255     
  -209083810.82386297       -12178214.312023208        1540304648.5487969     
  -180291683.77100849       -6607501.4951916710        1541332679.6379421     
  -150401553.27074349        2623222.8130097389        1547753106.2491441     
  -119413419.32305792        15513958.612610042        1559565928.3824160     
  -358611326.09462869       -21885423.556645200        1513403905.8585804     
  -316402702.16521132       -19051166.031357288        1509937055.7951262     
  -272516263.72519600       -10624193.470747039        1512029682.1050122     
  -226952010.77459210        3395494.1251620501        1519681784.7882304     
  -179709943.31338993        23007896.756395862        1532893363.8447957     
  -482745441.18379098       -30372148.502992406        1480481039.5008976     
  -425544943.06961173       -26471122.619623616        1478588150.0472834     
  -366086819.38164341       -15044678.156963721        1482421817.8182797     
  -304371070.11992031        3907184.8848813176        1491982042.8138897     
  -240397695.28442848        30384466.505956396        1507268825.0341113     
   5944.7155020026694        173977.14242048786        1616055134.6385038     
  -25658.062460584762        7657.5097871597245        1585080906.8916731     
  -35308.662174680852       -85488.195351891118        1557483876.4521096     
  -23007.083642527381       -105459.97300274954        1533264043.3198192     
   11246.673138391954       -52257.823158415660        1512421407.4947999     
  -59508123.313426822        7902652.0746206045        1587286518.6469939     
  -48650477.172696918        15457326.195614483        1556786198.8975503     
  -36630646.641894266        26885948.283519294        1529503259.3736176     
  -23448631.721005913        42188518.338373460        1505437700.0751879     
  -9104432.4100321494        61365036.360183157        1484589521.0022569     
  -119413419.32305792        15513958.612610042        1559565928.3824160     
  -98123144.497264981        30652640.417117305        1530869787.5441823     
  -74530453.069552511        53466044.228023022        1505231209.8496850     
  -48635345.039927527        83954170.045302391        1482650195.2989192     
  -20437820.408390388        122117017.86895843        1463126743.8918910     
  -179709943.31338993        23007896.756395862        1532893363.8447957     
  -148443660.03614756        45593600.174351595        1507331672.8315620     
  -113734727.94515884        79654799.638128594        1484667727.8803074     
  -75583147.040416509        125191495.14775102        1464901528.9910121     
  -33988917.321931005        182203686.70318398        1448033076.1636889     
  -240397695.28442848        30384466.505956396        1507268825.0341113     
  -199612023.78936225        60280205.467256263        1486171854.7596991     
  -154243471.26870304        105452214.51386946        1467812813.4654868     
  -104292037.72246812        165900493.64573503        1452191701.1514766     
  -49757723.150651693        241625042.86286882        1439308517.8176663     
   11246.673138391954       -52257.823158415660        1512421407.4947999     
   18417.185803069631        9313.1915526124030        1403073783.2369676     
   14510.578322109304        33960.472444153245        1290971597.2006917     
  -473.14928305470130        21684.019588001538        1176114849.3859792     
  -26533.997039667080       -27516.167103535849        1058503539.7928296     
  -9104432.4100321494        61365036.360183157        1484589521.0022569     
  -9594924.7698170841        80790408.956187531        1375917572.7505419     
  -8149186.9644401893        106669882.10273340        1265148799.0873737     
  -4767218.9939008281        139003455.79982221        1152283200.0127795     
   550979.14179851860        177791130.04743946        1037320775.5267502     
  -20437820.408390388        122117017.86895843        1463126743.8918910     
  -19546728.877766609        161469966.07511362        1357402330.1458044     
  -14772099.896680057        213768039.11615193        1250238827.3552773     
  -6113933.4651283622        279011236.99206662        1141636235.5203099     
   6427770.4168801308        357199559.70284218        1031594554.6409107     
  -33988917.321931005        182203686.70318398        1448033076.1636889     
  -29836995.138040364        242047984.54834747        1347528055.4227557     
  -19854228.218380943        321328431.51274586        1246241682.0043743     
  -4040616.5629684925        420045027.59631741        1144173955.9085672     
   17603839.828216016        538197772.79912782        1041324877.1353196     
  -49757723.150651693        241625042.86286882        1439308517.8176663     
  -40465723.550647229        322524464.37586141        1346294748.5814004     
  -23395571.929551989        429351059.29249203        1253157363.0346975     
   1452731.7125900686        562104827.61261272        1159896361.1775687     
   34079187.375799477        720785769.33628774        1066511743.0099927     
  -1566191529.0129721       -161668264.82644439        1442099823.7165165     
  -1501581898.3244972       -120173967.31233674        1429983042.9112117     
  -1439376170.5151603       -86692679.395354152        1424005518.2013822     
  -1379574345.5849597       -61224401.075494826        1424167249.5870245     
  -1322176423.5338943       -43769132.352748990        1430468237.0681429     
  -1935224338.7805672       -99078189.379558563        1379338523.7637744     
  -1860229949.7272456       -73541659.844466746        1367051136.5655062     
  -1786625405.0458994       -52637944.882629156        1360295330.7783446     
  -1714410704.7365303       -36367044.494050503        1359071106.4022896     
  -1643585848.7991374       -24728958.678727925        1363378463.4373386     
  -2297553576.6080585       -34477042.350641489        1308649845.2632139     
  -2213910642.5737944       -25419144.809732676        1297374919.9303334     
  -2130643494.4043498       -17613866.818218350        1291023901.3241932     
  -2047752132.0997214       -11061208.376095414        1289596789.4447913     
  -1965236555.6599140       -5761169.4833703041        1293093584.2921233     
  -2653179242.4954414        32135176.260308027        1230033788.2148387     
  -2562623976.8641496        24193577.791859269        1220954393.0057003     
  -2471430438.5905128        18379554.797880769        1216191229.8389313     
  -2379598627.6745381        14693107.278371930        1215744298.7145336     
  -2287128544.1162205        13134235.233333468        1219613599.6325016     
  -3002101336.4427209        100758466.45328844        1143490352.6186433     
  -2906369952.5983052        75296507.960310698        1137789555.7915993     
  -2808986237.6043916        55342319.965664268        1135797316.3225572     
  -2709950191.4609742        40895902.469355822        1137513634.2115135     
  -2609261814.1680622        31957255.471369863        1142938509.4584725     
  -1322176423.5338943       -43769132.352748990        1430468237.0681429     
  -1274419749.0520635       -34368361.133600414        1425173183.9915314     
  -1227662769.4270287       -28299906.103771269        1424033339.1711664     
  -1181905484.6587884       -25563767.263258755        1427048702.6070526     
  -1137147894.7473412       -26159944.612053216        1434219274.2991879     
  -1643585848.7991374       -24728958.678727925        1363378463.4373386     
  -1586452272.4260309       -20274793.354950130        1357065320.3930883     
  -1529957337.3659506       -17949432.407926917        1354951494.9848123     
  -1474101043.6188962       -17752875.837652266        1357036987.2125058     
  -1418883391.1848671       -19685123.644135535        1363321797.0761743     
  -1965236555.6599140       -5761169.4833703041        1293093584.2921233     
  -1898600050.5963180       -6215802.0151842833        1286183580.4146333     
  -1832241133.3019822       -7595727.1112022400        1283517003.5528400     
  -1766159803.7769053       -9900944.7714160681        1285093853.7067380     
  -1700356062.0210879       -13131454.995824695        1290914130.8763368     
  -2287128544.1162205        13134235.233333468        1219613599.6325016     
  -2210863083.5629287        7808612.8856754303        1212527964.0561671     
  -2134514157.2351308        2761209.7863807678        1209729864.8752491     
  -2058081765.1328225       -2007974.0645540953        1211219302.0897510     
  -1981565907.2560065       -6498938.6671237946        1216996275.6996717     
  -2609261814.1680622        31957255.471369863        1142938509.4584725     
  -2523241371.3258634        21798451.347646475        1136098471.3176866     
  -2436776409.1653924        13121378.284829855        1133590078.9520433     
  -2349866927.6866422        5926036.2829424143        1135413332.3615410     
  -2262512926.8896189        212425.34197223186        1141568231.5461805     
  -1137147894.7473412       -26159944.612053216        1434219274.2991879     
  -1083443224.8049917       -25796363.181404471        1427207456.4415648     
  -1029875804.1134284       -25890279.253375530        1425353881.5662699     
  -976445632.67264521       -26441692.827949286        1428658549.6733093     
  -923152710.48264718       -27450603.905136764        1437121460.7626834     
  -1418883391.1848671       -19685123.644135535        1363321797.0761743     
  -1352023784.4131455       -19336587.052833200        1356131453.2756667     
  -1285324526.5944567       -19522546.971637905        1353905520.5552747     
  -1218785617.7288001       -20243003.400548339        1356643998.9149885     
  -1152407057.8161740       -21497956.339560091        1364346888.3548183     
  -1700356062.0210879       -13131454.995824695        1290914130.8763368     
  -1620895323.8549147       -12964104.874337494        1283518311.4803255     
  -1541618034.3440261       -13408250.270466685        1280893071.2622068     
  -1462524193.4884140       -14463891.184185445        1283038410.2219713     
  -1383613801.2880831       -16131027.615503192        1289954328.3596277     
  -1981565907.2560065       -6498938.6671237946        1216996275.6996717     
  -1890057843.1303022       -6678916.6459367275        1209368031.0555358     
  -1798756327.3621309       -7547389.1498473883        1206316533.6870649     
  -1707661359.9514885       -9104356.1788605452        1207841783.5942595     
  -1616772940.8983712       -11349817.732957482        1213943780.7771215     
  -2262512926.8896189        212425.34197223186        1141568231.5461805     
  -2159511342.2393074       -481022.36761295795        1133680612.0012956     
  -2056739405.6487775       -1939963.6098022461        1130175907.8298535     
  -1954197117.1180243       -4164398.3845785856        1131054119.0318546     
  -1851884476.6470432       -7154326.6919301748        1136315245.6072986     
  -923152710.48264718       -27450603.905136764        1437121460.7626834     
  -871688409.81272888       -29167751.951765388        1433785680.6452606     
  -820192123.96680760       -30778282.745055437        1435325091.0304596     
  -768663852.94489014       -32282196.285024405        1441739691.9182823     
  -717103596.74696720       -33679492.571637750        1453029483.3087261     
  -1152407057.8161740       -21497956.339560091        1364346888.3548183     
  -1088692688.7791946       -23877226.210553408        1360227714.4738157     
  -1025032295.8458530       -26436416.427003384        1360809276.9474010     
  -961425879.01615286       -29175526.988920927        1366091575.7755718     
  -897873438.29008675       -32094557.896289498        1376074610.9583230     
  -1383613801.2880831       -16131027.615503192        1289954328.3596277     
  -1308147804.3070138       -19321951.437750697        1284951472.5554760     
  -1232821744.7092173       -22979333.204247415        1284474898.9578679     
  -1157635622.4947042       -27103172.915017426        1288524607.5668039     
  -1082589437.6634631       -31693470.570028245        1297100598.3822877     
  -1616772940.8983712       -11349817.732957482        1213943780.7771215     
  -1530053756.3961799       -15501927.633353829        1207956954.8902369     
  -1443560470.5569026       -20407033.076790810        1206321957.0618582     
  -1357293083.3805425       -26065134.063286602        1209038787.2919836     
  -1271251594.8670940       -32476230.592825174        1216107445.5806160     
  -1851884476.6470432       -7154326.6919301748        1136315245.6072986     
  -1754410545.0467017       -12417154.797366858        1129244161.4781020     
  -1657248473.3889046       -18719516.044626772        1126350451.2593722     
  -1560398261.6736698       -26061410.433758616        1127634114.9511099     
  -1463859909.9009855       -34442837.964720130        1133095152.5533164     
  -717103596.74696720       -33679492.571637750        1453029483.3087261     
  -658530583.40043223       -32907741.702005982        1451697916.5822730     
  -599946553.02438998       -32099267.400684655        1455829320.3721483     
  -541351505.61884153       -31254069.667675436        1465423694.6783574     
  -482745441.18379098       -30372148.502992406        1480481039.5008976     
  -897873438.29008675       -32094557.896289498        1376074610.9583230     
  -825930344.46122873       -32537915.491248101        1373203404.3679776     
  -753960652.07933331       -32892611.242751479        1375434314.2010684     
  -681964361.14440274       -33158645.150804013        1382767340.4576004     
  -609941471.65643513       -33336017.215397358        1395202483.1375620     
  -1082589437.6634631       -31693470.570028245        1297100598.3822877     
  -998307275.04626703       -33661240.137769401        1292707930.3721707     
  -913982932.35250664       -35488409.450288057        1293056524.6925986     
  -829616409.58217704       -37174978.507583469        1298146381.3435643     
  -745207706.73528278       -38720947.309656709        1307977500.3250782     
  -1271251594.8670940       -32476230.592825174        1216107445.5806160     
  -1175661375.1555555       -36277715.641565740        1210211494.5948517     
  -1080013393.8439109       -39886662.023290217        1208695951.8467302     
  -984307650.93217206       -43303069.738038957        1211560817.3362586     
  -888544146.42033529       -46526938.785780758        1218806091.0634308     
  -1463859909.9009855       -34442837.964720130        1133095152.5533164     
  -1357992644.7890801       -40387342.002629697        1125714097.0360177     
  -1252052036.5535471       -46087368.961771965        1122352595.6634753     
  -1146038085.1943831       -51542918.842150152        1123010648.4356794     
  -1039950790.7115892       -56753991.643758655        1127688255.3526402     
  -482745441.18379098       -30372148.502992406        1480481039.5008976     
  -425544943.06961173       -26471122.619623616        1478588150.0472834     
  -366086819.38164341       -15044678.156963721        1482421817.8182797     
  -304371070.11992031        3907184.8848813176        1491982042.8138897     
  -240397695.28442848        30384466.505956396        1507268825.0341113     
  -609941471.65643513       -33336017.215397358        1395202483.1375620     
  -537993328.93235552       -30066566.650406450        1393139267.9929070     
  -463784369.38191873       -19261059.997561961        1396839585.7816551     
  -387314593.00512224       -919497.25684818625        1406303436.5037992     
  -308583999.80196738        24958121.571722880        1421530820.1593382     
  -745207706.73528278       -38720947.309656709        1307977500.3250782     
  -658406274.51907206       -36051378.598409414        1305747682.6174066     
  -569340834.22390628       -25835116.290648907        1309318373.5519202     
  -478011385.84979355       -8072160.3863988817        1318689573.1286139     
  -384417929.39673901        17237489.114332870        1333861281.3474929     
  -888544146.42033529       -46526938.785780758        1218806091.0634308     
  -786783779.82974267       -44425558.463577747        1216413393.9207664     
  -682756213.90762007       -34766847.036272943        1219858181.1290717     
  -576461448.65394962       -17550804.503804833        1229140452.6883428     
  -467899484.06874257        7222569.1337766349        1244260208.5985827     
  -1039950790.7115892       -56753991.643758655        1127688255.3526402     
  -923125844.86438239       -55189106.245950162        1125136401.9029973     
  -804030508.43304920       -46056252.234393209        1128459008.5131121     
  -682664781.41758025       -29355429.609048575        1137656075.1829791     
  -559028663.81799304       -5086638.3699736595        1152727601.9125910     
  -240397695.28442848        30384466.505956396        1507268825.0341113     
  -199612023.78936225        60280205.467256263        1486171854.7596991     
  -154243471.26870304        105452214.51386946        1467812813.4654868     
  -104292037.72246812        165900493.64573503        1452191701.1514766     
  -49757723.150651693        241625042.86286882        1439308517.8176663     
  -308583999.80196738        24958121.571722880        1421530820.1593382     
  -258983116.81166506        55294146.188389495        1404789345.2120702     
  -202941521.73434567        107099211.09510739        1391989268.8220155     
  -140459214.57001761        180373316.29185745        1383130590.9891603     
  -71536195.318685055        275116461.77862173        1378213311.7135122     
  -384417929.39673901        17237489.114332870        1333861281.3474929     
  -322563350.40547889        49045344.738071084        1323642771.2990453     
  -252410228.26577348        108515010.85662144        1318569129.3848040     
  -173958562.97762820        195646487.46997446        1318640355.6047721     
  -87208354.541050076        310439774.57810843        1323856449.9589446     
  -467899484.06874257        7222569.1337766349        1244260208.5985827     
  -390352724.57080030        41533801.116306230        1242732133.0206161     
  -302649590.86298478        109699613.79840796        1247552395.1538644     
  -204790082.94530547        211720007.18005836        1258720994.9983177     
  -96774200.817753822        347594981.26128346        1276237932.5539887     
  -559028663.81799304       -5086638.3699736595        1152727601.9125910     
  -462351239.30764115        32759515.323072225        1162057430.3767779     
  -353659609.52599657        110653019.92042431        1178939066.1291809     
  -232953774.47304368        228593875.42214310        1203372509.1697977     
  -100233734.14880449        386582081.82814121        1235357759.4986308     
  -49757723.150651693        241625042.86286882        1439308517.8176663     
  -40465723.550647229        322524464.37586141        1346294748.5814004     
  -23395571.929551989        429351059.29249203        1253157363.0346975     
   1452731.7125900686        562104827.61261272        1159896361.1775687     
   34079187.375799477        720785769.33628774        1066511743.0099927     
  -71536195.318685055        275116461.77862173        1378213311.7135122     
  -57377507.176886365        376814936.63584375        1296706542.0911446     
  -34241094.614435047        508439159.56190622        1214267213.8088510     
  -2126957.6313494146        669989130.55674267        1130895326.8666327     
   38964903.772376001        861464849.62038803        1046590881.2644778     
  -87208354.541050076        310439774.57810843        1323856449.9589446     
  -70494241.713166833        432243923.62279034        1255256181.0833297     
  -43602832.065043300        587972395.40158951        1184914411.1982889     
  -6534125.5967118144        777625189.91442883        1112831140.3038197     
   40711877.691852272        1001202307.1613715        1039006368.3999503     
  -96774200.817753822        347594981.26128346        1276237932.5539887     
  -79815927.159468919        488811425.33674210        1221943665.5579505     
  -51480784.281380534        667950766.81155419        1165098955.2030122     
  -11768772.183487058        885013005.68569970        1105703801.4891508     
   39320109.134210944        1139998141.9592130        1043758204.4163729     
  -100233734.14880449        386582081.82814121        1235357759.4986308     
  -85342563.515812248        546517441.77766824        1196768995.5150254     
  -57874951.263427317        748374273.79182935        1154820845.8230150     
  -17830897.391675770        992152577.87056231        1109513310.4225948     
   34789598.099472284        1277852354.0139253        1060846389.3137803     
  -3002101336.4427209        100758466.45328844        1143490352.6186433     
  -2906369952.5983052        75296507.960310698        1137789555.7915993     
  -2808986237.6043916        55342319.965664268        1135797316.3225572     
  -2709950191.4609742        40895902.469355822        1137513634.2115135     
  -2609261814.1680622        31957255.471369863        1142938509.4584725     
  -3385314891.4381170        52961226.933353662        1021019152.4923708     
  -3274692652.9941020        42146064.049218416        1015118941.1362584     
  -3163442870.8607373        33422713.462901711        1013584646.2044111     
  -3051565545.0380306        26791175.174395084        1016416267.6968335     
  -2939060675.5259805        22251449.183706760        1023613805.6135230     
  -3773837078.0093102        3571397.9406831264        903060952.44694448     
  -3646445816.2049294        7966481.2936117649        895765741.19158053     
  -3519451798.1713610        11037418.743846178        893493805.42675018     
  -3392855023.9085979        12784210.291381121        896245145.15245259     
  -3266655493.4166474        13206855.936215401        904019760.36869299     
  -4167667896.1563091       -47411020.524729967        789615752.48236108     
  -4021629442.2308016       -27242240.306500435        779729955.95756567     
  -3877013019.5362539       -11813564.191484213        775524793.98956954     
  -3733818628.0726752       -1124992.1796875000        777000266.57837677     
  -3592046267.8400598        4823475.7289023399        784156373.72398710     
  -4566807345.8791037       -99986028.462883472        680683552.59862447     
  -4400243531.0717068       -63480100.751132488        667011585.43421328     
  -4236126534.9554248       -35130235.343100786        659677611.89287353     
  -4074456357.5302629       -14936432.238807201        658681631.97460246     
  -3915232998.7962208       -2898691.4382388592        664023645.67939997     
  -2609261814.1680622        31957255.471369863        1142938509.4584725     
  -2523241371.3258634        21798451.347646475        1136098471.3176866     
  -2436776409.1653924        13121378.284829855        1133590078.9520433     
  -2349866927.6866422        5926036.2829424143        1135413332.3615410     
  -2262512926.8896189        212425.34197223186        1141568231.5461805     
  -2939060675.5259805        22251449.183706760        1023613805.6135230     
  -2841322093.3832898        14634568.246018529        1017840731.7748648     
  -2743319144.2065568        7898910.7551460266        1016163367.8108191     
  -2645051827.9957843        2044476.7110725641        1018581713.7213858     
  -2546520144.7509608       -2928733.8861753941        1025095769.5065653     
  -3266655493.4166474        13206855.936215401        904019760.36869299     
  -3157872874.5464048        7929667.4126900434        899103473.16722393     
  -3049006040.9263515        2933194.7218663692        898046959.93983853     
  -2940054992.5564890       -1782562.1362558603        900850220.68653619     
  -2831019729.4368124       -6217603.1616706848        907513255.40731788     
  -3592046267.8400598        4823475.7289023399        784156373.72398710     
  -3472893714.8152061        1683748.8476510048        779886695.49476838     
  -3353837099.3247724       -1775769.8149962425        779240855.33910584     
  -3234876421.3687630       -5555080.2590571642        782218853.25699532     
  -3116011680.9471755       -9654182.4845269918        788820689.24844027     
  -3915232998.7962208       -2898691.4382388592        664023645.67939997     
  -3786384614.1896968       -4103187.4490914345        660190398.75749516     
  -3657812319.4018216       -6227982.8554470539        659745054.00861561     
  -3529516114.4326057       -9273077.6573278904        662687611.43275976     
  -3401495999.2820444       -13238471.854725122        669018071.02992928     
  -2262512926.8896189        212425.34197223186        1141568231.5461805     
  -2159511342.2393074       -481022.36761295795        1133680612.0012956     
  -2056739405.6487775       -1939963.6098022461        1130175907.8298535     
  -1954197117.1180243       -4164398.3845785856        1131054119.0318546     
  -1851884476.6470432       -7154326.6919301748        1136315245.6072986     
  -2546520144.7509608       -2928733.8861753941        1025095769.5065653     
  -2431917349.6423502       -2952250.1217538118        1016798804.5046641     
  -2317494288.0716019       -3574878.1502109766        1012888332.6032395     
  -2203250960.0387182       -4796617.9715530872        1013364353.8022956     
  -2089187365.5437014       -6617469.5857820511        1018226868.1018330     
  -2831019729.4368124       -6217603.1616706848        907513255.40731788     
  -2704805501.7926512       -5568121.3000612259        898865178.55729461     
  -2578721093.1644363       -5351369.4916238785        894607172.53478813     
  -2452766503.5521770       -5567347.7363672256        894739237.33979869     
  -2326941732.9558735       -6216056.0342863798        899261372.97232616     
  -3116011680.9471755       -9654182.4845269918        788820689.24844027     
  -2978175798.6902061       -8328635.9025418758        779879734.15919375     
  -2840419820.9272838       -7269437.6340401173        775332427.62450206     
  -2702743747.6584020       -6476587.6790097952        775178769.64435911     
  -2565147578.8835597       -5950086.0374456644        779418760.21877611     
  -3401495999.2820444       -13238471.854725122        669018071.02992928     
  -3252028240.3350310       -11233793.929218411        659842471.31035376     
  -3102590471.3601422       -9329082.5774606466        655064097.87237477     
  -2953182692.3573875       -7524337.7994837761        654682950.71598363     
  -2803804903.3267574       -5819559.5952552557        658699029.84118319     
  -1851884476.6470432       -7154326.6919301748        1136315245.6072986     
  -1754410545.0467017       -12417154.797366858        1129244161.4781020     
  -1657248473.3889046       -18719516.044626772        1126350451.2593722     
  -1560398261.6736698       -26061410.433758616        1127634114.9511099     
  -1463859909.9009855       -34442837.964720130        1133095152.5533164     
  -2089187365.5437014       -6617469.5857820511        1018226868.1018330     
  -1980959756.2850749       -10910064.068485856        1010490111.2587116     
  -1873027763.3551102       -16188046.313378453        1006624140.1754787     
  -1765391386.7537961       -22451416.320452213        1006628954.8521312     
  -1658050626.4811430       -29700174.089720309        1010504555.2886792     
  -2326941732.9558735       -6216056.0342863798        899261372.97232616     
  -2208836412.1834822       -9801206.7376266718        890877894.29816067     
  -2091010464.1258483       -14317599.823493004        886058613.23330784     
  -1973463888.7829704       -19765235.291873336        884803529.77776086     
  -1856196686.1548507       -26144113.142788649        887112643.93152881     
  -2565147578.8835597       -5950086.0374456644        779418760.21877611     
  -2438040512.7419105       -9090582.8047746420        770407510.59645128     
  -2311196575.7011166       -13108176.574954987        764653870.43285441     
  -2184615767.7611852       -18002867.348009944        762157839.72798848     
  -2058298088.9221098       -23774655.123917699        762919418.48186040     
  -2803804903.3267574       -5819559.5952552557        658699029.84118319     
  -2668572057.9603572       -8778192.2699180841        649078960.15357840     
  -2533586098.0809178       -12559776.567786336        642409911.77412498     
  -2398847023.6884346       -17164312.488842726        638691884.70282650     
  -2264354834.7829170       -22591800.033117771        637924878.93967736     
  -1463859909.9009855       -34442837.964720130        1133095152.5533164     
  -1357992644.7890801       -40387342.002629697        1125714097.0360177     
  -1252052036.5535471       -46087368.961771965        1122352595.6634753     
  -1146038085.1943831       -51542918.842150152        1123010648.4356794     
  -1039950790.7115892       -56753991.643758655        1127688255.3526402     
  -1658050626.4811430       -29700174.089720309        1010504555.2886792     
  -1541741990.1142545       -34472383.261760116        1001733212.8772824     
  -1425278713.8347800       -38729126.058512270        996703610.77899492     
  -1308660797.6427257       -42470402.479993939        995415748.99382365     
  -1191888241.5380826       -45696212.526190698        997869627.52176225     
  -1856196686.1548507       -26144113.142788649        887112643.93152881     
  -1730240432.3376596       -29982153.590364933        877045860.87980819     
  -1604048241.8189254       -33033738.366132975        870443004.30955875     
  -1477620114.5986567       -35298867.470111012        867304074.22078586     
  -1350956050.6768456       -36777540.902293563        867629070.61349058     
  -2058298088.9221098       -23774655.123917699        762919418.48186040     
  -1923487971.4592957       -26916652.988443136        751652041.04359889     
  -1788360620.5059812       -29001205.884626865        743570776.25516891     
  -1652916036.0621769       -30028313.812516510        738675624.11658156     
  -1517154218.1278749       -29997976.772074699        736966584.62782991     
  -2264354834.7829170       -22591800.033117771        637924878.93967736     
  -2121484607.4791605       -25275881.455980062        625551753.36865449     
  -1978215849.8959510       -26631528.614004850        616086926.61582625     
  -1834548562.0332894       -26658741.507190466        609530398.68120360     
  -1690482743.8911810       -25357520.135552227        605882169.56477189     
  -1039950790.7115892       -56753991.643758655        1127688255.3526402     
  -923125844.86438239       -55189106.245950162        1125136401.9029973     
  -804030508.43304920       -46056252.234393209        1128459008.5131121     
  -682664781.41758025       -29355429.609048575        1137656075.1829791     
  -559028663.81799304       -5086638.3699736595        1152727601.9125910     
  -1191888241.5380826       -45696212.526190698        997869627.52176225     
  -1061601580.0791334       -42486533.127036214        994085543.89880979     
  -929899498.41910493       -34558786.390974104        994402598.22482884     
  -796781996.55799699       -21912972.317964405        998820790.49982119     
  -662249074.49581444       -4549090.9080485106        1007340120.7237875     
  -1350956050.6768456       -36777540.902293563        867629070.61349058     
  -1212274308.2083738       -33443057.882462382        861615291.37033296     
  -1073032115.9218796       -28240408.802563310        857929327.96536613     
  -933229473.81735003       -21169593.662547588        856571180.39859498     
  -792866381.89479852       -12230612.462458789        857540848.67001998     
  -1517154218.1278749       -29997976.772074699        736966584.62782991     
  -1375144029.2521169       -28058680.512259364        727725644.31757200     
  -1233428360.9413726       -27101119.469171643        719039197.73472762     
  -1092007213.1956530       -27125293.642829239        710907244.87930226     
  -950880586.01496017       -28131203.033222377        703329785.75128841     
  -1690482743.8911810       -25357520.135552227        605882169.56477189     
  -1550210743.2103465       -26333401.016375601        592416602.74051976     
  -1411088233.4775884       -31140918.390800178        577732207.53291142     
  -1273115214.6928983       -39780072.258781016        561828983.94193399     
  -1136291686.8562860       -52250862.620348513        544706931.96759784     
  -559028663.81799304       -5086638.3699736595        1152727601.9125910     
  -462351239.30764115        32759515.323072225        1162057430.3767779     
  -353659609.52599657        110653019.92042431        1178939066.1291809     
  -232953774.47304368        228593875.42214310        1203372509.1697977     
  -100233734.14880449        386582081.82814121        1235357759.4986308     
  -662249074.49581444       -4549090.9080485106        1007340120.7237875     
  -547136840.07232356        25646603.443889350        1020861070.7289900     
  -421138035.14640534        92130866.137247056        1042776327.0732671     
  -284252659.71808261        194903697.17195868        1073085889.7566150     
  -136480713.78733456        333965096.54808122        1111789758.7790377     
  -792866381.89479852       -12230612.462458789        857540848.67001998     
  -656912197.41285861        11036764.591990650        873937346.31921756     
  -511199077.19738925        66833927.424872220        899570649.35833740     
  -355727021.24837488        155160876.03623191        934440757.78738785     
  -190496029.56582808        276017610.42603219        978547671.60636377     
  -950880586.01496017       -28131203.033222377        703329785.75128841     
  -791677311.32927024       -11070001.232691020        721286257.14744616     
  -623842735.67892814        34762203.783346772        749322032.98438668     
  -447376859.06393051        109365412.01490933        787437113.26211214     
  -262279681.48427737        212739623.46198982        835631497.98061728     
  -1136291686.8562860       -52250862.620348513        544706931.96759784     
  -951432181.82155013       -40673694.030139863        562907803.21368837     
  -759069010.59103894       -4084304.7873635888        592030477.95141971     
  -559202173.16474509        57517305.108027399        632074956.18079436     
  -351831669.54269087        144131135.65595812        683041237.90180218     
  -100233734.14880449        386582081.82814121        1235357759.4986308     
  -85342563.515812248        546517441.77766824        1196768995.5150254     
  -57874951.263427317        748374273.79182935        1154820845.8230150     
  -17830897.391675770        992152577.87056231        1109513310.4225948     
   34789598.099472284        1277852354.0139253        1060846389.3137803     
  -136480713.78733456        333965096.54808122        1111789758.7790377     
  -127354313.75988623        483025216.18913025        1090208061.5921528     
  -95097527.727643311        709186622.51280713        1070060982.0267565     
  -39710355.690620661        1012449315.5191040        1051348520.0828420     
   38807202.351194441        1392813295.2080219        1034070675.7604132     
  -190496029.56582808        276017610.42603219        978547671.60636377     
  -173437247.77280778        418311635.46995127        986285976.33250761     
  -122694135.58959800        672886761.81449175        1000252902.0100243     
  -38266693.016198277        1039742989.4596666        1020448448.6389006     
   79845079.947384179        1518880318.4054582        1046872616.2191693     
  -262279681.48427737        212739623.46198982        835631497.98061728     
  -223591365.55458277        352376699.62010306        885002739.73608911     
  -140664774.84929377        639474691.69685316        945396605.77282345     
  -13499909.368415058        1074033599.6922386        1016813096.0908114     
   157903230.88804948        1656053423.6062374        1099252210.6900613     
  -351831669.54269087        144131135.65595812        683041237.90180218     
  -277816667.10520941        285220408.63961256        786358351.80289769     
  -149009445.50673500        608950412.15988779        905492093.31514800     
   34589995.252728879        1115321146.2168083        1040442462.4385400     
   272981655.17318279        1804332610.8103571        1191209459.1730764     
  -4566807345.8791037       -99986028.462883472        680683552.59862447     
  -4400243531.0717068       -63480100.751132488        667011585.43421328     
  -4236126534.9554248       -35130235.343100786        659677611.89287353     
  -4074456357.5302629       -14936432.238807201        658681631.97460246     
  -3915232998.7962208       -2898691.4382388592        664023645.67939997     
  -4927696619.2724342       -42996660.963004351        519445966.62029064     
  -4754181788.1617794       -30415459.361602783        509256930.83831775     
  -4580980541.3833876       -18879538.867772341        503597927.69201624     
  -4408092878.9372787       -8388899.4815268517        502468957.18138313     
  -4235518800.8234425        1056458.7971448898        505870019.30642521     
  -5271451187.0283051        19133118.228116035        346960135.85519886     
  -5096150942.4355164        6239912.8728244305        342742804.87431288     
  -4919031047.8161678       -587792.39388751984        341247545.54170305     
  -4740091503.1702452       -1349997.5720295906        342474357.85736597     
  -4559332308.4977446        3953297.3384060860        346423241.82130516     
  -5598071049.1467009        86403309.110472679        163226060.30334562     
  -5426150993.8929291        46486015.952153921        167469207.54220083     
  -5250278054.2537422        19745004.078561544        172626465.44193310     
  -5070452230.2291355        6180273.4896926880        178697834.00254279     
  -4886673521.8191242        5791824.1855266094        185683313.22403103     
  -5907556205.6276264        158813911.68407631       -31756260.035270117     
  -5744181942.5340061        90322849.876377821       -16563861.158016045     
  -5574721560.6961203        42118850.549561262       -2265312.6072866507     
  -5399175060.1139765        14201913.703628063        11139385.616921268     
  -5217542440.7875652        6572039.3385620117        23650233.514612194     
  -3915232998.7962208       -2898691.4382388592        664023645.67939997     
  -3786384614.1896968       -4103187.4490914345        660190398.75749516     
  -3657812319.4018216       -6227982.8554470539        659745054.00861561     
  -3529516114.4326057       -9273077.6573278904        662687611.43275976     
  -3401495999.2820444       -13238471.854725122        669018071.02992928     
  -4235518800.8234425        1056458.7971448898        505870019.30642521     
  -4097432505.1224756       -719415.12862086296        500718516.95322800     
  -3959609480.5709200       -3372859.5524356365        499417054.32616925     
  -3822049727.1687913       -6903874.4743392467        501965631.42525840     
  -3684753244.9160800       -11312459.894292593        508364248.25048858     
  -4559332308.4977446        3953297.3384060860        346423241.82130516     
  -4410687708.6934214        2002163.4003973007        339968439.15091777     
  -4262293561.3692741       -783812.13820433617        337825813.75979185     
  -4114149866.5253186       -4404629.2774398327        339995365.64793092     
  -3966256624.1615477       -8860288.0172834396        346477094.81532735     
  -4886673521.8191242        5791824.1855266094        185683313.22403103     
  -4726150224.9025269        4061548.1379835606        177940165.35056946     
  -4565864561.7968912        1539159.3872380257        174971332.30948040     
  -4405816532.5022020       -1775342.0666608810        176776814.10077962     
  -4246006137.0184603       -5881956.2237172127        183356610.72445020     
  -5217542440.7875652        6572039.3385620117        23650233.514612194     
  -5043820053.7498064        5458739.0840978622        14633695.552176759     
  -4870322481.8537531        3596055.0239350796        10853609.975240067     
  -4697049725.0994205        983987.15803766251        12309976.783796273     
  -4524001783.4868031       -2377464.5135605335        19002795.977855865     
  -3401495999.2820444       -13238471.854725122        669018071.02992928     
  -3252028240.3350310       -11233793.929218411        659842471.31035376     
  -3102590471.3601422       -9329082.5774606466        655064097.87237477     
  -2953182692.3573875       -7524337.7994837761        654682950.71598363     
  -2803804903.3267574       -5819559.5952552557        658699029.84118319     
  -3684753244.9160800       -11312459.894292593        508364248.25048858     
  -3523829913.6744833       -9054841.3943753242        499755909.76648414     
  -3362921454.6527829       -6846796.9607765675        495503952.78724653     
  -3202027867.8509727       -4688326.5934777260        495608377.31276947     
  -3041149153.2690549       -2579430.2924907207        500069183.34305441     
  -3966256624.1615477       -8860288.0172834396        346477094.81532735     
  -3793994419.9877343       -6384738.7516794205        338453654.94450718     
  -3621731970.2815838       -3908371.0449268818        334745751.80161726     
  -3449469275.0430942       -1431184.8970558643        335353385.38666630     
  -3277206334.2722483        1046819.6920032501        340276555.69964862     
  -4246006137.0184603       -5881956.2237172127        183356610.72445020     
  -4062521759.2747998       -3223486.0011310577        175935706.84441581     
  -3879022018.2465587       -513804.82994937897        172789494.91548362     
  -3695506913.9337325        2247087.2898459435        173917974.93766728     
  -3511976446.3363371        5059190.3582160473        179321146.91095930     
  -4524001783.4868031       -2377464.5135605335        19002795.977855865     
  -4329411931.5356560        428916.85728406906        12202065.466218816     
  -4134791598.5476909        3336901.6842091084        9635182.1288582943     
  -3940140784.5229206        6346489.9671299458        11302145.965781983     
  -3745459489.4613147        9457681.7061886787        17202956.976977073     
  -2803804903.3267574       -5819559.5952552557        658699029.84118319     
  -2668572057.9603572       -8778192.2699180841        649078960.15357840     
  -2533586098.0809178       -12559776.567786336        642409911.77412498     
  -2398847023.6884346       -17164312.488842726        638691884.70282650     
  -2264354834.7829170       -22591800.033117771        637924878.93967736     
  -3041149153.2690549       -2579430.2924907207        500069183.34305441     
  -2897888630.7157383       -5856904.4127262831        490898770.32965761     
  -2754679771.8629513       -9306590.8680509329        485026051.10086858     
  -2611522576.7106857       -12928489.658461452        482451025.65668148     
  -2468417045.2589536       -16722600.783964038        483173693.99710208     
  -3277206334.2722483        1046819.6920032501        340276555.69964862     
  -3124927641.7421556       -2252348.0368369818        331783558.11129820     
  -2972505391.1261535       -5072988.8126568794        326934926.78401113     
  -2819939582.4242468       -7415102.6354503632        325730661.71777856     
  -2667230215.6364322       -9278689.5052297115        328170762.91259921     
  -3511976446.3363371        5059190.3582160473        179321146.91095930     
  -3349689091.0395999        2035476.8577466011        171733323.49849811     
  -3187062955.8705387        141029.59836089611        168136538.82355076     
  -3024098040.8291211       -624151.41984462738        168530792.88611168     
  -2860794345.9153733       -260066.19693744183        172916085.68617672     
  -3745459489.4613147        9457681.7061886787        17202956.976977073     
  -3572172978.6080947        7006570.2710015774        10748066.491249425     
  -3398352466.0960932        6335464.3650543690        8630887.2194838468     
  -3223997951.9253182        7444363.9883627892        10851419.161669126     
  -3049109436.0957747        10333269.140910149        17409662.317820955     
  -2264354834.7829170       -22591800.033117771        637924878.93967736     
  -2121484607.4791605       -25275881.455980062        625551753.36865449     
  -1978215849.8959510       -26631528.614004850        616086926.61582625     
  -1834548562.0332894       -26658741.507190466        609530398.68120360     
  -1690482743.8911810       -25357520.135552227        605882169.56477189     
  -2468417045.2589536       -16722600.783964038        483173693.99710208     
  -2318177947.1105437       -18189851.295089364        472757666.86524093     
  -2167764026.6206894       -19074360.668073773        464820895.96989888     
  -2017175283.7894034       -19376128.902950048        459363381.31106949     
  -1866411718.6166871       -19095155.999720216        456385122.88875663     
  -2667230215.6364322       -9278689.5052297115        328170762.91259921     
  -2510848082.5910401       -9896859.8889242411        319450841.62555605     
  -2354514835.1422215       -10677982.261207223        312781133.99334419     
  -2198230473.2899733       -11622056.622049809        308161640.01596695     
  -2041994997.0343044       -12729082.971501589        305592359.69342059     
  -2860794345.9153733       -260066.19693744183        172916085.68617672     
  -2699495013.9206567       -396907.23748958111        165631277.64959833     
  -2538468275.4605341       -1442393.3933482170        159967640.68617356     
  -2377714130.5349884       -3396524.6644681692        155925174.79589328     
  -2217232579.1440468       -6259301.0509306192        153503879.97877207     
  -3049109436.0957747        10333269.140910149        17409662.317820955     
  -2884118741.0994134        10310006.659170032        11298974.937354963     
  -2719624347.5756421        8632405.9354519844        6380416.0483669722     
  -2555626255.5244665        5300466.9697496891        2653985.6508425716     
  -2392124464.9459066        314189.76200520992        119683.74479168850     
  -1690482743.8911810       -25357520.135552227        605882169.56477189     
  -1550210743.2103465       -26333401.016375601        592416602.74051976     
  -1411088233.4775884       -31140918.390800178        577732207.53291142     
  -1273115214.6928983       -39780072.258781016        561828983.94193399     
  -1136291686.8562860       -52250862.620348513        544706931.96759784     
  -1866411718.6166871       -19095155.999720216        456385122.88875663     
  -1729027896.6720569       -22660335.695196033        442739316.40773433     
  -1591708279.2426820       -26439530.441514969        428688192.85483867     
  -1454452866.3285704       -30432740.238710284        414231752.23006034     
  -1317261657.9297075       -34639965.086744964        399369994.53340805     
  -2041994997.0343044       -12729082.971501589        305592359.69342059     
  -1905175035.7930648       -18186266.071789265        293032481.06058013     
  -1767333992.6342578       -20239842.780186176        280880796.66735113     
  -1628471867.5579011       -18889813.096749961        269137306.51373059     
  -1488588660.5639741       -14136177.021401644        257802010.59971762     
  -2217232579.1440468       -6259301.0509306192        153503879.97877207     
  -2078652160.5733800       -12911192.146192789        143296096.69906068     
  -1937965373.6523271       -12541855.406839490        134310018.97045314     
  -1795172218.3808980       -5151290.8328864574        126545646.79294084     
  -1650272694.7590675        9260501.5757168531        120002980.16653429     
  -2392124464.9459066        314189.76200520992        119683.74479168850     
  -2249459271.0129886       -6835113.9183776379       -6469836.6768201068     
  -2103602422.2968507       -3345568.3213624954       -11024140.235847797     
  -1954553918.7975321        10782826.552915812       -13543226.932290422     
  -1802313760.5150135        35550070.704539895       -14027096.766163675     
  -1136291686.8562860       -52250862.620348513        544706931.96759784     
  -951432181.82155013       -40673694.030139863        562907803.21368837     
  -759069010.59103894       -4084304.7873635888        592030477.95141971     
  -559202173.16474509        57517305.108027399        632074956.18079436     
  -351831669.54269087        144131135.65595812        683041237.90180218     
  -1317261657.9297075       -34639965.086744964        399369994.53340805     
  -1117656624.1714613       -14729121.052283287        421223056.86079603     
  -914430954.28826463        17250510.065333009        441573874.22749662     
  -707584648.28012514        61298928.266100347        460422446.63350910     
  -497117706.14703172        117416133.55002248        477768774.07883155     
  -1488588660.5639741       -14136177.021401644        257802010.59971762     
  -1309735379.3745651        3459158.0696388483        278777062.25910354     
  -1131144492.1310554        20179846.674346805        285825820.50547129     
  -952815998.83341289        36025888.792821050        278948285.33882713     
  -774749899.48165882        50997284.425020993        258144456.75916800     
  -1650272694.7590675        9260501.5757168531        120002980.16653429     
  -1527668447.4308839        13891143.335551441        135569819.40861383     
  -1409209624.1193919        4703705.0397301912        124786316.78534947     
  -1294896224.8246295       -18301813.311840355        87652472.296743006     
  -1184728249.5465591       -55125411.719065845        24168285.942799512     
  -1802313760.5150135        35550070.704539895       -14027096.766163675     
  -1771455828.3403873        16566834.745548606       -8398671.6906856094     
  -1748626350.2533004       -29177914.838584661       -41544636.932878427     
  -1733825326.2537708       -101684178.04789245       -113464992.49274726     
  -1727052756.3417509       -200951954.88225335       -224159738.37027159     
  -351831669.54269087        144131135.65595812        683041237.90180218     
  -277816667.10520941        285220408.63961256        786358351.80289769     
  -149009445.50673500        608950412.15988779        905492093.31514800     
   34589995.252728879        1115321146.2168083        1040442462.4385400     
   272981655.17318279        1804332610.8103571        1191209459.1730764     
  -497117706.14703172        117416133.55002248        477768774.07883155     
  -388279279.86894727        223050206.33499643        597054121.06284809     
  -230310661.85366255        492451584.91062433        735492058.82049417     
  -23211852.101202726        925620269.27685523        893082587.35175967     
   233017149.38844725        1522556259.4337170        1069825706.6566677     
  -774749899.48165882        50997284.425020993        258144456.75916800     
  -621556726.04157972        124035554.00774530        386792338.16498971     
  -424895388.28811169        341967704.63511276        537928773.50693274     
  -184765886.22126588        704793736.30707979        711553762.78498113     
   98831780.158970237        1212513649.0236545        907667305.99915338     
  -1184728249.5465591       -55125411.719065845        24168285.942799512     
  -977649005.62311947       -11823548.342188001        155573003.10933679     
  -732763624.81010187        157498771.33328816        312802237.37446034     
  -450072107.10748589        452841547.30741537        495855988.73818547     
  -129574452.51529461        874204779.58014226        704734257.20051241     
  -1727052756.3417509       -200951954.88225335       -224159738.37027159     
  -1456556118.6135495       -184527100.71476179       -96603884.104128599     
  -1153915371.4195728       -60955214.994674087        60112450.423097312     
  -819130514.75983739        169763702.27794808        245989265.21139523     
  -452201548.63429582        507629651.10323566        461026560.26077735     
 </DataArray>
 <DataArray  type="Float64" Name="VM" NumberOfComponents="1" format="ascii">
   5935395229.1333246     
   5764007295.8663759     
   5589058196.2511587     
   5410287836.6882019     
   5227567364.1124926     
   5615946710.5697355     
   5441379227.2263603     
   5264624499.5048962     
   5085574884.1393595     
   4904179046.8546190     
   5298728847.3606644     
   5125431142.1477671     
   4951726385.5795822     
   4777662105.5014448     
   4603319273.2588663     
   4989095663.2029543     
   4820867548.1619625     
   4654486747.5969019     
   4490115572.6654234     
   4327978103.9094877     
   4694018206.8311062     
   4533698023.3998213     
   4378035463.2823944     
   4227208999.2916789     
   4081534367.6226802     
   5227567364.1124926     
   5048735057.4005413     
   4870793100.4633074     
   4693714575.4820728     
   4517542113.4302797     
   4904179046.8546190     
   4739454087.1752424     
   4575872123.8271847     
   4413464627.5845547     
   4252326970.6125617     
   4603319273.2588663     
   4451911286.6024218     
   4301867830.8800564     
   4153278110.8575721     
   4006290536.8796706     
   4327978103.9094877     
   4189342562.4674211     
   4052260052.2160902     
   3916874356.9507618     
   3783384759.5385942     
   4081534367.6226802     
   3955422366.1944199     
   3831017416.7752981     
   3708511237.6077476     
   3588148281.5956054     
   4517542113.4302797     
   4326576405.2708225     
   4135355121.6825786     
   3943856502.2881851     
   3752091367.1238747     
   4252326970.6125617     
   4070990632.5675373     
   3889970663.1467180     
   3709312188.7759600     
   3529111103.4708104     
   4006290536.8796706     
   3835673703.8136511     
   3666113232.9422412     
   3497742157.0276246     
   3330766121.5392675     
   3783384759.5385942     
   3624625125.6458673     
   3467837552.2753911     
   3313258885.5135784     
   3161220807.8882461     
   3588148281.5956054     
   3442368619.1261253     
   3299640630.1532712     
   3160308908.4391637     
   3024830110.5705042     
   3752091367.1238747     
   3576610257.2315545     
   3401684674.8485894     
   3227294587.1473536     
   3053480140.0331016     
   3529111103.4708104     
   3364307452.9423742     
   3200450637.9465165     
   3037595615.0322242     
   2875863743.4162831     
   3330766121.5392675     
   3176495289.8222952     
   3023590194.2520881     
   2872190533.7433329     
   2722510562.8562341     
   3161220807.8882461     
   3017629168.9395461     
   2875851556.8953786     
   2736118580.5411711     
   2598743954.8706789     
   3024830110.5705042     
   2892362909.9086900     
   2762179351.1366477     
   2634599458.9204202     
   2510032687.9107080     
   3053480140.0331016     
   2888730073.2970405     
   2723634235.5619164     
   2558181568.9734612     
   2392366068.4107137     
   2875863743.4162831     
   2714169027.8204761     
   2552584052.1210041     
   2391138414.9953060     
   2229881330.8045506     
   2722510562.8562341     
   2566122547.8253870     
   2410657692.2576265     
   2256256148.7621512     
   2103115495.1484642     
   2598743954.8706789     
   2450020389.8724895     
   2303421087.3831267     
   2159259551.4171190     
   2017959353.6307857     
   2510032687.9107080     
   2371215713.0685205     
   2236062210.8126049     
   2105080240.1582444     
   1978931400.5746593     
   2392366068.4107137     
   2246126998.6470189     
   2102028199.2610400     
   1960072513.8241155     
   1820424179.0216513     
   2229881330.8045506     
   2086951186.4792194     
   1945641625.3559661     
   1805954871.3149135     
   1667966777.9345179     
   2103115495.1484642     
   1962767326.2563806     
   1823357065.8758798     
   1684916403.3866124     
   1547504734.2505641     
   2017959353.6307857     
   1881100545.7066853     
   1744552356.1027846     
   1608443438.9446740     
   1472950912.4106641     
   1978931400.5746593     
   1848196156.1248789     
   1717490031.0915699     
   1587160244.8167851     
   1457712764.4500227     
   1820424179.0216513     
   1779803729.7969074     
   1735694389.5656006     
   1696716406.1890972     
   1681349121.1121323     
   1667966777.9345179     
   1552550840.9707277     
   1428034863.3085220     
   1294773372.5080326     
   1158883976.1479368     
   1547504734.2505641     
   1397596234.3430593     
   1244133428.6084239     
   1084845587.3062198     
   917702841.05435240     
   1472950912.4106641     
   1328662084.6302114     
   1198842456.5299852     
   1087979306.8830545     
   1001986858.3790892     
   1457712764.4500227     
   1348644030.8070455     
   1274565738.2121360     
   1243612765.7535684     
   1262834062.1632504     
   1681349121.1121323     
   1383801058.2825665     
   1129480305.6112967     
   1010111360.9149541     
   1152992311.0165265     
   1158883976.1479368     
   1008442345.7711970     
   985222039.38411188     
   1161483604.3639002     
   1544121654.0427451     
   917702841.05435240     
   963116699.44663429     
   1144929043.0498478     
   1476489141.3201909     
   1957476663.0697784     
   1001986858.3790892     
   1164692994.2562218     
   1425424527.3685338     
   1808762515.4313977     
   2334789370.6571651     
   1262834062.1632504     
   1446661535.4358225     
   1715691277.6680841     
   2110505226.1699288     
   2663548003.9716654     
   4694018206.8311062     
   4533698023.3998213     
   4378035463.2823944     
   4227208999.2916789     
   4081534367.6226802     
   4386456368.2617779     
   4244067437.3011599     
   4105896262.1465583     
   3972182191.2390199     
   3843268057.7850232     
   4102260837.2023067     
   3977481589.7900577     
   3856542217.8543191     
   3739722245.4249725     
   3627387164.6696334     
   3843803302.6094813     
   3736797940.6188169     
   3633351530.4075708     
   3533750010.6966457     
   3438366797.2235599     
   3613747667.0532265     
   3525203456.3891191     
   3440072005.5900517     
   3358595292.7222137     
   3281126622.2239056     
   4081534367.6226802     
   3955422366.1944199     
   3831017416.7752981     
   3708511237.6077476     
   3588148281.5956054     
   3843268057.7850232     
   3728014571.3653316     
   3615243351.9137535     
   3505206000.6453991     
   3398215561.6723008     
   3627387164.6696334     
   3523946026.3083291     
   3423873426.8582358     
   3327476318.1587038     
   3235127916.8508868     
   3438366797.2235599     
   3347536546.9133496     
   3261047046.5336299     
   3179245321.3807797     
   3102543444.4530063     
   3281126622.2239056     
   3203414373.5319915     
   3131058010.5455728     
   3064418027.6874166     
   3003911924.2077069     
   3588148281.5956054     
   3442368619.1261253     
   3299640630.1532712     
   3160308908.4391637     
   3024830110.5705042     
   3398215561.6723008     
   3266486899.1402450     
   3138590133.8233953     
   3014951437.4392056     
   2896113178.9333339     
   3235127916.8508868     
   3118107069.1443920     
   3005750514.1764264     
   2898548131.9167662     
   2797100548.3287597     
   3102543444.4530063     
   3000777449.5035882     
   2904507629.8945723     
   2814255954.1446028     
   2730639151.2448192     
   3003911924.2077069     
   2917701509.3917880     
   2837750250.6898904     
   2764570838.3957467     
   2698746741.7926078     
   3024830110.5705042     
   2892362909.9086900     
   2762179351.1366477     
   2634599458.9204202     
   2510032687.9107080     
   2896113178.9333339     
   2775599382.4316387     
   2658542942.2983093     
   2545394166.4801154     
   2436709298.1970119     
   2797100548.3287597     
   2690190571.3653522     
   2588031915.2751479     
   2491176518.7120237     
   2400280894.3728876     
   2730639151.2448192     
   2638536770.5691538     
   2552485251.1860108     
   2473080013.9325180     
   2401000455.7199812     
   2698746741.7926078     
   2621987826.7543159     
   2552464797.7240739     
   2490745881.3571992     
   2437451548.8125310     
   2510032687.9107080     
   2371215713.0685205     
   2236062210.8126049     
   2105080240.1582444     
   1978931400.5746593     
   2436709298.1970119     
   2312114813.9163270     
   2192544332.0747848     
   2078701409.0616870     
   1971454604.3901074     
   2400280894.3728876     
   2291945595.7391138     
   2190041680.5688443     
   2095385019.7617733     
   2008926422.2237711     
   2401000455.7199812     
   2310226756.2183175     
   2227132652.1581492     
   2152530873.6467776     
   2087312544.2100503     
   2437451548.8125310     
   2364627520.8077512     
   2300427252.5478797     
   2245562297.5425968     
   2200767154.3738594     
   1978931400.5746593     
   1848196156.1248789     
   1717490031.0915699     
   1587160244.8167851     
   1457712764.4500227     
   1971454604.3901074     
   1855315694.8801041     
   1743548545.6930516     
   1637073536.0319390     
   1537020387.4848166     
   2008926422.2237711     
   1912515734.1094673     
   1824888570.9417880     
   1747245042.7054727     
   1680876837.1829884     
   2087312544.2100503     
   2012208596.2333491     
   1949477581.5294626     
   1900199234.5210748     
   1865403395.7742293     
   2200767154.3738594     
   2145533857.7351778     
   2105260383.5398586     
   2080714541.4122899     
   2072575390.7197132     
   1457712764.4500227     
   1348644030.8070455     
   1274565738.2121360     
   1243612765.7535684     
   1262834062.1632504     
   1537020387.4848166     
   1476129100.2825639     
   1447934528.2867420     
   1456405882.3842998     
   1504839228.5098207     
   1680876837.1829884     
   1652370453.6963091     
   1651583163.3113568     
   1680884405.2924919     
   1742882196.3270588     
   1865403395.7742293     
   1854890877.4764202     
   1867342927.3475964     
   1904968552.4265766     
   1970797674.9628201     
   2072575390.7197132     
   2069073255.5113757     
   2084795416.5103228     
   2122373667.1548634     
   2185618493.2112079     
   1262834062.1632504     
   1446661535.4358225     
   1715691277.6680841     
   2110505226.1699288     
   2663548003.9716654     
   1504839228.5098207     
   1613258163.8202684     
   1788863829.0462270     
   2066409046.8351185     
   2476104667.9399486     
   1742882196.3270588     
   1787696025.9693265     
   1884650324.2543912     
   2060656571.1105866     
   2340948117.2812629     
   1970797674.9628201     
   1968934571.7993202     
   2003615546.9133632     
   2093515617.7380652     
   2257295802.7535167     
   2185618493.2112079     
   2156258936.3312974     
   2146500085.5683260     
   2166864432.1940932     
   2228421490.8781600     
   3613747667.0532265     
   3525203456.3891191     
   3440072005.5900517     
   3358595292.7222137     
   3281126622.2239056     
   3385399059.1361756     
   3309205289.4069276     
   3238037976.8464522     
   3172245189.3473907     
   3112257920.4932113     
   3188998517.1180220     
   3124889084.5175614     
   3067466753.8621488     
   3017108123.5120034     
   2974244408.9077983     
   3033012004.6765423     
   2979733014.2944264     
   2934788039.2029953     
   2898490595.8238883     
   2871187635.1525717     
   2926302281.1853938     
   2881336868.8807750     
   2846282323.8324180     
   2821301544.1367412     
   2806585864.2689610     
   3281126622.2239056     
   3203414373.5319915     
   3131058010.5455728     
   3064418027.6874166     
   3003911924.2077069     
   3112257920.4932113     
   3047665246.2386098     
   2988976161.1406565     
   2936522827.1845212     
   2890679826.4824057     
   2974244408.9077983     
   2922196891.4738464     
   2876521045.7516098     
   2837499769.5509129     
   2805443430.1603971     
   2871187635.1525717     
   2830709776.7465029     
   2796960977.5346622     
   2770159437.5737619     
   2750538018.6204829     
   2806585864.2689610     
   2776234718.1423492     
   2752842266.1300559     
   2736556497.2871346     
   2727531183.9700503     
   3003911924.2077069     
   2917701509.3917880     
   2837750250.6898904     
   2764570838.3957467     
   2698746741.7926078     
   2890679826.4824057     
   2818907457.7134042     
   2754249388.6028576     
   2697187619.0035763     
   2648254102.7556620     
   2805443430.1603971     
   2747805710.4968166     
   2698037086.4851871     
   2656552019.9067044     
   2623793635.4075589     
   2750538018.6204829     
   2706142417.0818238     
   2670240099.3731093     
   2643152251.3323755     
   2625211859.7945552     
   2727531183.9700503     
   2694850621.8308525     
   2671156463.0103531     
   2656668046.0394316     
   2651606638.4180617     
   2698746741.7926078     
   2621987826.7543159     
   2552464797.7240739     
   2490745881.3571992     
   2437451548.8125310     
   2648254102.7556620     
   2586463216.1701818     
   2532530638.4009290     
   2486947877.3521237     
   2450231474.0309420     
   2623793635.4075589     
   2576298813.1453166     
   2537115037.9400544     
   2506631502.2043834     
   2485242245.6914144     
   2625211859.7945552     
   2590837560.2639141     
   2565067471.2671990     
   2548182022.0022449     
   2540455613.6810570     
   2651606638.4180617     
   2628741226.2425613     
   2614654057.0850806     
   2609526956.5175195     
   2613532878.3484783     
   2437451548.8125310     
   2364627520.8077512     
   2300427252.5478797     
   2245562297.5425968     
   2200767154.3738594     
   2450231474.0309420     
   2393557207.2260318     
   2346324069.8336267     
   2309096101.3144808     
   2282422125.5887141     
   2485242245.6914144     
   2443455948.6484647     
   2411654148.4973893     
   2390238776.0685310     
   2379578701.0796480     
   2540455613.6810570     
   2511738458.2242517     
   2493350963.3366795     
   2485548587.0422711     
   2488552773.4504910     
   2613532878.3484783     
   2595692124.9398832     
   2588426003.1546025     
   2591874886.7271676     
   2606154103.1785569     
   2200767154.3738594     
   2145533857.7351778     
   2105260383.5398586     
   2080714541.4122899     
   2072575390.7197132     
   2282422125.5887141     
   2241996934.1884670     
   2215484433.1796479     
   2203334211.6854224     
   2205933886.9858351     
   2379578701.0796480     
   2351023156.3718042     
   2335311752.0195751     
   2332694408.4249830     
   2343391530.2302485     
   2488552773.4504910     
   2469230675.9564333     
   2461778358.2247577     
   2466332082.2249184     
   2483025348.5437107     
   2606154103.1785569     
   2593802509.4934721     
   2592500172.8875189     
   2602326397.1738391     
   2623376036.0166521     
   2072575390.7197132     
   2069073255.5113757     
   2084795416.5103228     
   2122373667.1548634     
   2185618493.2112079     
   2205933886.9858351     
   2191598959.8092566     
   2192252653.0724325     
   2209864761.3202276     
   2247354970.4238415     
   2343391530.2302485     
   2319028750.9969778     
   2306201787.1575794     
   2306316855.8769021     
   2321463258.0391889     
   2483025348.5437107     
   2450390850.1464448     
   2426324736.7300100     
   2411773104.7998867     
   2408114229.2894373     
   2623376036.0166521     
   2584906006.9426942     
   2552338080.7372460     
   2526254431.1187224     
   2507465411.1733313     
   2185618493.2112079     
   2156258936.3312974     
   2146500085.5683260     
   2166864432.1940932     
   2228421490.8781600     
   2247354970.4238415     
   2182641329.7421999     
   2134369272.7607515     
   2112204029.0773880     
   2127077404.2940447     
   2321463258.0391889     
   2224735306.6478033     
   2141339320.2540796     
   2079638770.1235874     
   2049802075.7569466     
   2408114229.2894373     
   2282834488.2042775     
   2168056991.8692832     
   2070519985.5542343     
   1998988325.1212339     
   2507465411.1733313     
   2357147923.7694063     
   2214992782.8347201     
   2085979080.9652162     
   1976979972.8891263     
   2926302281.1853938     
   2881336868.8807750     
   2846282323.8324180     
   2821301544.1367412     
   2806585864.2689610     
   2786132210.1401701     
   2754085446.8311224     
   2731104768.5269351     
   2717303503.5684962     
   2712804933.7082429     
   2688789777.3054800     
   2667407721.9288092     
   2654332571.4038424     
   2649618081.2356014     
   2653322161.0793681     
   2636651243.0432162     
   2623531768.4627676     
   2618117923.9586759     
   2620382765.8281260     
   2630310648.4093742     
   2630199960.2266021     
   2622929365.5486655     
   2622993058.4139228     
   2630250512.6564388     
   2644592257.8660793     
   2806585864.2689610     
   2776234718.1423492     
   2752842266.1300559     
   2736556497.2871346     
   2727531183.9700503     
   2712804933.7082429     
   2690831302.9745216     
   2676032611.9274249     
   2668505305.6982899     
   2668348572.0370817     
   2653322161.0793681     
   2638079581.0665145     
   2630215636.6279545     
   2629778224.8812461     
   2636817349.5911593     
   2630310648.4093742     
   2619741098.1517801     
   2616756480.0850558     
   2621366091.5803580     
   2633582368.4426188     
   2644592257.8660793     
   2636343213.8218603     
   2635905127.8633389     
   2643264175.4581437     
   2658411315.7749476     
   2727531183.9700503     
   2694850621.8308525     
   2671156463.0103531     
   2656668046.0394316     
   2651606638.4180617     
   2668348572.0370817     
   2645303395.2479057     
   2631269163.4525580     
   2626372539.0107012     
   2630738480.3390799     
   2636817349.5911593     
   2621005087.6821885     
   2614175456.9644051     
   2616384649.3701282     
   2627687098.0832367     
   2633582368.4426188     
   2622317319.3050265     
   2619989666.7637172     
   2626612908.8496728     
   2642199935.2711825     
   2658411315.7749476     
   2648875458.7601681     
   2648243662.1797757     
   2656516068.7165937     
   2673692847.8158512     
   2651606638.4180617     
   2628741226.2425613     
   2614654057.0850806     
   2609526956.5175195     
   2613532878.3484783     
   2630738480.3390799     
   2616156232.4929490     
   2610350066.2353444     
   2613420909.6712556     
   2625462437.6635723     
   2627687098.0832367     
   2619216099.3981133     
   2619519379.1897435     
   2628640087.2373066     
   2646617379.5010042     
   2642199935.2711825     
   2637498949.0481887     
   2641607110.4152284     
   2654534282.0024543     
   2676289223.6674795     
   2673692847.8158512     
   2670343360.0420609     
   2675900079.4183979     
   2690363819.0505047     
   2713735558.4522977     
   2613532878.3484783     
   2595692124.9398832     
   2588426003.1546025     
   2591874886.7271676     
   2606154103.1785569     
   2625462437.6635723     
   2614529496.3645139     
   2613834447.3773642     
   2623453898.5795894     
   2643449314.9626822     
   2646617379.5010042     
   2641024050.1734052     
   2645437659.3648000     
   2659892458.9452796     
   2684415624.1934133     
   2676289223.6674795     
   2674471174.5088449     
   2682558991.5573578     
   2700562044.7378216     
   2728488044.6654968     
   2713735558.4522977     
   2714160999.7701917     
   2724537101.9879808     
   2744862564.9628797     
   2775136806.2850418     
   2606154103.1785569     
   2593802509.4934721     
   2592500172.8875189     
   2602326397.1738391     
   2623376036.0166521     
   2643449314.9626822     
   2632760334.6509366     
   2632301243.8996129     
   2642111272.3556600     
   2662240353.8999729     
   2684415624.1934133     
   2675050103.4594450     
   2675272297.3444433     
   2685097267.1820774     
   2704545770.3930426     
   2728488044.6654968     
   2720255754.9867053     
   2721127234.5832767     
   2731105491.4998474     
   2750195378.8208833     
   2775136806.2850418     
   2767983288.9898329     
   2769590945.7173257     
   2779959723.6935515     
   2799089606.2547836     
   2623376036.0166521     
   2584906006.9426942     
   2552338080.7372460     
   2526254431.1187224     
   2507465411.1733313     
   2662240353.8999729     
   2616809675.1299939     
   2577053656.2123098     
   2543303372.9039369     
   2516021724.9724936     
   2704545770.3930426     
   2654262444.0729780     
   2609569475.8359466     
   2570614159.6381569     
   2537602725.9475169     
   2750195378.8208833     
   2697172832.0622225     
   2649799033.1006250     
   2608110416.0734248     
   2572157802.7148447     
   2799089606.2547836     
   2745440665.0100884     
   2697641207.0105486     
   2655691226.1852140     
   2619590720.8933897     
   2507465411.1733313     
   2357147923.7694063     
   2214992782.8347201     
   2085979080.9652162     
   1976979972.8891263     
   2516021724.9724936     
   2348178167.1776071     
   2183887709.7026744     
   2026250259.7354329     
   1879830013.8748288     
   2537602725.9475169     
   2357315975.0113726     
   2176768078.3765821     
   1997431215.2338293     
   1821584298.8154337     
   2572157802.7148447     
   2384665278.3122020     
   2194100803.4304137     
   2000843279.3991437     
   1805497886.8852088     
   2619590720.8933897     
   2430195079.3866525     
   2236028397.6747251     
   2037090674.7907157     
   1833381911.1120658     
   2630199960.2266021     
   2622929365.5486655     
   2622993058.4139228     
   2630250512.6564388     
   2644592257.8660793     
   2609337929.5629120     
   2600607726.9776068     
   2599854975.9308906     
   2607061985.5364556     
   2622215390.2197070     
   2650200317.3484340     
   2635102394.5766859     
   2628548602.9862790     
   2630600248.5969253     
   2641322750.5894594     
   2751765937.8741522     
   2725461847.4633946     
   2708155167.2559867     
   2699938609.3332052     
   2700936742.7619448     
   2909440628.5766010     
   2867628538.5088091     
   2835121011.8144536     
   2811986353.7407994     
   2798377002.6218724     
   2644592257.8660793     
   2636343213.8218603     
   2635905127.8633389     
   2643264175.4581437     
   2658411315.7749476     
   2622215390.2197070     
   2613603331.3328862     
   2612647666.1005087     
   2619355810.7626739     
   2633735376.7833409     
   2641322750.5894594     
   2629036430.2212729     
   2624168812.1658578     
   2626768394.2161546     
   2636884244.8017015     
   2700936742.7619448     
   2681999917.4587650     
   2670144156.1449180     
   2665471163.6735501     
   2668089681.9326572     
   2798377002.6218724     
   2770357914.7748036     
   2748968328.7069335     
   2734363568.1751695     
   2726719041.5592837     
   2658411315.7749476     
   2648875458.7601681     
   2648243662.1797757     
   2656516068.7165937     
   2673692847.8158512     
   2633735376.7833409     
   2622261122.5459347     
   2619710311.0289402     
   2626097513.5363827     
   2641436777.4825244     
   2636884244.8017015     
   2620777115.1211901     
   2613628191.5822005     
   2615494242.5346069     
   2626430389.1052837     
   2668089681.9326572     
   2644789750.7614055     
   2630469957.3017645     
   2625255395.0833750     
   2629269471.1945853     
   2726719041.5592837     
   2693943048.7638245     
   2670122051.4016590     
   2655470225.0009689     
   2650203320.8946080     
   2673692847.8158512     
   2670343360.0420609     
   2675900079.4183979     
   2690363819.0505047     
   2713735558.4522977     
   2641436777.4825244     
   2636241168.9961953     
   2639871852.2329941     
   2652340850.3502345     
   2673659197.4188657     
   2626430389.1052837     
   2617297357.3867793     
   2616979941.5716047     
   2625521741.4525685     
   2642962455.3686442     
   2629269471.1945853     
   2614172056.4354711     
   2607925446.9766421     
   2610625624.8457804     
   2622361078.5860095     
   2650203320.8946080     
   2627259101.0993371     
   2613215006.2009807     
   2608239275.7185774     
   2612490043.9084654     
   2713735558.4522977     
   2714160999.7701917     
   2724537101.9879808     
   2744862564.9628797     
   2775136806.2850418     
   2673659197.4188657     
   2672655981.5818634     
   2681558932.0119214     
   2700373880.6324620     
   2729105111.7500319     
   2642962455.3686442     
   2638544725.8917422     
   2644110686.0093875     
   2659693242.0486083     
   2685318123.1338816     
   2622361078.5860095     
   2612523890.3635693     
   2612851154.1658154     
   2623425988.8344531     
   2644315949.5430632     
   2612490043.9084654     
   2595256291.2791796     
   2588440730.3988152     
   2592203434.6496744     
   2606679101.2943306     
   2775136806.2850418     
   2767983288.9898329     
   2769590945.7173257     
   2779959723.6935515     
   2799089606.2547836     
   2729105111.7500319     
   2720652014.4079595     
   2721314475.0762777     
   2731096108.4946451     
   2750001712.2685103     
   2685318123.1338816     
   2675618304.6948552     
   2675532986.2856383     
   2685077481.0089660     
   2704272633.7012224     
   2644315949.5430632     
   2633282270.0657530     
   2632524264.0233450     
   2642080153.9403925     
   2662000369.9509411     
   2606679101.2943306     
   2594068873.2023768     
   2592578172.6153736     
   2602283131.5407553     
   2623279732.7358222     
   2799089606.2547836     
   2745440665.0100884     
   2697641207.0105486     
   2655691226.1852140     
   2619590720.8933897     
   2750001712.2685103     
   2697055359.3486228     
   2649752850.6378241     
   2608130935.9120684     
   2572241316.4032664     
   2704272633.7012224     
   2654102934.8090768     
   2609513602.2134347     
   2570651988.1817164     
   2537724508.7501774     
   2662000369.9509411     
   2616682765.1111012     
   2577024404.0443897     
   2543355570.6350694     
   2516137060.0554099     
   2623279732.7358222     
   2584885232.0093188     
   2552371426.6765513     
   2526318292.3268671     
   2507530305.4456024     
   2619590720.8933897     
   2430195079.3866525     
   2236028397.6747251     
   2037090674.7907157     
   1833381911.1120658     
   2572241316.4032664     
   2384710009.9735255     
   2194109978.3979368     
   2000819098.7970426     
   1805440446.0728033     
   2537724508.7501774     
   2357378648.3844018     
   2176778392.1638784     
   1997395902.0304928     
   1821510038.5163934     
   2516137060.0554099     
   2348232322.0020685     
   2183891221.9211316     
   2026216552.3025117     
   1879777883.0641258     
   2507530305.4456024     
   2357167652.2663245     
   2214981879.8528428     
   2085959267.6188228     
   1976985487.2844961     
   2909440628.5766010     
   2867628538.5088091     
   2835121011.8144536     
   2811986353.7407994     
   2798377002.6218724     
   3044814525.5345635     
   2989238343.3501430     
   2941422608.6049380     
   2901620477.0494781     
   2870147086.9843054     
   3215341584.4031944     
   3145682088.1325078     
   3082637056.0244923     
   3026539305.8496509     
   2977774152.4696159     
   3415348079.6867819     
   3331938611.0702429     
   3254396001.5051770     
   3183044425.3447995     
   3118259316.8271432     
   3639775046.5140357     
   3543330438.0983229     
   3452394661.9509301     
   3367215493.2252569     
   3288096506.5900044     
   2798377002.6218724     
   2770357914.7748036     
   2748968328.7069335     
   2734363568.1751695     
   2726719041.5592837     
   2870147086.9843054     
   2830186520.2458229     
   2796660585.7261882     
   2769795601.2290311     
   2749841023.4102802     
   2977774152.4696159     
   2925016935.6574883     
   2878453709.4091649     
   2838367571.1603065     
   2805072709.1370530     
   3118259316.8271432     
   3052197980.7204404     
   2992054677.1424608     
   2938150541.1379638     
   2890848908.3498664     
   3288096506.5900044     
   3208486271.4859710     
   3134502305.8196630     
   3066484208.0676136     
   3004826032.6308060     
   2726719041.5592837     
   2693943048.7638245     
   2670122051.4016590     
   2655470225.0009689     
   2650203320.8946080     
   2749841023.4102802     
   2705453057.6788068     
   2669555756.2694650     
   2642465723.3616443     
   2624510828.2701755     
   2805072709.1370530     
   2747492316.5783486     
   2697805909.3616595     
   2656425251.3882332     
   2623790151.0010734     
   2890848908.3498664     
   2819122704.5187478     
   2754560602.4664359     
   2697644968.2838936     
   2648907697.7598372     
   3004826032.6308060     
   2918586281.9979982     
   2838676363.1176047     
   2765613118.2769227     
   2699984319.3792415     
   2650203320.8946080     
   2627259101.0993371     
   2613215006.2009807     
   2608239275.7185774     
   2612490043.9084654     
   2624510828.2701755     
   2590460429.4597912     
   2565092118.3643169     
   2548677972.1555514     
   2541482623.5008926     
   2623790151.0010734     
   2576751619.3533015     
   2538045582.8230805     
   2508060248.6617546     
   2487187817.0146947     
   2648907697.7598372     
   2587482567.9062452     
   2533863154.3852391     
   2488547818.8602934     
   2452060729.3986588     
   2699984319.3792415     
   2623338119.2071857     
   2553780736.5942435     
   2491893224.8824635     
   2438312229.6871839     
   2612490043.9084654     
   2595256291.2791796     
   2588440730.3988152     
   2592203434.6496744     
   2606679101.2943306     
   2541482623.5008926     
   2512649670.6465135     
   2494032379.9386353     
   2485899922.5373502     
   2488488853.9734988     
   2487187817.0146947     
   2444877831.9831452     
   2412503669.5212302     
   2390472019.5111003     
   2379158278.3961411     
   2452060729.3986588     
   2394719402.6805458     
   2346865880.1688571     
   2309058684.1814685     
   2281841160.0945439     
   2438312229.6871839     
   2364873386.0631895     
   2300234903.3577728     
   2245094333.5823030     
   2200168109.0234985     
   2606679101.2943306     
   2594068873.2023768     
   2592578172.6153736     
   2602283131.5407553     
   2623279732.7358222     
   2488488853.9734988     
   2469144845.5275927     
   2461710063.4255481     
   2466318181.2757473     
   2483102552.8030367     
   2379158278.3961411     
   2350743095.7747927     
   2335176923.0722694     
   2332708303.8898411     
   2343556790.2186413     
   2281841160.0945439     
   2241658687.7507625     
   2215353120.0765491     
   2203374055.3156991     
   2206107868.8888717     
   2200168109.0234985     
   2145240415.7193835     
   2105187594.1691356     
   2080777994.7174048     
   2072688620.3292100     
   2623279732.7358222     
   2584885232.0093188     
   2552371426.6765513     
   2526318292.3268671     
   2507530305.4456024     
   2483102552.8030367     
   2450458989.8591585     
   2426374404.8856478     
   2411793754.3897829     
   2408091168.8473139     
   2343556790.2186413     
   2319129869.0721135     
   2306241612.7706079     
   2306298045.3083067     
   2321387256.1381512     
   2206107868.8888717     
   2191680314.7285094     
   2192257343.3138270     
   2209809522.8080902     
   2247259558.8696046     
   2072688620.3292100     
   2069086917.2956207     
   2084740914.1143067     
   2122284291.6300364     
   2185535965.1419778     
   2507530305.4456024     
   2357167652.2663245     
   2214981879.8528428     
   2085959267.6188228     
   1976985487.2844961     
   2408091168.8473139     
   2282815355.0909038     
   2168046804.0376768     
   2070528366.9859412     
   1999032384.4616911     
   2321387256.1381512     
   2224697551.5108042     
   2141335212.4154022     
   2079664437.3394787     
   2049854968.4559283     
   2247259558.8696046     
   2182604200.0965400     
   2134376221.1982753     
   2112236902.0916095     
   2127113196.6018224     
   2185535965.1419778     
   2156240699.1521602     
   2146522593.8996887     
   2166895246.0847311     
   2228417862.5492344     
   3639775046.5140357     
   3543330438.0983229     
   3452394661.9509301     
   3367215493.2252569     
   3288096506.5900044     
   3843161792.7464347     
   3735612809.5057955     
   3632668471.6153016     
   3534661392.2015252     
   3441994597.5859847     
   4086795097.8380508     
   3966468036.8059320     
   3849740509.2443933     
   3736946574.6831899     
   3628513464.7151151     
   4364010680.4474125     
   4229494500.2019286     
   4097546130.3141799     
   3968424188.3878255     
   3842505622.5811419     
   4668950621.6416979     
   4519021832.0515137     
   4370664673.2929115     
   4223996252.6066179     
   4079275792.4620223     
   3288096506.5900044     
   3208486271.4859710     
   3134502305.8196630     
   3066484208.0676136     
   3004826032.6308060     
   3441994597.5859847     
   3350060625.8395181     
   3262712908.4699073     
   3180288858.2821474     
   3103188578.7437477     
   3628513464.7151151     
   3524546214.6824031     
   3424157530.9022222     
   3327653687.8721032     
   3235405714.2882442     
   3842505622.5811419     
   3727131718.0417337     
   3614404478.1082687     
   3504580620.4833536     
   3397977882.9483361     
   4079275792.4620223     
   3953320518.8459063     
   3829182624.0323138     
   3707061521.7482061     
   3587209949.1543803     
   3004826032.6308060     
   2918586281.9979982     
   2838676363.1176047     
   2765613118.2769227     
   2699984319.3792415     
   3103188578.7437477     
   3001448068.7673111     
   2905225657.0318141     
   2815047350.9296727     
   2731534435.1067710     
   3235405714.2882442     
   3118464197.1720734     
   3006159909.8440056     
   2898984998.3698111     
   2797542692.8795834     
   3397977882.9483361     
   3266409881.1165195     
   3138600081.0991654     
   3014973885.3862348     
   2896072420.9739404     
   3587209949.1543803     
   3441723045.1902351     
   3299172208.1469421     
   3159897654.0091019     
   3024349868.8488107     
   2699984319.3792415     
   2623338119.2071857     
   2553780736.5942435     
   2491893224.8824635     
   2438312229.6871839     
   2731534435.1067710     
   2639314112.1351528     
   2553047370.0491967     
   2473333951.5251107     
   2400859836.9827685     
   2797542692.8795834     
   2690426613.8965917     
   2588028419.8499846     
   2490898686.3532391     
   2399693223.1507702     
   2896072420.9739404     
   2775345774.5755491     
   2658118223.0509987     
   2544836836.8299503     
   2436053991.0212231     
   3024349868.8488107     
   2891684480.7339458     
   2761424718.0225821     
   2633888582.9720101     
   2509482378.7212920     
   2438312229.6871839     
   2364873386.0631895     
   2300234903.3577728     
   2245094333.5823030     
   2200168109.0234985     
   2400859836.9827685     
   2309852263.2106943     
   2226650808.1777930     
   2152062965.5339632     
   2086972047.3342357     
   2399693223.1507702     
   2291371396.1509018     
   2189540442.9378047     
   2095017414.7235041     
   2008753496.4462712     
   2436053991.0212231     
   2311644219.3202024     
   2192236908.3359108     
   2078538879.4673462     
   1971421944.6309791     
   2509482378.7212920     
   2371003670.3752379     
   2236079957.9902101     
   2105220719.9742560     
   1979087686.5853627     
   2200168109.0234985     
   2145240415.7193835     
   2105187594.1691356     
   2080777994.7174048     
   2072688620.3292100     
   2086972047.3342357     
   2012043104.7543933     
   1949430883.8260593     
   1900213351.4857724     
   1865417984.2905035     
   2008753496.4462712     
   1912414183.0611219     
   1824834450.6355975     
   1747212601.5488057     
   1680838590.5201554     
   1971421944.6309791     
   1855256721.8465981     
   1743474922.8255246     
   1636997816.5453267     
   1536956148.1036386     
   1979087686.5853627     
   1848214481.2821016     
   1717416864.5959933     
   1587046190.3766062     
   1457612312.8724465     
   2072688620.3292100     
   2069086917.2956207     
   2084740914.1143067     
   2122284291.6300364     
   2185535965.1419778     
   1865417984.2905035     
   1854864051.2957366     
   1867295519.7281418     
   1904922281.9900968     
   1970778746.8112855     
   1680838590.5201554     
   1652333224.9995248     
   1651556469.5064199     
   1680877781.6331658     
   1742906008.4355540     
   1536956148.1036386     
   1476100686.1450343     
   1447938135.8764048     
   1456436069.2856610     
   1504887391.3495755     
   1457612312.8724465     
   1348619616.2352512     
   1274598931.2962403     
   1243678159.1565044     
   1262895563.4069161     
   2185535965.1419778     
   2156240699.1521602     
   2146522593.8996887     
   2166895246.0847311     
   2228417862.5492344     
   1970778746.8112855     
   1968935925.3987553     
   2003627364.4562049     
   2093522482.1633306     
   2257274944.3257408     
   1742906008.4355540     
   1787706912.0474715     
   1884650447.3408883     
   2060646126.5115209     
   2340923826.5578790     
   1504887391.3495755     
   1613270086.7072899     
   1788851656.8888192     
   2066387280.7924089     
   2476088943.1062741     
   1262895563.4069161     
   1446668634.3787050     
   1715666510.6441026     
   2110478696.1143601     
   2663555026.4229736     
   4668950621.6416979     
   4519021832.0515137     
   4370664673.2929115     
   4223996252.6066179     
   4079275792.4620223     
   4988150009.8022127     
   4820435334.7910805     
   4654039640.5342989     
   4489075552.2377052     
   4325714820.5390158     
   5315126244.9586639     
   5133713158.4600592     
   4954122029.9724989     
   4776393642.3068352     
   4600606298.2582264     
   5648848122.1119719     
   5457256958.0595770     
   5268669278.2402153     
   5082977429.0219765     
   4900137680.3509836     
   5988795343.8782177     
   5789942864.4755230     
   5595901244.3087139     
   5406324435.3368111     
   5220992262.7722683     
   4079275792.4620223     
   3953320518.8459063     
   3829182624.0323138     
   3707061521.7482061     
   3587209949.1543803     
   4325714820.5390158     
   4187858999.0971766     
   4051347379.6508360     
   3916329061.0314159     
   3783008518.5025444     
   4600606298.2582264     
   4450813027.8225088     
   4301881567.5874720     
   4153903918.7277436     
   4007027210.9212813     
   4900137680.3509836     
   4738216546.1806650     
   4576679370.5017118     
   4415557808.9853954     
   4254936759.9146457     
   5220992262.7722683     
   5046615288.0161362     
   4872157772.3878546     
   4697590183.4326372     
   4522933279.8964319     
   3587209949.1543803     
   3441723045.1902351     
   3299172208.1469421     
   3159897654.0091019     
   3024349868.8488107     
   3783008518.5025444     
   3624199144.3255839     
   3467395975.3799281     
   3312834931.8193293     
   3160847664.4767251     
   4007027210.9212813     
   3835865403.0382671     
   3665919642.1370864     
   3497326004.0634089     
   3330296908.7496591     
   4254936759.9146457     
   4072328335.5166039     
   3890294031.3616400     
   3708884321.8639755     
   3528206362.1041584     
   4522933279.8964319     
   4329677988.7027931     
   4136494723.9887104     
   3943366450.0353184     
   3750315643.2252569     
   3024349868.8488107     
   2891684480.7339458     
   2761424718.0225821     
   2633888582.9720101     
   2509482378.7212920     
   3160847664.4767251     
   3017244599.0979118     
   2875493243.1280012     
   2735823687.3673306     
   2598548529.0057874     
   3330296908.7496591     
   3176221088.4722295     
   3023473811.3548455     
   2872195237.5822210     
   2722598550.1290779     
   3528206362.1041584     
   3363884119.2319207     
   3200410827.0412583     
   3037842941.8714285     
   2876299754.7921042     
   3750315643.2252569     
   3575729873.0356407     
   3401557472.6177344     
   3227781294.7470856     
   3054438031.3256903     
   2509482378.7212920     
   2371003670.3752379     
   2236079957.9902101     
   2105220719.9742560     
   1979087686.5853627     
   2598548529.0057874     
   2450022854.5395031     
   2303560589.4895363     
   2159474625.8875542     
   2018187317.0318494     
   2722598550.1290779     
   2566272208.9943643     
   2410852292.0148101     
   2256478476.7428842     
   2103348032.2169135     
   2876299754.7921042     
   2714498701.2368903     
   2552827987.6146441     
   2391317218.3216352     
   2230016028.2294445     
   3054438031.3256903     
   2889353819.2697439     
   2723973226.8958764     
   2558284737.1530089     
   2392281584.2824335     
   1979087686.5853627     
   1848214481.2821016     
   1717416864.5959933     
   1587046190.3766062     
   1457612312.8724465     
   2018187317.0318494     
   1881203049.2742224     
   1744554663.9632881     
   1608371890.9027739     
   1472833148.1851511     
   2103348032.2169135     
   1962900594.0286520     
   1823400832.6242409     
   1684879992.3220828     
   1547397398.5535889     
   2230016028.2294445     
   2087037359.5305655     
   1945682129.6656272     
   1805952318.7001846     
   1667923925.9011536     
   2392281584.2824335     
   2246077468.9926243     
   2102018361.7893569     
   1960107946.9552674     
   1820511290.4945147     
   1457612312.8724465     
   1348619616.2352512     
   1274598931.2962403     
   1243678159.1565044     
   1262895563.4069161     
   1472833148.1851511     
   1328607454.3455160     
   1198840443.8622787     
   1088013906.9779201     
   1002033535.1734157     
   1547397398.5535889     
   1397533277.8836036     
   1244110368.7819812     
   1084858826.3873947     
   917749395.21317434     
   1667923925.9011536     
   1552521316.5412481     
   1428018652.0257311     
   1294774539.5125074     
   1158906174.7594700     
   1820511290.4945147     
   1779856522.5321598     
   1735713704.3176112     
   1696705703.5354347     
   1681303377.9498765     
   1262895563.4069161     
   1446668634.3787050     
   1715666510.6441026     
   2110478696.1143601     
   2663555026.4229736     
   1002033535.1734157     
   1164705472.4892449     
   1425417174.2546589     
   1808752762.8891673     
   2334796343.0593777     
   917749395.21317434     
   963139477.85186470     
   1144936940.9469075     
   1476489334.4488451     
   1957473372.1247079     
   1158906174.7594700     
   1008457719.5405718     
   985237779.68623269     
   1161490939.5466585     
   1544101441.2601357     
   1681303377.9498765     
   1383773403.1425345     
   1129486424.5180137     
   1010141227.4796183     
   1152979395.0568550     
 </DataArray>
 <DataArray  type="Float64" Name="strain" NumberOfComponents="3" format="ascii">
   9.9210993787612667E-002  -2.8407685541121386E-002   8.9179246005710588E-004
   9.6175625505211193E-002  -2.8343222754553810E-002   9.0923466471271031E-004
   9.3140257222809830E-002  -2.7982298914296100E-002   8.8480512990951610E-004
   9.0104888940408467E-002  -2.7324914020348132E-002   8.1850385564674610E-004
   8.7069520658006994E-002  -2.6371068072710169E-002   7.1033084192551055E-004
   9.3671620963953983E-002  -2.7148340758799128E-002   7.4754126602474269E-003
   9.0632097576407888E-002  -2.6815679622011757E-002   7.5355609168757942E-003
   8.7592574188861960E-002  -2.6295274912177313E-002   7.6292707026742734E-003
   8.4553050801315949E-002  -2.5587126629295909E-002   7.7565420176425037E-003
   8.1513527413769993E-002  -2.4691234773367376E-002   7.9173748617805129E-003
   8.7895135244584865E-002  -2.5888995976476981E-002   1.4381589950979323E-002
   8.4926890020523116E-002  -2.5288136489469648E-002   1.4375726778937337E-002
   8.1958644796461644E-002  -2.4608250910058665E-002   1.4478858404694234E-002
   7.8990399572400061E-002  -2.3849339238243693E-002   1.4690984828250014E-002
   7.6022154348338422E-002  -2.3011401474024751E-002   1.5012106049604346E-002
   8.1881536629505314E-002  -2.4629651194154834E-002   2.1610324332252809E-002
   7.9060002837557125E-002  -2.3760593356927678E-002   2.1429732250897143E-002
   7.6238469045608798E-002  -2.2921226907939893E-002   2.1433568235969321E-002
   7.3416935253660567E-002  -2.2111551847191251E-002   2.1621832287469198E-002
   7.0595401461712282E-002  -2.1331568174682097E-002   2.1994524405397023E-002
   7.5630825118715661E-002  -2.3370306411832631E-002   2.9161615804067453E-002
   7.3031436027509722E-002  -2.2233050224385598E-002   2.8697577332755242E-002
   7.0432046936303672E-002  -2.1234202905821134E-002   2.8493400196499513E-002
   6.7832657845097677E-002  -2.0373764456139021E-002   2.8549084395300559E-002
   6.5233268753891654E-002  -1.9651734875339333E-002   2.8864629929158669E-002
   8.7069520658006994E-002  -2.6371068072710169E-002   7.1033084192551055E-004
   8.4131799187778911E-002  -2.5300322680133547E-002   3.9254088456630587E-004
   8.1194077717550939E-002  -2.4292239451368880E-002   3.2287671096087323E-004
   7.8256356247322884E-002  -2.3346818386417209E-002   5.0133832110912935E-004
   7.5318634777094884E-002  -2.2464059485277521E-002   9.2792571501076893E-004
   8.1513527413769993E-002  -2.4691234773367376E-002   7.9173748617805129E-003
   7.8811089952653540E-002  -2.3722481777451898E-002   7.5990215801421956E-003
   7.6108652491537060E-002  -2.2795750074609558E-002   7.5031105329727843E-003
   7.3406215030420621E-002  -2.1911039664839791E-002   7.6296417202735001E-003
   7.0703777569304127E-002  -2.1068350548142933E-002   7.9786151420432327E-003
   7.6022154348338422E-002  -2.3011401474024751E-002   1.5012106049604346E-002
   7.3529317347049372E-002  -2.2144640874770721E-002   1.4713830314426149E-002
   7.1036480345760253E-002  -2.1299260697849903E-002   1.4612313264432977E-002
   6.8543643344471133E-002  -2.0475260943262484E-002   1.4707554899625372E-002
   6.6050806343182056E-002  -1.9672641611008512E-002   1.4999555220002930E-002
   7.0595401461712282E-002  -2.1331568174682097E-002   2.1994524405397023E-002
   6.8286481370966379E-002  -2.0566799972089364E-002   2.1736967087418551E-002
   6.5977561280220504E-002  -1.9802771321090248E-002   2.1650484905341161E-002
   6.3668641189474601E-002  -1.9039482221685455E-002   2.1735077859164755E-002
   6.1359721098728719E-002  -1.8276932673873952E-002   2.1990745948889591E-002
   6.5233268753891654E-002  -1.9651734875339333E-002   2.8864629929158669E-002
   6.3082582024404726E-002  -1.8988959069407868E-002   2.8668431899119357E-002
   6.0931895294917868E-002  -1.8306281944330968E-002   2.8617625455697099E-002
   5.8781208565431002E-002  -1.7603703500108103E-002   2.8712210598891591E-002
   5.6630521835944081E-002  -1.6881223736739448E-002   2.8952187328703360E-002
   7.5318634777094884E-002  -2.2464059485277521E-002   9.2792571501076893E-004
   7.2115856647597454E-002  -2.1600683638761442E-002   6.3260632937145456E-004
   6.8913078518100079E-002  -2.0713411737679904E-002   5.0402385467956945E-004
   6.5710300388602733E-002  -1.9802243782031818E-002   5.4217829093455849E-004
   6.2507522259105275E-002  -1.8867179771818288E-002   7.4706963813719884E-004
   7.0703777569304127E-002  -2.1068350548142933E-002   7.9786151420432327E-003
   6.7671052703590806E-002  -2.0238349712280335E-002   7.6687684838944725E-003
   6.4638327837877513E-002  -1.9391704145012817E-002   7.5322914423672782E-003
   6.1605602972164206E-002  -1.8528413846340221E-002   7.5691840174599151E-003
   5.8572878106450843E-002  -1.7648478816263524E-002   7.7794462091742567E-003
   6.6050806343182056E-002  -1.9672641611008512E-002   1.4999555220002930E-002
   6.3194767446926425E-002  -1.8876015785799338E-002   1.4667929966183935E-002
   6.0338728550670781E-002  -1.8069996552346188E-002   1.4516307034659837E-002
   5.7482689654415116E-002  -1.7254583910649293E-002   1.4544686425429824E-002
   5.4626650758159451E-002  -1.6429777860708650E-002   1.4753068138494418E-002
   6.1359721098728719E-002  -1.8276932673873952E-002   2.1990745948889591E-002
   5.8687000877604256E-002  -1.7513681859318064E-002   2.1630090776239654E-002
   5.6014280656479828E-002  -1.6748288959679551E-002   2.1456070631557685E-002
   5.3341560435355408E-002  -1.5980753974957920E-002   2.1468685514843780E-002
   5.0668840214230952E-002  -1.5211076905153831E-002   2.1667935426097587E-002
   5.6630521835944081E-002  -1.6881223736739448E-002   2.8952187328703360E-002
   5.4147752995624410E-002  -1.6151347932837096E-002   2.8555250914061248E-002
   5.1664984155304738E-002  -1.5426581367012734E-002   2.8351582233060474E-002
   4.9182215314985095E-002  -1.4706924039266777E-002   2.8341181285701414E-002
   4.6699446474665451E-002  -1.3992375949598790E-002   2.8524048071983943E-002
   6.2507522259105275E-002  -1.8867179771818288E-002   7.4706963813719884E-004
   5.9596159409881833E-002  -1.7938960893453482E-002   4.5552852575858616E-004
   5.6684796560658279E-002  -1.7048328333350071E-002   3.5994985455856110E-004
   5.3773433711434754E-002  -1.6195282091509791E-002   4.6033362453815063E-004
   5.0862070862211284E-002  -1.5379822167931767E-002   7.5667983569593922E-004
   5.8572878106450843E-002  -1.7648478816263524E-002   7.7794462091742567E-003
   5.5848696772351436E-002  -1.6771799060575077E-002   7.4371701758809694E-003
   5.3124515438252112E-002  -1.5918274585070280E-002   7.2732947316573315E-003
   5.0400334104152664E-002  -1.5087905389748010E-002   7.2878198765024549E-003
   4.7676152770053326E-002  -1.4280691474608864E-002   7.4807456104174497E-003
   5.4626650758159451E-002  -1.6429777860708650E-002   1.4753068138494418E-002
   5.2072089087074586E-002  -1.5604637227697338E-002   1.4374488222366283E-002
   4.9517527415989707E-002  -1.4788220836790350E-002   1.4156747043197832E-002
   4.6962965744904724E-002  -1.3980528687986334E-002   1.4099844600989203E-002
   4.4408404073819879E-002  -1.3181560781285739E-002   1.4203780895740259E-002
   5.0668840214230952E-002  -1.5211076905153831E-002   2.1667935426097587E-002
   4.8266336354051045E-002  -1.4437475394819932E-002   2.1267482665213944E-002
   4.5863832493871062E-002  -1.3658167088510156E-002   2.1010306789180172E-002
   4.3461328633691107E-002  -1.2873151986224494E-002   2.0896407797996761E-002
   4.1058824773511179E-002  -1.2082430087962726E-002   2.0925785691663396E-002
   4.6699446474665451E-002  -1.3992375949598790E-002   2.8524048071983943E-002
   4.4431438573280801E-002  -1.3270313561942249E-002   2.8116153504424257E-002
   4.2163430671896235E-002  -1.2528113340230351E-002   2.7833973969605075E-002
   3.9895422770511599E-002  -1.1765775284462807E-002   2.7677509467526396E-002
   3.7627414869127018E-002  -1.0983299394639601E-002   2.7646759998188108E-002
   5.0862070862211284E-002  -1.5379822167931767E-002   7.5667983569593922E-004
   4.8114647453519344E-002  -1.4568801036785373E-002   4.9819039387566377E-004
   4.5367224044827459E-002  -1.3729071172240315E-002   2.8823227112440009E-004
   4.2619800636135574E-002  -1.2860632574294734E-002   1.2680546744270327E-004
   3.9872377227443634E-002  -1.1963485242951100E-002   1.3909982830018208E-005
   4.7676152770053326E-002  -1.4280691474608864E-002   7.4807456104174497E-003
   4.4987186830836468E-002  -1.3477643571722764E-002   7.1721177094654642E-003
   4.2298220891619775E-002  -1.2659772413160048E-002   6.9318734283940753E-003
   3.9609254952402889E-002  -1.1827077998921236E-002   6.7600127672036436E-003
   3.6920289013186225E-002  -1.0979560329004157E-002   6.6565357258941971E-003
   4.4408404073819879E-002  -1.3181560781285739E-002   1.4203780895740259E-002
   4.1797747904889715E-002  -1.2386486106659989E-002   1.3831129057933683E-002
   3.9187091735959551E-002  -1.1590473654080002E-002   1.3546713140819483E-002
   3.6576435567029386E-002  -1.0793523423546184E-002   1.3350533144398019E-002
   3.3965779398099194E-002  -9.9956354150577686E-003   1.3242589068668320E-002
   4.1058824773511179E-002  -1.2082430087962726E-002   2.0925785691663396E-002
   3.8546330675679030E-002  -1.1295328641597074E-002   2.0475224439280050E-002
   3.6033836577846930E-002  -1.0521174895000068E-002   2.0132751408400901E-002
   3.3521342480014871E-002  -9.7599688481713534E-003   1.9898366599025184E-002
   3.1008848382182687E-002  -9.0117105011111032E-003   1.9772070011153414E-002
   3.7627414869127018E-002  -1.0983299394639601E-002   2.7646759998188108E-002
   3.5232935143204469E-002  -1.0204171176534327E-002   2.7104403853505266E-002
   3.2838455417281920E-002  -9.4518761359199122E-003   2.6689988231137995E-002
   3.0443975691359371E-002  -8.7264142727969118E-003   2.6403513131086076E-002
   2.8049495965436766E-002  -8.0277855871647708E-003   2.6244978553349063E-002
   3.9872377227443634E-002  -1.1963485242951100E-002   1.3909982830018208E-005
   3.7457922755826156E-002  -1.1132434224436549E-002  -2.7806521702045117E-004
   3.5043468284208734E-002  -1.0462284564980884E-002  -4.7960008742919946E-004
   3.2629013812591284E-002  -9.9530362645861015E-003  -5.9069462839517195E-004
   3.0214559340973834E-002  -9.6046893232490937E-003  -6.1134883991909028E-004
   3.6920289013186225E-002  -1.0979560329004157E-002   6.6565357258941971E-003
   3.4578125246591151E-002  -1.0177549705647770E-002   6.2106201468663524E-003
   3.2235961479996078E-002  -9.4813764310874848E-003   5.8188456484409290E-003
   2.9893797713401060E-002  -8.8910405053237995E-003   5.4812122306187594E-003
   2.7551633946805987E-002  -8.4065419283561038E-003   5.1977198933987889E-003
   3.3965779398099194E-002  -9.9956354150577686E-003   1.3242589068668320E-002
   3.1659607087687031E-002  -9.2226651868593246E-003   1.2697797120726551E-002
   2.9353434777274853E-002  -8.5004682971936418E-003   1.2170847004547736E-002
   2.7047262466862669E-002  -7.8290447460617196E-003   1.1661738720132375E-002
   2.4741090156450513E-002  -7.2083945334628918E-003   1.1170472267479914E-002
   3.1008848382182687E-002  -9.0117105011111032E-003   1.9772070011153414E-002
   2.8702368279113870E-002  -8.2677806680704902E-003   1.9183465704560559E-002
   2.6395888176044994E-002  -7.5195601632999098E-003   1.8576403980891443E-002
   2.4089408072976118E-002  -6.7670489867997508E-003   1.7950884840145585E-002
   2.1782927969907183E-002  -6.0102471385695688E-003   1.7306908282323438E-002
   2.8049495965436766E-002  -8.0277855871647708E-003   2.6244978553349063E-002
   2.5706408820871662E-002  -7.3128961492817668E-003   2.5667625898368240E-002
   2.3363321676306531E-002  -6.5386520294061501E-003   2.5035516577471439E-002
   2.1020234531741441E-002  -5.7050532275372753E-003   2.4348650590658799E-002
   1.8677147387176296E-002  -4.8120997436761348E-003   2.3607027937929903E-002
   3.0214559340973834E-002  -9.6046893232490937E-003  -6.1134883991909028E-004
   2.9606042218325523E-002  -9.1338382240819804E-003  -3.6440489300915146E-004
   2.8997525095677323E-002  -8.2570774501954936E-003  -1.7989360613610561E-003
   2.8389007973029096E-002  -6.9744070015881204E-003  -4.9149423449750818E-003
   2.7780490850380812E-002  -5.2858268782614015E-003  -9.7124237438512839E-003
   2.7551633946805987E-002  -8.4065419283561038E-003   5.1977198933987889E-003
   2.5531095212770194E-002  -7.8702374474909353E-003   5.8741783636521161E-003
   2.3510556478734318E-002  -7.1244838100328889E-003   5.4080687263924898E-003
   2.1490017744698539E-002  -6.1692810159838657E-003   3.7993909816192994E-003
   1.9469479010662649E-002  -5.0046290653424919E-003   1.0481451293340438E-003
   2.4741090156450513E-002  -7.2083945334628918E-003   1.1170472267479914E-002
   2.1847436818776322E-002  -6.6066366708985580E-003   1.2079984742947636E-002
   1.8953783481102146E-002  -5.9918901698707561E-003   1.2385836118651822E-002
   1.6060130143427991E-002  -5.3641550303791738E-003   1.2088026394592666E-002
   1.3166476805753807E-002  -4.7234312524236932E-003   1.1186555570769585E-002
   2.1782927969907183E-002  -6.0102471385695688E-003   1.7306908282323438E-002
   1.8555067036343992E-002  -5.3430358943068468E-003   1.8253014244877852E-002
   1.5327206102780804E-002  -4.8592965297086094E-003   1.9134366115418112E-002
   1.2099345169217566E-002  -4.5590290447742564E-003   1.9950963893944035E-002
   8.8714842356543144E-003  -4.4422334395048391E-003   2.0702807580455354E-002
   1.8677147387176296E-002  -4.8120997436761348E-003   2.3607027937929903E-002
   1.5653985865473230E-002  -4.0794351177148025E-003   2.4393266869442987E-002
   1.2630824343770164E-002  -3.7267028895460741E-003   2.5653658716690841E-002
   9.6076628220671395E-003  -3.7539030591695749E-003   2.7388203479673523E-002
   6.5845013003640318E-003  -4.1610356265860959E-003   2.9596901158390643E-002
   2.7780490850380812E-002  -5.2858268782614015E-003  -9.7124237438512839E-003
   2.3353813822866165E-002  -4.2069392160364316E-003  -4.1863199306344523E-003
   1.8927136795351573E-002  -4.7533461507371366E-003   2.6042455989258029E-003
   1.4500459767836871E-002  -6.9250476823619483E-003   1.0659272844830314E-002
   1.0073782740322335E-002  -1.0722043810912574E-002   1.9978761807078804E-002
   1.9469479010662649E-002  -5.0046290653424919E-003   1.0481451293340438E-003
   1.6234808859494632E-002  -4.6909492797029273E-003   6.7414596956026918E-003
   1.3000138708326614E-002  -6.2886629806581107E-003   1.3554326298220065E-002
   9.7654685571583744E-003  -9.7977701682091800E-003   2.1486744937187829E-002
   6.5307984059903568E-003  -1.5218270842354720E-002   3.0538715612504763E-002
   1.3166476805753807E-002  -4.7234312524236932E-003   1.1186555570769585E-002
   1.0978903850937805E-002  -5.1749593433689789E-003   1.6760982000419977E-002
   8.7913308961218156E-003  -7.8239798105797786E-003   2.3310050786425257E-002
   6.6037579413057990E-003  -1.2670492654055308E-002   3.0833761928785772E-002
   4.4161849864898239E-003  -1.9714497873796866E-002   3.9332115427500369E-002
   8.8714842356543144E-003  -4.4422334395048391E-003   2.0702807580455354E-002
   7.5860987971958505E-003  -5.6589694070352525E-003   2.5872246983817432E-002
   6.3007133587372754E-003  -9.3592966405008776E-003   3.1871419063539554E-002
   5.0153279202788531E-003  -1.5543215139902210E-002   3.8700323819622545E-002
   3.7299424818203336E-003  -2.4210724905239012E-002   4.6358961252065289E-002
   6.5845013003640318E-003  -4.1610356265860959E-003   2.9596901158390643E-002
   6.0563936982685473E-003  -6.1429794707013041E-003   3.4075254645794750E-002
   5.5282860961731184E-003  -1.0894613470421893E-002   3.9238431129563656E-002
   5.0001784940777172E-003  -1.8415937625749092E-002   4.5086430609699385E-002
   4.4720708919822050E-003  -2.8706951936681158E-002   5.1619253086199635E-002
   7.5630825118715661E-002  -2.3370306411832631E-002   2.9161615804067453E-002
   7.3031436027509722E-002  -2.2233050224385598E-002   2.8697577332755242E-002
   7.0432046936303672E-002  -2.1234202905821134E-002   2.8493400196499513E-002
   6.7832657845097677E-002  -2.0373764456139021E-002   2.8549084395300559E-002
   6.5233268753891654E-002  -1.9651734875339333E-002   2.8864629929158669E-002
   6.9285539612083780E-002  -2.1050776855113751E-002   3.4756301666574896E-002
   6.6935776244618828E-002  -2.0186842033154156E-002   3.4225079950628234E-002
   6.4586012877153764E-002  -1.9394323417001341E-002   3.3933248347106815E-002
   6.2236249509688785E-002  -1.8673221006655381E-002   3.3880806856010734E-002
   5.9886486142223805E-002  -1.8023534802116048E-002   3.4067755477339812E-002
   6.2988219009477542E-002  -1.8731247298394815E-002   4.0044169832057427E-002
   6.0867610143122239E-002  -1.8140633841922674E-002   3.9512757534551718E-002
   5.8747001276766853E-002  -1.7554443928181680E-002   3.9200264126840044E-002
   5.6626392410411508E-002  -1.6972677557171738E-002   3.9106689608922371E-002
   5.4505783544056212E-002  -1.6395334728892874E-002   3.9232033980798442E-002
   5.6738863310897072E-002  -1.6411717741675894E-002   4.5025220300514576E-002
   5.4826937723020039E-002  -1.6094425650691226E-002   4.4560610084525588E-002
   5.2915012135142998E-002  -1.5714564439361926E-002   4.4294447535699354E-002
   5.1003086547265888E-002  -1.5272134107688125E-002   4.4226732654035567E-002
   4.9091160959388883E-002  -1.4767134655669645E-002   4.4357465439534505E-002
   5.0537472516342330E-002  -1.4092188184957000E-002   4.9699453071946453E-002
   4.8813758984312172E-002  -1.4048217459459694E-002   4.9368637600549936E-002
   4.7090045452282042E-002  -1.3874684950542254E-002   4.9215798573684744E-002
   4.5366331920251926E-002  -1.3571590658204451E-002   4.9240935991350709E-002
   4.3642618388221782E-002  -1.3138934582446415E-002   4.9444049853547944E-002
   6.5233268753891654E-002  -1.9651734875339333E-002   2.8864629929158669E-002
   6.3082582024404726E-002  -1.8988959069407868E-002   2.8668431899119357E-002
   6.0931895294917868E-002  -1.8306281944330968E-002   2.8617625455697099E-002
   5.8781208565431002E-002  -1.7603703500108103E-002   2.8712210598891591E-002
   5.6630521835944081E-002  -1.6881223736739448E-002   2.8952187328703360E-002
   5.9886486142223805E-002  -1.8023534802116048E-002   3.4067755477339812E-002
   5.7886496130016951E-002  -1.7401738385452656E-002   3.3860711566064530E-002
   5.5886506117810167E-002  -1.6764305338734048E-002   3.3809669502732412E-002
   5.3886516105603320E-002  -1.6111235661960245E-002   3.3914629287343519E-002
   5.1886526093396473E-002  -1.5442529355131185E-002   3.4175590919897775E-002
   5.4505783544056212E-002  -1.6395334728892874E-002   3.9232033980798442E-002
   5.2667100510455762E-002  -1.5814517701497263E-002   3.9009879499196418E-002
   5.0828417476855320E-002  -1.5222328733137135E-002   3.8954337126863865E-002
   4.8989734443254870E-002  -1.4618767823812389E-002   3.9065406863800847E-002
   4.7151051409654435E-002  -1.4003834973523061E-002   3.9343088710007426E-002
   4.9091160959388883E-002  -1.4767134655669645E-002   4.4357465439534505E-002
   4.7424395165721084E-002  -1.4227297017541905E-002   4.4115935698515199E-002
   4.5757629372053334E-002  -1.3680352127540273E-002   4.4051628328091626E-002
   4.4090863578385563E-002  -1.3126299985664548E-002   4.4164543328263847E-002
   4.2424097784717785E-002  -1.2565140591914895E-002   4.4454680699032037E-002
   4.3642618388221782E-002  -1.3138934582446415E-002   4.9444049853547944E-002
   4.2158380095812992E-002  -1.2640076333586658E-002   4.9178880164020500E-002
   4.0674141803404215E-002  -1.2138375521943398E-002   4.9101543106415485E-002
   3.9189903510995432E-002  -1.1633832147516811E-002   4.9212038680732553E-002
   3.7705665218586648E-002  -1.1126446210306673E-002   4.9510366886971691E-002
   5.6630521835944081E-002  -1.6881223736739448E-002   2.8952187328703360E-002
   5.4147752995624410E-002  -1.6151347932837096E-002   2.8555250914061248E-002
   5.1664984155304738E-002  -1.5426581367012734E-002   2.8351582233060474E-002
   4.9182215314985095E-002  -1.4706924039266777E-002   2.8341181285701414E-002
   4.6699446474665451E-002  -1.3992375949598790E-002   2.8524048071983943E-002
   5.1886526093396473E-002  -1.5442529355131185E-002   3.4175590919897775E-002
   4.9596393191116528E-002  -1.4766159026166487E-002   3.3783834856528278E-002
   4.7306260288836527E-002  -1.4090097282985076E-002   3.3584082935596796E-002
   4.5016127386556512E-002  -1.3414344125587070E-002   3.3576335157102906E-002
   4.2725994484276525E-002  -1.2738899553972505E-002   3.3760591521046934E-002
   4.7151051409654435E-002  -1.4003834973523061E-002   3.9343088710007426E-002
   4.5052290854210336E-002  -1.3380970119495836E-002   3.8961313650205526E-002
   4.2953530298766210E-002  -1.2753613198957257E-002   3.8770279141637533E-002
   4.0854769743322021E-002  -1.2121764211907365E-002   3.8769985184303676E-002
   3.8756009187877929E-002  -1.1485423158346109E-002   3.8960431778203714E-002
   4.2424097784717785E-002  -1.2565140591914895E-002   4.4454680699032037E-002
   4.0515445984905779E-002  -1.1995781212825206E-002   4.4087687295092402E-002
   3.8606794185093746E-002  -1.1417129114929408E-002   4.3910170851182921E-002
   3.6698142385281733E-002  -1.0829184298227660E-002   4.3922131367303656E-002
   3.4789490585469693E-002  -1.0231946762719824E-002   4.4123568843454836E-002
   3.7705665218586648E-002  -1.1126446210306673E-002   4.9510366886971691E-002
   3.5985858583202912E-002  -1.0610592306154631E-002   4.9162955791189011E-002
   3.4266051947819204E-002  -1.0080645030901766E-002   4.9003758064232822E-002
   3.2546245312435496E-002  -9.5366043845480329E-003   4.9032773706102942E-002
   3.0826438677051760E-002  -8.9784703670933719E-003   4.9250002716799635E-002
   4.6699446474665451E-002  -1.3992375949598790E-002   2.8524048071983943E-002
   4.4431438573280801E-002  -1.3270313561942249E-002   2.8116153504424257E-002
   4.2163430671896235E-002  -1.2528113340230351E-002   2.7833973969605075E-002
   3.9895422770511599E-002  -1.1765775284462807E-002   2.7677509467526396E-002
   3.7627414869127018E-002  -1.0983299394639601E-002   2.7646759998188108E-002
   4.2725994484276525E-002  -1.2738899553972505E-002   3.3760591521046934E-002
   4.0590897107635610E-002  -1.2055469573243854E-002   3.3381567758514030E-002
   3.8455799730994736E-002  -1.1355760188503497E-002   3.3142650012728231E-002
   3.6320702354353786E-002  -1.0639771399751644E-002   3.3043838283688842E-002
   3.4185604977712863E-002  -9.9075032069878555E-003   3.3085132571396725E-002
   3.8756009187877929E-002  -1.1485423158346109E-002   3.8960431778203714E-002
   3.6768213319986975E-002  -1.0840625584545321E-002   3.8606420390654247E-002
   3.4780417452096000E-002  -1.0183407036776754E-002   3.8406906003857738E-002
   3.2792621584205039E-002  -9.5137675150403708E-003   3.8361888617814380E-002
   3.0804825716314058E-002  -8.8317070193360547E-003   3.8471368232524006E-002
   3.4789490585469693E-002  -1.0231946762719824E-002   4.4123568843454836E-002
   3.2963387210334955E-002  -9.6257815958469134E-003   4.3790711400844395E-002
   3.1137283835200202E-002  -9.0110538850499550E-003   4.3626741942993492E-002
   2.9311180460065395E-002  -8.3877636303292084E-003   4.3631660469902064E-002
   2.7485077084930705E-002  -7.7559108316841707E-003   4.3805466981569757E-002
   3.0826438677051760E-002  -8.9784703670933719E-003   4.9250002716799635E-002
   2.9176418778679436E-002  -8.4109376071482833E-003   4.8934440789084932E-002
   2.7526398880307168E-002  -7.8387007333231701E-003   4.8802157830136000E-002
   2.5876378981934872E-002  -7.2617597456179940E-003   4.8853153839952354E-002
   2.4226359083562604E-002  -6.6801146440325088E-003   4.9087428818534451E-002
   3.7627414869127018E-002  -1.0983299394639601E-002   2.7646759998188108E-002
   3.5232935143204469E-002  -1.0204171176534327E-002   2.7104403853505266E-002
   3.2838455417281920E-002  -9.4518761359199122E-003   2.6689988231137995E-002
   3.0443975691359371E-002  -8.7264142727969118E-003   2.6403513131086076E-002
   2.8049495965436766E-002  -8.0277855871647708E-003   2.6244978553349063E-002
   3.4185604977712863E-002  -9.9075032069878555E-003   3.3085132571396725E-002
   3.1924583611185720E-002  -9.1758814697012747E-003   3.2587122147581304E-002
   2.9663562244658576E-002  -8.4618320473795472E-003   3.2228087920241344E-002
   2.7402540878131376E-002  -7.7653549400239635E-003   3.2008029889377024E-002
   2.5141519511604260E-002  -7.0864501476332054E-003   3.1926948054988025E-002
   3.0804825716314058E-002  -8.8317070193360547E-003   3.8471368232524006E-002
   2.8688298383342581E-002  -8.1475917628678063E-003   3.8026964392101431E-002
   2.6571771050371049E-002  -7.4717879588391822E-003   3.7732572422314717E-002
   2.4455243717399586E-002  -6.8042956072505711E-003   3.7588192323163724E-002
   2.2338716384428053E-002  -6.1451147081015844E-003   3.7593824094648454E-002
   2.7485077084930705E-002  -7.7559108316841707E-003   4.3805466981569757E-002
   2.5524079459675053E-002  -7.1193020560344905E-003   4.3423930587065909E-002
   2.3563081834419460E-002  -6.4817438702990393E-003   4.3203441737357857E-002
   2.1602084209163812E-002  -5.8432362744775118E-003   4.3144000432445956E-002
   1.9641086583908219E-002  -5.2037792685700468E-003   4.3245606672330149E-002
   2.4226359083562604E-002  -6.6801146440325088E-003   4.9087428818534451E-002
   2.2431926840183108E-002  -6.0910123492011192E-003   4.8778020732474558E-002
   2.0637494596803682E-002  -5.4916997817585356E-003   4.8640695865371009E-002
   1.8843062353424207E-002  -4.8821769417043623E-003   4.8675454217223718E-002
   1.7048630110044788E-002  -4.2624438290383981E-003   4.8882295788032493E-002
   2.8049495965436766E-002  -8.0277855871647708E-003   2.6244978553349063E-002
   2.5706408820871662E-002  -7.3128961492817668E-003   2.5667625898368240E-002
   2.3363321676306531E-002  -6.5386520294061501E-003   2.5035516577471439E-002
   2.1020234531741441E-002  -5.7050532275372753E-003   2.4348650590658799E-002
   1.8677147387176296E-002  -4.8120997436761348E-003   2.3607027937929903E-002
   2.5141519511604260E-002  -7.0864501476332054E-003   3.1926948054988025E-002
   2.2782600388180946E-002  -6.4088255129624572E-003   3.1530876754480908E-002
   2.0423681264757562E-002  -5.7161888787664872E-003   3.1157898162172903E-002
   1.8064762141334241E-002  -5.0085402450446084E-003   3.0808012278064401E-002
   1.5705843017910864E-002  -4.2858796117974940E-003   3.0481219102155843E-002
   2.2338716384428053E-002  -6.1451147081015844E-003   3.7593824094648454E-002
   2.0041814656262091E-002  -5.5047548766433141E-003   3.7334691466147180E-002
   1.7744912928096150E-002  -4.8937257281269492E-003   3.7176500919960900E-002
   1.5448011199930205E-002  -4.3120272625518340E-003   3.7119252456090109E-002
   1.3151109471764247E-002  -3.7596594799184646E-003   3.7162946074534131E-002
   1.9641086583908219E-002  -5.2037792685700468E-003   4.3245606672330149E-002
   1.7484051625115276E-002  -4.6006842403241988E-003   4.3079070033367438E-002
   1.5327016666322335E-002  -4.0712625774872932E-003   4.3091324850835971E-002
   1.3169981707529393E-002  -3.6155142800588357E-003   4.3282371124735035E-002
   1.1012946748736447E-002  -3.2334393480396850E-003   4.3652208855065239E-002
   1.7048630110044788E-002  -4.2624438290383981E-003   4.8882295788032493E-002
   1.5109311294740441E-002  -3.6966136040049169E-003   4.8764012456141814E-002
   1.3169992479436080E-002  -3.2487994268477760E-003   4.8902369954797797E-002
   1.1230673664131753E-002  -2.9190012975663995E-003   4.9297368283999832E-002
   9.2913548488274267E-003  -2.7072192161606834E-003   4.9949007443748417E-002
   1.8677147387176296E-002  -4.8120997436761348E-003   2.3607027937929903E-002
   1.5653985865473230E-002  -4.0794351177148025E-003   2.4393266869442987E-002
   1.2630824343770164E-002  -3.7267028895460741E-003   2.5653658716690841E-002
   9.6076628220671395E-003  -3.7539030591695749E-003   2.7388203479673523E-002
   6.5845013003640318E-003  -4.1610356265860959E-003   2.9596901158390643E-002
   1.5705843017910864E-002  -4.2858796117974940E-003   3.0481219102155843E-002
   1.3138372718743602E-002  -3.7739530771993546E-003   3.1257360866280448E-002
   1.0570902419576297E-002  -3.6985067394251225E-003   3.2470732159741444E-002
   8.0034321204089862E-003  -4.0595405984747562E-003   3.4121332982539859E-002
   5.4359618212417304E-003  -4.8570546543490467E-003   3.6209163334674277E-002
   1.3151109471764247E-002  -3.7596594799184646E-003   3.7162946074534131E-002
   1.1002407008734671E-002  -3.4684710366837401E-003   3.7872442872238565E-002
   8.8537045457051169E-003  -3.6703105893043653E-003   3.8982245812881955E-002
   6.7050020826755451E-003  -4.3651781377803747E-003   4.0492354896463828E-002
   4.5562996196459871E-003  -5.5530736821123861E-003   4.2402770122984629E-002
   1.1012946748736447E-002  -3.2334393480396850E-003   4.3652208855065239E-002
   9.2460887354465504E-003  -3.1629889961682645E-003   4.4238512887318213E-002
   7.4792307221566243E-003  -3.6421144391836219E-003   4.5188199676111936E-002
   5.7123727088666870E-003  -4.6708156770858857E-003   4.6501269221446331E-002
   3.9455146955768017E-003  -6.2490927098756421E-003   4.8177721523321108E-002
   9.2913548488274267E-003  -2.7072192161606834E-003   4.9949007443748417E-002
   7.8694178988790997E-003  -2.8575069556526222E-003   5.0355570911518543E-002
   6.4474809489307727E-003  -3.6139182890625732E-003   5.1088593749431199E-002
   5.0255439989824596E-003  -4.9764532163912648E-003   5.2148075957486301E-002
   3.6036070490341743E-003  -6.9451117376388982E-003   5.3534017535684209E-002
   6.5845013003640318E-003  -4.1610356265860959E-003   2.9596901158390643E-002
   6.0563936982685473E-003  -6.1429794707013041E-003   3.4075254645794750E-002
   5.5282860961731184E-003  -1.0894613470421893E-002   3.9238431129563656E-002
   5.0001784940777172E-003  -1.8415937625749092E-002   4.5086430609699385E-002
   4.4720708919822050E-003  -2.8706951936681158E-002   5.1619253086199635E-002
   5.4359618212417304E-003  -4.8570546543490467E-003   3.6209163334674277E-002
   5.4889410843970143E-003  -6.9910051493898284E-003   3.8349616549932353E-002
   5.5419203475523260E-003  -1.1361348325939102E-002   4.0967420499325669E-002
   5.5948996107076515E-003  -1.7968084183997854E-002   4.4062575182854974E-002
   5.6478788738628660E-003  -2.6811212723565347E-002   4.7635080600520574E-002
   4.5562996196459871E-003  -5.5530736821123861E-003   4.2402770122984629E-002
   4.9828934858220930E-003  -7.8390308280781307E-003   4.2738620540193256E-002
   5.4094873519982128E-003  -1.1828083181455853E-002   4.3344349429307691E-002
   5.8360812181743257E-003  -1.7520230742246613E-002   4.4219956790327940E-002
   6.2626750843504386E-003  -2.4915473510449093E-002   4.5365442623254149E-002
   3.9455146955768017E-003  -6.2490927098756421E-003   4.8177721523321108E-002
   4.5382509025437279E-003  -8.6870565067662109E-003   4.7242266616577544E-002
   5.1309871095106020E-003  -1.2294818036972945E-002   4.6369217919509612E-002
   5.7237233164775993E-003  -1.7072377300494705E-002   4.5558575432117256E-002
   6.3164595234444579E-003  -2.3019734297333172E-002   4.4810339154400802E-002
   3.6036070490341743E-003  -6.9451117376388982E-003   5.3534017535684209E-002
   4.1550133345619467E-003  -9.5350821854550682E-003   5.1860554779084689E-002
   4.7064196200897190E-003  -1.2761552892489758E-002   5.0042025969931347E-002
   5.2578259056175469E-003  -1.6624523858744231E-002   4.8078431108223130E-002
   5.8092321911453748E-003  -2.1123995084217029E-002   4.5969770193961423E-002
   5.0537472516342330E-002  -1.4092188184957000E-002   4.9699453071946453E-002
   4.8813758984312172E-002  -1.4048217459459694E-002   4.9368637600549936E-002
   4.7090045452282042E-002  -1.3874684950542254E-002   4.9215798573684744E-002
   4.5366331920251926E-002  -1.3571590658204451E-002   4.9240935991350709E-002
   4.3642618388221782E-002  -1.3138934582446415E-002   4.9444049853547944E-002
   4.4324582093928616E-002  -1.2712159729059258E-002   5.2645932163615239E-002
   4.2788295532635010E-002  -1.2539322064375719E-002   5.2357711431907428E-002
   4.1252008971341403E-002  -1.2287829436658154E-002   5.2266368197141505E-002
   3.9715722410047796E-002  -1.1957681845906502E-002   5.2371902459317485E-002
   3.8179435848754176E-002  -1.1548879292120895E-002   5.2674314218435297E-002
   3.8040727511771177E-002  -1.1332131273161544E-002   5.5746731604663369E-002
   3.6710768973624699E-002  -1.1030426669291701E-002   5.5450198792258210E-002
   3.5380810435478242E-002  -1.0700973922774096E-002   5.5369444529205350E-002
   3.4050851897331841E-002  -1.0343773033608613E-002   5.5504468815505019E-002
   3.2720893359185370E-002  -9.9588240017954299E-003   5.5855271651157279E-002
   3.1685908769870014E-002  -9.9521028172638304E-003   5.9001851395090892E-002
   3.0581179307281322E-002  -9.5215312742077327E-003   5.8646099681601983E-002
   2.9476449844692644E-002  -9.1141184088900165E-003   5.8525027569876195E-002
   2.8371720382103977E-002  -8.7298642213107774E-003   5.8638635059913291E-002
   2.7266990919515302E-002  -8.3687687114698817E-003   5.8986922151713694E-002
   2.5260125868225153E-002  -8.5720743613660888E-003   6.2411291534897717E-002
   2.4399526533604859E-002  -8.0126358791237362E-003   6.1945414099938922E-002
   2.3538927198984552E-002  -7.5272628950059511E-003   6.1733117319153846E-002
   2.2678327864364266E-002  -7.1159554090128342E-003   6.1774401192542419E-002
   2.1817728529743979E-002  -6.7787134211444444E-003   6.2069265720104516E-002
   4.3642618388221782E-002  -1.3138934582446415E-002   4.9444049853547944E-002
   4.2158380095812992E-002  -1.2640076333586658E-002   4.9178880164020500E-002
   4.0674141803404215E-002  -1.2138375521943398E-002   4.9101543106415485E-002
   3.9189903510995432E-002  -1.1633832147516811E-002   4.9212038680732553E-002
   3.7705665218586648E-002  -1.1126446210306673E-002   4.9510366886971691E-002
   3.8179435848754176E-002  -1.1548879292120895E-002   5.2674314218435297E-002
   3.6882039234150316E-002  -1.1100501005172903E-002   5.2414463157726660E-002
   3.5584642619546421E-002  -1.0651626214933888E-002   5.2340462820705702E-002
   3.4287246004942526E-002  -1.0202254921403992E-002   5.2452313207372453E-002
   3.2989849390338652E-002  -9.7523871245833726E-003   5.2750014317726857E-002
   3.2720893359185370E-002  -9.9588240017954299E-003   5.5855271651157279E-002
   3.1608356514151899E-002  -9.5609256767591466E-003   5.5598393159774703E-002
   3.0495819669118452E-002  -9.1648769079243839E-003   5.5525383483845399E-002
   2.9383282824084977E-002  -8.7706776952914522E-003   5.5636242623369206E-002
   2.8270745979051534E-002  -8.3783280388600723E-003   5.5930970578346298E-002
   2.7266990919515302E-002  -8.3687687114698817E-003   5.8986922151713694E-002
   2.6337331935817783E-002  -8.0213503483453352E-003   5.8730670170164770E-002
   2.5407672952120257E-002  -7.6781276009148490E-003   5.8656305095834568E-002
   2.4478013968422752E-002  -7.3391004691787725E-003   5.8763826928723083E-002
   2.3548354984725212E-002  -7.0042689531366609E-003   5.9053235668830334E-002
   2.1817728529743979E-002  -6.7787134211444444E-003   6.2069265720104516E-002
   2.1068965499147926E-002  -6.4817750199315793E-003   6.1811294188896720E-002
   2.0320202468551880E-002  -6.1913782939053974E-003   6.1733227656673162E-002
   1.9571439437955845E-002  -5.9075232430660998E-003   6.1835066123433785E-002
   1.8822676407359781E-002  -5.6302098674134160E-003   6.2116809589178534E-002
   3.7705665218586648E-002  -1.1126446210306673E-002   4.9510366886971691E-002
   3.5985858583202912E-002  -1.0610592306154631E-002   4.9162955791189011E-002
   3.4266051947819204E-002  -1.0080645030901766E-002   4.9003758064232822E-002
   3.2546245312435496E-002  -9.5366043845480329E-003   4.9032773706102942E-002
   3.0826438677051760E-002  -8.9784703670933719E-003   4.9250002716799635E-002
   3.2989849390338652E-002  -9.7523871245833726E-003   5.2750014317726857E-002
   3.1462806477500382E-002  -9.2958595811341305E-003   5.2417324173157670E-002
   2.9935763564662148E-002  -8.8265090477188807E-003   5.2281948104852954E-002
   2.8408720651823902E-002  -8.3443355243372243E-003   5.2343886112812751E-002
   2.6881677738985657E-002  -7.8493390109892203E-003   5.2603138197037214E-002
   2.8270745979051534E-002  -8.3783280388600723E-003   5.5930970578346298E-002
   2.6945567496196865E-002  -7.9811268561137128E-003   5.5611731003855927E-002
   2.5620389013342196E-002  -7.5723730645358353E-003   5.5498906213068279E-002
   2.4295210530487533E-002  -7.1520666641263064E-003   5.5592496205983166E-002
   2.2970032047632885E-002  -6.7202076548852074E-003   5.5892500982600860E-002
   2.3548354984725212E-002  -7.0042689531366609E-003   5.9053235668830334E-002
   2.2434141639292273E-002  -6.6663941310932812E-003   5.8746176283284171E-002
   2.1319928293859373E-002  -6.3182370813528420E-003   5.8654632388878691E-002
   2.0205714948426438E-002  -5.9597978039155541E-003   5.8778603985614124E-002
   1.9091501602993503E-002  -5.5910762987811807E-003   5.9118091073490239E-002
   1.8822676407359781E-002  -5.6302098674134160E-003   6.2116809589178534E-002
   1.7928528906786714E-002  -5.3516614060729051E-003   6.1820660011442152E-002
   1.7034381406213613E-002  -5.0641010981699042E-003   6.1749126632284435E-002
   1.6140233905640528E-002  -4.7675289437045798E-003   6.1902209451705714E-002
   1.5246086405067444E-002  -4.4619449426769875E-003   6.2279908469705936E-002
   3.0826438677051760E-002  -8.9784703670933719E-003   4.9250002716799635E-002
   2.9176418778679436E-002  -8.4109376071482833E-003   4.8934440789084932E-002
   2.7526398880307168E-002  -7.8387007333231701E-003   4.8802157830136000E-002
   2.5876378981934872E-002  -7.2617597456179940E-003   4.8853153839952354E-002
   2.4226359083562604E-002  -6.6801146440325088E-003   4.9087428818534451E-002
   2.6881677738985657E-002  -7.8493390109892203E-003   5.2603138197037214E-002
   2.5418149329286349E-002  -7.3447146811271291E-003   5.2329472414414546E-002
   2.3954620919587048E-002  -6.8336577082023925E-003   5.2245510640372556E-002
   2.2491092509887730E-002  -6.3161680922154025E-003   5.2351252874910548E-002
   2.1027564100188439E-002  -5.7922458331656212E-003   5.2646699118028994E-002
   2.2970032047632885E-002  -6.7202076548852074E-003   5.5892500982600860E-002
   2.1699420166421401E-002  -6.2784917551059194E-003   5.5662459874252682E-002
   2.0428808285209883E-002  -5.8286146830817190E-003   5.5628547814299732E-002
   1.9158196403998389E-002  -5.3705764388126982E-003   5.5790764802741907E-002
   1.7887584522786902E-002  -4.9043770222987337E-003   5.6149110839579380E-002
   1.9091501602993503E-002  -5.5910762987811807E-003   5.9118091073490239E-002
   1.8020231290084579E-002  -5.2122688290846264E-003   5.8933403168599005E-002
   1.6948960977175673E-002  -4.8235716579608824E-003   5.8951269351917510E-002
   1.5877690664266746E-002  -4.4249847854099947E-003   5.9171689623446086E-002
   1.4806420351357838E-002  -4.0165082114318462E-003   5.9594663983184977E-002
   1.5246086405067444E-002  -4.4619449426769875E-003   6.2279908469705936E-002
   1.4380582700275923E-002  -4.1460459030633334E-003   6.2142302297453544E-002
   1.3515078995484417E-002  -3.8185286328401985E-003   6.2213675253226214E-002
   1.2649575290692903E-002  -3.4793931320075515E-003   6.2494027337023542E-002
   1.1784071585901390E-002  -3.1286394005649587E-003   6.2983358548845847E-002
   2.4226359083562604E-002  -6.6801146440325088E-003   4.9087428818534451E-002
   2.2431926840183108E-002  -6.0910123492011192E-003   4.8778020732474558E-002
   2.0637494596803682E-002  -5.4916997817585356E-003   4.8640695865371009E-002
   1.8843062353424207E-002  -4.8821769417043623E-003   4.8675454217223718E-002
   1.7048630110044788E-002  -4.2624438290383981E-003   4.8882295788032493E-002
   2.1027564100188439E-002  -5.7922458331656212E-003   5.2646699118028994E-002
   1.9413502805758903E-002  -5.2642286152390638E-003   5.2410377941586928E-002
   1.7799441511329367E-002  -4.7344541226214676E-003   5.2362715444087965E-002
   1.6185380216899831E-002  -4.2029223553125133E-003   5.2503711625532648E-002
   1.4571318922470294E-002  -3.6696333133127146E-003   5.2833366485921240E-002
   1.7887584522786902E-002  -4.9043770222987337E-003   5.6149110839579380E-002
   1.6470469637294559E-002  -4.4374448812767586E-003   5.5977423574834123E-002
   1.5053354751802184E-002  -3.9772084634844135E-003   5.6010970449019745E-002
   1.3636239866309819E-002  -3.5236677689209454E-003   5.6249751462136031E-002
   1.2219124980817501E-002  -3.0768227975866980E-003   5.6693766614183488E-002
   1.4806420351357838E-002  -4.0165082114318462E-003   5.9594663983184977E-002
   1.3602827334789992E-002  -3.6106611473146893E-003   5.9479157632216534E-002
   1.2399234318222093E-002  -3.2199628043475190E-003   5.9585460880166197E-002
   1.1195641301654203E-002  -2.8444131825294591E-003   5.9913573727033979E-002
   9.9920482850863451E-003  -2.4840122818608479E-003   6.0463496172820090E-002
   1.1784071585901390E-002  -3.1286394005649587E-003   6.2983358548845847E-002
   1.0810575898245245E-002  -2.7838774133524535E-003   6.2915580113733993E-002
   9.8370802105891136E-003  -2.4627171452102914E-003   6.3086186737527528E-002
   8.8635845229329824E-003  -2.1651585961375841E-003   6.3495178420226450E-002
   7.8900888352768372E-003  -1.8912017661348868E-003   6.4142555161830650E-002
   1.7048630110044788E-002  -4.2624438290383981E-003   4.8882295788032493E-002
   1.5109311294740441E-002  -3.6966136040049169E-003   4.8764012456141814E-002
   1.3169992479436080E-002  -3.2487994268477760E-003   4.8902369954797797E-002
   1.1230673664131753E-002  -2.9190012975663995E-003   4.9297368283999832E-002
   9.2913548488274267E-003  -2.7072192161606834E-003   4.9949007443748417E-002
   1.4571318922470294E-002  -3.6696333133127146E-003   5.2833366485921240E-002
   1.2887398693430988E-002  -3.1933225738519644E-003   5.2722093191847674E-002
   1.1203478464391681E-002  -2.8327257141615159E-003   5.2864976239757860E-002
   9.5195582353523669E-003  -2.5878427342410151E-003   5.3262015629651563E-002
   7.8356380063130671E-003  -2.4586736340910242E-003   5.3913211361529101E-002
   1.2219124980817501E-002  -3.0768227975866980E-003   5.6693766614183488E-002
   1.0788118849480409E-002  -2.6900315436990951E-003   5.6591805526033240E-002
   9.3571127181433685E-003  -2.4166520014757970E-003   5.6741516291303765E-002
   7.9261065868063158E-003  -2.2566841709164044E-003   5.7142898909995098E-002
   6.4951004554692632E-003  -2.2101280520214206E-003   5.7795953382107385E-002
   9.9920482850863451E-003  -2.4840122818608479E-003   6.0463496172820090E-002
   8.8114717628887725E-003  -2.1867405135462398E-003   6.0373149458698865E-002
   7.6308952406911991E-003  -2.0005782887898629E-003   6.0531990109435788E-002
   6.4503187184936136E-003  -1.9255256075917399E-003   6.0940018125030831E-002
   5.2697421962960532E-003  -1.9615824699518447E-003   6.1597233505483885E-002
   7.8900888352768372E-003  -1.8912017661348868E-003   6.4142555161830650E-002
   6.9574574336559725E-003  -1.6834494833932179E-003   6.4066124989844320E-002
   6.0248260320351077E-003  -1.5845045761038734E-003   6.4236397694153569E-002
   5.0921946304142290E-003  -1.5943670442669228E-003   6.4653373274757980E-002
   4.1595632287933781E-003  -1.7130368878821578E-003   6.5317051731657916E-002
   9.2913548488274267E-003  -2.7072192161606834E-003   4.9949007443748417E-002
   7.8694178988790997E-003  -2.8575069556526222E-003   5.0355570911518543E-002
   6.4474809489307727E-003  -3.6139182890625732E-003   5.1088593749431199E-002
   5.0255439989824596E-003  -4.9764532163912648E-003   5.2148075957486301E-002
   3.6036070490341743E-003  -6.9451117376388982E-003   5.3534017535684209E-002
   7.8356380063130671E-003  -2.4586736340910242E-003   5.3913211361529101E-002
   6.7142477759133401E-003  -2.6438585759225308E-003   5.3849482571319773E-002
   5.5928575455136548E-003  -3.3420377219477992E-003   5.4060387850065200E-002
   4.4714673151139139E-003  -4.5532110721663438E-003   5.4545927197764896E-002
   3.3500770847142425E-003  -6.2773786265789555E-003   5.5306100614419651E-002
   6.4951004554692632E-003  -2.2101280520214206E-003   5.7795953382107385E-002
   5.6224316434302576E-003  -2.4302101961928002E-003   5.7355061723643685E-002
   4.7497628313912174E-003  -3.0701571548327894E-003   5.7136978832946370E-002
   3.8770940193522084E-003  -4.1299689279417524E-003   5.7141704710015957E-002
   3.0044252073131994E-003  -5.6096455155193459E-003   5.7369239354852219E-002
   5.2697421962960532E-003  -1.9615824699518447E-003   6.1597233505483885E-002
   4.5939695014298246E-003  -2.2165618164629447E-003   6.0872308368490072E-002
   3.9181968065635630E-003  -2.7982765877178975E-003   6.0318366698075318E-002
   3.2424241116972971E-003  -3.7067267837168853E-003   5.9935408494239249E-002
   2.5666514168310728E-003  -4.9419124044599028E-003   5.9723433756982067E-002
   4.1595632287933781E-003  -1.7130368878821578E-003   6.5317051731657916E-002
   3.6288613499119715E-003  -2.0029134367330337E-003   6.4401222505859224E-002
   3.0981594710305926E-003  -2.5263960206030334E-003   6.3604551445451740E-002
   2.5674575921491929E-003  -3.2834846394920250E-003   6.2927038550434938E-002
   2.0367557132678071E-003  -4.2741792933999045E-003   6.2368683820809401E-002
   3.6036070490341743E-003  -6.9451117376388982E-003   5.3534017535684209E-002
   4.1550133345619467E-003  -9.5350821854550682E-003   5.1860554779084689E-002
   4.7064196200897190E-003  -1.2761552892489758E-002   5.0042025969931347E-002
   5.2578259056175469E-003  -1.6624523858744231E-002   4.8078431108223130E-002
   5.8092321911453748E-003  -2.1123995084217029E-002   4.5969770193961423E-002
   3.3500770847142425E-003  -6.2773786265789555E-003   5.5306100614419651E-002
   3.7738401417732881E-003  -8.5457601549422946E-003   5.2951971767360606E-002
   4.1976031988323337E-003  -1.1389575427014076E-002   5.0487622515918484E-002
   4.6213662558913654E-003  -1.4808824442794341E-002   4.7913052860093286E-002
   5.0451293129504249E-003  -1.8803507202282077E-002   4.5228262799883456E-002
   3.0044252073131994E-003  -5.6096455155193459E-003   5.7369239354852219E-002
   3.3353906840742770E-003  -7.5564381244300205E-003   5.4395510932844809E-002
   3.6663561608353823E-003  -1.0017597961538199E-002   5.1346407754624540E-002
   3.9973216375964946E-003  -1.2993125026844070E-002   4.8221929820191370E-002
   4.3282871143576207E-003  -1.6483019320347125E-002   4.5022077129546978E-002
   2.5666514168310728E-003  -4.9419124044599028E-003   5.9723433756982067E-002
   2.8396649614650001E-003  -6.5671160939173856E-003   5.6191172275536772E-002
   3.1126785060988857E-003  -8.6456204960625310E-003   5.2618381686049494E-002
   3.3856920507327800E-003  -1.1177425610893656E-002   4.9005061988520782E-002
   3.6587055953666986E-003  -1.4162531438412285E-002   4.5351213182949796E-002
   2.0367557132678071E-003  -4.2741792933999045E-003   6.2368683820809401E-002
   2.2866629739453359E-003  -5.5777940634050838E-003   5.8338955795436909E-002
   2.5365702346228508E-003  -7.2736430305867239E-003   5.4303544310193186E-002
   2.7864774953003657E-003  -9.3617261949442074E-003   5.0262449365078482E-002
   3.0363847559778390E-003  -1.1842043556477222E-002   4.6215670960093380E-002
   2.5260125868225153E-002  -8.5720743613660888E-003   6.2411291534897717E-002
   2.4399526533604859E-002  -8.0126358791237362E-003   6.1945414099938922E-002
   2.3538927198984552E-002  -7.5272628950059511E-003   6.1733117319153846E-002
   2.2678327864364266E-002  -7.1159554090128342E-003   6.1774401192542419E-002
   2.1817728529743979E-002  -6.7787134211444444E-003   6.2069265720104516E-002
   1.8837650838248163E-002  -5.9407363880674136E-003   6.3667720249373894E-002
   1.8220519727755971E-002  -5.6428416095662959E-003   6.3216342038407397E-002
   1.7603388617263793E-002  -5.3768178310232978E-003   6.2998319621523607E-002
   1.6986257506771595E-002  -5.1426650524383256E-003   6.3013652998722317E-002
   1.6369126396279410E-002  -4.9403832738116049E-003   6.3262342170003538E-002
   1.2492755711350639E-002  -3.3093984147687106E-003   6.4641508011025348E-002
   1.2098867964895378E-002  -3.2730473400088694E-003   6.4246823522217902E-002
   1.1704980218440113E-002  -3.2263727670405820E-003   6.4065269967402055E-002
   1.1311092471984847E-002  -3.1693746958638431E-003   6.4096847346577418E-002
   1.0917204725529584E-002  -3.1020531264787099E-003   6.4341555659744004E-002
   6.2254404875326259E-003  -6.7806044146999367E-004   6.5332654819852232E-002
   6.0345712450230859E-003  -9.0325307045143605E-004   6.5036858551370522E-002
   5.8437020025135624E-003  -1.0759277030578419E-003   6.4933968356788926E-002
   5.6528327600040302E-003  -1.1960843392893753E-003   6.5023984236107599E-002
   5.4619635174944997E-003  -1.2637229791458982E-003   6.5306906189326247E-002
   3.5705166794040843E-005   1.9532775318286677E-003   6.5741160675854615E-002
   2.7629568139064808E-005   1.4665411991060251E-003   6.5586447125865033E-002
   1.9553969484106121E-005   1.0745173609248010E-003   6.5604414789684456E-002
   1.1478370829140494E-005   7.7720601728515151E-004   6.5795063667312734E-002
   3.4027721741713979E-006   5.7460716818696911E-004   6.6158393758749989E-002
   2.1817728529743979E-002  -6.7787134211444444E-003   6.2069265720104516E-002
   2.1068965499147926E-002  -6.4817750199315793E-003   6.1811294188896720E-002
   2.0320202468551880E-002  -6.1913782939053974E-003   6.1733227656673162E-002
   1.9571439437955845E-002  -5.9075232430660998E-003   6.1835066123433785E-002
   1.8822676407359781E-002  -5.6302098674134160E-003   6.2116809589178534E-002
   1.6369126396279410E-002  -4.9403832738116049E-003   6.3262342170003538E-002
   1.5802085730493132E-002  -4.7519320494271572E-003   6.3001702575479254E-002
   1.5235045064706854E-002  -4.5592709335694689E-003   6.2924602711590338E-002
   1.4668004398920579E-002  -4.3623999262384135E-003   6.3031042578336763E-002
   1.4100963733134304E-002  -4.1613190274339962E-003   6.3321022175718444E-002
   1.0917204725529584E-002  -3.1020531264787099E-003   6.4341555659744004E-002
   1.0535521156204149E-002  -3.0220890789227350E-003   6.4088999568563454E-002
   1.0153837586878720E-002  -2.9271635732333739E-003   6.4023617939669195E-002
   9.7721540175532903E-003  -2.8172766094106717E-003   6.4145410773061351E-002
   9.3904704482278591E-003  -2.6924281874547151E-003   6.4454378068739909E-002
   5.4619635174944997E-003  -1.2637229791458982E-003   6.5306906189326247E-002
   5.2692717762809890E-003  -1.2922461084182019E-003   6.5073185168149209E-002
   5.0765800350674808E-003  -1.2950562128972234E-003   6.5030273340909717E-002
   4.8838882938539666E-003  -1.2721532925829299E-003   6.5178170707607591E-002
   4.6911965526404585E-003  -1.2235373474753092E-003   6.5516877268242943E-002
   3.4027721741713979E-006   5.7460716818696911E-004   6.6158393758749989E-002
   3.3375907236531110E-006   4.3759686208610926E-004   6.5954259374236657E-002
   3.2724092731313548E-006   3.3705114743869113E-004   6.5944568915311808E-002
   3.2072278226095985E-006   2.7297002424479452E-004   6.6129322381975428E-002
   3.1420463720913117E-006   2.4535349250393024E-004   6.6508519774227559E-002
   1.8822676407359781E-002  -5.6302098674134160E-003   6.2116809589178534E-002
   1.7928528906786714E-002  -5.3516614060729051E-003   6.1820660011442152E-002
   1.7034381406213613E-002  -5.0641010981699042E-003   6.1749126632284435E-002
   1.6140233905640528E-002  -4.7675289437045798E-003   6.1902209451705714E-002
   1.5246086405067444E-002  -4.4619449426769875E-003   6.2279908469705936E-002
   1.4100963733134304E-002  -4.1613190274339962E-003   6.3321022175718444E-002
   1.3431203134552108E-002  -3.9550243506271676E-003   6.3043477446259877E-002
   1.2761442535969916E-002  -3.7425120092888786E-003   6.2990090322204068E-002
   1.2091681937387725E-002  -3.5237820034191292E-003   6.3160860803551308E-002
   1.1421921338805513E-002  -3.2988343330178083E-003   6.3555788890301113E-002
   9.3904704482278591E-003  -2.6924281874547151E-003   6.4454378068739909E-002
   8.9446381584605203E-003  -2.5583872951817632E-003   6.4192644005528376E-002
   8.4988058686931763E-003  -2.4209229204079641E-003   6.4154608954543751E-002
   8.0529735789258393E-003  -2.2800350631335675E-003   6.4340272915785882E-002
   7.6071412891584936E-003  -2.1357237233585458E-003   6.4749635889254878E-002
   4.6911965526404585E-003  -1.2235373474753092E-003   6.5516877268242943E-002
   4.4688339785119270E-003  -1.1617502397361368E-003   6.5268159689247707E-002
   4.2464714043834000E-003  -1.0993338315272161E-003   6.5242682529303389E-002
   4.0241088302548677E-003  -1.0362881228482279E-003   6.5440445788409740E-002
   3.8017462561263354E-003  -9.7261311369926939E-004   6.5861449466566954E-002
   3.1420463720913117E-006   2.4535349250393024E-004   6.6508519774227559E-002
   3.7905947063397727E-006   2.3488681570940639E-004   6.6270024497417868E-002
   4.4391430405812948E-006   2.2225525735397600E-004   6.6254311046482967E-002
   5.0876913748297559E-006   2.0745881743747252E-004   6.6461379421422689E-002
   5.7362397090712780E-006   1.9049749595995147E-004   6.6891229622237203E-002
   1.5246086405067444E-002  -4.4619449426769875E-003   6.2279908469705936E-002
   1.4380582700275923E-002  -4.1460459030633334E-003   6.2142302297453544E-002
   1.3515078995484417E-002  -3.8185286328401985E-003   6.2213675253226214E-002
   1.2649575290692903E-002  -3.4793931320075515E-003   6.2494027337023542E-002
   1.1784071585901390E-002  -3.1286394005649587E-003   6.2983358548845847E-002
   1.1421921338805513E-002  -3.2988343330178083E-003   6.3555788890301113E-002
   1.0767129153012159E-002  -3.0672818876069374E-003   6.3438605183685742E-002
   1.0112336967218791E-002  -2.8287375567086492E-003   6.3533865387041782E-002
   9.4575447814254227E-003  -2.5832013403227216E-003   6.3841569500369288E-002
   8.8027525956320407E-003  -2.3306732384500428E-003   6.4361717523668427E-002
   7.6071412891584936E-003  -2.1357237233585458E-003   6.4749635889254878E-002
   7.1665254043099605E-003  -1.9885178721504859E-003   6.4648248303153966E-002
   6.7259095194614378E-003  -1.8389464805771069E-003   6.4762769408971299E-002
   6.2852936346129099E-003  -1.6870095486385041E-003   6.5093199206706767E-002
   5.8446777497643820E-003  -1.5327070763347939E-003   6.5639537696360606E-002
   3.8017462561263354E-003  -9.7261311369926939E-004   6.5861449466566954E-002
   3.5787714541693598E-003  -9.0975385669395115E-004   6.5771231655858547E-002
   3.3557966522123747E-003  -8.4915540444561663E-004   6.5900387319014944E-002
   3.1328218502553978E-003  -7.9081775695420253E-004   6.6248916456036297E-002
   2.9098470482984071E-003  -7.3474091421965593E-004   6.6816819066922523E-002
   5.7362397090712780E-006   1.9049749595995147E-004   6.6891229622237203E-002
   3.8673025903428193E-006   1.6901015876241710E-004   6.6807555241799044E-002
   1.9983654716039523E-006   1.4063567168597080E-004   6.6946719117172399E-002
   1.2942835287028942E-007   1.0537403473042870E-004   6.7308721248357337E-002
  -1.7395087658633734E-006   6.3225247895370984E-005   6.7893561635353872E-002
   1.1784071585901390E-002  -3.1286394005649587E-003   6.2983358548845847E-002
   1.0810575898245245E-002  -2.7838774133524535E-003   6.2915580113733993E-002
   9.8370802105891136E-003  -2.4627171452102914E-003   6.3086186737527528E-002
   8.8635845229329824E-003  -2.1651585961375841E-003   6.3495178420226450E-002
   7.8900888352768372E-003  -1.8912017661348868E-003   6.4142555161830650E-002
   8.8027525956320407E-003  -2.3306732384500428E-003   6.4361717523668427E-002
   8.0689571551386605E-003  -2.0817847089313335E-003   6.4299562046582270E-002
   7.3351617146452663E-003  -1.8471672096099234E-003   6.4478422004916325E-002
   6.6013662741518792E-003  -1.6268207404851881E-003   6.4898297398670354E-002
   5.8675708336584920E-003  -1.4207453015572247E-003   6.5559188227844400E-002
   5.8446777497643820E-003  -1.5327070763347939E-003   6.5639537696360606E-002
   5.3532129329484854E-003  -1.3796920045101857E-003   6.5592335866173135E-002
   4.8617481161325922E-003  -1.2316172740095555E-003   6.5788779847920587E-002
   4.3702832993166990E-003  -1.0884828848326811E-003   6.6228869641602933E-002
   3.8788184825008024E-003  -9.5028883697961808E-004   6.6912605247220147E-002
   2.9098470482984071E-003  -7.3474091421965593E-004   6.6816819066922523E-002
   2.6633432316747474E-003  -6.7759930008927383E-004   6.6793901572506836E-002
   2.4168394150510713E-003  -6.1606733840913197E-004   6.7017260266540646E-002
   2.1703355984274107E-003  -5.5014502917995201E-004   6.7486895149024187E-002
   1.9238317818037354E-003  -4.7983237240203924E-004   6.8202806219957265E-002
  -1.7395087658633734E-006   6.3225247895370984E-005   6.7893561635353872E-002
  -6.5194868257428817E-007   2.4493404332304181E-005   6.7904259165582959E-002
   4.3561140072173599E-007  -5.1740280873624478E-007   6.8163863260776392E-002
   1.5231714840108213E-006  -1.1807173527701720E-005   6.8672373920934032E-002
   2.6107315673068454E-006  -9.3759078243493832E-006   6.9429791146056075E-002
   7.8900888352768372E-003  -1.8912017661348868E-003   6.4142555161830650E-002
   6.9574574336559725E-003  -1.6834494833932179E-003   6.4066124989844320E-002
   6.0248260320351077E-003  -1.5845045761038734E-003   6.4236397694153569E-002
   5.0921946304142290E-003  -1.5943670442669228E-003   6.4653373274757980E-002
   4.1595632287933781E-003  -1.7130368878821578E-003   6.5317051731657916E-002
   5.8675708336584920E-003  -1.4207453015572247E-003   6.5559188227844400E-002
   5.1782032153184360E-003  -1.2629975393407267E-003   6.5417488763965526E-002
   4.4888355969783522E-003  -1.1876341003499435E-003   6.5515613990352523E-002
   3.7994679786382893E-003  -1.1946549845851528E-003   6.5853563907005933E-002
   3.1101003602982125E-003  -1.2840601920459660E-003   6.6431338513925520E-002
   3.8788184825008024E-003  -9.5028883697961808E-004   6.6912605247220147E-002
   3.4258364614124757E-003  -8.4254559528815220E-004   6.6732059543674505E-002
   2.9728544403241630E-003  -7.9076362459609695E-004   6.6784460344366053E-002
   2.5198724192358503E-003  -7.9494292490326496E-004   6.7069807649295085E-002
   2.0668903981475237E-003  -8.5508349620966317E-004   6.7588101458461086E-002
   1.9238317818037354E-003  -4.7983237240203924E-004   6.8202806219957265E-002
   1.7003571719381282E-003  -4.2209365123556386E-004   6.8009837328971784E-002
   1.4768825620725297E-003  -3.9389314884198667E-004   6.8042936756194355E-002
   1.2534079522069303E-003  -3.9523086522143605E-004   6.8302104501625271E-002
   1.0299333423413378E-003  -4.2610680037341586E-004   6.8787340565264254E-002
   2.6107315673068454E-006  -9.3759078243493832E-006   6.9429791146056075E-002
   1.7653468953743312E-006  -1.6417071830865382E-006   6.9250822119857225E-002
   9.1996222345222534E-007   2.9773269115962453E-006   6.9291043225837234E-002
   7.4577551523180574E-008   4.4811944600944842E-006   6.9550454463996575E-002
  -7.7080712040239474E-007   2.8698954628314510E-006   7.0029055834335163E-002
   4.1595632287933781E-003  -1.7130368878821578E-003   6.5317051731657916E-002
   3.6288613499119715E-003  -2.0029134367330337E-003   6.4401222505859224E-002
   3.0981594710305926E-003  -2.5263960206030334E-003   6.3604551445451740E-002
   2.5674575921491929E-003  -3.2834846394920250E-003   6.2927038550434938E-002
   2.0367557132678071E-003  -4.2741792933999045E-003   6.2368683820809401E-002
   3.1101003602982125E-003  -1.2840601920459660E-003   6.6431338513925520E-002
   2.7019550282149085E-003  -1.5021210986806977E-003   6.5320894020808096E-002
   2.2938096961315976E-003  -1.8951090804384674E-003   6.4336404455895807E-002
   1.8856643640482867E-003  -2.4630241373185882E-003   6.3477869819188945E-002
   1.4775190319649828E-003  -3.2058662693208451E-003   6.2745290110686969E-002
   2.0668903981475237E-003  -8.5508349620966317E-004   6.7588101458461086E-002
   1.7880983756766652E-003  -1.0013287606287780E-003   6.6341720657921016E-002
   1.5093063532058068E-003  -1.2638221402739985E-003   6.5228091548400327E-002
   1.2305143307349397E-003  -1.6425636351452590E-003   6.4247214129899477E-002
   9.5172230826408993E-004  -2.1375532452423962E-003   6.3399088402418119E-002
   1.0299333423413378E-003  -4.2610680037341586E-004   6.8787340565264254E-002
   8.8729139229727291E-004  -5.0053642257670561E-004   6.7463702417197902E-002
   7.4464944225322884E-004  -6.3253520010953662E-004   6.6279612722965717E-002
   6.0200749220917045E-004  -8.2210313297176492E-004   6.5235071482567200E-002
   4.5936554216511986E-004  -1.0692402211638641E-003   6.4330078696003073E-002
  -7.7080712040239474E-007   2.8698954628314510E-006   7.0029055834335163E-002
  -4.6592192327887805E-007   2.5591547542225257E-007   6.8686839298639168E-002
  -1.6103672615189191E-007  -1.2482599449914478E-006   6.7490967979591421E-002
   1.4384847097162479E-007  -1.6426307984998556E-006   6.6441441877192170E-002
   4.4873366809861093E-007  -9.2719708499888753E-007   6.5538260991441333E-002
   2.0367557132678071E-003  -4.2741792933999045E-003   6.2368683820809401E-002
   2.2866629739453359E-003  -5.5777940634050838E-003   5.8338955795436909E-002
   2.5365702346228508E-003  -7.2736430305867239E-003   5.4303544310193186E-002
   2.7864774953003657E-003  -9.3617261949442074E-003   5.0262449365078482E-002
   3.0363847559778390E-003  -1.1842043556477222E-002   4.6215670960093380E-002
   1.4775190319649828E-003  -3.2058662693208451E-003   6.2745290110686969E-002
   1.7075327222888237E-003  -4.1833297640715972E-003   5.8391517008659410E-002
   1.9375464126126715E-003  -5.4551089091944283E-003   5.4003640225795679E-002
   2.1675601029364881E-003  -7.0212037046897546E-003   4.9581659762095665E-002
   2.3975737932603325E-003  -8.8816141505576596E-003   4.5125575617558589E-002
   9.5172230826408993E-004  -2.1375532452423962E-003   6.3399088402418119E-002
   1.1334222072689262E-003  -2.7888654647375000E-003   5.8819188770538905E-002
   1.3151221062737660E-003  -3.6365747878020355E-003   5.4176765236858118E-002
   1.4968220052785849E-003  -4.6806812144354719E-003   4.9471817801375557E-002
   1.6785219042834559E-003  -5.9211847446385413E-003   4.4704346464091160E-002
   4.5936554216511986E-004  -1.0692402211638641E-003   6.4330078696003073E-002
   5.6433142888563485E-004  -1.3944011654035970E-003   5.9621971081075212E-002
   6.6929731560614204E-004  -1.8180406664096913E-003   5.4822919343380516E-002
   7.7426320232666657E-004  -2.3401587241814372E-003   4.9932923482919007E-002
   8.7922908904716421E-004  -2.9607553387190899E-003   4.4951983499690457E-002
   4.4873366809861093E-007  -9.2719708499888753E-007   6.5538260991441333E-002
   2.6038713895476517E-007   6.3133930194858578E-008   6.0799863940268595E-002
   7.2040609814388867E-008   4.9345498245867425E-007   5.5942102545363304E-002
  -1.1630591932425272E-007   3.6376607288196583E-007   5.0964976806725765E-002
  -3.0465244847677209E-007  -3.2593279986059542E-007   4.5868486724355950E-002
   3.5705166794040843E-005   1.9532775318286677E-003   6.5741160675854615E-002
   2.7629568139064808E-005   1.4665411991060251E-003   6.5586447125865033E-002
   1.9553969484106121E-005   1.0745173609248010E-003   6.5604414789684456E-002
   1.1478370829140494E-005   7.7720601728515151E-004   6.5795063667312734E-002
   3.4027721741713979E-006   5.7460716818696911E-004   6.6158393758749989E-002
  -6.1606636096599582E-003   2.7490797900275310E-003   6.4567350581691635E-002
  -5.9843888423815952E-003   2.4761584084336541E-003   6.4401141471345291E-002
  -5.8081140751032306E-003   2.2438887363568777E-003   6.4430951879056689E-002
  -5.6318393078248746E-003   2.0522707737972469E-003   6.4656781804825730E-002
  -5.4555645405465029E-003   1.9013045207544321E-003   6.5078631248652485E-002
  -1.2447879200624287E-002   3.5448820482263943E-003   6.3634385831169635E-002
  -1.2063915763163877E-002   3.4857756177614080E-003   6.3402620375442240E-002
  -1.1679952325703452E-002   3.4132601117890585E-003   6.3390212742021113E-002
  -1.1295988888243041E-002   3.3273355303091740E-003   6.3597162930906503E-002
  -1.0912025450782618E-002   3.2280018733219784E-003   6.4023470942098218E-002
  -1.8825941606098968E-002   4.3406843064252715E-003   6.2942266424288906E-002
  -1.8210951194207764E-002   4.4953928270890994E-003   6.2590883838155711E-002
  -1.7595960782316570E-002   4.5826314872210484E-003   6.2482197378577728E-002
  -1.6980970370425376E-002   4.6024002868212408E-003   6.2616207045554942E-002
  -1.6365979958534168E-002   4.5546992258894553E-003   6.2992912839087201E-002
  -2.5294850826083980E-002   5.1364865646241209E-003   6.2490992361049047E-002
  -2.4425495135513273E-002   5.5050100364168741E-003   6.1965931859485845E-002
  -2.3556139444942569E-002   5.7520028626532327E-003   6.1706905788726563E-002
  -2.2686783754371852E-002   5.8774650433332173E-003   6.1713914148771060E-002
  -2.1817428063801159E-002   5.8813965784569877E-003   6.1986956939619531E-002
   3.4027721741713979E-006   5.7460716818696911E-004   6.6158393758749989E-002
   3.3375907236531110E-006   4.3759686208610926E-004   6.5954259374236657E-002
   3.2724092731313548E-006   3.3705114743869113E-004   6.5944568915311808E-002
   3.2072278226095985E-006   2.7297002424479452E-004   6.6129322381975428E-002
   3.1420463720913117E-006   2.4535349250393024E-004   6.6508519774227559E-002
  -5.4555645405465029E-003   1.9013045207544321E-003   6.5078631248652485E-002
  -5.2629839090523817E-003   1.7780208281563542E-003   6.4900794155392558E-002
  -5.0704032775582570E-003   1.6694505469304066E-003   6.4913804762433358E-002
  -4.8778226460641384E-003   1.5755936770766865E-003   6.5117663069774900E-002
  -4.6852420145700110E-003   1.4964502185952910E-003   6.5512369077417226E-002
  -1.0912025450782618E-002   3.2280018733219784E-003   6.4023470942098218E-002
  -1.0530395231631618E-002   3.1184447942265714E-003   6.3850179960010633E-002
  -1.0148765012480625E-002   3.0018499464221846E-003   6.3864140452935980E-002
  -9.7671347933296314E-003   2.8782173299088023E-003   6.4065352420874258E-002
  -9.3855045741786294E-003   2.7475469446865686E-003   6.4453815863825564E-002
  -1.6365979958534168E-002   4.5546992258894553E-003   6.2992912839087201E-002
  -1.5798896377014066E-002   4.4588687602967747E-003   6.2802416788090717E-002
  -1.5231812795493967E-002   4.3342493459139313E-003   6.2795575986819452E-002
  -1.4664729213973876E-002   4.1808409827409727E-003   6.2972390435273334E-002
  -1.4097645632453765E-002   3.9986436707777767E-003   6.3332860133452587E-002
  -2.1817428063801159E-002   5.8813965784569877E-003   6.1986956939619531E-002
  -2.1068487345199723E-002   5.7992927263669780E-003   6.1757504639633032E-002
  -2.0319546626598288E-002   5.6666487454056225E-003   6.1708111364083884E-002
  -1.9570605907996846E-002   5.4834646355729627E-003   6.1838777112972282E-002
  -1.8821665189395417E-002   5.2497403968691514E-003   6.2149501886298142E-002
   3.1420463720913117E-006   2.4535349250393024E-004   6.6508519774227559E-002
   3.7905947063397727E-006   2.3488681570940639E-004   6.6270024497417868E-002
   4.4391430405812948E-006   2.2225525735397600E-004   6.6254311046482967E-002
   5.0876913748297559E-006   2.0745881743747252E-004   6.6461379421422689E-002
   5.7362397090712780E-006   1.9049749595995147E-004   6.6891229622237203E-002
  -4.6852420145700110E-003   1.4964502185952910E-003   6.5512369077417226E-002
  -4.4617188857743895E-003   1.4229842961989980E-003   6.5259326446146543E-002
  -4.2381957569787646E-003   1.3461600346013902E-003   6.5229251149923631E-002
  -4.0146726281831370E-003   1.2659774338024329E-003   6.5422143188748783E-002
  -3.7911494993875181E-003   1.1824364938019527E-003   6.5838002562622067E-002
  -9.3855045741786294E-003   2.7475469446865686E-003   6.4453815863825564E-002
  -8.9389213557483829E-003   2.6110817766887978E-003   6.4185032420453092E-002
  -8.4923381373181259E-003   2.4700648118490820E-003   6.4139401821302025E-002
  -8.0457549188878846E-003   2.3244960501673934E-003   6.4316924066372044E-002
  -7.5991717004576294E-003   2.1743754916438152E-003   6.4717599155663372E-002
  -1.4097645632453765E-002   3.9986436707777767E-003   6.3332860133452587E-002
  -1.3427816815215647E-002   3.7991792571784103E-003   6.3047142420337959E-002
  -1.2757987997977522E-002   3.5939695890966072E-003   6.2984763060618051E-002
  -1.2088159180739395E-002   3.3830146665324093E-003   6.3145722054292419E-002
  -1.1418330363501272E-002   3.1663144894856360E-003   6.3530019401361659E-002
  -1.8821665189395417E-002   5.2497403968691514E-003   6.2149501886298142E-002
  -1.7928405264176172E-002   4.9872767376682170E-003   6.1845656445801145E-002
  -1.7035145338956927E-002   4.7178743663442158E-003   6.1765334867871696E-002
  -1.6141885413737674E-002   4.4415332828974044E-003   6.1908537152510074E-002
  -1.5248625488518436E-002   4.1582534873276233E-003   6.2275263299716277E-002
   5.7362397090712780E-006   1.9049749595995147E-004   6.6891229622237203E-002
   3.8673025903428193E-006   1.6901015876241710E-004   6.6807555241799044E-002
   1.9983654716039523E-006   1.4063567168597080E-004   6.6946719117172399E-002
   1.2942835287028942E-007   1.0537403473042870E-004   6.7308721248357337E-002
  -1.7395087658633734E-006   6.3225247895370984E-005   6.7893561635353872E-002
  -3.7911494993875181E-003   1.1824364938019527E-003   6.5838002562622067E-002
  -3.5716276807818952E-003   1.0948358315387707E-003   6.5735920092521577E-002
  -3.3521058621762741E-003   1.0024740639518054E-003   6.5853780878058293E-002
  -3.1325840435706487E-003   9.0535119104128911E-004   6.6191584919232146E-002
  -2.9130622249650372E-003   8.0346721280677436E-004   6.6749332216042900E-002
  -7.5991717004576294E-003   2.1743754916438152E-003   6.4717599155663372E-002
  -7.1611541263021296E-003   2.0206615043150411E-003   6.4599234640456041E-002
  -6.7231365521466342E-003   1.8643124562178690E-003   6.4697918380711344E-002
  -6.2851189779911439E-003   1.7053283473522068E-003   6.5013650376429519E-002
  -5.8471014038356389E-003   1.5437091777181777E-003   6.5546430627610036E-002
  -1.1418330363501272E-002   3.1663144894856360E-003   6.3530019401361659E-002
  -1.0764712033970385E-002   2.9464871770912976E-003   6.3397498885602671E-002
  -1.0111093704439501E-002   2.7261508484837625E-003   6.3479131625131968E-002
  -9.4574753749086127E-003   2.5053055036631513E-003   6.3774917619949412E-002
  -8.8038570453777241E-003   2.2839511426295256E-003   6.4284856870055057E-002
  -1.5248625488518436E-002   4.1582534873276233E-003   6.2275263299716277E-002
  -1.4382301403786654E-002   3.8723128498675541E-003   6.2130712827961287E-002
  -1.3515977319054850E-002   3.5879892407497810E-003   6.2197420611319915E-002
  -1.2649653234323047E-002   3.3052826599740438E-003   6.2475386649792228E-002
  -1.1783329149591265E-002   3.0241931075408734E-003   6.2964610943378130E-002
  -1.7395087658633734E-006   6.3225247895370984E-005   6.7893561635353872E-002
  -6.5194868257428817E-007   2.4493404332304181E-005   6.7904259165582959E-002
   4.3561140072173599E-007  -5.1740280873624478E-007   6.8163863260776392E-002
   1.5231714840108213E-006  -1.1807173527701720E-005   6.8672373920934032E-002
   2.6107315673068454E-006  -9.3759078243493832E-006   6.9429791146056075E-002
  -2.9130622249650372E-003   8.0346721280677436E-004   6.6749332216042900E-002
  -2.6645903302411518E-003   7.0441769207479910E-004   6.6747866581652160E-002
  -2.4161184355172630E-003   6.1579819167090211E-004   6.6992263051578071E-002
  -2.1676465407933750E-003   5.3760871159605483E-004   6.7482521625821024E-002
  -1.9191746460694888E-003   4.6984925184900828E-004   6.8218642304380739E-002
  -5.8471014038356389E-003   1.5437091777181777E-003   6.5546430627610036E-002
  -5.3542896351186503E-003   1.3843419798171830E-003   6.5529510812505465E-002
  -4.8614778664016686E-003   1.2321137861508874E-003   6.5755408641070337E-002
  -4.3686660976846800E-003   1.0870245967193153E-003   6.6224124113304694E-002
  -3.8758543289676844E-003   9.4907441152236593E-004   6.6935657229208106E-002
  -8.8038570453777241E-003   2.2839511426295256E-003   6.4284856870055057E-002
  -8.0697498633151114E-003   2.0642662675596779E-003   6.4249191858143262E-002
  -7.3356426812524883E-003   1.8484293806308658E-003   6.4453300029253105E-002
  -6.6015354991898669E-003   1.6364404818427682E-003   6.4897181383384947E-002
  -5.8674283171272525E-003   1.4282995711957236E-003   6.5580835920538483E-002
  -1.1783329149591265E-002   3.0241931075408734E-003   6.2964610943378130E-002
  -1.0810971014830507E-002   2.7441905553020618E-003   6.2906909718565163E-002
  -9.8386128800697428E-003   2.4647449751105388E-003   6.3085937216126431E-002
  -8.8662547453089817E-003   2.1858563669662837E-003   6.3501693436062157E-002
  -7.8938966105482206E-003   1.9075247308690813E-003   6.4154178378372229E-002
   2.6107315673068454E-006  -9.3759078243493832E-006   6.9429791146056075E-002
   1.7653468953743312E-006  -1.6417071830865382E-006   6.9250822119857225E-002
   9.1996222345222534E-007   2.9773269115962453E-006   6.9291043225837234E-002
   7.4577551523180574E-008   4.4811944600944842E-006   6.9550454463996575E-002
  -7.7080712040239474E-007   2.8698954628314510E-006   7.0029055834335163E-002
  -1.9191746460694888E-003   4.6984925184900828E-004   6.8218642304380739E-002
  -1.6972098134513426E-003   4.2040355420108755E-004   6.8019940226693054E-002
  -1.4752449808331861E-003   3.9715536042350674E-004   6.8047668451406473E-002
  -1.2532801482150382E-003   4.0010467051559973E-004   6.8301826978520663E-002
  -1.0313153155968834E-003   4.2925148447747752E-004   6.8782415808036401E-002
  -3.8758543289676844E-003   9.4907441152236593E-004   6.6935657229208106E-002
  -3.4238391088376001E-003   8.4244881558559470E-004   6.6746534770447868E-002
  -2.9718238887075166E-003   7.9133339393518132E-004   6.6791082784310826E-002
  -2.5198086685774401E-003   7.9572814657054639E-004   6.7069301270796244E-002
  -2.0677934484473488E-003   8.5563307349212359E-004   6.7581190229904692E-002
  -5.8674283171272525E-003   1.4282995711957236E-003   6.5580835920538483E-002
  -5.1781225392634024E-003   1.2644940769701019E-003   6.5430605751122140E-002
  -4.4888167613995316E-003   1.1855114274468628E-003   6.5521286224550529E-002
  -3.7995109835356785E-003   1.1913516226256613E-003   6.5852877340823318E-002
  -3.1102052056718112E-003   1.2820146625068807E-003   6.6425379099941145E-002
  -7.8938966105482206E-003   1.9075247308690813E-003   6.4154178378372229E-002
  -6.9600601047287436E-003   1.6865393383543315E-003   6.4072153168715618E-002
  -6.0262235989092389E-003   1.5796894609588219E-003   6.4238278772125457E-002
  -5.0923870930897445E-003   1.5869750986809567E-003   6.4652555188601885E-002
  -4.1585505872702572E-003   1.7083962515214157E-003   6.5314982418144818E-002
  -7.7080712040239474E-007   2.8698954628314510E-006   7.0029055834335163E-002
  -4.6592192327887805E-007   2.5591547542225257E-007   6.8686839298639168E-002
  -1.6103672615189191E-007  -1.2482599449914478E-006   6.7490967979591421E-002
   1.4384847097162479E-007  -1.6426307984998556E-006   6.6441441877192170E-002
   4.4873366809861093E-007  -9.2719708499888753E-007   6.5538260991441333E-002
  -1.0313153155968834E-003   4.2925148447747752E-004   6.8782415808036401E-002
  -8.8812791718968775E-004   5.0087448912372601E-004   6.7460735285560514E-002
  -7.4494051878250082E-004   6.3125237126812617E-004   6.6278474572856766E-002
  -6.0175312037529915E-004   8.2038513091125392E-004   6.5235633669924811E-002
  -4.5856572196811829E-004   1.0682727680532134E-003   6.4332212576764469E-002
  -2.0677934484473488E-003   8.5563307349212359E-004   6.7581190229904692E-002
  -1.7886489437066696E-003   1.0014930627716134E-003   6.6337690793581233E-002
  -1.5095044389659903E-003   1.2637530024814797E-003   6.5226685760153016E-002
  -1.2303599342253042E-003   1.6424128926213442E-003   6.4248175129619833E-002
  -9.5121542948463193E-004   2.1374727331912591E-003   6.3402158901981948E-002
  -3.1102052056718112E-003   1.2820146625068807E-003   6.6425379099941145E-002
  -2.7020290014742173E-003   1.5021116364199311E-003   6.5317705822701022E-002
  -2.2938527972766239E-003   1.8962536336946043E-003   6.4335601541479992E-002
  -1.8856765930790303E-003   2.4644406543312663E-003   6.3479066256277195E-002
  -1.4775003888814367E-003   3.2066726983293881E-003   6.2748099967093185E-002
  -4.1585505872702572E-003   1.7083962515214157E-003   6.5314982418144818E-002
  -3.6282680904923190E-003   2.0027302100677491E-003   6.4400780372920297E-002
  -3.0979855937143981E-003   2.5287542649080064E-003   6.3605221916837762E-002
  -2.5677030969364772E-003   3.2864684160412577E-003   6.2928307049897325E-002
  -2.0374206001585390E-003   4.2758726634677391E-003   6.2370035772098875E-002
   4.4873366809861093E-007  -9.2719708499888753E-007   6.5538260991441333E-002
   2.6038713895476517E-007   6.3133930194858578E-008   6.0799863940268595E-002
   7.2040609814388867E-008   4.9345498245867425E-007   5.5942102545363304E-002
  -1.1630591932425272E-007   3.6376607288196583E-007   5.0964976806725765E-002
  -3.0465244847677209E-007  -3.2593279986059542E-007   4.5868486724355950E-002
  -4.5856572196811829E-004   1.0682727680532134E-003   6.4332212576764469E-002
  -5.6386745761122237E-004   1.3944814397855443E-003   5.9623094819190148E-002
  -6.6916919325433685E-004   1.8185773032010910E-003   5.4823114627119529E-002
  -7.7447092889745828E-004   2.3405603582998744E-003   4.9932272000553779E-002
  -8.7977266454055542E-004   2.9604306050816653E-003   4.4950566939492509E-002
  -9.5121542948463193E-004   2.1374727331912591E-003   6.3402158901981948E-002
  -1.1331286450050118E-003   2.7888997456407272E-003   5.8820767639651522E-002
  -1.3150418605254273E-003   3.6366611514192654E-003   5.4177015852062013E-002
  -1.4969550760458058E-003   4.6807569505267523E-003   4.9470903539213427E-002
  -1.6788682915662087E-003   5.9211871429629692E-003   4.4702430701106133E-002
  -1.4775003888814367E-003   3.2066726983293881E-003   6.2748099967093185E-002
  -1.7075231750424101E-003   4.1833180514959933E-003   5.8392882401652753E-002
  -1.9375459612034115E-003   5.4547449996376687E-003   5.4003806220189549E-002
  -2.1675687473643951E-003   7.0209535427534654E-003   4.9580871422704578E-002
  -2.3975915335253725E-003   8.8819436808443841E-003   4.5124078009197183E-002
  -2.0374206001585390E-003   4.2758726634677391E-003   6.2370035772098875E-002
  -2.2870510477234277E-003   5.5777363573509264E-003   5.8339439105194013E-002
  -2.5366814952883267E-003   7.2728288478559611E-003   5.4303485731503565E-002
  -2.7863119428532292E-003   9.3611501349805948E-003   5.0262175651027974E-002
  -3.0359423904181143E-003   1.1842700218725799E-002   4.6215508863766352E-002
  -2.5294850826083980E-002   5.1364865646241209E-003   6.2490992361049047E-002
  -2.4425495135513273E-002   5.5050100364168741E-003   6.1965931859485845E-002
  -2.3556139444942569E-002   5.7520028626532327E-003   6.1706905788726563E-002
  -2.2686783754371852E-002   5.8774650433332173E-003   6.1713914148771060E-002
  -2.1817428063801159E-002   5.8813965784569877E-003   6.1986956939619531E-002
  -3.1758348032778327E-002   8.0248185375768610E-003   5.9771336029763561E-002
  -3.0636124196231761E-002   8.0754554178951166E-003   5.9238882584505270E-002
  -2.9513900359685180E-002   8.0558279438523450E-003   5.8946131000394933E-002
  -2.8391676523138586E-002   7.9659361154484770E-003   5.8893081277432556E-002
  -2.7269452686591981E-002   7.8057799326835542E-003   5.9079733415618008E-002
  -3.8120174398381099E-002   1.0913150510529601E-002   5.6708159961405935E-002
  -3.6771414985514582E-002   1.0645900799373428E-002   5.6219579863647784E-002
  -3.5422655572648072E-002   1.0359653025051443E-002   5.5944369057381704E-002
  -3.4073896159781548E-002   1.0054407187563685E-002   5.5882527542607620E-002
  -3.2725136746915046E-002   9.7301632869100652E-003   5.6034055319325343E-002
  -4.4380329922892231E-002   1.3801482483482341E-002   5.3301464155976343E-002
  -4.2831367503361785E-002   1.3216346180851733E-002   5.2908023696913678E-002
  -4.1282405083831283E-002   1.2663478106250577E-002   5.2701619959687029E-002
  -3.9733442664300830E-002   1.2142878259678891E-002   5.2682252944296452E-002
  -3.8184480244770343E-002   1.1654546641136659E-002   5.2849922650741732E-002
  -5.0538814606311794E-002   1.6689814456435081E-002   4.9551248613474541E-002
  -4.8815981749773307E-002   1.5786791562330038E-002   4.9304214084302633E-002
  -4.7093148893234849E-002   1.4967303187449696E-002   4.9217883707310811E-002
  -4.5370316036696348E-002   1.4231349331794135E-002   4.9292257482498922E-002
  -4.3647483180157889E-002   1.3578929995363143E-002   4.9527335409867146E-002
  -2.1817428063801159E-002   5.8813965784569877E-003   6.1986956939619531E-002
  -2.1068487345199723E-002   5.7992927263669780E-003   6.1757504639633032E-002
  -2.0319546626598288E-002   5.6666487454056225E-003   6.1708111364083884E-002
  -1.9570605907996846E-002   5.4834646355729627E-003   6.1838777112972282E-002
  -1.8821665189395417E-002   5.2497403968691514E-003   6.2149501886298142E-002
  -2.7269452686591981E-002   7.8057799326835542E-003   5.9079733415618008E-002
  -2.6339497240325763E-002   7.5943481395476520E-003   5.8806163883700496E-002
  -2.5409541794059541E-002   7.3506294800309707E-003   5.8714564782675199E-002
  -2.4479586347793344E-002   7.0746239541336110E-003   5.8804936112541922E-002
  -2.3549630901527108E-002   6.7663315618554098E-003   5.9077277873300887E-002
  -3.2725136746915046E-002   9.7301632869100652E-003   5.6034055319325343E-002
  -3.1612255166529379E-002   9.3894035527285202E-003   5.5734621817967442E-002
  -3.0499373586143692E-002   9.0346102146565410E-003   5.5619070153956396E-002
  -2.9386492005758009E-002   8.6657832726942594E-003   5.5687400327291983E-002
  -2.8273610425372343E-002   8.2829227268416961E-003   5.5939612337974592E-002
  -3.8184480244770343E-002   1.1654546641136659E-002   5.2849922650741732E-002
  -3.6886761123810528E-002   1.1184458965909236E-002   5.2542878442433910E-002
  -3.5589042002850749E-002   1.0718590949282000E-002   5.2421627477927467E-002
  -3.4291322881890941E-002   1.0256942591254880E-002   5.2486169757222548E-002
  -3.2993603760931155E-002   9.7995138918279684E-003   5.2736505280319111E-002
  -4.3647483180157889E-002   1.3578929995363143E-002   4.9527335409867146E-002
  -4.2163015112169286E-002   1.2979514379090090E-002   4.9230933757099749E-002
  -4.0678547044180689E-002   1.2402571683907460E-002   4.9122236754588544E-002
  -3.9194078976192079E-002   1.1848101909815584E-002   4.9201244402333449E-002
  -3.7709610908203503E-002   1.1316105056814296E-002   4.9467956700334492E-002
  -1.8821665189395417E-002   5.2497403968691514E-003   6.2149501886298142E-002
  -1.7928405264176172E-002   4.9872767376682170E-003   6.1845656445801145E-002
  -1.7035145338956927E-002   4.7178743663442158E-003   6.1765334867871696E-002
  -1.6141885413737674E-002   4.4415332828974044E-003   6.1908537152510074E-002
  -1.5248625488518436E-002   4.1582534873276233E-003   6.2275263299716277E-002
  -2.3549630901527108E-002   6.7663315618554098E-003   5.9077277873300887E-002
  -2.2437046804954924E-002   6.4378424711851734E-003   5.8765696308612225E-002
  -2.1324462708382758E-002   6.1012468501116524E-003   5.8669239224061906E-002
  -2.0211878611810591E-002   5.7565446986348606E-003   5.8787906619649506E-002
  -1.9099294515238431E-002   5.4037360167548676E-003   5.9121698495375463E-002
  -2.8273610425372343E-002   8.2829227268416961E-003   5.5939612337974592E-002
  -2.6950101539876890E-002   7.8884082047022824E-003   5.5619126830814103E-002
  -2.5626592654381435E-002   7.4846193338790196E-003   5.5505366421362293E-002
  -2.4303083768885975E-002   7.0715561143723134E-003   5.5598331109618752E-002
  -2.2979574883390533E-002   6.6492185461820286E-003   5.5898020895583864E-002
  -3.2993603760931155E-002   9.7995138918279684E-003   5.2736505280319111E-002
  -3.1467569468942018E-002   9.3389739382192319E-003   5.2405948012406556E-002
  -2.9941535176952944E-002   8.8679918176465325E-003   5.2273716459772815E-002
  -2.8415500884963842E-002   8.3865675301097679E-003   5.2339810622417909E-002
  -2.6889466592974733E-002   7.8947010756092312E-003   5.2604230500341936E-002
  -3.7709610908203503E-002   1.1316105056814296E-002   4.9467956700334492E-002
  -3.5989450592150390E-002   1.0789539671736320E-002   4.9126159853389473E-002
  -3.4269290276097285E-002   1.0251364301413851E-002   4.8974289339293653E-002
  -3.2549129960044179E-002   9.7015789458471460E-003   4.9012345158047033E-002
  -3.0828969643991067E-002   9.1401836050363783E-003   4.9240327309649612E-002
  -1.5248625488518436E-002   4.1582534873276233E-003   6.2275263299716277E-002
  -1.4382301403786654E-002   3.8723128498675541E-003   6.2130712827961287E-002
  -1.3515977319054850E-002   3.5879892407497810E-003   6.2197420611319915E-002
  -1.2649653234323047E-002   3.3052826599740438E-003   6.2475386649792228E-002
  -1.1783329149591265E-002   3.0241931075408734E-003   6.2964610943378130E-002
  -1.9099294515238431E-002   5.4037360167548676E-003   5.9121698495375463E-002
  -1.8025492015267142E-002   5.0455096737200833E-003   5.8943200960532016E-002
  -1.6951689515295867E-002   4.6845545387792092E-003   5.8968402001054049E-002
  -1.5877887015324610E-002   4.3208706119320824E-003   5.9197301616941450E-002
  -1.4804084515353332E-002   3.9544578931789420E-003   5.9629899808193998E-002
  -2.2979574883390533E-002   6.6492185461820286E-003   5.5898020895583864E-002
  -2.1705853647928142E-002   6.2187064975725570E-003   5.5681230477403962E-002
  -2.0432132412465720E-002   5.7811198368086306E-003   5.5660578954840938E-002
  -1.9158411177003315E-002   5.3364585638898971E-003   5.5836066327894840E-002
  -1.7884689941540910E-002   4.8847226788168441E-003   5.6207692596565800E-002
  -2.6889466592974733E-002   7.8947010756092312E-003   5.2604230500341936E-002
  -2.5423386301769563E-002   7.3919033214250029E-003   5.2344801378576930E-002
  -2.3957306010564422E-002   6.8776851348379998E-003   5.2273951472680519E-002
  -2.2491225719359274E-002   6.3520465158479348E-003   5.2391680782652626E-002
  -2.1025145428154111E-002   5.8149874644550514E-003   5.2697989308493363E-002
  -3.0828969643991067E-002   9.1401836050363783E-003   4.9240327309649612E-002
  -2.9178089976791527E-002   8.5651001452773934E-003   4.8933913664051087E-002
  -2.7527210309591946E-002   7.9742504328674108E-003   4.8808519554572799E-002
  -2.5876330642392371E-002   7.3676344678057053E-003   4.8864144981214760E-002
  -2.4225450975192825E-002   6.7452522500929257E-003   4.9100789943977041E-002
  -1.1783329149591265E-002   3.0241931075408734E-003   6.2964610943378130E-002
  -1.0810971014830507E-002   2.7441905553020618E-003   6.2906909718565163E-002
  -9.8386128800697428E-003   2.4647449751105388E-003   6.3085937216126431E-002
  -8.8662547453089817E-003   2.1858563669662837E-003   6.3501693436062157E-002
  -7.8938966105482206E-003   1.9075247308690813E-003   6.4154178378372229E-002
  -1.4804084515353332E-002   3.9544578931789420E-003   5.9629899808193998E-002
  -1.3602816163564239E-002   3.5873531307853423E-003   5.9505480855945703E-002
  -1.2401547811775132E-002   3.2215930730174758E-003   5.9602153615379627E-002
  -1.1200279459986025E-002   2.8571777198752799E-003   5.9919918086496021E-002
  -9.9990111081969327E-003   2.4941070713588864E-003   6.0458774269294357E-002
  -1.7884689941540910E-002   4.8847226788168441E-003   5.6207692596565800E-002
  -1.6470148383415605E-002   4.4305157062685119E-003   5.6017343649460732E-002
  -1.5055606825290337E-002   3.9784411709243989E-003   5.6032449403345938E-002
  -1.3641065267165034E-002   3.5284990727844946E-003   5.6253009858221119E-002
  -1.2226523709039764E-002   3.0806894118488026E-003   5.6679025014086726E-002
  -2.1025145428154111E-002   5.8149874644550514E-003   5.2697989308493363E-002
  -1.9412967674384763E-002   5.2736782817516814E-003   5.2442498099110245E-002
  -1.7800789920615397E-002   4.7352892688313844E-003   5.2376824580024975E-002
  -1.6188612166846007E-002   4.1998204256935446E-003   5.2500968751237873E-002
  -1.4576434413076683E-002   3.6672717523386633E-003   5.2814930612748667E-002
  -2.4225450975192825E-002   6.7452522500929257E-003   4.9100789943977041E-002
  -2.2431274036471521E-002   6.1168408572349064E-003   4.8780944204894094E-002
  -2.0637097097750259E-002   5.4921373667382034E-003   4.8635279145417265E-002
  -1.8842920159028970E-002   4.8711417786027472E-003   4.8663794765546109E-002
  -1.7048743220307694E-002   4.2538540928286350E-003   4.8866491065281070E-002
  -7.8938966105482206E-003   1.9075247308690813E-003   6.4154178378372229E-002
  -6.9600601047287436E-003   1.6865393383543315E-003   6.4072153168715618E-002
  -6.0262235989092389E-003   1.5796894609588219E-003   6.4238278772125457E-002
  -5.0923870930897445E-003   1.5869750986809567E-003   6.4652555188601885E-002
  -4.1585505872702572E-003   1.7083962515214157E-003   6.5314982418144818E-002
  -9.9990111081969327E-003   2.4941070713588864E-003   6.0458774269294357E-002
  -8.8162226489538927E-003   2.1888572004883367E-003   6.0369368279692637E-002
  -7.6334341897108353E-003   1.9979041802835606E-003   6.0529715383871724E-002
  -6.4506457304677970E-003   1.9212480107448082E-003   6.0939815581831300E-002
  -5.2678572712247379E-003   1.9588886918718851E-003   6.1599668873571323E-002
  -1.2226523709039764E-002   3.0806894118488026E-003   5.6679025014086726E-002
  -1.0793181015659153E-002   2.6911750626218700E-003   5.6582399580087622E-002
  -9.3598383222785256E-003   2.4161188996087157E-003   5.6737129520583213E-002
  -7.9264956288978977E-003   2.2555209228089859E-003   5.7143214835573275E-002
  -6.4931529355173150E-003   2.2093811322225765E-003   5.7800655525058031E-002
  -1.4576434413076683E-002   3.6672717523386633E-003   5.2814930612748667E-002
  -1.2890935204844488E-002   3.1934929247557503E-003   5.2711247069899880E-002
  -1.1205435996612305E-002   2.8343336189335516E-003   5.2860521182259777E-002
  -9.5199367883801352E-003   2.5897938348730005E-003   5.3262752949828185E-002
  -7.8344375801479259E-003   2.4598735725733234E-003   5.3917942372605249E-002
  -1.7048743220307694E-002   4.2538540928286350E-003   4.8866491065281070E-002
  -1.5109485216509955E-002   3.6958107868894086E-003   4.8755910749129883E-002
  -1.3170227212712188E-002   3.2525483382586928E-003   4.8899890368901522E-002
  -1.1230969208914428E-002   2.9240667469370915E-003   4.9298429924595766E-002
  -9.2917112051166817E-003   2.7103660129237372E-003   4.9951529416212281E-002
  -4.1585505872702572E-003   1.7083962515214157E-003   6.5314982418144818E-002
  -3.6282680904923190E-003   2.0027302100677491E-003   6.4400780372920297E-002
  -3.0979855937143981E-003   2.5287542649080064E-003   6.3605221916837762E-002
  -2.5677030969364772E-003   3.2864684160412577E-003   6.2928307049897325E-002
  -2.0374206001585390E-003   4.2758726634677391E-003   6.2370035772098875E-002
  -5.2678572712247379E-003   1.9588886918718851E-003   6.1599668873571323E-002
  -4.5928560111363655E-003   2.2164846871981503E-003   6.0874204959189715E-002
  -3.9178547510479653E-003   2.7996944602568519E-003   6.0319534982287343E-002
  -3.2428534909595807E-003   3.7085180110477123E-003   5.9935658942863609E-002
  -2.5678522308711926E-003   4.9429553395704540E-003   5.9722576840918862E-002
  -6.4931529355173150E-003   2.2093811322225765E-003   5.7800655525058031E-002
  -5.6212825637816707E-003   2.4302391643285792E-003   5.7357853422958627E-002
  -4.7494121920459986E-003   3.0706346556058917E-003   5.7137995606674846E-002
  -3.8775418203103422E-003   4.1305676060543819E-003   5.7141082076206787E-002
  -3.0056714485747101E-003   5.6100380156737240E-003   5.7367112831554268E-002
  -7.8344375801479259E-003   2.4598735725733234E-003   5.3917942372605249E-002
  -6.7135477484282034E-003   2.6439936414591053E-003   5.3851725764226699E-002
  -5.5926579167084531E-003   3.3415748509550564E-003   5.4060603790000793E-002
  -4.4717680849887167E-003   4.5526172010608330E-003   5.4544576449927107E-002
  -3.3508782532689812E-003   6.2771206917768274E-003   5.5303643744006176E-002
  -9.2917112051166817E-003   2.7103660129237372E-003   4.9951529416212281E-002
  -7.8696515650760468E-003   2.8577481185894094E-003   5.0355821982993709E-002
  -6.4475919250353980E-003   3.6125150463037214E-003   5.1087359532264509E-002
  -5.0255322849947770E-003   4.9746667960676033E-003   5.2146142064024570E-002
  -3.6034726449541143E-003   6.9442033678797088E-003   5.3532169578274003E-002
  -2.0374206001585390E-003   4.2758726634677391E-003   6.2370035772098875E-002
  -2.2870510477234277E-003   5.5777363573509264E-003   5.8339439105194013E-002
  -2.5366814952883267E-003   7.2728288478559611E-003   5.4303485731503565E-002
  -2.7863119428532292E-003   9.3611501349805948E-003   5.0262175651027974E-002
  -3.0359423904181143E-003   1.1842700218725799E-002   4.6215508863766352E-002
  -2.5678522308711926E-003   4.9429553395704540E-003   5.9722576840918862E-002
  -2.8403664694606583E-003   6.5671364798151610E-003   5.6190616823949602E-002
  -3.1128807080501152E-003   8.6451914657706130E-003   5.2618245931716878E-002
  -3.3853949466395366E-003   1.1177120297435790E-002   4.9005464164220747E-002
  -3.6579091852290066E-003   1.4162922974811254E-002   4.5352271521460708E-002
  -3.0056714485747101E-003   5.6100380156737240E-003   5.7367112831554268E-002
  -3.3361236466667322E-003   7.5565366022790070E-003   5.4394434513610951E-002
  -3.6665758447586693E-003   1.0017554083685043E-002   5.1346291151925849E-002
  -3.9970280428506750E-003   1.2993090459890708E-002   4.8222682746498852E-002
  -4.3274802409426529E-003   1.6483145730896931E-002   4.5023609297331180E-002
  -3.3508782532689812E-003   6.2771206917768274E-003   5.5303643744006176E-002
  -3.7743225793415262E-003   8.5459367247430473E-003   5.2950892174177859E-002
  -4.1977669054141138E-003   1.1389916701599473E-002   5.0487621392130533E-002
  -4.6212112314866164E-003   1.4809060622345764E-002   4.7913831397863198E-002
  -5.0446555575592170E-003   1.8803368486982497E-002   4.5229522191376159E-002
  -3.6034726449541143E-003   6.9442033678797088E-003   5.3532169578274003E-002
  -4.1549632674852122E-003   9.5353368472068656E-003   5.1859989805651097E-002
  -4.7064538900162683E-003   1.2762279319514291E-002   5.0042236652330652E-002
  -5.2579445125474078E-003   1.6625030784801084E-002   4.8078910118312446E-002
  -5.8094351350784224E-003   2.1123591243068063E-002   4.5970010203597145E-002
  -5.0538814606311794E-002   1.6689814456435081E-002   4.9551248613474541E-002
  -4.8815981749773307E-002   1.5786791562330038E-002   4.9304214084302633E-002
  -4.7093148893234849E-002   1.4967303187449696E-002   4.9217883707310811E-002
  -4.5370316036696348E-002   1.4231349331794135E-002   4.9292257482498922E-002
  -4.3647483180157889E-002   1.3578929995363143E-002   4.9527335409867146E-002
  -5.6686720991968725E-002   1.7809261572746482E-002   4.4244163274669401E-002
  -5.4788941203481129E-002   1.7075897665790818E-002   4.3988487449237862E-002
  -5.2891161414993462E-002   1.6374259578685380E-002   4.3922001335524485E-002
  -5.0993381626505817E-002   1.5704347311430070E-002   4.4044704933529452E-002
  -4.9095601838018206E-002   1.5066160864025013E-002   4.4356598243252665E-002
  -6.2915141623191922E-002   1.8928708689057938E-002   3.9132641272700927E-002
  -6.0813929343216888E-002   1.8365003769251514E-002   3.8816515451635156E-002
  -5.8712717063241909E-002   1.7781215969920904E-002   3.8718064901825840E-002
  -5.6611504783266875E-002   1.7177345291066008E-002   3.8837289623272944E-002
  -5.4510292503291868E-002   1.6553391732686829E-002   3.9174189615976698E-002
  -6.9224076499981496E-002   2.0048155805369380E-002   3.4216682607568980E-002
  -6.6890946168980864E-002   1.9654109872712336E-002   3.3788298091494515E-002
  -6.4557815837980148E-002   1.9188172361156535E-002   3.3606074406214680E-002
  -6.2224685506979481E-002   1.8650343270701916E-002   3.3670011551729662E-002
  -5.9891555175978842E-002   1.8040622601348671E-002   3.3980109528039440E-002
  -7.5613525622337308E-002   2.1167602921680795E-002   2.9496287279273725E-002
  -7.3019991680772778E-002   2.0943215976172991E-002   2.8903835368815911E-002
  -7.0426457739208248E-002   2.0595128752392111E-002   2.8586029848691186E-002
  -6.7832923797643691E-002   2.0123341250337864E-002   2.8542870718899438E-002
  -6.5239389856079161E-002   1.9527853470010459E-002   2.8774357979440668E-002
  -4.3647483180157889E-002   1.3578929995363143E-002   4.9527335409867146E-002
  -4.2163015112169286E-002   1.2979514379090090E-002   4.9230933757099749E-002
  -4.0678547044180689E-002   1.2402571683907460E-002   4.9122236754588544E-002
  -3.9194078976192079E-002   1.1848101909815584E-002   4.9201244402333449E-002
  -3.7709610908203503E-002   1.1316105056814296E-002   4.9467956700334492E-002
  -4.9095601838018206E-002   1.5066160864025013E-002   4.4356598243252665E-002
  -4.7428541064284929E-002   1.4450519937683426E-002   4.4106431710244143E-002
  -4.5761480290551673E-002   1.3848244233618551E-002   4.4033745938468830E-002
  -4.4094419516818431E-002   1.3259333751830131E-002   4.4138540927926719E-002
  -4.2427358743085140E-002   1.2683788492318548E-002   4.4420816678617830E-002
  -5.4510292503291868E-002   1.6553391732686829E-002   3.9174189615976698E-002
  -5.2670862912836867E-002   1.5921525496276859E-002   3.8961150503913036E-002
  -5.0831433322381860E-002   1.5293916783329531E-002   3.8915368264059669E-002
  -4.8992003731926866E-002   1.4670565593844845E-002   3.9036842896416568E-002
  -4.7152574141471851E-002   1.4051471927822884E-002   3.9325574400983776E-002
  -5.9891555175978842E-002   1.8040622601348671E-002   3.3980109528039440E-002
  -5.7889980657825024E-002   1.7392531054870215E-002   3.3795090138106630E-002
  -5.5888406139671228E-002   1.6739589333040594E-002   3.3767103731361256E-002
  -5.3886831621517438E-002   1.6081797435859531E-002   3.3896150307803130E-002
  -5.1885257103363620E-002   1.5419155363327094E-002   3.4182229867432412E-002
  -6.5239389856079161E-002   1.9527853470010459E-002   2.8774357979440668E-002
  -6.3085894299249490E-002   1.8863536613463627E-002   2.8608250612824793E-002
  -6.0932398742419791E-002   1.8185261882751658E-002   2.8588952340373341E-002
  -5.8778903185590120E-002   1.7493029277874231E-002   2.8716463162086259E-002
  -5.6625407628760449E-002   1.6786838798831472E-002   2.8990783077963600E-002
  -3.7709610908203503E-002   1.1316105056814296E-002   4.9467956700334492E-002
  -3.5989450592150390E-002   1.0789539671736320E-002   4.9126159853389473E-002
  -3.4269290276097285E-002   1.0251364301413851E-002   4.8974289339293653E-002
  -3.2549129960044179E-002   9.7015789458471460E-003   4.9012345158047033E-002
  -3.0828969643991067E-002   9.1401836050363783E-003   4.9240327309649612E-002
  -4.2427358743085140E-002   1.2683788492318548E-002   4.4420816678617830E-002
  -4.0517194576763733E-002   1.2110382579515855E-002   4.4061281528535445E-002
  -3.8607030410442306E-002   1.1527890137854491E-002   4.3891827746140380E-002
  -3.6696866244120871E-002   1.0936311167334373E-002   4.3912455331432808E-002
  -3.4786702077799450E-002   1.0335645667955473E-002   4.4123164284412764E-002
  -4.7152574141471851E-002   1.4051471927822884E-002   3.9325574400983776E-002
  -4.5052251090043884E-002   1.3431225487295570E-002   3.8950824404149431E-002
  -4.2951928038615819E-002   1.2804415974295116E-002   3.8766310809840818E-002
  -4.0851604987187776E-002   1.2171043388821429E-002   3.8772033618057943E-002
  -3.8751281935759795E-002   1.1531107730874596E-002   3.8967992828800799E-002
  -5.1885257103363620E-002   1.5419155363327094E-002   3.4182229867432412E-002
  -4.9594620131990730E-002   1.4752068395075334E-002   3.3794788480231729E-002
  -4.7303983160617860E-002   1.4080941810735749E-002   3.3597738530395091E-002
  -4.5013346189244990E-002   1.3405775610308516E-002   3.3591080017922229E-002
  -4.2722709217872100E-002   1.2726569793793704E-002   3.3774812942813634E-002
  -5.6625407628760449E-002   1.6786838798831472E-002   2.8990783077963600E-002
  -5.4144301702604425E-002   1.6072911302854848E-002   2.8593173756781998E-002
  -5.1663195776448401E-002   1.5357467647176368E-002   2.8386110907802908E-002
  -4.9182089850292376E-002   1.4640507831795543E-002   2.8369594531025957E-002
  -4.6700983924136352E-002   1.3922031856712869E-002   2.8543624626451269E-002
  -3.0828969643991067E-002   9.1401836050363783E-003   4.9240327309649612E-002
  -2.9178089976791527E-002   8.5651001452773934E-003   4.8933913664051087E-002
  -2.7527210309591946E-002   7.9742504328674108E-003   4.8808519554572799E-002
  -2.5876330642392371E-002   7.3676344678057053E-003   4.8864144981214760E-002
  -2.4225450975192825E-002   6.7452522500929257E-003   4.9100789943977041E-002
  -3.4786702077799450E-002   1.0335645667955473E-002   4.4123164284412764E-002
  -3.2961445617742155E-002   9.7229643802839438E-003   4.3787904821210838E-002
  -3.1136189157684943E-002   9.0953380448859089E-003   4.3620379407604076E-002
  -2.9310932697627676E-002   8.4527666617614447E-003   4.3620588043592354E-002
  -2.7485676237570450E-002   7.7952502309103777E-003   4.3788530729176101E-002
  -3.8751281935759795E-002   1.1531107730874596E-002   3.8967992828800799E-002
  -3.6764934169369906E-002   1.0880828615290300E-002   3.8604708752920297E-002
  -3.4778586402980011E-002   1.0216425656904358E-002   3.8395873240110005E-002
  -3.2792238636590143E-002   9.5378988557169638E-003   3.8341486290369639E-002
  -3.0805890870200234E-002   8.8452482117277742E-003   3.8441547903699580E-002
  -4.2722709217872100E-002   1.2726569793793704E-002   3.3774812942813634E-002
  -4.0588555631674635E-002   1.2038692850296642E-002   3.3384325459179555E-002
  -3.8454402045477169E-002   1.1337513268922999E-002   3.3135001052090357E-002
  -3.6320248459279704E-002   1.0623031049672427E-002   3.3026839721546165E-002
  -3.4186094873082246E-002   9.8952461925452539E-003   3.3059841467547285E-002
  -4.6700983924136352E-002   1.3922031856712869E-002   2.8543624626451269E-002
  -4.4432310004656361E-002   1.3196557085303151E-002   2.8126754939988396E-002
  -4.2163636085176370E-002   1.2458600880941487E-002   2.7837762843545416E-002
  -3.9894962165696365E-002   1.1708163243628129E-002   2.7676648337122481E-002
  -3.7626288246216361E-002   1.0945244173362623E-002   2.7643411420719355E-002
  -2.4225450975192825E-002   6.7452522500929257E-003   4.9100789943977041E-002
  -2.2431274036471521E-002   6.1168408572349064E-003   4.8780944204894094E-002
  -2.0637097097750259E-002   5.4921373667382034E-003   4.8635279145417265E-002
  -1.8842920159028970E-002   4.8711417786027472E-003   4.8663794765546109E-002
  -1.7048743220307694E-002   4.2538540928286350E-003   4.8866491065281070E-002
  -2.7485676237570450E-002   7.7952502309103777E-003   4.3788530729176101E-002
  -2.5523337918928773E-002   7.1341702295419362E-003   4.3408439224682238E-002
  -2.3560999600287104E-002   6.4809081348653624E-003   4.3190489800423115E-002
  -2.1598661281645459E-002   5.8354639468803961E-003   4.3134682456399023E-002
  -1.9636322963003758E-002   5.1978376655872349E-003   4.3241017192609699E-002
  -3.0805890870200234E-002   8.8452482117277742E-003   3.8441547903699580E-002
  -2.8687429771009170E-002   8.1514996018488828E-003   3.8005320638125020E-002
  -2.6568968671818093E-002   7.4696789029924104E-003   3.7719196853414211E-002
  -2.4450507572627057E-002   6.7997861151581004E-003   3.7583176549567388E-002
  -2.2332046473435958E-002   6.1418212383460014E-003   3.7597259726584592E-002
  -3.4186094873082246E-002   9.8952461925452539E-003   3.3059841467547285E-002
  -3.1923549592712715E-002   9.1688289741557599E-003   3.2571588445222621E-002
  -2.9661004312343218E-002   8.4584496711194584E-003   3.2221400304390656E-002
  -2.7398459031973701E-002   7.7641082834356105E-003   3.2009277045051868E-002
  -2.5135913751604205E-002   7.0858048111047955E-003   3.1935218667205965E-002
  -3.7626288246216361E-002   1.0945244173362623E-002   2.7643411420719355E-002
  -3.5231697384039445E-002   1.0186158346462804E-002   2.7107242645975027E-002
  -3.2837106521862489E-002   9.4472204392463399E-003   2.6697100153352471E-002
  -3.0442515659685539E-002   8.7284304517132733E-003   2.6412983942852158E-002
  -2.8047924797508589E-002   8.0297883838633677E-003   2.6254894014473451E-002
  -1.7048743220307694E-002   4.2538540928286350E-003   4.8866491065281070E-002
  -1.5109485216509955E-002   3.6958107868894086E-003   4.8755910749129883E-002
  -1.3170227212712188E-002   3.2525483382586928E-003   4.8899890368901522E-002
  -1.1230969208914428E-002   2.9240667469370915E-003   4.9298429924595766E-002
  -9.2917112051166817E-003   2.7103660129237372E-003   4.9951529416212281E-002
  -1.9636322963003758E-002   5.1978376655872349E-003   4.3241017192609699E-002
  -1.7480927002350377E-002   4.5998990149450636E-003   4.3077040235615094E-002
  -1.5325531041696878E-002   4.0735177189126226E-003   4.3090779256409251E-002
  -1.3170135081043460E-002   3.6186937774905781E-003   4.3282234254992252E-002
  -1.1014739120389999E-002   3.2354271906782639E-003   4.3651405231364127E-002
  -2.2332046473435958E-002   6.1418212383460014E-003   3.7597259726584592E-002
  -2.0037356514060585E-002   5.5039872430008296E-003   3.7336662626047762E-002
  -1.7742666554685180E-002   4.8944870995666773E-003   3.7176937545165864E-002
  -1.5447976595309764E-002   4.3133208080442902E-003   3.7118084483939114E-002
  -1.3153286635934347E-002   3.7604883684330126E-003   3.7160103442367531E-002
  -2.5135913751604205E-002   7.0858048111047955E-003   3.1935218667205965E-002
  -2.2778773751640655E-002   6.4080754710562626E-003   3.1534777920428123E-002
  -2.0421633751677021E-002   5.7154564802206695E-003   3.1158365235171532E-002
  -1.8064493751713404E-002   5.0079478385977785E-003   3.0805980611436433E-002
  -1.5707353751749892E-002   4.2855495461877613E-003   3.0477624049222496E-002
  -2.8047924797508589E-002   8.0297883838633677E-003   2.6254894014473451E-002
  -2.5705178715090565E-002   7.3121636991121397E-003   2.5671386118755857E-002
  -2.3362432632672472E-002   6.5364258608746062E-003   2.5035062326426161E-002
  -2.1019686550254400E-002   5.7025748691514749E-003   2.4345922637483808E-002
  -1.8676940467836356E-002   4.8106107239422879E-003   2.3603967051929242E-002
  -9.2917112051166817E-003   2.7103660129237372E-003   4.9951529416212281E-002
  -7.8696515650760468E-003   2.8577481185894094E-003   5.0355821982993709E-002
  -6.4475919250353980E-003   3.6125150463037214E-003   5.1087359532264509E-002
  -5.0255322849947770E-003   4.9746667960676033E-003   5.2146142064024570E-002
  -3.6034726449541143E-003   6.9442033678797088E-003   5.3532169578274003E-002
  -1.1014739120389999E-002   3.2354271906782639E-003   4.3651405231364127E-002
  -9.2471803517581719E-003   3.1631275910931067E-003   4.4237313064922901E-002
  -7.4796215831263238E-003   3.6412046113528107E-003   4.5186974173174910E-002
  -5.7120628144945035E-003   4.6696582514563906E-003   4.6500388556119987E-002
  -3.9445040458626485E-003   6.2484885114046929E-003   4.8177556213758299E-002
  -1.3153286635934347E-002   3.7604883684330126E-003   3.7160103442367531E-002
  -1.1003720446507596E-002   3.4685070635974702E-003   3.7870618340499429E-002
  -8.8541542570808492E-003   3.6698941764014836E-003   3.8981394805527952E-002
  -6.7045880676540742E-003   4.3646497068457399E-003   4.0492432837453476E-002
  -4.5550218782272958E-003   5.5527736549296769E-003   4.2403732436275765E-002
  -1.5707353751749892E-002   4.2855495461877613E-003   3.0477624049222496E-002
  -1.3139271849324381E-002   3.7738865361015006E-003   3.1255737809722670E-002
  -1.0571189946898870E-002   3.6985837414504202E-003   3.2470621429323422E-002
  -8.0031080444733886E-003   4.0596411622348082E-003   3.4122274908024858E-002
  -5.4350261420479055E-003   4.8570587984545499E-003   3.6210698245826747E-002
  -1.8676940467836356E-002   4.8106107239422879E-003   2.3603967051929242E-002
  -1.5653834560208468E-002   4.0792660086054200E-003   2.4392671472593164E-002
  -1.2630728652580497E-002   3.7272733064991348E-003   2.5654654044561520E-002
  -9.6076227449525542E-003   3.7546326176241818E-003   2.7389914767834422E-002
  -6.5845168373246388E-003   4.1613439419794229E-003   2.9598453642411426E-002
  -3.6034726449541143E-003   6.9442033678797088E-003   5.3532169578274003E-002
  -4.1549632674852122E-003   9.5353368472068656E-003   5.1859989805651097E-002
  -4.7064538900162683E-003   1.2762279319514291E-002   5.0042236652330652E-002
  -5.2579445125474078E-003   1.6625030784801084E-002   4.8078910118312446E-002
  -5.8094351350784224E-003   2.1123591243068063E-002   4.5970010203597145E-002
  -3.9445040458626485E-003   6.2484885114046929E-003   4.8177556213758299E-002
  -4.5376979769437553E-003   8.6871918386182689E-003   4.7242349335659961E-002
  -5.1308919080247581E-003   1.2295264680518336E-002   4.6369309221159449E-002
  -5.7240858391058649E-003   1.7072707037104840E-002   4.5558435870256486E-002
  -6.3172797701868677E-003   2.3019518908377723E-002   4.4809729282951238E-002
  -4.5550218782272958E-003   5.5527736549296769E-003   4.2403732436275765E-002
  -4.9821789735632199E-003   7.8390468300298943E-003   4.2739058974408661E-002
  -5.4093360688990920E-003   1.1828250041522853E-002   4.3344292420434388E-002
  -5.8364931642349710E-003   1.7520383289408768E-002   4.4219432774352363E-002
  -6.2636502595708882E-003   2.4915446573687383E-002   4.5364480036164001E-002
  -5.4350261420479055E-003   4.8570587984545499E-003   3.6210698245826747E-002
  -5.4884062573435609E-003   6.9909018214412977E-003   3.8350118721897197E-002
  -5.5417863726391625E-003   1.1361235402527356E-002   4.0967186250155684E-002
  -5.5951664879347780E-003   1.7968059541712721E-002   4.4061900830601824E-002
  -5.6485466032303623E-003   2.6811374238997043E-002   4.7634262463235988E-002
  -6.5845168373246388E-003   4.1613439419794229E-003   2.9598453642411426E-002
  -6.0563798282848857E-003   6.1427568128529231E-003   3.4075528578125569E-002
  -5.5282428192450217E-003   1.0894220763531803E-002   3.9237990710323079E-002
  -5.0001058102052270E-003   1.8415735794016494E-002   4.5085840039003400E-002
  -4.4719688011654046E-003   2.8707301904306703E-002   5.1619076564166644E-002
  -7.5613525622337308E-002   2.1167602921680795E-002   2.9496287279273725E-002
  -7.3019991680772778E-002   2.0943215976172991E-002   2.8903835368815911E-002
  -7.0426457739208248E-002   2.0595128752392111E-002   2.8586029848691186E-002
  -6.7832923797643691E-002   2.0123341250337864E-002   2.8542870718899438E-002
  -6.5239389856079161E-002   1.9527853470010459E-002   2.8774357979440668E-002
  -8.1913293683058885E-002   2.3921872080312101E-002   2.2509325220212595E-002
  -7.9084285839221641E-002   2.3263984618115519E-002   2.2067800336327104E-002
  -7.6255277995384257E-002   2.2590243725787398E-002   2.1822576866654037E-002
  -7.3426270151547027E-002   2.1900649403327619E-002   2.1773654811193269E-002
  -7.0597262307709768E-002   2.1195201650736295E-002   2.1921034169945092E-002
  -8.7953185374945675E-002   2.6676141238943463E-002   1.5034939220391952E-002
  -8.4967048604956061E-002   2.5584753260057991E-002   1.4852188211220224E-002
  -8.1980911834966697E-002   2.4585358699182713E-002   1.4787393640140464E-002
  -7.8994775064977277E-002   2.3677957556317401E-002   1.4840555507152527E-002
  -7.6008638294987774E-002   2.2862549831462159E-002   1.5011673812256557E-002
  -9.3733200697997371E-002   2.9430410397574713E-002   7.0731292798116435E-003
  -9.0668279977976260E-002   2.7905521902000546E-002   7.2569989934953699E-003
  -8.7603359257955177E-002   2.6580473672578070E-002   7.4804801691504344E-003
  -8.4538438537934066E-002   2.5455265709307225E-002   7.7435728067768543E-003
  -8.1473517817913038E-002   2.4529898012187731E-002   8.0462769063746782E-003
  -9.9253339652214168E-002   3.2184679556206075E-002  -1.3761046015283718E-003
  -9.6187979958281988E-002   3.0226290543942991E-002  -7.1776731684736195E-004
  -9.3122620264349809E-002   2.8575588645973288E-002  -9.8163546315754857E-005
  -9.0057260570417741E-002   2.7232573862297015E-002   4.8270671006658827E-004
  -8.6991900876485562E-002   2.6197246192913859E-002   1.0248434522998617E-003
  -6.5239389856079161E-002   1.9527853470010459E-002   2.8774357979440668E-002
  -6.3085894299249490E-002   1.8863536613463627E-002   2.8608250612824793E-002
  -6.0932398742419791E-002   1.8185261882751658E-002   2.8588952340373341E-002
  -5.8778903185590120E-002   1.7493029277874231E-002   2.8716463162086259E-002
  -5.6625407628760449E-002   1.6786838798831472E-002   2.8990783077963600E-002
  -7.0597262307709768E-002   2.1195201650736295E-002   2.1921034169945092E-002
  -6.8286944676398148E-002   2.0475172273468692E-002   2.1697802401306546E-002
  -6.5976627045086486E-002   1.9741833076980672E-002   2.1641405687467336E-002
  -6.3666309413774824E-002   1.8995184061271635E-002   2.1751844028427864E-002
  -6.1355991782463204E-002   1.8235225226342189E-002   2.2029117424187838E-002
  -7.6008638294987774E-002   2.2862549831462159E-002   1.5011673812256557E-002
  -7.3521472628559015E-002   2.2086807933473729E-002   1.4731965696539770E-002
  -7.1034306962130214E-002   2.1298404271209631E-002   1.4639118596257647E-002
  -6.8547141295701441E-002   2.0497338844669262E-002   1.4733132511410341E-002
  -6.6059975629272710E-002   1.9683611653853017E-002   1.5014007441997518E-002
  -8.1473517817913038E-002   2.4529898012187731E-002   8.0462769063746782E-003
  -7.8789478155732035E-002   2.3698443593479029E-002   7.7107404985246771E-003
  -7.6105438493551045E-002   2.2854975465438424E-002   7.5820910667441510E-003
  -7.3421398831370069E-002   2.1999493628066667E-002   7.6603286110337836E-003
  -7.0737359169189079E-002   2.1131998081363679E-002   7.9454531313928427E-003
  -8.6991900876485562E-002   2.6197246192913859E-002   1.0248434522998617E-003
  -8.4090961257917263E-002   2.5310079253483997E-002   6.3412680726099291E-004
  -8.1190021639348908E-002   2.4411546659667688E-002   4.7032309892706958E-004
  -7.8289082020780526E-002   2.3501648411464397E-002   5.3343232729783849E-004
  -7.5388142402212255E-002   2.2580384508874674E-002   8.2345449237375412E-004
  -5.6625407628760449E-002   1.6786838798831472E-002   2.8990783077963600E-002
  -5.4144301702604425E-002   1.6072911302854848E-002   2.8593173756781998E-002
  -5.1663195776448401E-002   1.5357467647176368E-002   2.8386110907802908E-002
  -4.9182089850292376E-002   1.4640507831795543E-002   2.8369594531025957E-002
  -4.6700983924136352E-002   1.3922031856712869E-002   2.8543624626451269E-002
  -6.1355991782463204E-002   1.8235225226342189E-002   2.2029117424187838E-002
  -5.8685224354269511E-002   1.7468235545132826E-002   2.1656089423214314E-002
  -5.6014456926075831E-002   1.6700493990584306E-002   2.1471837954114018E-002
  -5.3343689497882152E-002   1.5932000562696901E-002   2.1476363016886678E-002
  -5.0672922069688459E-002   1.5162755261470429E-002   2.1669664611532358E-002
  -6.6059975629272710E-002   1.9683611653853017E-002   1.5014007441997518E-002
  -6.3201316639370508E-002   1.8863559787410680E-002   1.4666325047595311E-002
  -6.0342657649468431E-002   1.8043520333992473E-002   1.4505649244736747E-002
  -5.7483998659566292E-002   1.7223493293597875E-002   1.4531980033422206E-002
  -5.4625339669664152E-002   1.6403478666227961E-002   1.4745317413651440E-002
  -7.0737359169189079E-002   2.1131998081363679E-002   7.9454531313928427E-003
  -6.7692578557907682E-002   2.0258884029688486E-002   7.6238806299246849E-003
  -6.4647797946626229E-002   1.9386546677400304E-002   7.4875447796709568E-003
  -6.1603017335344776E-002   1.8514986024499427E-002   7.5364455806322490E-003
  -5.8558236724063364E-002   1.7644202070985285E-002   7.7705830328082363E-003
  -7.5388142402212255E-002   2.2580384508874674E-002   8.2345449237375412E-004
  -7.2159010109880684E-002   2.1654208271966346E-002   5.2875617020281540E-004
  -6.8929877817549223E-002   2.0729573020808606E-002   4.1752455891719276E-004
  -6.5700745525217652E-002   1.9806478755400099E-002   4.8975965851721925E-004
  -6.2471613232886192E-002   1.8884925475743053E-002   7.4546146900233978E-004
  -4.6700983924136352E-002   1.3922031856712869E-002   2.8543624626451269E-002
  -4.4432310004656361E-002   1.3196557085303151E-002   2.8126754939988396E-002
  -4.2163636085176370E-002   1.2458600880941487E-002   2.7837762843545416E-002
  -3.9894962165696365E-002   1.1708163243628129E-002   2.7676648337122481E-002
  -3.7626288246216361E-002   1.0945244173362623E-002   2.7643411420719355E-002
  -5.0672922069688459E-002   1.5162755261470429E-002   2.1669664611532358E-002
  -4.8268859323198673E-002   1.4391828080033253E-002   2.1272280047618497E-002
  -4.5864796576708930E-002   1.3618289011513907E-002   2.1017795547704304E-002
  -4.3460733830219117E-002   1.2842138055912403E-002   2.0906211111789530E-002
  -4.1056671083729401E-002   1.2063375213228700E-002   2.0937526739874424E-002
  -5.4625339669664152E-002   1.6403478666227961E-002   1.4745317413651440E-002
  -5.2070865622185075E-002   1.5587099074763494E-002   1.4377287518156256E-002
  -4.9516391574705942E-002   1.4777977142086486E-002   1.4167180160640482E-002
  -4.6961917527226865E-002   1.3976112868197063E-002   1.4114995341103737E-002
  -4.4407443479747725E-002   1.3181506253094999E-002   1.4220733059545965E-002
  -5.8558236724063364E-002   1.7644202070985285E-002   7.7705830328082363E-003
  -5.5838328901615400E-002   1.6782370069493777E-002   7.4417773516015848E-003
  -5.3118421079167449E-002   1.5937665272658708E-002   7.2859166823538660E-003
  -5.0398513256719464E-002   1.5110087680481530E-002   7.3030010250648399E-003
  -4.7678605434271534E-002   1.4299637292961243E-002   7.4930303797343251E-003
  -6.2471613232886192E-002   1.8884925475743053E-002   7.4546146900233978E-004
  -5.9571249161489925E-002   1.7977641064223837E-002   4.6574954795414181E-004
  -5.6670885090093492E-002   1.7097353403231375E-002   3.7400511284430005E-004
  -5.3770521018697115E-002   1.6244062492765970E-002   4.7022816367232878E-004
  -5.0870156947300793E-002   1.5417768332827375E-002   7.5441870043890802E-004
  -3.7626288246216361E-002   1.0945244173362623E-002   2.7643411420719355E-002
  -3.5231697384039445E-002   1.0186158346462804E-002   2.7107242645975027E-002
  -3.2837106521862489E-002   9.4472204392463399E-003   2.6697100153352471E-002
  -3.0442515659685539E-002   8.7284304517132733E-003   2.6412983942852158E-002
  -2.8047924797508589E-002   8.0297883838633677E-003   2.6254894014473451E-002
  -4.1056671083729401E-002   1.2063375213228700E-002   2.0937526739874424E-002
  -3.8545349862033618E-002   1.1287725547301231E-002   2.0486165564160441E-002
  -3.6034028640337792E-002   1.0520914121968886E-002   2.0142238825362285E-002
  -3.3522707418641974E-002   9.7629409372311828E-003   1.9905746523479678E-002
  -3.1011386196946183E-002   9.0138059930880976E-003   1.9776688658512787E-002
  -4.4407443479747725E-002   1.3181506253094999E-002   1.4220733059545965E-002
  -4.1797983743739379E-002   1.2389292748139796E-002   1.3842869803774097E-002
  -3.9188524007730985E-002   1.1594607804690987E-002   1.3553849139711582E-002
  -3.6579064271722639E-002   1.0797451422749037E-002   1.3353671067358568E-002
  -3.3969604535714230E-002   9.9978236023131606E-003   1.3242335586714893E-002
  -4.7678605434271534E-002   1.4299637292961243E-002   7.4930303797343251E-003
  -4.4989599029156835E-002   1.3490859948978459E-002   7.1773553648159273E-003
  -4.2300592624042163E-002   1.2668301487413533E-002   6.9319310964008549E-003
  -3.9611586218927471E-002   1.1831961908267141E-002   6.7567575744887087E-003
  -3.6922579813812792E-002   1.0981841211538057E-002   6.6518347990801238E-003
  -5.0870156947300793E-002   1.5417768332827375E-002   7.5441870043890802E-004
  -4.8120195718286074E-002   1.4592427149816567E-002   4.8962224728538173E-004
  -4.5370234489271299E-002   1.3741995170135746E-002   2.7648469542923548E-004
  -4.2620273260256525E-002   1.2866472393784828E-002   1.1500604486984478E-004
  -3.9870312031241806E-002   1.1965858820762953E-002   5.1862956076398348E-006
  -2.8047924797508589E-002   8.0297883838633677E-003   2.6254894014473451E-002
  -2.5705178715090565E-002   7.3121636991121397E-003   2.5671386118755857E-002
  -2.3362432632672472E-002   6.5364258608746062E-003   2.5035062326426161E-002
  -2.1019686550254400E-002   5.7025748691514749E-003   2.4345922637483808E-002
  -1.8676940467836356E-002   4.8106107239422879E-003   2.3603967051929242E-002
  -3.1011386196946183E-002   9.0138059930880976E-003   1.9776688658512787E-002
  -2.8703829932724967E-002   8.2674672217736833E-003   1.9185370377668487E-002
  -2.6396273668503792E-002   7.5178825555214934E-003   1.8576488357043008E-002
  -2.4088717404282624E-002   6.7650519943310145E-003   1.7950042596635948E-002
  -2.1781161140061400E-002   6.0089755382027876E-003   1.7306033096447682E-002
  -3.3969604535714230E-002   9.9978236023131606E-003   1.3242335586714893E-002
  -3.1661985932858801E-002   9.2227707444355045E-003   1.2698074179291807E-002
  -2.9354367330003368E-002   8.4993392501681864E-003   1.2171501188918549E-002
  -2.7046748727147935E-002   7.8275291195103389E-003   1.1662616615594992E-002
  -2.4739130124292560E-002   7.2073403524631763E-003   1.1171420459321096E-002
  -3.6922579813812792E-002   1.0981841211538057E-002   6.6518347990801238E-003
  -3.4579646715492032E-002   1.0178074267097020E-002   6.2094975236259634E-003
  -3.2236713617171252E-002   9.4807959448143103E-003   5.8201008220529690E-003
  -2.9893780518850534E-002   8.8900062446897153E-003   5.4836446943607696E-003
  -2.7550847420529712E-002   8.4057051667239535E-003   5.2001291405498196E-003
  -3.9870312031241806E-002   1.1965858820762953E-002   5.1862956076398348E-006
  -3.7456812280624585E-002   1.1133377789758647E-002  -2.8035958932887128E-004
  -3.5043312530007364E-002   1.0462252639461544E-002  -4.7771274355340454E-004
  -3.2629812779390116E-002   9.9524833698695914E-003  -5.8687316706591830E-004
  -3.0216313028772923E-002   9.6040699809840646E-003  -6.0784085986709258E-004
  -1.8676940467836356E-002   4.8106107239422879E-003   2.3603967051929242E-002
  -1.5653834560208468E-002   4.0792660086054200E-003   2.4392671472593164E-002
  -1.2630728652580497E-002   3.7272733064991348E-003   2.5654654044561520E-002
  -9.6076227449525542E-003   3.7546326176241818E-003   2.7389914767834422E-002
  -6.5845168373246388E-003   4.1613439419794229E-003   2.9598453642411426E-002
  -2.1781161140061400E-002   6.0089755382027876E-003   1.7306033096447682E-002
  -1.8553964797596273E-002   5.3427977699859186E-003   1.8252999130634495E-002
  -1.5326768455131076E-002   4.8596632725302069E-003   1.9134867883191520E-002
  -1.2099572112665921E-002   4.5595720458356317E-003   1.9951639354118728E-002
  -8.8723757702006412E-003   4.4425240899022000E-003   2.0703313543416035E-002
  -2.4739130124292560E-002   7.2073403524631763E-003   1.1171420459321096E-002
  -2.1846218779924279E-002   6.6063295313668058E-003   1.2080339364561155E-002
  -1.8953307435555990E-002   5.9920532385610570E-003   1.2385785555237089E-002
  -1.6060396091187652E-002   5.3645114740474148E-003   1.2087759031349177E-002
  -1.3167484746819419E-002   4.7237042378253102E-003   1.1186259792897280E-002
  -2.7550847420529712E-002   8.4057051667239535E-003   5.2001291405498196E-003
  -2.5530596507192489E-002   7.8698612927469436E-003   5.8746921743732666E-003
  -2.3510345593855182E-002   7.1244432045924622E-003   5.4074070606984770E-003
  -2.1490094680517959E-002   6.1694509022591423E-003   3.7982737995255304E-003
  -1.9469843767180656E-002   5.0048843857483649E-003   1.0472923908546455E-003
  -3.0216313028772923E-002   9.6040699809840646E-003  -6.0784085986709258E-004
  -2.9607097979400865E-002   9.1333930541277475E-003  -3.6394243992970976E-004
  -2.8997882930028751E-002   8.2568331706234233E-003  -1.8002676004247320E-003
  -2.8388667880656721E-002   6.9743903304706478E-003  -4.9168163413523813E-003
  -2.7779452831284579E-002   5.2860645336711976E-003  -9.7135886627117696E-003
  -6.5845168373246388E-003   4.1613439419794229E-003   2.9598453642411426E-002
  -6.0563798282848857E-003   6.1427568128529231E-003   3.4075528578125569E-002
  -5.5282428192450217E-003   1.0894220763531803E-002   3.9237990710323079E-002
  -5.0001058102052270E-003   1.8415735794016494E-002   4.5085840039003400E-002
  -4.4719688011654046E-003   2.8707301904306703E-002   5.1619076564166644E-002
  -8.8723757702006412E-003   4.4425240899022000E-003   2.0703313543416035E-002
  -7.5865723628241039E-003   5.6588998382613442E-003   2.5872345246056749E-002
  -6.3007689554474972E-003   9.3590797244453849E-003   3.1871322548888081E-002
  -5.0149655480709876E-003   1.5543063748453601E-002   3.8700245451909587E-002
  -3.7291621406944642E-003   2.4210851910286380E-002   4.6359113955122266E-002
  -1.3167484746819419E-002   4.7237042378253102E-003   1.1186259792897280E-002
  -1.0979456537398388E-002   5.1750428636703205E-003   1.6761001320482888E-002
  -8.7914283279774269E-003   7.8239386853591053E-003   2.3310246851967087E-002
  -6.6034001185564968E-003   1.2670391702890992E-002   3.0833996387349183E-002
  -4.4153719091354349E-003   1.9714401916266056E-002   3.9332249926629981E-002
  -1.9469843767180656E-002   5.0048843857483649E-003   1.0472923908546455E-003
  -1.6235032352007718E-002   4.6911858890791303E-003   6.7414968014045951E-003
  -1.3000220936834806E-002   6.2887976462719791E-003   1.3554763619559949E-002
  -9.7654095216618414E-003   9.7977196573276852E-003   2.1487092845321371E-002
  -6.5305981064889551E-003   1.5217951922245510E-002   3.0538484478688871E-002
  -2.7779452831284579E-002   5.2860645336711976E-003  -9.7135886627117696E-003
  -2.3353299806652017E-002   4.2073289144883841E-003  -4.1861683111789061E-003
  -1.8927146782019511E-002   4.7536566071866293E-003   2.6048728516675501E-003
  -1.4500993757387032E-002   6.9250476117649895E-003   1.0659534825827127E-002
  -1.0074840732754442E-002   1.0721501928225408E-002   1.9977817611300352E-002
 </DataArray>
 </PointData>
 </Piece>
 </UnstructuredGrid>
 </VTKFile>
