 <VTKFile type="UnstructuredGrid"  version="0.1"   >
 <UnstructuredGrid>
 <Piece  NumberOfPoints="          1600 "  NumberOfCells="         1024 ">
 <Points>
 <DataArray  type="Float64" NumberOfComponents="3"  format="ascii" >
   0.0000000000000000        0.0000000000000000        0.0000000000000000     
   3.1250000000000000E-002   0.0000000000000000        0.0000000000000000     
   6.2500000000000000E-002   0.0000000000000000        0.0000000000000000     
   9.3750000000000000E-002   0.0000000000000000        0.0000000000000000     
  0.12500000000000000        0.0000000000000000        0.0000000000000000     
   0.0000000000000000        3.1250000000000000E-002   0.0000000000000000     
   3.1250000000000000E-002   3.1250000000000000E-002   0.0000000000000000     
   6.2500000000000000E-002   3.1250000000000000E-002   0.0000000000000000     
   9.3750000000000000E-002   3.1250000000000000E-002   0.0000000000000000     
  0.12500000000000000        3.1250000000000000E-002   0.0000000000000000     
   0.0000000000000000        6.2500000000000000E-002   0.0000000000000000     
   3.1250000000000000E-002   6.2500000000000000E-002   0.0000000000000000     
   6.2500000000000000E-002   6.2500000000000000E-002   0.0000000000000000     
   9.3750000000000000E-002   6.2500000000000000E-002   0.0000000000000000     
  0.12500000000000000        6.2500000000000000E-002   0.0000000000000000     
   0.0000000000000000        9.3750000000000000E-002   0.0000000000000000     
   3.1250000000000000E-002   9.3750000000000000E-002   0.0000000000000000     
   6.2500000000000000E-002   9.3750000000000000E-002   0.0000000000000000     
   9.3750000000000000E-002   9.3750000000000000E-002   0.0000000000000000     
  0.12500000000000000        9.3750000000000000E-002   0.0000000000000000     
   0.0000000000000000       0.12500000000000000        0.0000000000000000     
   3.1250000000000000E-002  0.12500000000000000        0.0000000000000000     
   6.2500000000000000E-002  0.12500000000000000        0.0000000000000000     
   9.3750000000000000E-002  0.12500000000000000        0.0000000000000000     
  0.12500000000000000       0.12500000000000000        0.0000000000000000     
  0.12500000000000000        0.0000000000000000        0.0000000000000000     
  0.15625000000000000        0.0000000000000000        0.0000000000000000     
  0.18750000000000000        0.0000000000000000        0.0000000000000000     
  0.21875000000000000        0.0000000000000000        0.0000000000000000     
  0.25000000000000000        0.0000000000000000        0.0000000000000000     
  0.12500000000000000        3.1250000000000000E-002   0.0000000000000000     
  0.15625000000000000        3.1250000000000000E-002   0.0000000000000000     
  0.18750000000000000        3.1250000000000000E-002   0.0000000000000000     
  0.21875000000000000        3.1250000000000000E-002   0.0000000000000000     
  0.25000000000000000        3.1250000000000000E-002   0.0000000000000000     
  0.12500000000000000        6.2500000000000000E-002   0.0000000000000000     
  0.15625000000000000        6.2500000000000000E-002   0.0000000000000000     
  0.18750000000000000        6.2500000000000000E-002   0.0000000000000000     
  0.21875000000000000        6.2500000000000000E-002   0.0000000000000000     
  0.25000000000000000        6.2500000000000000E-002   0.0000000000000000     
  0.12500000000000000        9.3750000000000000E-002   0.0000000000000000     
  0.15625000000000000        9.3750000000000000E-002   0.0000000000000000     
  0.18750000000000000        9.3750000000000000E-002   0.0000000000000000     
  0.21875000000000000        9.3750000000000000E-002   0.0000000000000000     
  0.25000000000000000        9.3750000000000000E-002   0.0000000000000000     
  0.12500000000000000       0.12500000000000000        0.0000000000000000     
  0.15625000000000000       0.12500000000000000        0.0000000000000000     
  0.18750000000000000       0.12500000000000000        0.0000000000000000     
  0.21875000000000000       0.12500000000000000        0.0000000000000000     
  0.25000000000000000       0.12500000000000000        0.0000000000000000     
  0.25000000000000000        0.0000000000000000        0.0000000000000000     
  0.28125000000000000        0.0000000000000000        0.0000000000000000     
  0.31250000000000000        0.0000000000000000        0.0000000000000000     
  0.34375000000000000        0.0000000000000000        0.0000000000000000     
  0.37500000000000000        0.0000000000000000        0.0000000000000000     
  0.25000000000000000        3.1250000000000000E-002   0.0000000000000000     
  0.28125000000000000        3.1250000000000000E-002   0.0000000000000000     
  0.31250000000000000        3.1250000000000000E-002   0.0000000000000000     
  0.34375000000000000        3.1250000000000000E-002   0.0000000000000000     
  0.37500000000000000        3.1250000000000000E-002   0.0000000000000000     
  0.25000000000000000        6.2500000000000000E-002   0.0000000000000000     
  0.28125000000000000        6.2500000000000000E-002   0.0000000000000000     
  0.31250000000000000        6.2500000000000000E-002   0.0000000000000000     
  0.34375000000000000        6.2500000000000000E-002   0.0000000000000000     
  0.37500000000000000        6.2500000000000000E-002   0.0000000000000000     
  0.25000000000000000        9.3750000000000000E-002   0.0000000000000000     
  0.28125000000000000        9.3750000000000000E-002   0.0000000000000000     
  0.31250000000000000        9.3750000000000000E-002   0.0000000000000000     
  0.34375000000000000        9.3750000000000000E-002   0.0000000000000000     
  0.37500000000000000        9.3750000000000000E-002   0.0000000000000000     
  0.25000000000000000       0.12500000000000000        0.0000000000000000     
  0.28125000000000000       0.12500000000000000        0.0000000000000000     
  0.31250000000000000       0.12500000000000000        0.0000000000000000     
  0.34375000000000000       0.12500000000000000        0.0000000000000000     
  0.37500000000000000       0.12500000000000000        0.0000000000000000     
  0.37500000000000000        0.0000000000000000        0.0000000000000000     
  0.40625000000000000        0.0000000000000000        0.0000000000000000     
  0.43750000000000000        0.0000000000000000        0.0000000000000000     
  0.46875000000000000        0.0000000000000000        0.0000000000000000     
  0.50000000000000000        0.0000000000000000        0.0000000000000000     
  0.37500000000000000        3.1250000000000000E-002   0.0000000000000000     
  0.40625000000000000        3.1250000000000000E-002   0.0000000000000000     
  0.43750000000000000        3.1250000000000000E-002   0.0000000000000000     
  0.46875000000000000        3.1250000000000000E-002   0.0000000000000000     
  0.50000000000000000        3.1250000000000000E-002   0.0000000000000000     
  0.37500000000000000        6.2500000000000000E-002   0.0000000000000000     
  0.40625000000000000        6.2500000000000000E-002   0.0000000000000000     
  0.43750000000000000        6.2500000000000000E-002   0.0000000000000000     
  0.46875000000000000        6.2500000000000000E-002   0.0000000000000000     
  0.50000000000000000        6.2500000000000000E-002   0.0000000000000000     
  0.37500000000000000        9.3750000000000000E-002   0.0000000000000000     
  0.40625000000000000        9.3750000000000000E-002   0.0000000000000000     
  0.43750000000000000        9.3750000000000000E-002   0.0000000000000000     
  0.46875000000000000        9.3750000000000000E-002   0.0000000000000000     
  0.50000000000000000        9.3750000000000000E-002   0.0000000000000000     
  0.37500000000000000       0.12500000000000000        0.0000000000000000     
  0.40625000000000000       0.12500000000000000        0.0000000000000000     
  0.43750000000000000       0.12500000000000000        0.0000000000000000     
  0.46875000000000000       0.12500000000000000        0.0000000000000000     
  0.50000000000000000       0.12500000000000000        0.0000000000000000     
  0.50000000000000000        0.0000000000000000        0.0000000000000000     
  0.53125000000000000        0.0000000000000000        0.0000000000000000     
  0.56250000000000000        0.0000000000000000        0.0000000000000000     
  0.59375000000000000        0.0000000000000000        0.0000000000000000     
  0.62500000000000000        0.0000000000000000        0.0000000000000000     
  0.50000000000000000        3.1250000000000000E-002   0.0000000000000000     
  0.53125000000000000        3.1250000000000000E-002   0.0000000000000000     
  0.56250000000000000        3.1250000000000000E-002   0.0000000000000000     
  0.59375000000000000        3.1250000000000000E-002   0.0000000000000000     
  0.62500000000000000        3.1250000000000000E-002   0.0000000000000000     
  0.50000000000000000        6.2500000000000000E-002   0.0000000000000000     
  0.53125000000000000        6.2500000000000000E-002   0.0000000000000000     
  0.56250000000000000        6.2500000000000000E-002   0.0000000000000000     
  0.59375000000000000        6.2500000000000000E-002   0.0000000000000000     
  0.62500000000000000        6.2500000000000000E-002   0.0000000000000000     
  0.50000000000000000        9.3750000000000000E-002   0.0000000000000000     
  0.53125000000000000        9.3750000000000000E-002   0.0000000000000000     
  0.56250000000000000        9.3750000000000000E-002   0.0000000000000000     
  0.59375000000000000        9.3750000000000000E-002   0.0000000000000000     
  0.62500000000000000        9.3750000000000000E-002   0.0000000000000000     
  0.50000000000000000       0.12500000000000000        0.0000000000000000     
  0.53125000000000000       0.12500000000000000        0.0000000000000000     
  0.56250000000000000       0.12500000000000000        0.0000000000000000     
  0.59375000000000000       0.12500000000000000        0.0000000000000000     
  0.62500000000000000       0.12500000000000000        0.0000000000000000     
  0.62500000000000000        0.0000000000000000        0.0000000000000000     
  0.65625000000000000        0.0000000000000000        0.0000000000000000     
  0.68750000000000000        0.0000000000000000        0.0000000000000000     
  0.71875000000000000        0.0000000000000000        0.0000000000000000     
  0.75000000000000000        0.0000000000000000        0.0000000000000000     
  0.62500000000000000        3.1250000000000000E-002   0.0000000000000000     
  0.65625000000000000        3.1250000000000000E-002   0.0000000000000000     
  0.68750000000000000        3.1250000000000000E-002   0.0000000000000000     
  0.71875000000000000        3.1250000000000000E-002   0.0000000000000000     
  0.75000000000000000        3.1250000000000000E-002   0.0000000000000000     
  0.62500000000000000        6.2500000000000000E-002   0.0000000000000000     
  0.65625000000000000        6.2500000000000000E-002   0.0000000000000000     
  0.68750000000000000        6.2500000000000000E-002   0.0000000000000000     
  0.71875000000000000        6.2500000000000000E-002   0.0000000000000000     
  0.75000000000000000        6.2500000000000000E-002   0.0000000000000000     
  0.62500000000000000        9.3750000000000000E-002   0.0000000000000000     
  0.65625000000000000        9.3750000000000000E-002   0.0000000000000000     
  0.68750000000000000        9.3750000000000000E-002   0.0000000000000000     
  0.71875000000000000        9.3750000000000000E-002   0.0000000000000000     
  0.75000000000000000        9.3750000000000000E-002   0.0000000000000000     
  0.62500000000000000       0.12500000000000000        0.0000000000000000     
  0.65625000000000000       0.12500000000000000        0.0000000000000000     
  0.68750000000000000       0.12500000000000000        0.0000000000000000     
  0.71875000000000000       0.12500000000000000        0.0000000000000000     
  0.75000000000000000       0.12500000000000000        0.0000000000000000     
  0.75000000000000000        0.0000000000000000        0.0000000000000000     
  0.78125000000000000        0.0000000000000000        0.0000000000000000     
  0.81250000000000000        0.0000000000000000        0.0000000000000000     
  0.84375000000000000        0.0000000000000000        0.0000000000000000     
  0.87500000000000000        0.0000000000000000        0.0000000000000000     
  0.75000000000000000        3.1250000000000000E-002   0.0000000000000000     
  0.78125000000000000        3.1250000000000000E-002   0.0000000000000000     
  0.81250000000000000        3.1250000000000000E-002   0.0000000000000000     
  0.84375000000000000        3.1250000000000000E-002   0.0000000000000000     
  0.87500000000000000        3.1250000000000000E-002   0.0000000000000000     
  0.75000000000000000        6.2500000000000000E-002   0.0000000000000000     
  0.78125000000000000        6.2500000000000000E-002   0.0000000000000000     
  0.81250000000000000        6.2500000000000000E-002   0.0000000000000000     
  0.84375000000000000        6.2500000000000000E-002   0.0000000000000000     
  0.87500000000000000        6.2500000000000000E-002   0.0000000000000000     
  0.75000000000000000        9.3750000000000000E-002   0.0000000000000000     
  0.78125000000000000        9.3750000000000000E-002   0.0000000000000000     
  0.81250000000000000        9.3750000000000000E-002   0.0000000000000000     
  0.84375000000000000        9.3750000000000000E-002   0.0000000000000000     
  0.87500000000000000        9.3750000000000000E-002   0.0000000000000000     
  0.75000000000000000       0.12500000000000000        0.0000000000000000     
  0.78125000000000000       0.12500000000000000        0.0000000000000000     
  0.81250000000000000       0.12500000000000000        0.0000000000000000     
  0.84375000000000000       0.12500000000000000        0.0000000000000000     
  0.87500000000000000       0.12500000000000000        0.0000000000000000     
  0.87500000000000000        0.0000000000000000        0.0000000000000000     
  0.90625000000000000        0.0000000000000000        0.0000000000000000     
  0.93750000000000000        0.0000000000000000        0.0000000000000000     
  0.96875000000000000        0.0000000000000000        0.0000000000000000     
   1.0000000000000000        0.0000000000000000        0.0000000000000000     
  0.87500000000000000        3.1250000000000000E-002   0.0000000000000000     
  0.90625000000000000        3.1250000000000000E-002   0.0000000000000000     
  0.93750000000000000        3.1250000000000000E-002   0.0000000000000000     
  0.96875000000000000        3.1250000000000000E-002   0.0000000000000000     
   1.0000000000000000        3.1250000000000000E-002   0.0000000000000000     
  0.87500000000000000        6.2500000000000000E-002   0.0000000000000000     
  0.90625000000000000        6.2500000000000000E-002   0.0000000000000000     
  0.93750000000000000        6.2500000000000000E-002   0.0000000000000000     
  0.96875000000000000        6.2500000000000000E-002   0.0000000000000000     
   1.0000000000000000        6.2500000000000000E-002   0.0000000000000000     
  0.87500000000000000        9.3750000000000000E-002   0.0000000000000000     
  0.90625000000000000        9.3750000000000000E-002   0.0000000000000000     
  0.93750000000000000        9.3750000000000000E-002   0.0000000000000000     
  0.96875000000000000        9.3750000000000000E-002   0.0000000000000000     
   1.0000000000000000        9.3750000000000000E-002   0.0000000000000000     
  0.87500000000000000       0.12500000000000000        0.0000000000000000     
  0.90625000000000000       0.12500000000000000        0.0000000000000000     
  0.93750000000000000       0.12500000000000000        0.0000000000000000     
  0.96875000000000000       0.12500000000000000        0.0000000000000000     
   1.0000000000000000       0.12500000000000000        0.0000000000000000     
   0.0000000000000000       0.12500000000000000        0.0000000000000000     
   3.1250000000000000E-002  0.12500000000000000        0.0000000000000000     
   6.2500000000000000E-002  0.12500000000000000        0.0000000000000000     
   9.3750000000000000E-002  0.12500000000000000        0.0000000000000000     
  0.12500000000000000       0.12500000000000000        0.0000000000000000     
   0.0000000000000000       0.15625000000000000        0.0000000000000000     
   3.1250000000000000E-002  0.15625000000000000        0.0000000000000000     
   6.2500000000000000E-002  0.15625000000000000        0.0000000000000000     
   9.3750000000000000E-002  0.15625000000000000        0.0000000000000000     
  0.12500000000000000       0.15625000000000000        0.0000000000000000     
   0.0000000000000000       0.18750000000000000        0.0000000000000000     
   3.1250000000000000E-002  0.18750000000000000        0.0000000000000000     
   6.2500000000000000E-002  0.18750000000000000        0.0000000000000000     
   9.3750000000000000E-002  0.18750000000000000        0.0000000000000000     
  0.12500000000000000       0.18750000000000000        0.0000000000000000     
   0.0000000000000000       0.21875000000000000        0.0000000000000000     
   3.1250000000000000E-002  0.21875000000000000        0.0000000000000000     
   6.2500000000000000E-002  0.21875000000000000        0.0000000000000000     
   9.3750000000000000E-002  0.21875000000000000        0.0000000000000000     
  0.12500000000000000       0.21875000000000000        0.0000000000000000     
   0.0000000000000000       0.25000000000000000        0.0000000000000000     
   3.1250000000000000E-002  0.25000000000000000        0.0000000000000000     
   6.2500000000000000E-002  0.25000000000000000        0.0000000000000000     
   9.3750000000000000E-002  0.25000000000000000        0.0000000000000000     
  0.12500000000000000       0.25000000000000000        0.0000000000000000     
  0.12500000000000000       0.12500000000000000        0.0000000000000000     
  0.15625000000000000       0.12500000000000000        0.0000000000000000     
  0.18750000000000000       0.12500000000000000        0.0000000000000000     
  0.21875000000000000       0.12500000000000000        0.0000000000000000     
  0.25000000000000000       0.12500000000000000        0.0000000000000000     
  0.12500000000000000       0.15625000000000000        0.0000000000000000     
  0.15625000000000000       0.15625000000000000        0.0000000000000000     
  0.18750000000000000       0.15625000000000000        0.0000000000000000     
  0.21875000000000000       0.15625000000000000        0.0000000000000000     
  0.25000000000000000       0.15625000000000000        0.0000000000000000     
  0.12500000000000000       0.18750000000000000        0.0000000000000000     
  0.15625000000000000       0.18750000000000000        0.0000000000000000     
  0.18750000000000000       0.18750000000000000        0.0000000000000000     
  0.21875000000000000       0.18750000000000000        0.0000000000000000     
  0.25000000000000000       0.18750000000000000        0.0000000000000000     
  0.12500000000000000       0.21875000000000000        0.0000000000000000     
  0.15625000000000000       0.21875000000000000        0.0000000000000000     
  0.18750000000000000       0.21875000000000000        0.0000000000000000     
  0.21875000000000000       0.21875000000000000        0.0000000000000000     
  0.25000000000000000       0.21875000000000000        0.0000000000000000     
  0.12500000000000000       0.25000000000000000        0.0000000000000000     
  0.15625000000000000       0.25000000000000000        0.0000000000000000     
  0.18750000000000000       0.25000000000000000        0.0000000000000000     
  0.21875000000000000       0.25000000000000000        0.0000000000000000     
  0.25000000000000000       0.25000000000000000        0.0000000000000000     
  0.25000000000000000       0.12500000000000000        0.0000000000000000     
  0.28125000000000000       0.12500000000000000        0.0000000000000000     
  0.31250000000000000       0.12500000000000000        0.0000000000000000     
  0.34375000000000000       0.12500000000000000        0.0000000000000000     
  0.37500000000000000       0.12500000000000000        0.0000000000000000     
  0.25000000000000000       0.15625000000000000        0.0000000000000000     
  0.28125000000000000       0.15625000000000000        0.0000000000000000     
  0.31250000000000000       0.15625000000000000        0.0000000000000000     
  0.34375000000000000       0.15625000000000000        0.0000000000000000     
  0.37500000000000000       0.15625000000000000        0.0000000000000000     
  0.25000000000000000       0.18750000000000000        0.0000000000000000     
  0.28125000000000000       0.18750000000000000        0.0000000000000000     
  0.31250000000000000       0.18750000000000000        0.0000000000000000     
  0.34375000000000000       0.18750000000000000        0.0000000000000000     
  0.37500000000000000       0.18750000000000000        0.0000000000000000     
  0.25000000000000000       0.21875000000000000        0.0000000000000000     
  0.28125000000000000       0.21875000000000000        0.0000000000000000     
  0.31250000000000000       0.21875000000000000        0.0000000000000000     
  0.34375000000000000       0.21875000000000000        0.0000000000000000     
  0.37500000000000000       0.21875000000000000        0.0000000000000000     
  0.25000000000000000       0.25000000000000000        0.0000000000000000     
  0.28125000000000000       0.25000000000000000        0.0000000000000000     
  0.31250000000000000       0.25000000000000000        0.0000000000000000     
  0.34375000000000000       0.25000000000000000        0.0000000000000000     
  0.37500000000000000       0.25000000000000000        0.0000000000000000     
  0.37500000000000000       0.12500000000000000        0.0000000000000000     
  0.40625000000000000       0.12500000000000000        0.0000000000000000     
  0.43750000000000000       0.12500000000000000        0.0000000000000000     
  0.46875000000000000       0.12500000000000000        0.0000000000000000     
  0.50000000000000000       0.12500000000000000        0.0000000000000000     
  0.37500000000000000       0.15625000000000000        0.0000000000000000     
  0.40625000000000000       0.15625000000000000        0.0000000000000000     
  0.43750000000000000       0.15625000000000000        0.0000000000000000     
  0.46875000000000000       0.15625000000000000        0.0000000000000000     
  0.50000000000000000       0.15625000000000000        0.0000000000000000     
  0.37500000000000000       0.18750000000000000        0.0000000000000000     
  0.40625000000000000       0.18750000000000000        0.0000000000000000     
  0.43750000000000000       0.18750000000000000        0.0000000000000000     
  0.46875000000000000       0.18750000000000000        0.0000000000000000     
  0.50000000000000000       0.18750000000000000        0.0000000000000000     
  0.37500000000000000       0.21875000000000000        0.0000000000000000     
  0.40625000000000000       0.21875000000000000        0.0000000000000000     
  0.43750000000000000       0.21875000000000000        0.0000000000000000     
  0.46875000000000000       0.21875000000000000        0.0000000000000000     
  0.50000000000000000       0.21875000000000000        0.0000000000000000     
  0.37500000000000000       0.25000000000000000        0.0000000000000000     
  0.40625000000000000       0.25000000000000000        0.0000000000000000     
  0.43750000000000000       0.25000000000000000        0.0000000000000000     
  0.46875000000000000       0.25000000000000000        0.0000000000000000     
  0.50000000000000000       0.25000000000000000        0.0000000000000000     
  0.50000000000000000       0.12500000000000000        0.0000000000000000     
  0.53125000000000000       0.12500000000000000        0.0000000000000000     
  0.56250000000000000       0.12500000000000000        0.0000000000000000     
  0.59375000000000000       0.12500000000000000        0.0000000000000000     
  0.62500000000000000       0.12500000000000000        0.0000000000000000     
  0.50000000000000000       0.15625000000000000        0.0000000000000000     
  0.53125000000000000       0.15625000000000000        0.0000000000000000     
  0.56250000000000000       0.15625000000000000        0.0000000000000000     
  0.59375000000000000       0.15625000000000000        0.0000000000000000     
  0.62500000000000000       0.15625000000000000        0.0000000000000000     
  0.50000000000000000       0.18750000000000000        0.0000000000000000     
  0.53125000000000000       0.18750000000000000        0.0000000000000000     
  0.56250000000000000       0.18750000000000000        0.0000000000000000     
  0.59375000000000000       0.18750000000000000        0.0000000000000000     
  0.62500000000000000       0.18750000000000000        0.0000000000000000     
  0.50000000000000000       0.21875000000000000        0.0000000000000000     
  0.53125000000000000       0.21875000000000000        0.0000000000000000     
  0.56250000000000000       0.21875000000000000        0.0000000000000000     
  0.59375000000000000       0.21875000000000000        0.0000000000000000     
  0.62500000000000000       0.21875000000000000        0.0000000000000000     
  0.50000000000000000       0.25000000000000000        0.0000000000000000     
  0.53125000000000000       0.25000000000000000        0.0000000000000000     
  0.56250000000000000       0.25000000000000000        0.0000000000000000     
  0.59375000000000000       0.25000000000000000        0.0000000000000000     
  0.62500000000000000       0.25000000000000000        0.0000000000000000     
  0.62500000000000000       0.12500000000000000        0.0000000000000000     
  0.65625000000000000       0.12500000000000000        0.0000000000000000     
  0.68750000000000000       0.12500000000000000        0.0000000000000000     
  0.71875000000000000       0.12500000000000000        0.0000000000000000     
  0.75000000000000000       0.12500000000000000        0.0000000000000000     
  0.62500000000000000       0.15625000000000000        0.0000000000000000     
  0.65625000000000000       0.15625000000000000        0.0000000000000000     
  0.68750000000000000       0.15625000000000000        0.0000000000000000     
  0.71875000000000000       0.15625000000000000        0.0000000000000000     
  0.75000000000000000       0.15625000000000000        0.0000000000000000     
  0.62500000000000000       0.18750000000000000        0.0000000000000000     
  0.65625000000000000       0.18750000000000000        0.0000000000000000     
  0.68750000000000000       0.18750000000000000        0.0000000000000000     
  0.71875000000000000       0.18750000000000000        0.0000000000000000     
  0.75000000000000000       0.18750000000000000        0.0000000000000000     
  0.62500000000000000       0.21875000000000000        0.0000000000000000     
  0.65625000000000000       0.21875000000000000        0.0000000000000000     
  0.68750000000000000       0.21875000000000000        0.0000000000000000     
  0.71875000000000000       0.21875000000000000        0.0000000000000000     
  0.75000000000000000       0.21875000000000000        0.0000000000000000     
  0.62500000000000000       0.25000000000000000        0.0000000000000000     
  0.65625000000000000       0.25000000000000000        0.0000000000000000     
  0.68750000000000000       0.25000000000000000        0.0000000000000000     
  0.71875000000000000       0.25000000000000000        0.0000000000000000     
  0.75000000000000000       0.25000000000000000        0.0000000000000000     
  0.75000000000000000       0.12500000000000000        0.0000000000000000     
  0.78125000000000000       0.12500000000000000        0.0000000000000000     
  0.81250000000000000       0.12500000000000000        0.0000000000000000     
  0.84375000000000000       0.12500000000000000        0.0000000000000000     
  0.87500000000000000       0.12500000000000000        0.0000000000000000     
  0.75000000000000000       0.15625000000000000        0.0000000000000000     
  0.78125000000000000       0.15625000000000000        0.0000000000000000     
  0.81250000000000000       0.15625000000000000        0.0000000000000000     
  0.84375000000000000       0.15625000000000000        0.0000000000000000     
  0.87500000000000000       0.15625000000000000        0.0000000000000000     
  0.75000000000000000       0.18750000000000000        0.0000000000000000     
  0.78125000000000000       0.18750000000000000        0.0000000000000000     
  0.81250000000000000       0.18750000000000000        0.0000000000000000     
  0.84375000000000000       0.18750000000000000        0.0000000000000000     
  0.87500000000000000       0.18750000000000000        0.0000000000000000     
  0.75000000000000000       0.21875000000000000        0.0000000000000000     
  0.78125000000000000       0.21875000000000000        0.0000000000000000     
  0.81250000000000000       0.21875000000000000        0.0000000000000000     
  0.84375000000000000       0.21875000000000000        0.0000000000000000     
  0.87500000000000000       0.21875000000000000        0.0000000000000000     
  0.75000000000000000       0.25000000000000000        0.0000000000000000     
  0.78125000000000000       0.25000000000000000        0.0000000000000000     
  0.81250000000000000       0.25000000000000000        0.0000000000000000     
  0.84375000000000000       0.25000000000000000        0.0000000000000000     
  0.87500000000000000       0.25000000000000000        0.0000000000000000     
  0.87500000000000000       0.12500000000000000        0.0000000000000000     
  0.90625000000000000       0.12500000000000000        0.0000000000000000     
  0.93750000000000000       0.12500000000000000        0.0000000000000000     
  0.96875000000000000       0.12500000000000000        0.0000000000000000     
   1.0000000000000000       0.12500000000000000        0.0000000000000000     
  0.87500000000000000       0.15625000000000000        0.0000000000000000     
  0.90625000000000000       0.15625000000000000        0.0000000000000000     
  0.93750000000000000       0.15625000000000000        0.0000000000000000     
  0.96875000000000000       0.15625000000000000        0.0000000000000000     
   1.0000000000000000       0.15625000000000000        0.0000000000000000     
  0.87500000000000000       0.18750000000000000        0.0000000000000000     
  0.90625000000000000       0.18750000000000000        0.0000000000000000     
  0.93750000000000000       0.18750000000000000        0.0000000000000000     
  0.96875000000000000       0.18750000000000000        0.0000000000000000     
   1.0000000000000000       0.18750000000000000        0.0000000000000000     
  0.87500000000000000       0.21875000000000000        0.0000000000000000     
  0.90625000000000000       0.21875000000000000        0.0000000000000000     
  0.93750000000000000       0.21875000000000000        0.0000000000000000     
  0.96875000000000000       0.21875000000000000        0.0000000000000000     
   1.0000000000000000       0.21875000000000000        0.0000000000000000     
  0.87500000000000000       0.25000000000000000        0.0000000000000000     
  0.90625000000000000       0.25000000000000000        0.0000000000000000     
  0.93750000000000000       0.25000000000000000        0.0000000000000000     
  0.96875000000000000       0.25000000000000000        0.0000000000000000     
   1.0000000000000000       0.25000000000000000        0.0000000000000000     
   0.0000000000000000       0.25000000000000000        0.0000000000000000     
   3.1250000000000000E-002  0.25000000000000000        0.0000000000000000     
   6.2500000000000000E-002  0.25000000000000000        0.0000000000000000     
   9.3750000000000000E-002  0.25000000000000000        0.0000000000000000     
  0.12500000000000000       0.25000000000000000        0.0000000000000000     
   0.0000000000000000       0.28125000000000000        0.0000000000000000     
   3.1250000000000000E-002  0.28125000000000000        0.0000000000000000     
   6.2500000000000000E-002  0.28125000000000000        0.0000000000000000     
   9.3750000000000000E-002  0.28125000000000000        0.0000000000000000     
  0.12500000000000000       0.28125000000000000        0.0000000000000000     
   0.0000000000000000       0.31250000000000000        0.0000000000000000     
   3.1250000000000000E-002  0.31250000000000000        0.0000000000000000     
   6.2500000000000000E-002  0.31250000000000000        0.0000000000000000     
   9.3750000000000000E-002  0.31250000000000000        0.0000000000000000     
  0.12500000000000000       0.31250000000000000        0.0000000000000000     
   0.0000000000000000       0.34375000000000000        0.0000000000000000     
   3.1250000000000000E-002  0.34375000000000000        0.0000000000000000     
   6.2500000000000000E-002  0.34375000000000000        0.0000000000000000     
   9.3750000000000000E-002  0.34375000000000000        0.0000000000000000     
  0.12500000000000000       0.34375000000000000        0.0000000000000000     
   0.0000000000000000       0.37500000000000000        0.0000000000000000     
   3.1250000000000000E-002  0.37500000000000000        0.0000000000000000     
   6.2500000000000000E-002  0.37500000000000000        0.0000000000000000     
   9.3750000000000000E-002  0.37500000000000000        0.0000000000000000     
  0.12500000000000000       0.37500000000000000        0.0000000000000000     
  0.12500000000000000       0.25000000000000000        0.0000000000000000     
  0.15625000000000000       0.25000000000000000        0.0000000000000000     
  0.18750000000000000       0.25000000000000000        0.0000000000000000     
  0.21875000000000000       0.25000000000000000        0.0000000000000000     
  0.25000000000000000       0.25000000000000000        0.0000000000000000     
  0.12500000000000000       0.28125000000000000        0.0000000000000000     
  0.15625000000000000       0.28125000000000000        0.0000000000000000     
  0.18750000000000000       0.28125000000000000        0.0000000000000000     
  0.21875000000000000       0.28125000000000000        0.0000000000000000     
  0.25000000000000000       0.28125000000000000        0.0000000000000000     
  0.12500000000000000       0.31250000000000000        0.0000000000000000     
  0.15625000000000000       0.31250000000000000        0.0000000000000000     
  0.18750000000000000       0.31250000000000000        0.0000000000000000     
  0.21875000000000000       0.31250000000000000        0.0000000000000000     
  0.25000000000000000       0.31250000000000000        0.0000000000000000     
  0.12500000000000000       0.34375000000000000        0.0000000000000000     
  0.15625000000000000       0.34375000000000000        0.0000000000000000     
  0.18750000000000000       0.34375000000000000        0.0000000000000000     
  0.21875000000000000       0.34375000000000000        0.0000000000000000     
  0.25000000000000000       0.34375000000000000        0.0000000000000000     
  0.12500000000000000       0.37500000000000000        0.0000000000000000     
  0.15625000000000000       0.37500000000000000        0.0000000000000000     
  0.18750000000000000       0.37500000000000000        0.0000000000000000     
  0.21875000000000000       0.37500000000000000        0.0000000000000000     
  0.25000000000000000       0.37500000000000000        0.0000000000000000     
  0.25000000000000000       0.25000000000000000        0.0000000000000000     
  0.28125000000000000       0.25000000000000000        0.0000000000000000     
  0.31250000000000000       0.25000000000000000        0.0000000000000000     
  0.34375000000000000       0.25000000000000000        0.0000000000000000     
  0.37500000000000000       0.25000000000000000        0.0000000000000000     
  0.25000000000000000       0.28125000000000000        0.0000000000000000     
  0.28125000000000000       0.28125000000000000        0.0000000000000000     
  0.31250000000000000       0.28125000000000000        0.0000000000000000     
  0.34375000000000000       0.28125000000000000        0.0000000000000000     
  0.37500000000000000       0.28125000000000000        0.0000000000000000     
  0.25000000000000000       0.31250000000000000        0.0000000000000000     
  0.28125000000000000       0.31250000000000000        0.0000000000000000     
  0.31250000000000000       0.31250000000000000        0.0000000000000000     
  0.34375000000000000       0.31250000000000000        0.0000000000000000     
  0.37500000000000000       0.31250000000000000        0.0000000000000000     
  0.25000000000000000       0.34375000000000000        0.0000000000000000     
  0.28125000000000000       0.34375000000000000        0.0000000000000000     
  0.31250000000000000       0.34375000000000000        0.0000000000000000     
  0.34375000000000000       0.34375000000000000        0.0000000000000000     
  0.37500000000000000       0.34375000000000000        0.0000000000000000     
  0.25000000000000000       0.37500000000000000        0.0000000000000000     
  0.28125000000000000       0.37500000000000000        0.0000000000000000     
  0.31250000000000000       0.37500000000000000        0.0000000000000000     
  0.34375000000000000       0.37500000000000000        0.0000000000000000     
  0.37500000000000000       0.37500000000000000        0.0000000000000000     
  0.37500000000000000       0.25000000000000000        0.0000000000000000     
  0.40625000000000000       0.25000000000000000        0.0000000000000000     
  0.43750000000000000       0.25000000000000000        0.0000000000000000     
  0.46875000000000000       0.25000000000000000        0.0000000000000000     
  0.50000000000000000       0.25000000000000000        0.0000000000000000     
  0.37500000000000000       0.28125000000000000        0.0000000000000000     
  0.40625000000000000       0.28125000000000000        0.0000000000000000     
  0.43750000000000000       0.28125000000000000        0.0000000000000000     
  0.46875000000000000       0.28125000000000000        0.0000000000000000     
  0.50000000000000000       0.28125000000000000        0.0000000000000000     
  0.37500000000000000       0.31250000000000000        0.0000000000000000     
  0.40625000000000000       0.31250000000000000        0.0000000000000000     
  0.43750000000000000       0.31250000000000000        0.0000000000000000     
  0.46875000000000000       0.31250000000000000        0.0000000000000000     
  0.50000000000000000       0.31250000000000000        0.0000000000000000     
  0.37500000000000000       0.34375000000000000        0.0000000000000000     
  0.40625000000000000       0.34375000000000000        0.0000000000000000     
  0.43750000000000000       0.34375000000000000        0.0000000000000000     
  0.46875000000000000       0.34375000000000000        0.0000000000000000     
  0.50000000000000000       0.34375000000000000        0.0000000000000000     
  0.37500000000000000       0.37500000000000000        0.0000000000000000     
  0.40625000000000000       0.37500000000000000        0.0000000000000000     
  0.43750000000000000       0.37500000000000000        0.0000000000000000     
  0.46875000000000000       0.37500000000000000        0.0000000000000000     
  0.50000000000000000       0.37500000000000000        0.0000000000000000     
  0.50000000000000000       0.25000000000000000        0.0000000000000000     
  0.53125000000000000       0.25000000000000000        0.0000000000000000     
  0.56250000000000000       0.25000000000000000        0.0000000000000000     
  0.59375000000000000       0.25000000000000000        0.0000000000000000     
  0.62500000000000000       0.25000000000000000        0.0000000000000000     
  0.50000000000000000       0.28125000000000000        0.0000000000000000     
  0.53125000000000000       0.28125000000000000        0.0000000000000000     
  0.56250000000000000       0.28125000000000000        0.0000000000000000     
  0.59375000000000000       0.28125000000000000        0.0000000000000000     
  0.62500000000000000       0.28125000000000000        0.0000000000000000     
  0.50000000000000000       0.31250000000000000        0.0000000000000000     
  0.53125000000000000       0.31250000000000000        0.0000000000000000     
  0.56250000000000000       0.31250000000000000        0.0000000000000000     
  0.59375000000000000       0.31250000000000000        0.0000000000000000     
  0.62500000000000000       0.31250000000000000        0.0000000000000000     
  0.50000000000000000       0.34375000000000000        0.0000000000000000     
  0.53125000000000000       0.34375000000000000        0.0000000000000000     
  0.56250000000000000       0.34375000000000000        0.0000000000000000     
  0.59375000000000000       0.34375000000000000        0.0000000000000000     
  0.62500000000000000       0.34375000000000000        0.0000000000000000     
  0.50000000000000000       0.37500000000000000        0.0000000000000000     
  0.53125000000000000       0.37500000000000000        0.0000000000000000     
  0.56250000000000000       0.37500000000000000        0.0000000000000000     
  0.59375000000000000       0.37500000000000000        0.0000000000000000     
  0.62500000000000000       0.37500000000000000        0.0000000000000000     
  0.62500000000000000       0.25000000000000000        0.0000000000000000     
  0.65625000000000000       0.25000000000000000        0.0000000000000000     
  0.68750000000000000       0.25000000000000000        0.0000000000000000     
  0.71875000000000000       0.25000000000000000        0.0000000000000000     
  0.75000000000000000       0.25000000000000000        0.0000000000000000     
  0.62500000000000000       0.28125000000000000        0.0000000000000000     
  0.65625000000000000       0.28125000000000000        0.0000000000000000     
  0.68750000000000000       0.28125000000000000        0.0000000000000000     
  0.71875000000000000       0.28125000000000000        0.0000000000000000     
  0.75000000000000000       0.28125000000000000        0.0000000000000000     
  0.62500000000000000       0.31250000000000000        0.0000000000000000     
  0.65625000000000000       0.31250000000000000        0.0000000000000000     
  0.68750000000000000       0.31250000000000000        0.0000000000000000     
  0.71875000000000000       0.31250000000000000        0.0000000000000000     
  0.75000000000000000       0.31250000000000000        0.0000000000000000     
  0.62500000000000000       0.34375000000000000        0.0000000000000000     
  0.65625000000000000       0.34375000000000000        0.0000000000000000     
  0.68750000000000000       0.34375000000000000        0.0000000000000000     
  0.71875000000000000       0.34375000000000000        0.0000000000000000     
  0.75000000000000000       0.34375000000000000        0.0000000000000000     
  0.62500000000000000       0.37500000000000000        0.0000000000000000     
  0.65625000000000000       0.37500000000000000        0.0000000000000000     
  0.68750000000000000       0.37500000000000000        0.0000000000000000     
  0.71875000000000000       0.37500000000000000        0.0000000000000000     
  0.75000000000000000       0.37500000000000000        0.0000000000000000     
  0.75000000000000000       0.25000000000000000        0.0000000000000000     
  0.78125000000000000       0.25000000000000000        0.0000000000000000     
  0.81250000000000000       0.25000000000000000        0.0000000000000000     
  0.84375000000000000       0.25000000000000000        0.0000000000000000     
  0.87500000000000000       0.25000000000000000        0.0000000000000000     
  0.75000000000000000       0.28125000000000000        0.0000000000000000     
  0.78125000000000000       0.28125000000000000        0.0000000000000000     
  0.81250000000000000       0.28125000000000000        0.0000000000000000     
  0.84375000000000000       0.28125000000000000        0.0000000000000000     
  0.87500000000000000       0.28125000000000000        0.0000000000000000     
  0.75000000000000000       0.31250000000000000        0.0000000000000000     
  0.78125000000000000       0.31250000000000000        0.0000000000000000     
  0.81250000000000000       0.31250000000000000        0.0000000000000000     
  0.84375000000000000       0.31250000000000000        0.0000000000000000     
  0.87500000000000000       0.31250000000000000        0.0000000000000000     
  0.75000000000000000       0.34375000000000000        0.0000000000000000     
  0.78125000000000000       0.34375000000000000        0.0000000000000000     
  0.81250000000000000       0.34375000000000000        0.0000000000000000     
  0.84375000000000000       0.34375000000000000        0.0000000000000000     
  0.87500000000000000       0.34375000000000000        0.0000000000000000     
  0.75000000000000000       0.37500000000000000        0.0000000000000000     
  0.78125000000000000       0.37500000000000000        0.0000000000000000     
  0.81250000000000000       0.37500000000000000        0.0000000000000000     
  0.84375000000000000       0.37500000000000000        0.0000000000000000     
  0.87500000000000000       0.37500000000000000        0.0000000000000000     
  0.87500000000000000       0.25000000000000000        0.0000000000000000     
  0.90625000000000000       0.25000000000000000        0.0000000000000000     
  0.93750000000000000       0.25000000000000000        0.0000000000000000     
  0.96875000000000000       0.25000000000000000        0.0000000000000000     
   1.0000000000000000       0.25000000000000000        0.0000000000000000     
  0.87500000000000000       0.28125000000000000        0.0000000000000000     
  0.90625000000000000       0.28125000000000000        0.0000000000000000     
  0.93750000000000000       0.28125000000000000        0.0000000000000000     
  0.96875000000000000       0.28125000000000000        0.0000000000000000     
   1.0000000000000000       0.28125000000000000        0.0000000000000000     
  0.87500000000000000       0.31250000000000000        0.0000000000000000     
  0.90625000000000000       0.31250000000000000        0.0000000000000000     
  0.93750000000000000       0.31250000000000000        0.0000000000000000     
  0.96875000000000000       0.31250000000000000        0.0000000000000000     
   1.0000000000000000       0.31250000000000000        0.0000000000000000     
  0.87500000000000000       0.34375000000000000        0.0000000000000000     
  0.90625000000000000       0.34375000000000000        0.0000000000000000     
  0.93750000000000000       0.34375000000000000        0.0000000000000000     
  0.96875000000000000       0.34375000000000000        0.0000000000000000     
   1.0000000000000000       0.34375000000000000        0.0000000000000000     
  0.87500000000000000       0.37500000000000000        0.0000000000000000     
  0.90625000000000000       0.37500000000000000        0.0000000000000000     
  0.93750000000000000       0.37500000000000000        0.0000000000000000     
  0.96875000000000000       0.37500000000000000        0.0000000000000000     
   1.0000000000000000       0.37500000000000000        0.0000000000000000     
   0.0000000000000000       0.37500000000000000        0.0000000000000000     
   3.1250000000000000E-002  0.37500000000000000        0.0000000000000000     
   6.2500000000000000E-002  0.37500000000000000        0.0000000000000000     
   9.3750000000000000E-002  0.37500000000000000        0.0000000000000000     
  0.12500000000000000       0.37500000000000000        0.0000000000000000     
   0.0000000000000000       0.40625000000000000        0.0000000000000000     
   3.1250000000000000E-002  0.40625000000000000        0.0000000000000000     
   6.2500000000000000E-002  0.40625000000000000        0.0000000000000000     
   9.3750000000000000E-002  0.40625000000000000        0.0000000000000000     
  0.12500000000000000       0.40625000000000000        0.0000000000000000     
   0.0000000000000000       0.43750000000000000        0.0000000000000000     
   3.1250000000000000E-002  0.43750000000000000        0.0000000000000000     
   6.2500000000000000E-002  0.43750000000000000        0.0000000000000000     
   9.3750000000000000E-002  0.43750000000000000        0.0000000000000000     
  0.12500000000000000       0.43750000000000000        0.0000000000000000     
   0.0000000000000000       0.46875000000000000        0.0000000000000000     
   3.1250000000000000E-002  0.46875000000000000        0.0000000000000000     
   6.2500000000000000E-002  0.46875000000000000        0.0000000000000000     
   9.3750000000000000E-002  0.46875000000000000        0.0000000000000000     
  0.12500000000000000       0.46875000000000000        0.0000000000000000     
   0.0000000000000000       0.50000000000000000        0.0000000000000000     
   3.1250000000000000E-002  0.50000000000000000        0.0000000000000000     
   6.2500000000000000E-002  0.50000000000000000        0.0000000000000000     
   9.3750000000000000E-002  0.50000000000000000        0.0000000000000000     
  0.12500000000000000       0.50000000000000000        0.0000000000000000     
  0.12500000000000000       0.37500000000000000        0.0000000000000000     
  0.15625000000000000       0.37500000000000000        0.0000000000000000     
  0.18750000000000000       0.37500000000000000        0.0000000000000000     
  0.21875000000000000       0.37500000000000000        0.0000000000000000     
  0.25000000000000000       0.37500000000000000        0.0000000000000000     
  0.12500000000000000       0.40625000000000000        0.0000000000000000     
  0.15625000000000000       0.40625000000000000        0.0000000000000000     
  0.18750000000000000       0.40625000000000000        0.0000000000000000     
  0.21875000000000000       0.40625000000000000        0.0000000000000000     
  0.25000000000000000       0.40625000000000000        0.0000000000000000     
  0.12500000000000000       0.43750000000000000        0.0000000000000000     
  0.15625000000000000       0.43750000000000000        0.0000000000000000     
  0.18750000000000000       0.43750000000000000        0.0000000000000000     
  0.21875000000000000       0.43750000000000000        0.0000000000000000     
  0.25000000000000000       0.43750000000000000        0.0000000000000000     
  0.12500000000000000       0.46875000000000000        0.0000000000000000     
  0.15625000000000000       0.46875000000000000        0.0000000000000000     
  0.18750000000000000       0.46875000000000000        0.0000000000000000     
  0.21875000000000000       0.46875000000000000        0.0000000000000000     
  0.25000000000000000       0.46875000000000000        0.0000000000000000     
  0.12500000000000000       0.50000000000000000        0.0000000000000000     
  0.15625000000000000       0.50000000000000000        0.0000000000000000     
  0.18750000000000000       0.50000000000000000        0.0000000000000000     
  0.21875000000000000       0.50000000000000000        0.0000000000000000     
  0.25000000000000000       0.50000000000000000        0.0000000000000000     
  0.25000000000000000       0.37500000000000000        0.0000000000000000     
  0.28125000000000000       0.37500000000000000        0.0000000000000000     
  0.31250000000000000       0.37500000000000000        0.0000000000000000     
  0.34375000000000000       0.37500000000000000        0.0000000000000000     
  0.37500000000000000       0.37500000000000000        0.0000000000000000     
  0.25000000000000000       0.40625000000000000        0.0000000000000000     
  0.28125000000000000       0.40625000000000000        0.0000000000000000     
  0.31250000000000000       0.40625000000000000        0.0000000000000000     
  0.34375000000000000       0.40625000000000000        0.0000000000000000     
  0.37500000000000000       0.40625000000000000        0.0000000000000000     
  0.25000000000000000       0.43750000000000000        0.0000000000000000     
  0.28125000000000000       0.43750000000000000        0.0000000000000000     
  0.31250000000000000       0.43750000000000000        0.0000000000000000     
  0.34375000000000000       0.43750000000000000        0.0000000000000000     
  0.37500000000000000       0.43750000000000000        0.0000000000000000     
  0.25000000000000000       0.46875000000000000        0.0000000000000000     
  0.28125000000000000       0.46875000000000000        0.0000000000000000     
  0.31250000000000000       0.46875000000000000        0.0000000000000000     
  0.34375000000000000       0.46875000000000000        0.0000000000000000     
  0.37500000000000000       0.46875000000000000        0.0000000000000000     
  0.25000000000000000       0.50000000000000000        0.0000000000000000     
  0.28125000000000000       0.50000000000000000        0.0000000000000000     
  0.31250000000000000       0.50000000000000000        0.0000000000000000     
  0.34375000000000000       0.50000000000000000        0.0000000000000000     
  0.37500000000000000       0.50000000000000000        0.0000000000000000     
  0.37500000000000000       0.37500000000000000        0.0000000000000000     
  0.40625000000000000       0.37500000000000000        0.0000000000000000     
  0.43750000000000000       0.37500000000000000        0.0000000000000000     
  0.46875000000000000       0.37500000000000000        0.0000000000000000     
  0.50000000000000000       0.37500000000000000        0.0000000000000000     
  0.37500000000000000       0.40625000000000000        0.0000000000000000     
  0.40625000000000000       0.40625000000000000        0.0000000000000000     
  0.43750000000000000       0.40625000000000000        0.0000000000000000     
  0.46875000000000000       0.40625000000000000        0.0000000000000000     
  0.50000000000000000       0.40625000000000000        0.0000000000000000     
  0.37500000000000000       0.43750000000000000        0.0000000000000000     
  0.40625000000000000       0.43750000000000000        0.0000000000000000     
  0.43750000000000000       0.43750000000000000        0.0000000000000000     
  0.46875000000000000       0.43750000000000000        0.0000000000000000     
  0.50000000000000000       0.43750000000000000        0.0000000000000000     
  0.37500000000000000       0.46875000000000000        0.0000000000000000     
  0.40625000000000000       0.46875000000000000        0.0000000000000000     
  0.43750000000000000       0.46875000000000000        0.0000000000000000     
  0.46875000000000000       0.46875000000000000        0.0000000000000000     
  0.50000000000000000       0.46875000000000000        0.0000000000000000     
  0.37500000000000000       0.50000000000000000        0.0000000000000000     
  0.40625000000000000       0.50000000000000000        0.0000000000000000     
  0.43750000000000000       0.50000000000000000        0.0000000000000000     
  0.46875000000000000       0.50000000000000000        0.0000000000000000     
  0.50000000000000000       0.50000000000000000        0.0000000000000000     
  0.50000000000000000       0.37500000000000000        0.0000000000000000     
  0.53125000000000000       0.37500000000000000        0.0000000000000000     
  0.56250000000000000       0.37500000000000000        0.0000000000000000     
  0.59375000000000000       0.37500000000000000        0.0000000000000000     
  0.62500000000000000       0.37500000000000000        0.0000000000000000     
  0.50000000000000000       0.40625000000000000        0.0000000000000000     
  0.53125000000000000       0.40625000000000000        0.0000000000000000     
  0.56250000000000000       0.40625000000000000        0.0000000000000000     
  0.59375000000000000       0.40625000000000000        0.0000000000000000     
  0.62500000000000000       0.40625000000000000        0.0000000000000000     
  0.50000000000000000       0.43750000000000000        0.0000000000000000     
  0.53125000000000000       0.43750000000000000        0.0000000000000000     
  0.56250000000000000       0.43750000000000000        0.0000000000000000     
  0.59375000000000000       0.43750000000000000        0.0000000000000000     
  0.62500000000000000       0.43750000000000000        0.0000000000000000     
  0.50000000000000000       0.46875000000000000        0.0000000000000000     
  0.53125000000000000       0.46875000000000000        0.0000000000000000     
  0.56250000000000000       0.46875000000000000        0.0000000000000000     
  0.59375000000000000       0.46875000000000000        0.0000000000000000     
  0.62500000000000000       0.46875000000000000        0.0000000000000000     
  0.50000000000000000       0.50000000000000000        0.0000000000000000     
  0.53125000000000000       0.50000000000000000        0.0000000000000000     
  0.56250000000000000       0.50000000000000000        0.0000000000000000     
  0.59375000000000000       0.50000000000000000        0.0000000000000000     
  0.62500000000000000       0.50000000000000000        0.0000000000000000     
  0.62500000000000000       0.37500000000000000        0.0000000000000000     
  0.65625000000000000       0.37500000000000000        0.0000000000000000     
  0.68750000000000000       0.37500000000000000        0.0000000000000000     
  0.71875000000000000       0.37500000000000000        0.0000000000000000     
  0.75000000000000000       0.37500000000000000        0.0000000000000000     
  0.62500000000000000       0.40625000000000000        0.0000000000000000     
  0.65625000000000000       0.40625000000000000        0.0000000000000000     
  0.68750000000000000       0.40625000000000000        0.0000000000000000     
  0.71875000000000000       0.40625000000000000        0.0000000000000000     
  0.75000000000000000       0.40625000000000000        0.0000000000000000     
  0.62500000000000000       0.43750000000000000        0.0000000000000000     
  0.65625000000000000       0.43750000000000000        0.0000000000000000     
  0.68750000000000000       0.43750000000000000        0.0000000000000000     
  0.71875000000000000       0.43750000000000000        0.0000000000000000     
  0.75000000000000000       0.43750000000000000        0.0000000000000000     
  0.62500000000000000       0.46875000000000000        0.0000000000000000     
  0.65625000000000000       0.46875000000000000        0.0000000000000000     
  0.68750000000000000       0.46875000000000000        0.0000000000000000     
  0.71875000000000000       0.46875000000000000        0.0000000000000000     
  0.75000000000000000       0.46875000000000000        0.0000000000000000     
  0.62500000000000000       0.50000000000000000        0.0000000000000000     
  0.65625000000000000       0.50000000000000000        0.0000000000000000     
  0.68750000000000000       0.50000000000000000        0.0000000000000000     
  0.71875000000000000       0.50000000000000000        0.0000000000000000     
  0.75000000000000000       0.50000000000000000        0.0000000000000000     
  0.75000000000000000       0.37500000000000000        0.0000000000000000     
  0.78125000000000000       0.37500000000000000        0.0000000000000000     
  0.81250000000000000       0.37500000000000000        0.0000000000000000     
  0.84375000000000000       0.37500000000000000        0.0000000000000000     
  0.87500000000000000       0.37500000000000000        0.0000000000000000     
  0.75000000000000000       0.40625000000000000        0.0000000000000000     
  0.78125000000000000       0.40625000000000000        0.0000000000000000     
  0.81250000000000000       0.40625000000000000        0.0000000000000000     
  0.84375000000000000       0.40625000000000000        0.0000000000000000     
  0.87500000000000000       0.40625000000000000        0.0000000000000000     
  0.75000000000000000       0.43750000000000000        0.0000000000000000     
  0.78125000000000000       0.43750000000000000        0.0000000000000000     
  0.81250000000000000       0.43750000000000000        0.0000000000000000     
  0.84375000000000000       0.43750000000000000        0.0000000000000000     
  0.87500000000000000       0.43750000000000000        0.0000000000000000     
  0.75000000000000000       0.46875000000000000        0.0000000000000000     
  0.78125000000000000       0.46875000000000000        0.0000000000000000     
  0.81250000000000000       0.46875000000000000        0.0000000000000000     
  0.84375000000000000       0.46875000000000000        0.0000000000000000     
  0.87500000000000000       0.46875000000000000        0.0000000000000000     
  0.75000000000000000       0.50000000000000000        0.0000000000000000     
  0.78125000000000000       0.50000000000000000        0.0000000000000000     
  0.81250000000000000       0.50000000000000000        0.0000000000000000     
  0.84375000000000000       0.50000000000000000        0.0000000000000000     
  0.87500000000000000       0.50000000000000000        0.0000000000000000     
  0.87500000000000000       0.37500000000000000        0.0000000000000000     
  0.90625000000000000       0.37500000000000000        0.0000000000000000     
  0.93750000000000000       0.37500000000000000        0.0000000000000000     
  0.96875000000000000       0.37500000000000000        0.0000000000000000     
   1.0000000000000000       0.37500000000000000        0.0000000000000000     
  0.87500000000000000       0.40625000000000000        0.0000000000000000     
  0.90625000000000000       0.40625000000000000        0.0000000000000000     
  0.93750000000000000       0.40625000000000000        0.0000000000000000     
  0.96875000000000000       0.40625000000000000        0.0000000000000000     
   1.0000000000000000       0.40625000000000000        0.0000000000000000     
  0.87500000000000000       0.43750000000000000        0.0000000000000000     
  0.90625000000000000       0.43750000000000000        0.0000000000000000     
  0.93750000000000000       0.43750000000000000        0.0000000000000000     
  0.96875000000000000       0.43750000000000000        0.0000000000000000     
   1.0000000000000000       0.43750000000000000        0.0000000000000000     
  0.87500000000000000       0.46875000000000000        0.0000000000000000     
  0.90625000000000000       0.46875000000000000        0.0000000000000000     
  0.93750000000000000       0.46875000000000000        0.0000000000000000     
  0.96875000000000000       0.46875000000000000        0.0000000000000000     
   1.0000000000000000       0.46875000000000000        0.0000000000000000     
  0.87500000000000000       0.50000000000000000        0.0000000000000000     
  0.90625000000000000       0.50000000000000000        0.0000000000000000     
  0.93750000000000000       0.50000000000000000        0.0000000000000000     
  0.96875000000000000       0.50000000000000000        0.0000000000000000     
   1.0000000000000000       0.50000000000000000        0.0000000000000000     
   0.0000000000000000       0.50000000000000000        0.0000000000000000     
   3.1250000000000000E-002  0.50000000000000000        0.0000000000000000     
   6.2500000000000000E-002  0.50000000000000000        0.0000000000000000     
   9.3750000000000000E-002  0.50000000000000000        0.0000000000000000     
  0.12500000000000000       0.50000000000000000        0.0000000000000000     
   0.0000000000000000       0.53125000000000000        0.0000000000000000     
   3.1250000000000000E-002  0.53125000000000000        0.0000000000000000     
   6.2500000000000000E-002  0.53125000000000000        0.0000000000000000     
   9.3750000000000000E-002  0.53125000000000000        0.0000000000000000     
  0.12500000000000000       0.53125000000000000        0.0000000000000000     
   0.0000000000000000       0.56250000000000000        0.0000000000000000     
   3.1250000000000000E-002  0.56250000000000000        0.0000000000000000     
   6.2500000000000000E-002  0.56250000000000000        0.0000000000000000     
   9.3750000000000000E-002  0.56250000000000000        0.0000000000000000     
  0.12500000000000000       0.56250000000000000        0.0000000000000000     
   0.0000000000000000       0.59375000000000000        0.0000000000000000     
   3.1250000000000000E-002  0.59375000000000000        0.0000000000000000     
   6.2500000000000000E-002  0.59375000000000000        0.0000000000000000     
   9.3750000000000000E-002  0.59375000000000000        0.0000000000000000     
  0.12500000000000000       0.59375000000000000        0.0000000000000000     
   0.0000000000000000       0.62500000000000000        0.0000000000000000     
   3.1250000000000000E-002  0.62500000000000000        0.0000000000000000     
   6.2500000000000000E-002  0.62500000000000000        0.0000000000000000     
   9.3750000000000000E-002  0.62500000000000000        0.0000000000000000     
  0.12500000000000000       0.62500000000000000        0.0000000000000000     
  0.12500000000000000       0.50000000000000000        0.0000000000000000     
  0.15625000000000000       0.50000000000000000        0.0000000000000000     
  0.18750000000000000       0.50000000000000000        0.0000000000000000     
  0.21875000000000000       0.50000000000000000        0.0000000000000000     
  0.25000000000000000       0.50000000000000000        0.0000000000000000     
  0.12500000000000000       0.53125000000000000        0.0000000000000000     
  0.15625000000000000       0.53125000000000000        0.0000000000000000     
  0.18750000000000000       0.53125000000000000        0.0000000000000000     
  0.21875000000000000       0.53125000000000000        0.0000000000000000     
  0.25000000000000000       0.53125000000000000        0.0000000000000000     
  0.12500000000000000       0.56250000000000000        0.0000000000000000     
  0.15625000000000000       0.56250000000000000        0.0000000000000000     
  0.18750000000000000       0.56250000000000000        0.0000000000000000     
  0.21875000000000000       0.56250000000000000        0.0000000000000000     
  0.25000000000000000       0.56250000000000000        0.0000000000000000     
  0.12500000000000000       0.59375000000000000        0.0000000000000000     
  0.15625000000000000       0.59375000000000000        0.0000000000000000     
  0.18750000000000000       0.59375000000000000        0.0000000000000000     
  0.21875000000000000       0.59375000000000000        0.0000000000000000     
  0.25000000000000000       0.59375000000000000        0.0000000000000000     
  0.12500000000000000       0.62500000000000000        0.0000000000000000     
  0.15625000000000000       0.62500000000000000        0.0000000000000000     
  0.18750000000000000       0.62500000000000000        0.0000000000000000     
  0.21875000000000000       0.62500000000000000        0.0000000000000000     
  0.25000000000000000       0.62500000000000000        0.0000000000000000     
  0.25000000000000000       0.50000000000000000        0.0000000000000000     
  0.28125000000000000       0.50000000000000000        0.0000000000000000     
  0.31250000000000000       0.50000000000000000        0.0000000000000000     
  0.34375000000000000       0.50000000000000000        0.0000000000000000     
  0.37500000000000000       0.50000000000000000        0.0000000000000000     
  0.25000000000000000       0.53125000000000000        0.0000000000000000     
  0.28125000000000000       0.53125000000000000        0.0000000000000000     
  0.31250000000000000       0.53125000000000000        0.0000000000000000     
  0.34375000000000000       0.53125000000000000        0.0000000000000000     
  0.37500000000000000       0.53125000000000000        0.0000000000000000     
  0.25000000000000000       0.56250000000000000        0.0000000000000000     
  0.28125000000000000       0.56250000000000000        0.0000000000000000     
  0.31250000000000000       0.56250000000000000        0.0000000000000000     
  0.34375000000000000       0.56250000000000000        0.0000000000000000     
  0.37500000000000000       0.56250000000000000        0.0000000000000000     
  0.25000000000000000       0.59375000000000000        0.0000000000000000     
  0.28125000000000000       0.59375000000000000        0.0000000000000000     
  0.31250000000000000       0.59375000000000000        0.0000000000000000     
  0.34375000000000000       0.59375000000000000        0.0000000000000000     
  0.37500000000000000       0.59375000000000000        0.0000000000000000     
  0.25000000000000000       0.62500000000000000        0.0000000000000000     
  0.28125000000000000       0.62500000000000000        0.0000000000000000     
  0.31250000000000000       0.62500000000000000        0.0000000000000000     
  0.34375000000000000       0.62500000000000000        0.0000000000000000     
  0.37500000000000000       0.62500000000000000        0.0000000000000000     
  0.37500000000000000       0.50000000000000000        0.0000000000000000     
  0.40625000000000000       0.50000000000000000        0.0000000000000000     
  0.43750000000000000       0.50000000000000000        0.0000000000000000     
  0.46875000000000000       0.50000000000000000        0.0000000000000000     
  0.50000000000000000       0.50000000000000000        0.0000000000000000     
  0.37500000000000000       0.53125000000000000        0.0000000000000000     
  0.40625000000000000       0.53125000000000000        0.0000000000000000     
  0.43750000000000000       0.53125000000000000        0.0000000000000000     
  0.46875000000000000       0.53125000000000000        0.0000000000000000     
  0.50000000000000000       0.53125000000000000        0.0000000000000000     
  0.37500000000000000       0.56250000000000000        0.0000000000000000     
  0.40625000000000000       0.56250000000000000        0.0000000000000000     
  0.43750000000000000       0.56250000000000000        0.0000000000000000     
  0.46875000000000000       0.56250000000000000        0.0000000000000000     
  0.50000000000000000       0.56250000000000000        0.0000000000000000     
  0.37500000000000000       0.59375000000000000        0.0000000000000000     
  0.40625000000000000       0.59375000000000000        0.0000000000000000     
  0.43750000000000000       0.59375000000000000        0.0000000000000000     
  0.46875000000000000       0.59375000000000000        0.0000000000000000     
  0.50000000000000000       0.59375000000000000        0.0000000000000000     
  0.37500000000000000       0.62500000000000000        0.0000000000000000     
  0.40625000000000000       0.62500000000000000        0.0000000000000000     
  0.43750000000000000       0.62500000000000000        0.0000000000000000     
  0.46875000000000000       0.62500000000000000        0.0000000000000000     
  0.50000000000000000       0.62500000000000000        0.0000000000000000     
  0.50000000000000000       0.50000000000000000        0.0000000000000000     
  0.53125000000000000       0.50000000000000000        0.0000000000000000     
  0.56250000000000000       0.50000000000000000        0.0000000000000000     
  0.59375000000000000       0.50000000000000000        0.0000000000000000     
  0.62500000000000000       0.50000000000000000        0.0000000000000000     
  0.50000000000000000       0.53125000000000000        0.0000000000000000     
  0.53125000000000000       0.53125000000000000        0.0000000000000000     
  0.56250000000000000       0.53125000000000000        0.0000000000000000     
  0.59375000000000000       0.53125000000000000        0.0000000000000000     
  0.62500000000000000       0.53125000000000000        0.0000000000000000     
  0.50000000000000000       0.56250000000000000        0.0000000000000000     
  0.53125000000000000       0.56250000000000000        0.0000000000000000     
  0.56250000000000000       0.56250000000000000        0.0000000000000000     
  0.59375000000000000       0.56250000000000000        0.0000000000000000     
  0.62500000000000000       0.56250000000000000        0.0000000000000000     
  0.50000000000000000       0.59375000000000000        0.0000000000000000     
  0.53125000000000000       0.59375000000000000        0.0000000000000000     
  0.56250000000000000       0.59375000000000000        0.0000000000000000     
  0.59375000000000000       0.59375000000000000        0.0000000000000000     
  0.62500000000000000       0.59375000000000000        0.0000000000000000     
  0.50000000000000000       0.62500000000000000        0.0000000000000000     
  0.53125000000000000       0.62500000000000000        0.0000000000000000     
  0.56250000000000000       0.62500000000000000        0.0000000000000000     
  0.59375000000000000       0.62500000000000000        0.0000000000000000     
  0.62500000000000000       0.62500000000000000        0.0000000000000000     
  0.62500000000000000       0.50000000000000000        0.0000000000000000     
  0.65625000000000000       0.50000000000000000        0.0000000000000000     
  0.68750000000000000       0.50000000000000000        0.0000000000000000     
  0.71875000000000000       0.50000000000000000        0.0000000000000000     
  0.75000000000000000       0.50000000000000000        0.0000000000000000     
  0.62500000000000000       0.53125000000000000        0.0000000000000000     
  0.65625000000000000       0.53125000000000000        0.0000000000000000     
  0.68750000000000000       0.53125000000000000        0.0000000000000000     
  0.71875000000000000       0.53125000000000000        0.0000000000000000     
  0.75000000000000000       0.53125000000000000        0.0000000000000000     
  0.62500000000000000       0.56250000000000000        0.0000000000000000     
  0.65625000000000000       0.56250000000000000        0.0000000000000000     
  0.68750000000000000       0.56250000000000000        0.0000000000000000     
  0.71875000000000000       0.56250000000000000        0.0000000000000000     
  0.75000000000000000       0.56250000000000000        0.0000000000000000     
  0.62500000000000000       0.59375000000000000        0.0000000000000000     
  0.65625000000000000       0.59375000000000000        0.0000000000000000     
  0.68750000000000000       0.59375000000000000        0.0000000000000000     
  0.71875000000000000       0.59375000000000000        0.0000000000000000     
  0.75000000000000000       0.59375000000000000        0.0000000000000000     
  0.62500000000000000       0.62500000000000000        0.0000000000000000     
  0.65625000000000000       0.62500000000000000        0.0000000000000000     
  0.68750000000000000       0.62500000000000000        0.0000000000000000     
  0.71875000000000000       0.62500000000000000        0.0000000000000000     
  0.75000000000000000       0.62500000000000000        0.0000000000000000     
  0.75000000000000000       0.50000000000000000        0.0000000000000000     
  0.78125000000000000       0.50000000000000000        0.0000000000000000     
  0.81250000000000000       0.50000000000000000        0.0000000000000000     
  0.84375000000000000       0.50000000000000000        0.0000000000000000     
  0.87500000000000000       0.50000000000000000        0.0000000000000000     
  0.75000000000000000       0.53125000000000000        0.0000000000000000     
  0.78125000000000000       0.53125000000000000        0.0000000000000000     
  0.81250000000000000       0.53125000000000000        0.0000000000000000     
  0.84375000000000000       0.53125000000000000        0.0000000000000000     
  0.87500000000000000       0.53125000000000000        0.0000000000000000     
  0.75000000000000000       0.56250000000000000        0.0000000000000000     
  0.78125000000000000       0.56250000000000000        0.0000000000000000     
  0.81250000000000000       0.56250000000000000        0.0000000000000000     
  0.84375000000000000       0.56250000000000000        0.0000000000000000     
  0.87500000000000000       0.56250000000000000        0.0000000000000000     
  0.75000000000000000       0.59375000000000000        0.0000000000000000     
  0.78125000000000000       0.59375000000000000        0.0000000000000000     
  0.81250000000000000       0.59375000000000000        0.0000000000000000     
  0.84375000000000000       0.59375000000000000        0.0000000000000000     
  0.87500000000000000       0.59375000000000000        0.0000000000000000     
  0.75000000000000000       0.62500000000000000        0.0000000000000000     
  0.78125000000000000       0.62500000000000000        0.0000000000000000     
  0.81250000000000000       0.62500000000000000        0.0000000000000000     
  0.84375000000000000       0.62500000000000000        0.0000000000000000     
  0.87500000000000000       0.62500000000000000        0.0000000000000000     
  0.87500000000000000       0.50000000000000000        0.0000000000000000     
  0.90625000000000000       0.50000000000000000        0.0000000000000000     
  0.93750000000000000       0.50000000000000000        0.0000000000000000     
  0.96875000000000000       0.50000000000000000        0.0000000000000000     
   1.0000000000000000       0.50000000000000000        0.0000000000000000     
  0.87500000000000000       0.53125000000000000        0.0000000000000000     
  0.90625000000000000       0.53125000000000000        0.0000000000000000     
  0.93750000000000000       0.53125000000000000        0.0000000000000000     
  0.96875000000000000       0.53125000000000000        0.0000000000000000     
   1.0000000000000000       0.53125000000000000        0.0000000000000000     
  0.87500000000000000       0.56250000000000000        0.0000000000000000     
  0.90625000000000000       0.56250000000000000        0.0000000000000000     
  0.93750000000000000       0.56250000000000000        0.0000000000000000     
  0.96875000000000000       0.56250000000000000        0.0000000000000000     
   1.0000000000000000       0.56250000000000000        0.0000000000000000     
  0.87500000000000000       0.59375000000000000        0.0000000000000000     
  0.90625000000000000       0.59375000000000000        0.0000000000000000     
  0.93750000000000000       0.59375000000000000        0.0000000000000000     
  0.96875000000000000       0.59375000000000000        0.0000000000000000     
   1.0000000000000000       0.59375000000000000        0.0000000000000000     
  0.87500000000000000       0.62500000000000000        0.0000000000000000     
  0.90625000000000000       0.62500000000000000        0.0000000000000000     
  0.93750000000000000       0.62500000000000000        0.0000000000000000     
  0.96875000000000000       0.62500000000000000        0.0000000000000000     
   1.0000000000000000       0.62500000000000000        0.0000000000000000     
   0.0000000000000000       0.62500000000000000        0.0000000000000000     
   3.1250000000000000E-002  0.62500000000000000        0.0000000000000000     
   6.2500000000000000E-002  0.62500000000000000        0.0000000000000000     
   9.3750000000000000E-002  0.62500000000000000        0.0000000000000000     
  0.12500000000000000       0.62500000000000000        0.0000000000000000     
   0.0000000000000000       0.65625000000000000        0.0000000000000000     
   3.1250000000000000E-002  0.65625000000000000        0.0000000000000000     
   6.2500000000000000E-002  0.65625000000000000        0.0000000000000000     
   9.3750000000000000E-002  0.65625000000000000        0.0000000000000000     
  0.12500000000000000       0.65625000000000000        0.0000000000000000     
   0.0000000000000000       0.68750000000000000        0.0000000000000000     
   3.1250000000000000E-002  0.68750000000000000        0.0000000000000000     
   6.2500000000000000E-002  0.68750000000000000        0.0000000000000000     
   9.3750000000000000E-002  0.68750000000000000        0.0000000000000000     
  0.12500000000000000       0.68750000000000000        0.0000000000000000     
   0.0000000000000000       0.71875000000000000        0.0000000000000000     
   3.1250000000000000E-002  0.71875000000000000        0.0000000000000000     
   6.2500000000000000E-002  0.71875000000000000        0.0000000000000000     
   9.3750000000000000E-002  0.71875000000000000        0.0000000000000000     
  0.12500000000000000       0.71875000000000000        0.0000000000000000     
   0.0000000000000000       0.75000000000000000        0.0000000000000000     
   3.1250000000000000E-002  0.75000000000000000        0.0000000000000000     
   6.2500000000000000E-002  0.75000000000000000        0.0000000000000000     
   9.3750000000000000E-002  0.75000000000000000        0.0000000000000000     
  0.12500000000000000       0.75000000000000000        0.0000000000000000     
  0.12500000000000000       0.62500000000000000        0.0000000000000000     
  0.15625000000000000       0.62500000000000000        0.0000000000000000     
  0.18750000000000000       0.62500000000000000        0.0000000000000000     
  0.21875000000000000       0.62500000000000000        0.0000000000000000     
  0.25000000000000000       0.62500000000000000        0.0000000000000000     
  0.12500000000000000       0.65625000000000000        0.0000000000000000     
  0.15625000000000000       0.65625000000000000        0.0000000000000000     
  0.18750000000000000       0.65625000000000000        0.0000000000000000     
  0.21875000000000000       0.65625000000000000        0.0000000000000000     
  0.25000000000000000       0.65625000000000000        0.0000000000000000     
  0.12500000000000000       0.68750000000000000        0.0000000000000000     
  0.15625000000000000       0.68750000000000000        0.0000000000000000     
  0.18750000000000000       0.68750000000000000        0.0000000000000000     
  0.21875000000000000       0.68750000000000000        0.0000000000000000     
  0.25000000000000000       0.68750000000000000        0.0000000000000000     
  0.12500000000000000       0.71875000000000000        0.0000000000000000     
  0.15625000000000000       0.71875000000000000        0.0000000000000000     
  0.18750000000000000       0.71875000000000000        0.0000000000000000     
  0.21875000000000000       0.71875000000000000        0.0000000000000000     
  0.25000000000000000       0.71875000000000000        0.0000000000000000     
  0.12500000000000000       0.75000000000000000        0.0000000000000000     
  0.15625000000000000       0.75000000000000000        0.0000000000000000     
  0.18750000000000000       0.75000000000000000        0.0000000000000000     
  0.21875000000000000       0.75000000000000000        0.0000000000000000     
  0.25000000000000000       0.75000000000000000        0.0000000000000000     
  0.25000000000000000       0.62500000000000000        0.0000000000000000     
  0.28125000000000000       0.62500000000000000        0.0000000000000000     
  0.31250000000000000       0.62500000000000000        0.0000000000000000     
  0.34375000000000000       0.62500000000000000        0.0000000000000000     
  0.37500000000000000       0.62500000000000000        0.0000000000000000     
  0.25000000000000000       0.65625000000000000        0.0000000000000000     
  0.28125000000000000       0.65625000000000000        0.0000000000000000     
  0.31250000000000000       0.65625000000000000        0.0000000000000000     
  0.34375000000000000       0.65625000000000000        0.0000000000000000     
  0.37500000000000000       0.65625000000000000        0.0000000000000000     
  0.25000000000000000       0.68750000000000000        0.0000000000000000     
  0.28125000000000000       0.68750000000000000        0.0000000000000000     
  0.31250000000000000       0.68750000000000000        0.0000000000000000     
  0.34375000000000000       0.68750000000000000        0.0000000000000000     
  0.37500000000000000       0.68750000000000000        0.0000000000000000     
  0.25000000000000000       0.71875000000000000        0.0000000000000000     
  0.28125000000000000       0.71875000000000000        0.0000000000000000     
  0.31250000000000000       0.71875000000000000        0.0000000000000000     
  0.34375000000000000       0.71875000000000000        0.0000000000000000     
  0.37500000000000000       0.71875000000000000        0.0000000000000000     
  0.25000000000000000       0.75000000000000000        0.0000000000000000     
  0.28125000000000000       0.75000000000000000        0.0000000000000000     
  0.31250000000000000       0.75000000000000000        0.0000000000000000     
  0.34375000000000000       0.75000000000000000        0.0000000000000000     
  0.37500000000000000       0.75000000000000000        0.0000000000000000     
  0.37500000000000000       0.62500000000000000        0.0000000000000000     
  0.40625000000000000       0.62500000000000000        0.0000000000000000     
  0.43750000000000000       0.62500000000000000        0.0000000000000000     
  0.46875000000000000       0.62500000000000000        0.0000000000000000     
  0.50000000000000000       0.62500000000000000        0.0000000000000000     
  0.37500000000000000       0.65625000000000000        0.0000000000000000     
  0.40625000000000000       0.65625000000000000        0.0000000000000000     
  0.43750000000000000       0.65625000000000000        0.0000000000000000     
  0.46875000000000000       0.65625000000000000        0.0000000000000000     
  0.50000000000000000       0.65625000000000000        0.0000000000000000     
  0.37500000000000000       0.68750000000000000        0.0000000000000000     
  0.40625000000000000       0.68750000000000000        0.0000000000000000     
  0.43750000000000000       0.68750000000000000        0.0000000000000000     
  0.46875000000000000       0.68750000000000000        0.0000000000000000     
  0.50000000000000000       0.68750000000000000        0.0000000000000000     
  0.37500000000000000       0.71875000000000000        0.0000000000000000     
  0.40625000000000000       0.71875000000000000        0.0000000000000000     
  0.43750000000000000       0.71875000000000000        0.0000000000000000     
  0.46875000000000000       0.71875000000000000        0.0000000000000000     
  0.50000000000000000       0.71875000000000000        0.0000000000000000     
  0.37500000000000000       0.75000000000000000        0.0000000000000000     
  0.40625000000000000       0.75000000000000000        0.0000000000000000     
  0.43750000000000000       0.75000000000000000        0.0000000000000000     
  0.46875000000000000       0.75000000000000000        0.0000000000000000     
  0.50000000000000000       0.75000000000000000        0.0000000000000000     
  0.50000000000000000       0.62500000000000000        0.0000000000000000     
  0.53125000000000000       0.62500000000000000        0.0000000000000000     
  0.56250000000000000       0.62500000000000000        0.0000000000000000     
  0.59375000000000000       0.62500000000000000        0.0000000000000000     
  0.62500000000000000       0.62500000000000000        0.0000000000000000     
  0.50000000000000000       0.65625000000000000        0.0000000000000000     
  0.53125000000000000       0.65625000000000000        0.0000000000000000     
  0.56250000000000000       0.65625000000000000        0.0000000000000000     
  0.59375000000000000       0.65625000000000000        0.0000000000000000     
  0.62500000000000000       0.65625000000000000        0.0000000000000000     
  0.50000000000000000       0.68750000000000000        0.0000000000000000     
  0.53125000000000000       0.68750000000000000        0.0000000000000000     
  0.56250000000000000       0.68750000000000000        0.0000000000000000     
  0.59375000000000000       0.68750000000000000        0.0000000000000000     
  0.62500000000000000       0.68750000000000000        0.0000000000000000     
  0.50000000000000000       0.71875000000000000        0.0000000000000000     
  0.53125000000000000       0.71875000000000000        0.0000000000000000     
  0.56250000000000000       0.71875000000000000        0.0000000000000000     
  0.59375000000000000       0.71875000000000000        0.0000000000000000     
  0.62500000000000000       0.71875000000000000        0.0000000000000000     
  0.50000000000000000       0.75000000000000000        0.0000000000000000     
  0.53125000000000000       0.75000000000000000        0.0000000000000000     
  0.56250000000000000       0.75000000000000000        0.0000000000000000     
  0.59375000000000000       0.75000000000000000        0.0000000000000000     
  0.62500000000000000       0.75000000000000000        0.0000000000000000     
  0.62500000000000000       0.62500000000000000        0.0000000000000000     
  0.65625000000000000       0.62500000000000000        0.0000000000000000     
  0.68750000000000000       0.62500000000000000        0.0000000000000000     
  0.71875000000000000       0.62500000000000000        0.0000000000000000     
  0.75000000000000000       0.62500000000000000        0.0000000000000000     
  0.62500000000000000       0.65625000000000000        0.0000000000000000     
  0.65625000000000000       0.65625000000000000        0.0000000000000000     
  0.68750000000000000       0.65625000000000000        0.0000000000000000     
  0.71875000000000000       0.65625000000000000        0.0000000000000000     
  0.75000000000000000       0.65625000000000000        0.0000000000000000     
  0.62500000000000000       0.68750000000000000        0.0000000000000000     
  0.65625000000000000       0.68750000000000000        0.0000000000000000     
  0.68750000000000000       0.68750000000000000        0.0000000000000000     
  0.71875000000000000       0.68750000000000000        0.0000000000000000     
  0.75000000000000000       0.68750000000000000        0.0000000000000000     
  0.62500000000000000       0.71875000000000000        0.0000000000000000     
  0.65625000000000000       0.71875000000000000        0.0000000000000000     
  0.68750000000000000       0.71875000000000000        0.0000000000000000     
  0.71875000000000000       0.71875000000000000        0.0000000000000000     
  0.75000000000000000       0.71875000000000000        0.0000000000000000     
  0.62500000000000000       0.75000000000000000        0.0000000000000000     
  0.65625000000000000       0.75000000000000000        0.0000000000000000     
  0.68750000000000000       0.75000000000000000        0.0000000000000000     
  0.71875000000000000       0.75000000000000000        0.0000000000000000     
  0.75000000000000000       0.75000000000000000        0.0000000000000000     
  0.75000000000000000       0.62500000000000000        0.0000000000000000     
  0.78125000000000000       0.62500000000000000        0.0000000000000000     
  0.81250000000000000       0.62500000000000000        0.0000000000000000     
  0.84375000000000000       0.62500000000000000        0.0000000000000000     
  0.87500000000000000       0.62500000000000000        0.0000000000000000     
  0.75000000000000000       0.65625000000000000        0.0000000000000000     
  0.78125000000000000       0.65625000000000000        0.0000000000000000     
  0.81250000000000000       0.65625000000000000        0.0000000000000000     
  0.84375000000000000       0.65625000000000000        0.0000000000000000     
  0.87500000000000000       0.65625000000000000        0.0000000000000000     
  0.75000000000000000       0.68750000000000000        0.0000000000000000     
  0.78125000000000000       0.68750000000000000        0.0000000000000000     
  0.81250000000000000       0.68750000000000000        0.0000000000000000     
  0.84375000000000000       0.68750000000000000        0.0000000000000000     
  0.87500000000000000       0.68750000000000000        0.0000000000000000     
  0.75000000000000000       0.71875000000000000        0.0000000000000000     
  0.78125000000000000       0.71875000000000000        0.0000000000000000     
  0.81250000000000000       0.71875000000000000        0.0000000000000000     
  0.84375000000000000       0.71875000000000000        0.0000000000000000     
  0.87500000000000000       0.71875000000000000        0.0000000000000000     
  0.75000000000000000       0.75000000000000000        0.0000000000000000     
  0.78125000000000000       0.75000000000000000        0.0000000000000000     
  0.81250000000000000       0.75000000000000000        0.0000000000000000     
  0.84375000000000000       0.75000000000000000        0.0000000000000000     
  0.87500000000000000       0.75000000000000000        0.0000000000000000     
  0.87500000000000000       0.62500000000000000        0.0000000000000000     
  0.90625000000000000       0.62500000000000000        0.0000000000000000     
  0.93750000000000000       0.62500000000000000        0.0000000000000000     
  0.96875000000000000       0.62500000000000000        0.0000000000000000     
   1.0000000000000000       0.62500000000000000        0.0000000000000000     
  0.87500000000000000       0.65625000000000000        0.0000000000000000     
  0.90625000000000000       0.65625000000000000        0.0000000000000000     
  0.93750000000000000       0.65625000000000000        0.0000000000000000     
  0.96875000000000000       0.65625000000000000        0.0000000000000000     
   1.0000000000000000       0.65625000000000000        0.0000000000000000     
  0.87500000000000000       0.68750000000000000        0.0000000000000000     
  0.90625000000000000       0.68750000000000000        0.0000000000000000     
  0.93750000000000000       0.68750000000000000        0.0000000000000000     
  0.96875000000000000       0.68750000000000000        0.0000000000000000     
   1.0000000000000000       0.68750000000000000        0.0000000000000000     
  0.87500000000000000       0.71875000000000000        0.0000000000000000     
  0.90625000000000000       0.71875000000000000        0.0000000000000000     
  0.93750000000000000       0.71875000000000000        0.0000000000000000     
  0.96875000000000000       0.71875000000000000        0.0000000000000000     
   1.0000000000000000       0.71875000000000000        0.0000000000000000     
  0.87500000000000000       0.75000000000000000        0.0000000000000000     
  0.90625000000000000       0.75000000000000000        0.0000000000000000     
  0.93750000000000000       0.75000000000000000        0.0000000000000000     
  0.96875000000000000       0.75000000000000000        0.0000000000000000     
   1.0000000000000000       0.75000000000000000        0.0000000000000000     
   0.0000000000000000       0.75000000000000000        0.0000000000000000     
   3.1250000000000000E-002  0.75000000000000000        0.0000000000000000     
   6.2500000000000000E-002  0.75000000000000000        0.0000000000000000     
   9.3750000000000000E-002  0.75000000000000000        0.0000000000000000     
  0.12500000000000000       0.75000000000000000        0.0000000000000000     
   0.0000000000000000       0.78125000000000000        0.0000000000000000     
   3.1250000000000000E-002  0.78125000000000000        0.0000000000000000     
   6.2500000000000000E-002  0.78125000000000000        0.0000000000000000     
   9.3750000000000000E-002  0.78125000000000000        0.0000000000000000     
  0.12500000000000000       0.78125000000000000        0.0000000000000000     
   0.0000000000000000       0.81250000000000000        0.0000000000000000     
   3.1250000000000000E-002  0.81250000000000000        0.0000000000000000     
   6.2500000000000000E-002  0.81250000000000000        0.0000000000000000     
   9.3750000000000000E-002  0.81250000000000000        0.0000000000000000     
  0.12500000000000000       0.81250000000000000        0.0000000000000000     
   0.0000000000000000       0.84375000000000000        0.0000000000000000     
   3.1250000000000000E-002  0.84375000000000000        0.0000000000000000     
   6.2500000000000000E-002  0.84375000000000000        0.0000000000000000     
   9.3750000000000000E-002  0.84375000000000000        0.0000000000000000     
  0.12500000000000000       0.84375000000000000        0.0000000000000000     
   0.0000000000000000       0.87500000000000000        0.0000000000000000     
   3.1250000000000000E-002  0.87500000000000000        0.0000000000000000     
   6.2500000000000000E-002  0.87500000000000000        0.0000000000000000     
   9.3750000000000000E-002  0.87500000000000000        0.0000000000000000     
  0.12500000000000000       0.87500000000000000        0.0000000000000000     
  0.12500000000000000       0.75000000000000000        0.0000000000000000     
  0.15625000000000000       0.75000000000000000        0.0000000000000000     
  0.18750000000000000       0.75000000000000000        0.0000000000000000     
  0.21875000000000000       0.75000000000000000        0.0000000000000000     
  0.25000000000000000       0.75000000000000000        0.0000000000000000     
  0.12500000000000000       0.78125000000000000        0.0000000000000000     
  0.15625000000000000       0.78125000000000000        0.0000000000000000     
  0.18750000000000000       0.78125000000000000        0.0000000000000000     
  0.21875000000000000       0.78125000000000000        0.0000000000000000     
  0.25000000000000000       0.78125000000000000        0.0000000000000000     
  0.12500000000000000       0.81250000000000000        0.0000000000000000     
  0.15625000000000000       0.81250000000000000        0.0000000000000000     
  0.18750000000000000       0.81250000000000000        0.0000000000000000     
  0.21875000000000000       0.81250000000000000        0.0000000000000000     
  0.25000000000000000       0.81250000000000000        0.0000000000000000     
  0.12500000000000000       0.84375000000000000        0.0000000000000000     
  0.15625000000000000       0.84375000000000000        0.0000000000000000     
  0.18750000000000000       0.84375000000000000        0.0000000000000000     
  0.21875000000000000       0.84375000000000000        0.0000000000000000     
  0.25000000000000000       0.84375000000000000        0.0000000000000000     
  0.12500000000000000       0.87500000000000000        0.0000000000000000     
  0.15625000000000000       0.87500000000000000        0.0000000000000000     
  0.18750000000000000       0.87500000000000000        0.0000000000000000     
  0.21875000000000000       0.87500000000000000        0.0000000000000000     
  0.25000000000000000       0.87500000000000000        0.0000000000000000     
  0.25000000000000000       0.75000000000000000        0.0000000000000000     
  0.28125000000000000       0.75000000000000000        0.0000000000000000     
  0.31250000000000000       0.75000000000000000        0.0000000000000000     
  0.34375000000000000       0.75000000000000000        0.0000000000000000     
  0.37500000000000000       0.75000000000000000        0.0000000000000000     
  0.25000000000000000       0.78125000000000000        0.0000000000000000     
  0.28125000000000000       0.78125000000000000        0.0000000000000000     
  0.31250000000000000       0.78125000000000000        0.0000000000000000     
  0.34375000000000000       0.78125000000000000        0.0000000000000000     
  0.37500000000000000       0.78125000000000000        0.0000000000000000     
  0.25000000000000000       0.81250000000000000        0.0000000000000000     
  0.28125000000000000       0.81250000000000000        0.0000000000000000     
  0.31250000000000000       0.81250000000000000        0.0000000000000000     
  0.34375000000000000       0.81250000000000000        0.0000000000000000     
  0.37500000000000000       0.81250000000000000        0.0000000000000000     
  0.25000000000000000       0.84375000000000000        0.0000000000000000     
  0.28125000000000000       0.84375000000000000        0.0000000000000000     
  0.31250000000000000       0.84375000000000000        0.0000000000000000     
  0.34375000000000000       0.84375000000000000        0.0000000000000000     
  0.37500000000000000       0.84375000000000000        0.0000000000000000     
  0.25000000000000000       0.87500000000000000        0.0000000000000000     
  0.28125000000000000       0.87500000000000000        0.0000000000000000     
  0.31250000000000000       0.87500000000000000        0.0000000000000000     
  0.34375000000000000       0.87500000000000000        0.0000000000000000     
  0.37500000000000000       0.87500000000000000        0.0000000000000000     
  0.37500000000000000       0.75000000000000000        0.0000000000000000     
  0.40625000000000000       0.75000000000000000        0.0000000000000000     
  0.43750000000000000       0.75000000000000000        0.0000000000000000     
  0.46875000000000000       0.75000000000000000        0.0000000000000000     
  0.50000000000000000       0.75000000000000000        0.0000000000000000     
  0.37500000000000000       0.78125000000000000        0.0000000000000000     
  0.40625000000000000       0.78125000000000000        0.0000000000000000     
  0.43750000000000000       0.78125000000000000        0.0000000000000000     
  0.46875000000000000       0.78125000000000000        0.0000000000000000     
  0.50000000000000000       0.78125000000000000        0.0000000000000000     
  0.37500000000000000       0.81250000000000000        0.0000000000000000     
  0.40625000000000000       0.81250000000000000        0.0000000000000000     
  0.43750000000000000       0.81250000000000000        0.0000000000000000     
  0.46875000000000000       0.81250000000000000        0.0000000000000000     
  0.50000000000000000       0.81250000000000000        0.0000000000000000     
  0.37500000000000000       0.84375000000000000        0.0000000000000000     
  0.40625000000000000       0.84375000000000000        0.0000000000000000     
  0.43750000000000000       0.84375000000000000        0.0000000000000000     
  0.46875000000000000       0.84375000000000000        0.0000000000000000     
  0.50000000000000000       0.84375000000000000        0.0000000000000000     
  0.37500000000000000       0.87500000000000000        0.0000000000000000     
  0.40625000000000000       0.87500000000000000        0.0000000000000000     
  0.43750000000000000       0.87500000000000000        0.0000000000000000     
  0.46875000000000000       0.87500000000000000        0.0000000000000000     
  0.50000000000000000       0.87500000000000000        0.0000000000000000     
  0.50000000000000000       0.75000000000000000        0.0000000000000000     
  0.53125000000000000       0.75000000000000000        0.0000000000000000     
  0.56250000000000000       0.75000000000000000        0.0000000000000000     
  0.59375000000000000       0.75000000000000000        0.0000000000000000     
  0.62500000000000000       0.75000000000000000        0.0000000000000000     
  0.50000000000000000       0.78125000000000000        0.0000000000000000     
  0.53125000000000000       0.78125000000000000        0.0000000000000000     
  0.56250000000000000       0.78125000000000000        0.0000000000000000     
  0.59375000000000000       0.78125000000000000        0.0000000000000000     
  0.62500000000000000       0.78125000000000000        0.0000000000000000     
  0.50000000000000000       0.81250000000000000        0.0000000000000000     
  0.53125000000000000       0.81250000000000000        0.0000000000000000     
  0.56250000000000000       0.81250000000000000        0.0000000000000000     
  0.59375000000000000       0.81250000000000000        0.0000000000000000     
  0.62500000000000000       0.81250000000000000        0.0000000000000000     
  0.50000000000000000       0.84375000000000000        0.0000000000000000     
  0.53125000000000000       0.84375000000000000        0.0000000000000000     
  0.56250000000000000       0.84375000000000000        0.0000000000000000     
  0.59375000000000000       0.84375000000000000        0.0000000000000000     
  0.62500000000000000       0.84375000000000000        0.0000000000000000     
  0.50000000000000000       0.87500000000000000        0.0000000000000000     
  0.53125000000000000       0.87500000000000000        0.0000000000000000     
  0.56250000000000000       0.87500000000000000        0.0000000000000000     
  0.59375000000000000       0.87500000000000000        0.0000000000000000     
  0.62500000000000000       0.87500000000000000        0.0000000000000000     
  0.62500000000000000       0.75000000000000000        0.0000000000000000     
  0.65625000000000000       0.75000000000000000        0.0000000000000000     
  0.68750000000000000       0.75000000000000000        0.0000000000000000     
  0.71875000000000000       0.75000000000000000        0.0000000000000000     
  0.75000000000000000       0.75000000000000000        0.0000000000000000     
  0.62500000000000000       0.78125000000000000        0.0000000000000000     
  0.65625000000000000       0.78125000000000000        0.0000000000000000     
  0.68750000000000000       0.78125000000000000        0.0000000000000000     
  0.71875000000000000       0.78125000000000000        0.0000000000000000     
  0.75000000000000000       0.78125000000000000        0.0000000000000000     
  0.62500000000000000       0.81250000000000000        0.0000000000000000     
  0.65625000000000000       0.81250000000000000        0.0000000000000000     
  0.68750000000000000       0.81250000000000000        0.0000000000000000     
  0.71875000000000000       0.81250000000000000        0.0000000000000000     
  0.75000000000000000       0.81250000000000000        0.0000000000000000     
  0.62500000000000000       0.84375000000000000        0.0000000000000000     
  0.65625000000000000       0.84375000000000000        0.0000000000000000     
  0.68750000000000000       0.84375000000000000        0.0000000000000000     
  0.71875000000000000       0.84375000000000000        0.0000000000000000     
  0.75000000000000000       0.84375000000000000        0.0000000000000000     
  0.62500000000000000       0.87500000000000000        0.0000000000000000     
  0.65625000000000000       0.87500000000000000        0.0000000000000000     
  0.68750000000000000       0.87500000000000000        0.0000000000000000     
  0.71875000000000000       0.87500000000000000        0.0000000000000000     
  0.75000000000000000       0.87500000000000000        0.0000000000000000     
  0.75000000000000000       0.75000000000000000        0.0000000000000000     
  0.78125000000000000       0.75000000000000000        0.0000000000000000     
  0.81250000000000000       0.75000000000000000        0.0000000000000000     
  0.84375000000000000       0.75000000000000000        0.0000000000000000     
  0.87500000000000000       0.75000000000000000        0.0000000000000000     
  0.75000000000000000       0.78125000000000000        0.0000000000000000     
  0.78125000000000000       0.78125000000000000        0.0000000000000000     
  0.81250000000000000       0.78125000000000000        0.0000000000000000     
  0.84375000000000000       0.78125000000000000        0.0000000000000000     
  0.87500000000000000       0.78125000000000000        0.0000000000000000     
  0.75000000000000000       0.81250000000000000        0.0000000000000000     
  0.78125000000000000       0.81250000000000000        0.0000000000000000     
  0.81250000000000000       0.81250000000000000        0.0000000000000000     
  0.84375000000000000       0.81250000000000000        0.0000000000000000     
  0.87500000000000000       0.81250000000000000        0.0000000000000000     
  0.75000000000000000       0.84375000000000000        0.0000000000000000     
  0.78125000000000000       0.84375000000000000        0.0000000000000000     
  0.81250000000000000       0.84375000000000000        0.0000000000000000     
  0.84375000000000000       0.84375000000000000        0.0000000000000000     
  0.87500000000000000       0.84375000000000000        0.0000000000000000     
  0.75000000000000000       0.87500000000000000        0.0000000000000000     
  0.78125000000000000       0.87500000000000000        0.0000000000000000     
  0.81250000000000000       0.87500000000000000        0.0000000000000000     
  0.84375000000000000       0.87500000000000000        0.0000000000000000     
  0.87500000000000000       0.87500000000000000        0.0000000000000000     
  0.87500000000000000       0.75000000000000000        0.0000000000000000     
  0.90625000000000000       0.75000000000000000        0.0000000000000000     
  0.93750000000000000       0.75000000000000000        0.0000000000000000     
  0.96875000000000000       0.75000000000000000        0.0000000000000000     
   1.0000000000000000       0.75000000000000000        0.0000000000000000     
  0.87500000000000000       0.78125000000000000        0.0000000000000000     
  0.90625000000000000       0.78125000000000000        0.0000000000000000     
  0.93750000000000000       0.78125000000000000        0.0000000000000000     
  0.96875000000000000       0.78125000000000000        0.0000000000000000     
   1.0000000000000000       0.78125000000000000        0.0000000000000000     
  0.87500000000000000       0.81250000000000000        0.0000000000000000     
  0.90625000000000000       0.81250000000000000        0.0000000000000000     
  0.93750000000000000       0.81250000000000000        0.0000000000000000     
  0.96875000000000000       0.81250000000000000        0.0000000000000000     
   1.0000000000000000       0.81250000000000000        0.0000000000000000     
  0.87500000000000000       0.84375000000000000        0.0000000000000000     
  0.90625000000000000       0.84375000000000000        0.0000000000000000     
  0.93750000000000000       0.84375000000000000        0.0000000000000000     
  0.96875000000000000       0.84375000000000000        0.0000000000000000     
   1.0000000000000000       0.84375000000000000        0.0000000000000000     
  0.87500000000000000       0.87500000000000000        0.0000000000000000     
  0.90625000000000000       0.87500000000000000        0.0000000000000000     
  0.93750000000000000       0.87500000000000000        0.0000000000000000     
  0.96875000000000000       0.87500000000000000        0.0000000000000000     
   1.0000000000000000       0.87500000000000000        0.0000000000000000     
   0.0000000000000000       0.87500000000000000        0.0000000000000000     
   3.1250000000000000E-002  0.87500000000000000        0.0000000000000000     
   6.2500000000000000E-002  0.87500000000000000        0.0000000000000000     
   9.3750000000000000E-002  0.87500000000000000        0.0000000000000000     
  0.12500000000000000       0.87500000000000000        0.0000000000000000     
   0.0000000000000000       0.90625000000000000        0.0000000000000000     
   3.1250000000000000E-002  0.90625000000000000        0.0000000000000000     
   6.2500000000000000E-002  0.90625000000000000        0.0000000000000000     
   9.3750000000000000E-002  0.90625000000000000        0.0000000000000000     
  0.12500000000000000       0.90625000000000000        0.0000000000000000     
   0.0000000000000000       0.93750000000000000        0.0000000000000000     
   3.1250000000000000E-002  0.93750000000000000        0.0000000000000000     
   6.2500000000000000E-002  0.93750000000000000        0.0000000000000000     
   9.3750000000000000E-002  0.93750000000000000        0.0000000000000000     
  0.12500000000000000       0.93750000000000000        0.0000000000000000     
   0.0000000000000000       0.96875000000000000        0.0000000000000000     
   3.1250000000000000E-002  0.96875000000000000        0.0000000000000000     
   6.2500000000000000E-002  0.96875000000000000        0.0000000000000000     
   9.3750000000000000E-002  0.96875000000000000        0.0000000000000000     
  0.12500000000000000       0.96875000000000000        0.0000000000000000     
   0.0000000000000000        1.0000000000000000        0.0000000000000000     
   3.1250000000000000E-002   1.0000000000000000        0.0000000000000000     
   6.2500000000000000E-002   1.0000000000000000        0.0000000000000000     
   9.3750000000000000E-002   1.0000000000000000        0.0000000000000000     
  0.12500000000000000        1.0000000000000000        0.0000000000000000     
  0.12500000000000000       0.87500000000000000        0.0000000000000000     
  0.15625000000000000       0.87500000000000000        0.0000000000000000     
  0.18750000000000000       0.87500000000000000        0.0000000000000000     
  0.21875000000000000       0.87500000000000000        0.0000000000000000     
  0.25000000000000000       0.87500000000000000        0.0000000000000000     
  0.12500000000000000       0.90625000000000000        0.0000000000000000     
  0.15625000000000000       0.90625000000000000        0.0000000000000000     
  0.18750000000000000       0.90625000000000000        0.0000000000000000     
  0.21875000000000000       0.90625000000000000        0.0000000000000000     
  0.25000000000000000       0.90625000000000000        0.0000000000000000     
  0.12500000000000000       0.93750000000000000        0.0000000000000000     
  0.15625000000000000       0.93750000000000000        0.0000000000000000     
  0.18750000000000000       0.93750000000000000        0.0000000000000000     
  0.21875000000000000       0.93750000000000000        0.0000000000000000     
  0.25000000000000000       0.93750000000000000        0.0000000000000000     
  0.12500000000000000       0.96875000000000000        0.0000000000000000     
  0.15625000000000000       0.96875000000000000        0.0000000000000000     
  0.18750000000000000       0.96875000000000000        0.0000000000000000     
  0.21875000000000000       0.96875000000000000        0.0000000000000000     
  0.25000000000000000       0.96875000000000000        0.0000000000000000     
  0.12500000000000000        1.0000000000000000        0.0000000000000000     
  0.15625000000000000        1.0000000000000000        0.0000000000000000     
  0.18750000000000000        1.0000000000000000        0.0000000000000000     
  0.21875000000000000        1.0000000000000000        0.0000000000000000     
  0.25000000000000000        1.0000000000000000        0.0000000000000000     
  0.25000000000000000       0.87500000000000000        0.0000000000000000     
  0.28125000000000000       0.87500000000000000        0.0000000000000000     
  0.31250000000000000       0.87500000000000000        0.0000000000000000     
  0.34375000000000000       0.87500000000000000        0.0000000000000000     
  0.37500000000000000       0.87500000000000000        0.0000000000000000     
  0.25000000000000000       0.90625000000000000        0.0000000000000000     
  0.28125000000000000       0.90625000000000000        0.0000000000000000     
  0.31250000000000000       0.90625000000000000        0.0000000000000000     
  0.34375000000000000       0.90625000000000000        0.0000000000000000     
  0.37500000000000000       0.90625000000000000        0.0000000000000000     
  0.25000000000000000       0.93750000000000000        0.0000000000000000     
  0.28125000000000000       0.93750000000000000        0.0000000000000000     
  0.31250000000000000       0.93750000000000000        0.0000000000000000     
  0.34375000000000000       0.93750000000000000        0.0000000000000000     
  0.37500000000000000       0.93750000000000000        0.0000000000000000     
  0.25000000000000000       0.96875000000000000        0.0000000000000000     
  0.28125000000000000       0.96875000000000000        0.0000000000000000     
  0.31250000000000000       0.96875000000000000        0.0000000000000000     
  0.34375000000000000       0.96875000000000000        0.0000000000000000     
  0.37500000000000000       0.96875000000000000        0.0000000000000000     
  0.25000000000000000        1.0000000000000000        0.0000000000000000     
  0.28125000000000000        1.0000000000000000        0.0000000000000000     
  0.31250000000000000        1.0000000000000000        0.0000000000000000     
  0.34375000000000000        1.0000000000000000        0.0000000000000000     
  0.37500000000000000        1.0000000000000000        0.0000000000000000     
  0.37500000000000000       0.87500000000000000        0.0000000000000000     
  0.40625000000000000       0.87500000000000000        0.0000000000000000     
  0.43750000000000000       0.87500000000000000        0.0000000000000000     
  0.46875000000000000       0.87500000000000000        0.0000000000000000     
  0.50000000000000000       0.87500000000000000        0.0000000000000000     
  0.37500000000000000       0.90625000000000000        0.0000000000000000     
  0.40625000000000000       0.90625000000000000        0.0000000000000000     
  0.43750000000000000       0.90625000000000000        0.0000000000000000     
  0.46875000000000000       0.90625000000000000        0.0000000000000000     
  0.50000000000000000       0.90625000000000000        0.0000000000000000     
  0.37500000000000000       0.93750000000000000        0.0000000000000000     
  0.40625000000000000       0.93750000000000000        0.0000000000000000     
  0.43750000000000000       0.93750000000000000        0.0000000000000000     
  0.46875000000000000       0.93750000000000000        0.0000000000000000     
  0.50000000000000000       0.93750000000000000        0.0000000000000000     
  0.37500000000000000       0.96875000000000000        0.0000000000000000     
  0.40625000000000000       0.96875000000000000        0.0000000000000000     
  0.43750000000000000       0.96875000000000000        0.0000000000000000     
  0.46875000000000000       0.96875000000000000        0.0000000000000000     
  0.50000000000000000       0.96875000000000000        0.0000000000000000     
  0.37500000000000000        1.0000000000000000        0.0000000000000000     
  0.40625000000000000        1.0000000000000000        0.0000000000000000     
  0.43750000000000000        1.0000000000000000        0.0000000000000000     
  0.46875000000000000        1.0000000000000000        0.0000000000000000     
  0.50000000000000000        1.0000000000000000        0.0000000000000000     
  0.50000000000000000       0.87500000000000000        0.0000000000000000     
  0.53125000000000000       0.87500000000000000        0.0000000000000000     
  0.56250000000000000       0.87500000000000000        0.0000000000000000     
  0.59375000000000000       0.87500000000000000        0.0000000000000000     
  0.62500000000000000       0.87500000000000000        0.0000000000000000     
  0.50000000000000000       0.90625000000000000        0.0000000000000000     
  0.53125000000000000       0.90625000000000000        0.0000000000000000     
  0.56250000000000000       0.90625000000000000        0.0000000000000000     
  0.59375000000000000       0.90625000000000000        0.0000000000000000     
  0.62500000000000000       0.90625000000000000        0.0000000000000000     
  0.50000000000000000       0.93750000000000000        0.0000000000000000     
  0.53125000000000000       0.93750000000000000        0.0000000000000000     
  0.56250000000000000       0.93750000000000000        0.0000000000000000     
  0.59375000000000000       0.93750000000000000        0.0000000000000000     
  0.62500000000000000       0.93750000000000000        0.0000000000000000     
  0.50000000000000000       0.96875000000000000        0.0000000000000000     
  0.53125000000000000       0.96875000000000000        0.0000000000000000     
  0.56250000000000000       0.96875000000000000        0.0000000000000000     
  0.59375000000000000       0.96875000000000000        0.0000000000000000     
  0.62500000000000000       0.96875000000000000        0.0000000000000000     
  0.50000000000000000        1.0000000000000000        0.0000000000000000     
  0.53125000000000000        1.0000000000000000        0.0000000000000000     
  0.56250000000000000        1.0000000000000000        0.0000000000000000     
  0.59375000000000000        1.0000000000000000        0.0000000000000000     
  0.62500000000000000        1.0000000000000000        0.0000000000000000     
  0.62500000000000000       0.87500000000000000        0.0000000000000000     
  0.65625000000000000       0.87500000000000000        0.0000000000000000     
  0.68750000000000000       0.87500000000000000        0.0000000000000000     
  0.71875000000000000       0.87500000000000000        0.0000000000000000     
  0.75000000000000000       0.87500000000000000        0.0000000000000000     
  0.62500000000000000       0.90625000000000000        0.0000000000000000     
  0.65625000000000000       0.90625000000000000        0.0000000000000000     
  0.68750000000000000       0.90625000000000000        0.0000000000000000     
  0.71875000000000000       0.90625000000000000        0.0000000000000000     
  0.75000000000000000       0.90625000000000000        0.0000000000000000     
  0.62500000000000000       0.93750000000000000        0.0000000000000000     
  0.65625000000000000       0.93750000000000000        0.0000000000000000     
  0.68750000000000000       0.93750000000000000        0.0000000000000000     
  0.71875000000000000       0.93750000000000000        0.0000000000000000     
  0.75000000000000000       0.93750000000000000        0.0000000000000000     
  0.62500000000000000       0.96875000000000000        0.0000000000000000     
  0.65625000000000000       0.96875000000000000        0.0000000000000000     
  0.68750000000000000       0.96875000000000000        0.0000000000000000     
  0.71875000000000000       0.96875000000000000        0.0000000000000000     
  0.75000000000000000       0.96875000000000000        0.0000000000000000     
  0.62500000000000000        1.0000000000000000        0.0000000000000000     
  0.65625000000000000        1.0000000000000000        0.0000000000000000     
  0.68750000000000000        1.0000000000000000        0.0000000000000000     
  0.71875000000000000        1.0000000000000000        0.0000000000000000     
  0.75000000000000000        1.0000000000000000        0.0000000000000000     
  0.75000000000000000       0.87500000000000000        0.0000000000000000     
  0.78125000000000000       0.87500000000000000        0.0000000000000000     
  0.81250000000000000       0.87500000000000000        0.0000000000000000     
  0.84375000000000000       0.87500000000000000        0.0000000000000000     
  0.87500000000000000       0.87500000000000000        0.0000000000000000     
  0.75000000000000000       0.90625000000000000        0.0000000000000000     
  0.78125000000000000       0.90625000000000000        0.0000000000000000     
  0.81250000000000000       0.90625000000000000        0.0000000000000000     
  0.84375000000000000       0.90625000000000000        0.0000000000000000     
  0.87500000000000000       0.90625000000000000        0.0000000000000000     
  0.75000000000000000       0.93750000000000000        0.0000000000000000     
  0.78125000000000000       0.93750000000000000        0.0000000000000000     
  0.81250000000000000       0.93750000000000000        0.0000000000000000     
  0.84375000000000000       0.93750000000000000        0.0000000000000000     
  0.87500000000000000       0.93750000000000000        0.0000000000000000     
  0.75000000000000000       0.96875000000000000        0.0000000000000000     
  0.78125000000000000       0.96875000000000000        0.0000000000000000     
  0.81250000000000000       0.96875000000000000        0.0000000000000000     
  0.84375000000000000       0.96875000000000000        0.0000000000000000     
  0.87500000000000000       0.96875000000000000        0.0000000000000000     
  0.75000000000000000        1.0000000000000000        0.0000000000000000     
  0.78125000000000000        1.0000000000000000        0.0000000000000000     
  0.81250000000000000        1.0000000000000000        0.0000000000000000     
  0.84375000000000000        1.0000000000000000        0.0000000000000000     
  0.87500000000000000        1.0000000000000000        0.0000000000000000     
  0.87500000000000000       0.87500000000000000        0.0000000000000000     
  0.90625000000000000       0.87500000000000000        0.0000000000000000     
  0.93750000000000000       0.87500000000000000        0.0000000000000000     
  0.96875000000000000       0.87500000000000000        0.0000000000000000     
   1.0000000000000000       0.87500000000000000        0.0000000000000000     
  0.87500000000000000       0.90625000000000000        0.0000000000000000     
  0.90625000000000000       0.90625000000000000        0.0000000000000000     
  0.93750000000000000       0.90625000000000000        0.0000000000000000     
  0.96875000000000000       0.90625000000000000        0.0000000000000000     
   1.0000000000000000       0.90625000000000000        0.0000000000000000     
  0.87500000000000000       0.93750000000000000        0.0000000000000000     
  0.90625000000000000       0.93750000000000000        0.0000000000000000     
  0.93750000000000000       0.93750000000000000        0.0000000000000000     
  0.96875000000000000       0.93750000000000000        0.0000000000000000     
   1.0000000000000000       0.93750000000000000        0.0000000000000000     
  0.87500000000000000       0.96875000000000000        0.0000000000000000     
  0.90625000000000000       0.96875000000000000        0.0000000000000000     
  0.93750000000000000       0.96875000000000000        0.0000000000000000     
  0.96875000000000000       0.96875000000000000        0.0000000000000000     
   1.0000000000000000       0.96875000000000000        0.0000000000000000     
  0.87500000000000000        1.0000000000000000        0.0000000000000000     
  0.90625000000000000        1.0000000000000000        0.0000000000000000     
  0.93750000000000000        1.0000000000000000        0.0000000000000000     
  0.96875000000000000        1.0000000000000000        0.0000000000000000     
   1.0000000000000000        1.0000000000000000        0.0000000000000000     
 </DataArray>
 </Points>
 <Cells>
 <DataArray  type="Int32"  Name="connectivity"  format="ascii">
           0           1           6           5
           1           2           7           6
           2           3           8           7
           3           4           9           8
           5           6          11          10
           6           7          12          11
           7           8          13          12
           8           9          14          13
          10          11          16          15
          11          12          17          16
          12          13          18          17
          13          14          19          18
          15          16          21          20
          16          17          22          21
          17          18          23          22
          18          19          24          23
          25          26          31          30
          26          27          32          31
          27          28          33          32
          28          29          34          33
          30          31          36          35
          31          32          37          36
          32          33          38          37
          33          34          39          38
          35          36          41          40
          36          37          42          41
          37          38          43          42
          38          39          44          43
          40          41          46          45
          41          42          47          46
          42          43          48          47
          43          44          49          48
          50          51          56          55
          51          52          57          56
          52          53          58          57
          53          54          59          58
          55          56          61          60
          56          57          62          61
          57          58          63          62
          58          59          64          63
          60          61          66          65
          61          62          67          66
          62          63          68          67
          63          64          69          68
          65          66          71          70
          66          67          72          71
          67          68          73          72
          68          69          74          73
          75          76          81          80
          76          77          82          81
          77          78          83          82
          78          79          84          83
          80          81          86          85
          81          82          87          86
          82          83          88          87
          83          84          89          88
          85          86          91          90
          86          87          92          91
          87          88          93          92
          88          89          94          93
          90          91          96          95
          91          92          97          96
          92          93          98          97
          93          94          99          98
         100         101         106         105
         101         102         107         106
         102         103         108         107
         103         104         109         108
         105         106         111         110
         106         107         112         111
         107         108         113         112
         108         109         114         113
         110         111         116         115
         111         112         117         116
         112         113         118         117
         113         114         119         118
         115         116         121         120
         116         117         122         121
         117         118         123         122
         118         119         124         123
         125         126         131         130
         126         127         132         131
         127         128         133         132
         128         129         134         133
         130         131         136         135
         131         132         137         136
         132         133         138         137
         133         134         139         138
         135         136         141         140
         136         137         142         141
         137         138         143         142
         138         139         144         143
         140         141         146         145
         141         142         147         146
         142         143         148         147
         143         144         149         148
         150         151         156         155
         151         152         157         156
         152         153         158         157
         153         154         159         158
         155         156         161         160
         156         157         162         161
         157         158         163         162
         158         159         164         163
         160         161         166         165
         161         162         167         166
         162         163         168         167
         163         164         169         168
         165         166         171         170
         166         167         172         171
         167         168         173         172
         168         169         174         173
         175         176         181         180
         176         177         182         181
         177         178         183         182
         178         179         184         183
         180         181         186         185
         181         182         187         186
         182         183         188         187
         183         184         189         188
         185         186         191         190
         186         187         192         191
         187         188         193         192
         188         189         194         193
         190         191         196         195
         191         192         197         196
         192         193         198         197
         193         194         199         198
         200         201         206         205
         201         202         207         206
         202         203         208         207
         203         204         209         208
         205         206         211         210
         206         207         212         211
         207         208         213         212
         208         209         214         213
         210         211         216         215
         211         212         217         216
         212         213         218         217
         213         214         219         218
         215         216         221         220
         216         217         222         221
         217         218         223         222
         218         219         224         223
         225         226         231         230
         226         227         232         231
         227         228         233         232
         228         229         234         233
         230         231         236         235
         231         232         237         236
         232         233         238         237
         233         234         239         238
         235         236         241         240
         236         237         242         241
         237         238         243         242
         238         239         244         243
         240         241         246         245
         241         242         247         246
         242         243         248         247
         243         244         249         248
         250         251         256         255
         251         252         257         256
         252         253         258         257
         253         254         259         258
         255         256         261         260
         256         257         262         261
         257         258         263         262
         258         259         264         263
         260         261         266         265
         261         262         267         266
         262         263         268         267
         263         264         269         268
         265         266         271         270
         266         267         272         271
         267         268         273         272
         268         269         274         273
         275         276         281         280
         276         277         282         281
         277         278         283         282
         278         279         284         283
         280         281         286         285
         281         282         287         286
         282         283         288         287
         283         284         289         288
         285         286         291         290
         286         287         292         291
         287         288         293         292
         288         289         294         293
         290         291         296         295
         291         292         297         296
         292         293         298         297
         293         294         299         298
         300         301         306         305
         301         302         307         306
         302         303         308         307
         303         304         309         308
         305         306         311         310
         306         307         312         311
         307         308         313         312
         308         309         314         313
         310         311         316         315
         311         312         317         316
         312         313         318         317
         313         314         319         318
         315         316         321         320
         316         317         322         321
         317         318         323         322
         318         319         324         323
         325         326         331         330
         326         327         332         331
         327         328         333         332
         328         329         334         333
         330         331         336         335
         331         332         337         336
         332         333         338         337
         333         334         339         338
         335         336         341         340
         336         337         342         341
         337         338         343         342
         338         339         344         343
         340         341         346         345
         341         342         347         346
         342         343         348         347
         343         344         349         348
         350         351         356         355
         351         352         357         356
         352         353         358         357
         353         354         359         358
         355         356         361         360
         356         357         362         361
         357         358         363         362
         358         359         364         363
         360         361         366         365
         361         362         367         366
         362         363         368         367
         363         364         369         368
         365         366         371         370
         366         367         372         371
         367         368         373         372
         368         369         374         373
         375         376         381         380
         376         377         382         381
         377         378         383         382
         378         379         384         383
         380         381         386         385
         381         382         387         386
         382         383         388         387
         383         384         389         388
         385         386         391         390
         386         387         392         391
         387         388         393         392
         388         389         394         393
         390         391         396         395
         391         392         397         396
         392         393         398         397
         393         394         399         398
         400         401         406         405
         401         402         407         406
         402         403         408         407
         403         404         409         408
         405         406         411         410
         406         407         412         411
         407         408         413         412
         408         409         414         413
         410         411         416         415
         411         412         417         416
         412         413         418         417
         413         414         419         418
         415         416         421         420
         416         417         422         421
         417         418         423         422
         418         419         424         423
         425         426         431         430
         426         427         432         431
         427         428         433         432
         428         429         434         433
         430         431         436         435
         431         432         437         436
         432         433         438         437
         433         434         439         438
         435         436         441         440
         436         437         442         441
         437         438         443         442
         438         439         444         443
         440         441         446         445
         441         442         447         446
         442         443         448         447
         443         444         449         448
         450         451         456         455
         451         452         457         456
         452         453         458         457
         453         454         459         458
         455         456         461         460
         456         457         462         461
         457         458         463         462
         458         459         464         463
         460         461         466         465
         461         462         467         466
         462         463         468         467
         463         464         469         468
         465         466         471         470
         466         467         472         471
         467         468         473         472
         468         469         474         473
         475         476         481         480
         476         477         482         481
         477         478         483         482
         478         479         484         483
         480         481         486         485
         481         482         487         486
         482         483         488         487
         483         484         489         488
         485         486         491         490
         486         487         492         491
         487         488         493         492
         488         489         494         493
         490         491         496         495
         491         492         497         496
         492         493         498         497
         493         494         499         498
         500         501         506         505
         501         502         507         506
         502         503         508         507
         503         504         509         508
         505         506         511         510
         506         507         512         511
         507         508         513         512
         508         509         514         513
         510         511         516         515
         511         512         517         516
         512         513         518         517
         513         514         519         518
         515         516         521         520
         516         517         522         521
         517         518         523         522
         518         519         524         523
         525         526         531         530
         526         527         532         531
         527         528         533         532
         528         529         534         533
         530         531         536         535
         531         532         537         536
         532         533         538         537
         533         534         539         538
         535         536         541         540
         536         537         542         541
         537         538         543         542
         538         539         544         543
         540         541         546         545
         541         542         547         546
         542         543         548         547
         543         544         549         548
         550         551         556         555
         551         552         557         556
         552         553         558         557
         553         554         559         558
         555         556         561         560
         556         557         562         561
         557         558         563         562
         558         559         564         563
         560         561         566         565
         561         562         567         566
         562         563         568         567
         563         564         569         568
         565         566         571         570
         566         567         572         571
         567         568         573         572
         568         569         574         573
         575         576         581         580
         576         577         582         581
         577         578         583         582
         578         579         584         583
         580         581         586         585
         581         582         587         586
         582         583         588         587
         583         584         589         588
         585         586         591         590
         586         587         592         591
         587         588         593         592
         588         589         594         593
         590         591         596         595
         591         592         597         596
         592         593         598         597
         593         594         599         598
         600         601         606         605
         601         602         607         606
         602         603         608         607
         603         604         609         608
         605         606         611         610
         606         607         612         611
         607         608         613         612
         608         609         614         613
         610         611         616         615
         611         612         617         616
         612         613         618         617
         613         614         619         618
         615         616         621         620
         616         617         622         621
         617         618         623         622
         618         619         624         623
         625         626         631         630
         626         627         632         631
         627         628         633         632
         628         629         634         633
         630         631         636         635
         631         632         637         636
         632         633         638         637
         633         634         639         638
         635         636         641         640
         636         637         642         641
         637         638         643         642
         638         639         644         643
         640         641         646         645
         641         642         647         646
         642         643         648         647
         643         644         649         648
         650         651         656         655
         651         652         657         656
         652         653         658         657
         653         654         659         658
         655         656         661         660
         656         657         662         661
         657         658         663         662
         658         659         664         663
         660         661         666         665
         661         662         667         666
         662         663         668         667
         663         664         669         668
         665         666         671         670
         666         667         672         671
         667         668         673         672
         668         669         674         673
         675         676         681         680
         676         677         682         681
         677         678         683         682
         678         679         684         683
         680         681         686         685
         681         682         687         686
         682         683         688         687
         683         684         689         688
         685         686         691         690
         686         687         692         691
         687         688         693         692
         688         689         694         693
         690         691         696         695
         691         692         697         696
         692         693         698         697
         693         694         699         698
         700         701         706         705
         701         702         707         706
         702         703         708         707
         703         704         709         708
         705         706         711         710
         706         707         712         711
         707         708         713         712
         708         709         714         713
         710         711         716         715
         711         712         717         716
         712         713         718         717
         713         714         719         718
         715         716         721         720
         716         717         722         721
         717         718         723         722
         718         719         724         723
         725         726         731         730
         726         727         732         731
         727         728         733         732
         728         729         734         733
         730         731         736         735
         731         732         737         736
         732         733         738         737
         733         734         739         738
         735         736         741         740
         736         737         742         741
         737         738         743         742
         738         739         744         743
         740         741         746         745
         741         742         747         746
         742         743         748         747
         743         744         749         748
         750         751         756         755
         751         752         757         756
         752         753         758         757
         753         754         759         758
         755         756         761         760
         756         757         762         761
         757         758         763         762
         758         759         764         763
         760         761         766         765
         761         762         767         766
         762         763         768         767
         763         764         769         768
         765         766         771         770
         766         767         772         771
         767         768         773         772
         768         769         774         773
         775         776         781         780
         776         777         782         781
         777         778         783         782
         778         779         784         783
         780         781         786         785
         781         782         787         786
         782         783         788         787
         783         784         789         788
         785         786         791         790
         786         787         792         791
         787         788         793         792
         788         789         794         793
         790         791         796         795
         791         792         797         796
         792         793         798         797
         793         794         799         798
         800         801         806         805
         801         802         807         806
         802         803         808         807
         803         804         809         808
         805         806         811         810
         806         807         812         811
         807         808         813         812
         808         809         814         813
         810         811         816         815
         811         812         817         816
         812         813         818         817
         813         814         819         818
         815         816         821         820
         816         817         822         821
         817         818         823         822
         818         819         824         823
         825         826         831         830
         826         827         832         831
         827         828         833         832
         828         829         834         833
         830         831         836         835
         831         832         837         836
         832         833         838         837
         833         834         839         838
         835         836         841         840
         836         837         842         841
         837         838         843         842
         838         839         844         843
         840         841         846         845
         841         842         847         846
         842         843         848         847
         843         844         849         848
         850         851         856         855
         851         852         857         856
         852         853         858         857
         853         854         859         858
         855         856         861         860
         856         857         862         861
         857         858         863         862
         858         859         864         863
         860         861         866         865
         861         862         867         866
         862         863         868         867
         863         864         869         868
         865         866         871         870
         866         867         872         871
         867         868         873         872
         868         869         874         873
         875         876         881         880
         876         877         882         881
         877         878         883         882
         878         879         884         883
         880         881         886         885
         881         882         887         886
         882         883         888         887
         883         884         889         888
         885         886         891         890
         886         887         892         891
         887         888         893         892
         888         889         894         893
         890         891         896         895
         891         892         897         896
         892         893         898         897
         893         894         899         898
         900         901         906         905
         901         902         907         906
         902         903         908         907
         903         904         909         908
         905         906         911         910
         906         907         912         911
         907         908         913         912
         908         909         914         913
         910         911         916         915
         911         912         917         916
         912         913         918         917
         913         914         919         918
         915         916         921         920
         916         917         922         921
         917         918         923         922
         918         919         924         923
         925         926         931         930
         926         927         932         931
         927         928         933         932
         928         929         934         933
         930         931         936         935
         931         932         937         936
         932         933         938         937
         933         934         939         938
         935         936         941         940
         936         937         942         941
         937         938         943         942
         938         939         944         943
         940         941         946         945
         941         942         947         946
         942         943         948         947
         943         944         949         948
         950         951         956         955
         951         952         957         956
         952         953         958         957
         953         954         959         958
         955         956         961         960
         956         957         962         961
         957         958         963         962
         958         959         964         963
         960         961         966         965
         961         962         967         966
         962         963         968         967
         963         964         969         968
         965         966         971         970
         966         967         972         971
         967         968         973         972
         968         969         974         973
         975         976         981         980
         976         977         982         981
         977         978         983         982
         978         979         984         983
         980         981         986         985
         981         982         987         986
         982         983         988         987
         983         984         989         988
         985         986         991         990
         986         987         992         991
         987         988         993         992
         988         989         994         993
         990         991         996         995
         991         992         997         996
         992         993         998         997
         993         994         999         998
        1000        1001        1006        1005
        1001        1002        1007        1006
        1002        1003        1008        1007
        1003        1004        1009        1008
        1005        1006        1011        1010
        1006        1007        1012        1011
        1007        1008        1013        1012
        1008        1009        1014        1013
        1010        1011        1016        1015
        1011        1012        1017        1016
        1012        1013        1018        1017
        1013        1014        1019        1018
        1015        1016        1021        1020
        1016        1017        1022        1021
        1017        1018        1023        1022
        1018        1019        1024        1023
        1025        1026        1031        1030
        1026        1027        1032        1031
        1027        1028        1033        1032
        1028        1029        1034        1033
        1030        1031        1036        1035
        1031        1032        1037        1036
        1032        1033        1038        1037
        1033        1034        1039        1038
        1035        1036        1041        1040
        1036        1037        1042        1041
        1037        1038        1043        1042
        1038        1039        1044        1043
        1040        1041        1046        1045
        1041        1042        1047        1046
        1042        1043        1048        1047
        1043        1044        1049        1048
        1050        1051        1056        1055
        1051        1052        1057        1056
        1052        1053        1058        1057
        1053        1054        1059        1058
        1055        1056        1061        1060
        1056        1057        1062        1061
        1057        1058        1063        1062
        1058        1059        1064        1063
        1060        1061        1066        1065
        1061        1062        1067        1066
        1062        1063        1068        1067
        1063        1064        1069        1068
        1065        1066        1071        1070
        1066        1067        1072        1071
        1067        1068        1073        1072
        1068        1069        1074        1073
        1075        1076        1081        1080
        1076        1077        1082        1081
        1077        1078        1083        1082
        1078        1079        1084        1083
        1080        1081        1086        1085
        1081        1082        1087        1086
        1082        1083        1088        1087
        1083        1084        1089        1088
        1085        1086        1091        1090
        1086        1087        1092        1091
        1087        1088        1093        1092
        1088        1089        1094        1093
        1090        1091        1096        1095
        1091        1092        1097        1096
        1092        1093        1098        1097
        1093        1094        1099        1098
        1100        1101        1106        1105
        1101        1102        1107        1106
        1102        1103        1108        1107
        1103        1104        1109        1108
        1105        1106        1111        1110
        1106        1107        1112        1111
        1107        1108        1113        1112
        1108        1109        1114        1113
        1110        1111        1116        1115
        1111        1112        1117        1116
        1112        1113        1118        1117
        1113        1114        1119        1118
        1115        1116        1121        1120
        1116        1117        1122        1121
        1117        1118        1123        1122
        1118        1119        1124        1123
        1125        1126        1131        1130
        1126        1127        1132        1131
        1127        1128        1133        1132
        1128        1129        1134        1133
        1130        1131        1136        1135
        1131        1132        1137        1136
        1132        1133        1138        1137
        1133        1134        1139        1138
        1135        1136        1141        1140
        1136        1137        1142        1141
        1137        1138        1143        1142
        1138        1139        1144        1143
        1140        1141        1146        1145
        1141        1142        1147        1146
        1142        1143        1148        1147
        1143        1144        1149        1148
        1150        1151        1156        1155
        1151        1152        1157        1156
        1152        1153        1158        1157
        1153        1154        1159        1158
        1155        1156        1161        1160
        1156        1157        1162        1161
        1157        1158        1163        1162
        1158        1159        1164        1163
        1160        1161        1166        1165
        1161        1162        1167        1166
        1162        1163        1168        1167
        1163        1164        1169        1168
        1165        1166        1171        1170
        1166        1167        1172        1171
        1167        1168        1173        1172
        1168        1169        1174        1173
        1175        1176        1181        1180
        1176        1177        1182        1181
        1177        1178        1183        1182
        1178        1179        1184        1183
        1180        1181        1186        1185
        1181        1182        1187        1186
        1182        1183        1188        1187
        1183        1184        1189        1188
        1185        1186        1191        1190
        1186        1187        1192        1191
        1187        1188        1193        1192
        1188        1189        1194        1193
        1190        1191        1196        1195
        1191        1192        1197        1196
        1192        1193        1198        1197
        1193        1194        1199        1198
        1200        1201        1206        1205
        1201        1202        1207        1206
        1202        1203        1208        1207
        1203        1204        1209        1208
        1205        1206        1211        1210
        1206        1207        1212        1211
        1207        1208        1213        1212
        1208        1209        1214        1213
        1210        1211        1216        1215
        1211        1212        1217        1216
        1212        1213        1218        1217
        1213        1214        1219        1218
        1215        1216        1221        1220
        1216        1217        1222        1221
        1217        1218        1223        1222
        1218        1219        1224        1223
        1225        1226        1231        1230
        1226        1227        1232        1231
        1227        1228        1233        1232
        1228        1229        1234        1233
        1230        1231        1236        1235
        1231        1232        1237        1236
        1232        1233        1238        1237
        1233        1234        1239        1238
        1235        1236        1241        1240
        1236        1237        1242        1241
        1237        1238        1243        1242
        1238        1239        1244        1243
        1240        1241        1246        1245
        1241        1242        1247        1246
        1242        1243        1248        1247
        1243        1244        1249        1248
        1250        1251        1256        1255
        1251        1252        1257        1256
        1252        1253        1258        1257
        1253        1254        1259        1258
        1255        1256        1261        1260
        1256        1257        1262        1261
        1257        1258        1263        1262
        1258        1259        1264        1263
        1260        1261        1266        1265
        1261        1262        1267        1266
        1262        1263        1268        1267
        1263        1264        1269        1268
        1265        1266        1271        1270
        1266        1267        1272        1271
        1267        1268        1273        1272
        1268        1269        1274        1273
        1275        1276        1281        1280
        1276        1277        1282        1281
        1277        1278        1283        1282
        1278        1279        1284        1283
        1280        1281        1286        1285
        1281        1282        1287        1286
        1282        1283        1288        1287
        1283        1284        1289        1288
        1285        1286        1291        1290
        1286        1287        1292        1291
        1287        1288        1293        1292
        1288        1289        1294        1293
        1290        1291        1296        1295
        1291        1292        1297        1296
        1292        1293        1298        1297
        1293        1294        1299        1298
        1300        1301        1306        1305
        1301        1302        1307        1306
        1302        1303        1308        1307
        1303        1304        1309        1308
        1305        1306        1311        1310
        1306        1307        1312        1311
        1307        1308        1313        1312
        1308        1309        1314        1313
        1310        1311        1316        1315
        1311        1312        1317        1316
        1312        1313        1318        1317
        1313        1314        1319        1318
        1315        1316        1321        1320
        1316        1317        1322        1321
        1317        1318        1323        1322
        1318        1319        1324        1323
        1325        1326        1331        1330
        1326        1327        1332        1331
        1327        1328        1333        1332
        1328        1329        1334        1333
        1330        1331        1336        1335
        1331        1332        1337        1336
        1332        1333        1338        1337
        1333        1334        1339        1338
        1335        1336        1341        1340
        1336        1337        1342        1341
        1337        1338        1343        1342
        1338        1339        1344        1343
        1340        1341        1346        1345
        1341        1342        1347        1346
        1342        1343        1348        1347
        1343        1344        1349        1348
        1350        1351        1356        1355
        1351        1352        1357        1356
        1352        1353        1358        1357
        1353        1354        1359        1358
        1355        1356        1361        1360
        1356        1357        1362        1361
        1357        1358        1363        1362
        1358        1359        1364        1363
        1360        1361        1366        1365
        1361        1362        1367        1366
        1362        1363        1368        1367
        1363        1364        1369        1368
        1365        1366        1371        1370
        1366        1367        1372        1371
        1367        1368        1373        1372
        1368        1369        1374        1373
        1375        1376        1381        1380
        1376        1377        1382        1381
        1377        1378        1383        1382
        1378        1379        1384        1383
        1380        1381        1386        1385
        1381        1382        1387        1386
        1382        1383        1388        1387
        1383        1384        1389        1388
        1385        1386        1391        1390
        1386        1387        1392        1391
        1387        1388        1393        1392
        1388        1389        1394        1393
        1390        1391        1396        1395
        1391        1392        1397        1396
        1392        1393        1398        1397
        1393        1394        1399        1398
        1400        1401        1406        1405
        1401        1402        1407        1406
        1402        1403        1408        1407
        1403        1404        1409        1408
        1405        1406        1411        1410
        1406        1407        1412        1411
        1407        1408        1413        1412
        1408        1409        1414        1413
        1410        1411        1416        1415
        1411        1412        1417        1416
        1412        1413        1418        1417
        1413        1414        1419        1418
        1415        1416        1421        1420
        1416        1417        1422        1421
        1417        1418        1423        1422
        1418        1419        1424        1423
        1425        1426        1431        1430
        1426        1427        1432        1431
        1427        1428        1433        1432
        1428        1429        1434        1433
        1430        1431        1436        1435
        1431        1432        1437        1436
        1432        1433        1438        1437
        1433        1434        1439        1438
        1435        1436        1441        1440
        1436        1437        1442        1441
        1437        1438        1443        1442
        1438        1439        1444        1443
        1440        1441        1446        1445
        1441        1442        1447        1446
        1442        1443        1448        1447
        1443        1444        1449        1448
        1450        1451        1456        1455
        1451        1452        1457        1456
        1452        1453        1458        1457
        1453        1454        1459        1458
        1455        1456        1461        1460
        1456        1457        1462        1461
        1457        1458        1463        1462
        1458        1459        1464        1463
        1460        1461        1466        1465
        1461        1462        1467        1466
        1462        1463        1468        1467
        1463        1464        1469        1468
        1465        1466        1471        1470
        1466        1467        1472        1471
        1467        1468        1473        1472
        1468        1469        1474        1473
        1475        1476        1481        1480
        1476        1477        1482        1481
        1477        1478        1483        1482
        1478        1479        1484        1483
        1480        1481        1486        1485
        1481        1482        1487        1486
        1482        1483        1488        1487
        1483        1484        1489        1488
        1485        1486        1491        1490
        1486        1487        1492        1491
        1487        1488        1493        1492
        1488        1489        1494        1493
        1490        1491        1496        1495
        1491        1492        1497        1496
        1492        1493        1498        1497
        1493        1494        1499        1498
        1500        1501        1506        1505
        1501        1502        1507        1506
        1502        1503        1508        1507
        1503        1504        1509        1508
        1505        1506        1511        1510
        1506        1507        1512        1511
        1507        1508        1513        1512
        1508        1509        1514        1513
        1510        1511        1516        1515
        1511        1512        1517        1516
        1512        1513        1518        1517
        1513        1514        1519        1518
        1515        1516        1521        1520
        1516        1517        1522        1521
        1517        1518        1523        1522
        1518        1519        1524        1523
        1525        1526        1531        1530
        1526        1527        1532        1531
        1527        1528        1533        1532
        1528        1529        1534        1533
        1530        1531        1536        1535
        1531        1532        1537        1536
        1532        1533        1538        1537
        1533        1534        1539        1538
        1535        1536        1541        1540
        1536        1537        1542        1541
        1537        1538        1543        1542
        1538        1539        1544        1543
        1540        1541        1546        1545
        1541        1542        1547        1546
        1542        1543        1548        1547
        1543        1544        1549        1548
        1550        1551        1556        1555
        1551        1552        1557        1556
        1552        1553        1558        1557
        1553        1554        1559        1558
        1555        1556        1561        1560
        1556        1557        1562        1561
        1557        1558        1563        1562
        1558        1559        1564        1563
        1560        1561        1566        1565
        1561        1562        1567        1566
        1562        1563        1568        1567
        1563        1564        1569        1568
        1565        1566        1571        1570
        1566        1567        1572        1571
        1567        1568        1573        1572
        1568        1569        1574        1573
        1575        1576        1581        1580
        1576        1577        1582        1581
        1577        1578        1583        1582
        1578        1579        1584        1583
        1580        1581        1586        1585
        1581        1582        1587        1586
        1582        1583        1588        1587
        1583        1584        1589        1588
        1585        1586        1591        1590
        1586        1587        1592        1591
        1587        1588        1593        1592
        1588        1589        1594        1593
        1590        1591        1596        1595
        1591        1592        1597        1596
        1592        1593        1598        1597
        1593        1594        1599        1598
 </DataArray>
 <DataArray  type="Int32"  Name="offsets"  format="ascii"> 
           4
           8
          12
          16
          20
          24
          28
          32
          36
          40
          44
          48
          52
          56
          60
          64
          68
          72
          76
          80
          84
          88
          92
          96
         100
         104
         108
         112
         116
         120
         124
         128
         132
         136
         140
         144
         148
         152
         156
         160
         164
         168
         172
         176
         180
         184
         188
         192
         196
         200
         204
         208
         212
         216
         220
         224
         228
         232
         236
         240
         244
         248
         252
         256
         260
         264
         268
         272
         276
         280
         284
         288
         292
         296
         300
         304
         308
         312
         316
         320
         324
         328
         332
         336
         340
         344
         348
         352
         356
         360
         364
         368
         372
         376
         380
         384
         388
         392
         396
         400
         404
         408
         412
         416
         420
         424
         428
         432
         436
         440
         444
         448
         452
         456
         460
         464
         468
         472
         476
         480
         484
         488
         492
         496
         500
         504
         508
         512
         516
         520
         524
         528
         532
         536
         540
         544
         548
         552
         556
         560
         564
         568
         572
         576
         580
         584
         588
         592
         596
         600
         604
         608
         612
         616
         620
         624
         628
         632
         636
         640
         644
         648
         652
         656
         660
         664
         668
         672
         676
         680
         684
         688
         692
         696
         700
         704
         708
         712
         716
         720
         724
         728
         732
         736
         740
         744
         748
         752
         756
         760
         764
         768
         772
         776
         780
         784
         788
         792
         796
         800
         804
         808
         812
         816
         820
         824
         828
         832
         836
         840
         844
         848
         852
         856
         860
         864
         868
         872
         876
         880
         884
         888
         892
         896
         900
         904
         908
         912
         916
         920
         924
         928
         932
         936
         940
         944
         948
         952
         956
         960
         964
         968
         972
         976
         980
         984
         988
         992
         996
        1000
        1004
        1008
        1012
        1016
        1020
        1024
        1028
        1032
        1036
        1040
        1044
        1048
        1052
        1056
        1060
        1064
        1068
        1072
        1076
        1080
        1084
        1088
        1092
        1096
        1100
        1104
        1108
        1112
        1116
        1120
        1124
        1128
        1132
        1136
        1140
        1144
        1148
        1152
        1156
        1160
        1164
        1168
        1172
        1176
        1180
        1184
        1188
        1192
        1196
        1200
        1204
        1208
        1212
        1216
        1220
        1224
        1228
        1232
        1236
        1240
        1244
        1248
        1252
        1256
        1260
        1264
        1268
        1272
        1276
        1280
        1284
        1288
        1292
        1296
        1300
        1304
        1308
        1312
        1316
        1320
        1324
        1328
        1332
        1336
        1340
        1344
        1348
        1352
        1356
        1360
        1364
        1368
        1372
        1376
        1380
        1384
        1388
        1392
        1396
        1400
        1404
        1408
        1412
        1416
        1420
        1424
        1428
        1432
        1436
        1440
        1444
        1448
        1452
        1456
        1460
        1464
        1468
        1472
        1476
        1480
        1484
        1488
        1492
        1496
        1500
        1504
        1508
        1512
        1516
        1520
        1524
        1528
        1532
        1536
        1540
        1544
        1548
        1552
        1556
        1560
        1564
        1568
        1572
        1576
        1580
        1584
        1588
        1592
        1596
        1600
        1604
        1608
        1612
        1616
        1620
        1624
        1628
        1632
        1636
        1640
        1644
        1648
        1652
        1656
        1660
        1664
        1668
        1672
        1676
        1680
        1684
        1688
        1692
        1696
        1700
        1704
        1708
        1712
        1716
        1720
        1724
        1728
        1732
        1736
        1740
        1744
        1748
        1752
        1756
        1760
        1764
        1768
        1772
        1776
        1780
        1784
        1788
        1792
        1796
        1800
        1804
        1808
        1812
        1816
        1820
        1824
        1828
        1832
        1836
        1840
        1844
        1848
        1852
        1856
        1860
        1864
        1868
        1872
        1876
        1880
        1884
        1888
        1892
        1896
        1900
        1904
        1908
        1912
        1916
        1920
        1924
        1928
        1932
        1936
        1940
        1944
        1948
        1952
        1956
        1960
        1964
        1968
        1972
        1976
        1980
        1984
        1988
        1992
        1996
        2000
        2004
        2008
        2012
        2016
        2020
        2024
        2028
        2032
        2036
        2040
        2044
        2048
        2052
        2056
        2060
        2064
        2068
        2072
        2076
        2080
        2084
        2088
        2092
        2096
        2100
        2104
        2108
        2112
        2116
        2120
        2124
        2128
        2132
        2136
        2140
        2144
        2148
        2152
        2156
        2160
        2164
        2168
        2172
        2176
        2180
        2184
        2188
        2192
        2196
        2200
        2204
        2208
        2212
        2216
        2220
        2224
        2228
        2232
        2236
        2240
        2244
        2248
        2252
        2256
        2260
        2264
        2268
        2272
        2276
        2280
        2284
        2288
        2292
        2296
        2300
        2304
        2308
        2312
        2316
        2320
        2324
        2328
        2332
        2336
        2340
        2344
        2348
        2352
        2356
        2360
        2364
        2368
        2372
        2376
        2380
        2384
        2388
        2392
        2396
        2400
        2404
        2408
        2412
        2416
        2420
        2424
        2428
        2432
        2436
        2440
        2444
        2448
        2452
        2456
        2460
        2464
        2468
        2472
        2476
        2480
        2484
        2488
        2492
        2496
        2500
        2504
        2508
        2512
        2516
        2520
        2524
        2528
        2532
        2536
        2540
        2544
        2548
        2552
        2556
        2560
        2564
        2568
        2572
        2576
        2580
        2584
        2588
        2592
        2596
        2600
        2604
        2608
        2612
        2616
        2620
        2624
        2628
        2632
        2636
        2640
        2644
        2648
        2652
        2656
        2660
        2664
        2668
        2672
        2676
        2680
        2684
        2688
        2692
        2696
        2700
        2704
        2708
        2712
        2716
        2720
        2724
        2728
        2732
        2736
        2740
        2744
        2748
        2752
        2756
        2760
        2764
        2768
        2772
        2776
        2780
        2784
        2788
        2792
        2796
        2800
        2804
        2808
        2812
        2816
        2820
        2824
        2828
        2832
        2836
        2840
        2844
        2848
        2852
        2856
        2860
        2864
        2868
        2872
        2876
        2880
        2884
        2888
        2892
        2896
        2900
        2904
        2908
        2912
        2916
        2920
        2924
        2928
        2932
        2936
        2940
        2944
        2948
        2952
        2956
        2960
        2964
        2968
        2972
        2976
        2980
        2984
        2988
        2992
        2996
        3000
        3004
        3008
        3012
        3016
        3020
        3024
        3028
        3032
        3036
        3040
        3044
        3048
        3052
        3056
        3060
        3064
        3068
        3072
        3076
        3080
        3084
        3088
        3092
        3096
        3100
        3104
        3108
        3112
        3116
        3120
        3124
        3128
        3132
        3136
        3140
        3144
        3148
        3152
        3156
        3160
        3164
        3168
        3172
        3176
        3180
        3184
        3188
        3192
        3196
        3200
        3204
        3208
        3212
        3216
        3220
        3224
        3228
        3232
        3236
        3240
        3244
        3248
        3252
        3256
        3260
        3264
        3268
        3272
        3276
        3280
        3284
        3288
        3292
        3296
        3300
        3304
        3308
        3312
        3316
        3320
        3324
        3328
        3332
        3336
        3340
        3344
        3348
        3352
        3356
        3360
        3364
        3368
        3372
        3376
        3380
        3384
        3388
        3392
        3396
        3400
        3404
        3408
        3412
        3416
        3420
        3424
        3428
        3432
        3436
        3440
        3444
        3448
        3452
        3456
        3460
        3464
        3468
        3472
        3476
        3480
        3484
        3488
        3492
        3496
        3500
        3504
        3508
        3512
        3516
        3520
        3524
        3528
        3532
        3536
        3540
        3544
        3548
        3552
        3556
        3560
        3564
        3568
        3572
        3576
        3580
        3584
        3588
        3592
        3596
        3600
        3604
        3608
        3612
        3616
        3620
        3624
        3628
        3632
        3636
        3640
        3644
        3648
        3652
        3656
        3660
        3664
        3668
        3672
        3676
        3680
        3684
        3688
        3692
        3696
        3700
        3704
        3708
        3712
        3716
        3720
        3724
        3728
        3732
        3736
        3740
        3744
        3748
        3752
        3756
        3760
        3764
        3768
        3772
        3776
        3780
        3784
        3788
        3792
        3796
        3800
        3804
        3808
        3812
        3816
        3820
        3824
        3828
        3832
        3836
        3840
        3844
        3848
        3852
        3856
        3860
        3864
        3868
        3872
        3876
        3880
        3884
        3888
        3892
        3896
        3900
        3904
        3908
        3912
        3916
        3920
        3924
        3928
        3932
        3936
        3940
        3944
        3948
        3952
        3956
        3960
        3964
        3968
        3972
        3976
        3980
        3984
        3988
        3992
        3996
        4000
        4004
        4008
        4012
        4016
        4020
        4024
        4028
        4032
        4036
        4040
        4044
        4048
        4052
        4056
        4060
        4064
        4068
        4072
        4076
        4080
        4084
        4088
        4092
        4096
 </DataArray>
 <DataArray  type="UInt8"  Name="types"  format="ascii">
 9
 9
 9
 9
 9
 9
 9
 9
 9
 9
 9
 9
 9
 9
 9
 9
 9
 9
 9
 9
 9
 9
 9
 9
 9
 9
 9
 9
 9
 9
 9
 9
 9
 9
 9
 9
 9
 9
 9
 9
 9
 9
 9
 9
 9
 9
 9
 9
 9
 9
 9
 9
 9
 9
 9
 9
 9
 9
 9
 9
 9
 9
 9
 9
 9
 9
 9
 9
 9
 9
 9
 9
 9
 9
 9
 9
 9
 9
 9
 9
 9
 9
 9
 9
 9
 9
 9
 9
 9
 9
 9
 9
 9
 9
 9
 9
 9
 9
 9
 9
 9
 9
 9
 9
 9
 9
 9
 9
 9
 9
 9
 9
 9
 9
 9
 9
 9
 9
 9
 9
 9
 9
 9
 9
 9
 9
 9
 9
 9
 9
 9
 9
 9
 9
 9
 9
 9
 9
 9
 9
 9
 9
 9
 9
 9
 9
 9
 9
 9
 9
 9
 9
 9
 9
 9
 9
 9
 9
 9
 9
 9
 9
 9
 9
 9
 9
 9
 9
 9
 9
 9
 9
 9
 9
 9
 9
 9
 9
 9
 9
 9
 9
 9
 9
 9
 9
 9
 9
 9
 9
 9
 9
 9
 9
 9
 9
 9
 9
 9
 9
 9
 9
 9
 9
 9
 9
 9
 9
 9
 9
 9
 9
 9
 9
 9
 9
 9
 9
 9
 9
 9
 9
 9
 9
 9
 9
 9
 9
 9
 9
 9
 9
 9
 9
 9
 9
 9
 9
 9
 9
 9
 9
 9
 9
 9
 9
 9
 9
 9
 9
 9
 9
 9
 9
 9
 9
 9
 9
 9
 9
 9
 9
 9
 9
 9
 9
 9
 9
 9
 9
 9
 9
 9
 9
 9
 9
 9
 9
 9
 9
 9
 9
 9
 9
 9
 9
 9
 9
 9
 9
 9
 9
 9
 9
 9
 9
 9
 9
 9
 9
 9
 9
 9
 9
 9
 9
 9
 9
 9
 9
 9
 9
 9
 9
 9
 9
 9
 9
 9
 9
 9
 9
 9
 9
 9
 9
 9
 9
 9
 9
 9
 9
 9
 9
 9
 9
 9
 9
 9
 9
 9
 9
 9
 9
 9
 9
 9
 9
 9
 9
 9
 9
 9
 9
 9
 9
 9
 9
 9
 9
 9
 9
 9
 9
 9
 9
 9
 9
 9
 9
 9
 9
 9
 9
 9
 9
 9
 9
 9
 9
 9
 9
 9
 9
 9
 9
 9
 9
 9
 9
 9
 9
 9
 9
 9
 9
 9
 9
 9
 9
 9
 9
 9
 9
 9
 9
 9
 9
 9
 9
 9
 9
 9
 9
 9
 9
 9
 9
 9
 9
 9
 9
 9
 9
 9
 9
 9
 9
 9
 9
 9
 9
 9
 9
 9
 9
 9
 9
 9
 9
 9
 9
 9
 9
 9
 9
 9
 9
 9
 9
 9
 9
 9
 9
 9
 9
 9
 9
 9
 9
 9
 9
 9
 9
 9
 9
 9
 9
 9
 9
 9
 9
 9
 9
 9
 9
 9
 9
 9
 9
 9
 9
 9
 9
 9
 9
 9
 9
 9
 9
 9
 9
 9
 9
 9
 9
 9
 9
 9
 9
 9
 9
 9
 9
 9
 9
 9
 9
 9
 9
 9
 9
 9
 9
 9
 9
 9
 9
 9
 9
 9
 9
 9
 9
 9
 9
 9
 9
 9
 9
 9
 9
 9
 9
 9
 9
 9
 9
 9
 9
 9
 9
 9
 9
 9
 9
 9
 9
 9
 9
 9
 9
 9
 9
 9
 9
 9
 9
 9
 9
 9
 9
 9
 9
 9
 9
 9
 9
 9
 9
 9
 9
 9
 9
 9
 9
 9
 9
 9
 9
 9
 9
 9
 9
 9
 9
 9
 9
 9
 9
 9
 9
 9
 9
 9
 9
 9
 9
 9
 9
 9
 9
 9
 9
 9
 9
 9
 9
 9
 9
 9
 9
 9
 9
 9
 9
 9
 9
 9
 9
 9
 9
 9
 9
 9
 9
 9
 9
 9
 9
 9
 9
 9
 9
 9
 9
 9
 9
 9
 9
 9
 9
 9
 9
 9
 9
 9
 9
 9
 9
 9
 9
 9
 9
 9
 9
 9
 9
 9
 9
 9
 9
 9
 9
 9
 9
 9
 9
 9
 9
 9
 9
 9
 9
 9
 9
 9
 9
 9
 9
 9
 9
 9
 9
 9
 9
 9
 9
 9
 9
 9
 9
 9
 9
 9
 9
 9
 9
 9
 9
 9
 9
 9
 9
 9
 9
 9
 9
 9
 9
 9
 9
 9
 9
 9
 9
 9
 9
 9
 9
 9
 9
 9
 9
 9
 9
 9
 9
 9
 9
 9
 9
 9
 9
 9
 9
 9
 9
 9
 9
 9
 9
 9
 9
 9
 9
 9
 9
 9
 9
 9
 9
 9
 9
 9
 9
 9
 9
 9
 9
 9
 9
 9
 9
 9
 9
 9
 9
 9
 9
 9
 9
 9
 9
 9
 9
 9
 9
 9
 9
 9
 9
 9
 9
 9
 9
 9
 9
 9
 9
 9
 9
 9
 9
 9
 9
 9
 9
 9
 9
 9
 9
 9
 9
 9
 9
 9
 9
 9
 9
 9
 9
 9
 9
 9
 9
 9
 9
 9
 9
 9
 9
 9
 9
 9
 9
 9
 9
 9
 9
 9
 9
 9
 9
 9
 9
 9
 9
 9
 9
 9
 9
 9
 9
 9
 9
 9
 9
 9
 9
 9
 9
 9
 9
 9
 9
 9
 9
 9
 9
 9
 9
 9
 9
 9
 9
 9
 9
 9
 9
 9
 9
 9
 9
 9
 9
 9
 9
 9
 9
 9
 9
 9
 9
 9
 9
 9
 9
 9
 9
 9
 9
 9
 9
 9
 9
 9
 9
 9
 9
 9
 9
 9
 9
 9
 9
 9
 9
 9
 9
 9
 9
 9
 9
 9
 9
 9
 9
 9
 9
 9
 9
 9
 9
 9
 9
 9
 9
 9
 9
 9
 9
 9
 9
 9
 9
 9
 9
 9
 9
 9
 9
 9
 9
 9
 9
 9
 9
 9
 9
 9
 9
 9
 9
 9
 9
 9
 9
 9
 9
 9
 9
 9
 9
 9
 9
 9
 9
 9
 9
 9
 9
 9
 9
 9
 9
 9
 9
 9
 9
 9
 9
 9
 9
 9
 9
 9
 9
 9
 9
 9
 9
 9
 9
 9
 9
 9
 9
 9
 9
 9
 9
 9
 9
 9
 9
 9
 9
 9
 9
 9
 9
 9
 9
 9
 9
 9
 9
 9
 9
 9
 9
 9
 9
 </DataArray>
 </Cells> 
 <PointData>
 <DataArray  type="Float64" Name="disp" NumberOfComponents="3" format="ascii">
   0.0000000000000000        0.0000000000000000        0.0000000000000000     
   6.0943958037095181E-003   3.7870082417876651E-003   0.0000000000000000     
   1.1664044013442997E-002   7.3177312205135190E-003   0.0000000000000000     
   1.6708944629200431E-002   1.0592168936177562E-002   0.0000000000000000     
   2.1229097650981826E-002   1.3610321388779793E-002   0.0000000000000000     
   0.0000000000000000        0.0000000000000000        0.0000000000000000     
   4.8909517932108713E-003   3.0192429142512260E-003   0.0000000000000000     
   9.5737866969885788E-003   6.0548547640349717E-003   0.0000000000000000     
   1.4048504711333122E-002   9.1068355493512387E-003   0.0000000000000000     
   1.8315105836244502E-002   1.2175185270200022E-002   0.0000000000000000     
   0.0000000000000000        0.0000000000000000        0.0000000000000000     
   3.9541715148859154E-003   2.4226143043848810E-003   0.0000000000000000     
   7.9119225409085732E-003   5.0576538731123494E-003   0.0000000000000000     
   1.1873253078067976E-002   7.9051187061824051E-003   0.0000000000000000     
   1.5838163126364119E-002   1.0965008803595048E-002   0.0000000000000000     
   0.0000000000000000        0.0000000000000000        0.0000000000000000     
   3.2840549687346539E-003   1.9971224121886305E-003   0.0000000000000000     
   6.6784515452029845E-003   4.3261285477456521E-003   0.0000000000000000     
   1.0183189729404990E-002   6.9870184066710642E-003   0.0000000000000000     
   1.3798269521340676E-002   9.9797919889648683E-003   0.0000000000000000     
   0.0000000000000000        0.0000000000000000        0.0000000000000000     
   2.8806021547570851E-003   1.7427672376624736E-003   0.0000000000000000     
   5.8733737098718101E-003   3.8602787879348779E-003   0.0000000000000000     
   8.9783146653441732E-003   6.3525346508172143E-003   0.0000000000000000     
   1.2195425021174175E-002   9.2195348263094806E-003   0.0000000000000000     
   2.1229097650981826E-002   1.3610321388779793E-002   0.0000000000000000     
   2.5436982601959521E-002   1.6600974181008355E-002   0.0000000000000000     
   2.9545079005305858E-002   1.9792912915551394E-002   0.0000000000000000     
   3.3553386861020836E-002   2.3186137592408906E-002   0.0000000000000000     
   3.7461906169104456E-002   2.6780648211580889E-002   0.0000000000000000     
   1.8315105836244502E-002   1.2175185270200022E-002   0.0000000000000000     
   2.2412180318936881E-002   1.5327127688380668E-002   0.0000000000000000     
   2.6378318406624433E-002   1.8629886565692508E-002   0.0000000000000000     
   3.0213520099307146E-002   2.2083461902135552E-002   0.0000000000000000     
   3.3917785396985034E-002   2.5687853697709793E-002   0.0000000000000000     
   1.5838163126364119E-002   1.0965008803595048E-002   0.0000000000000000     
   1.9735588097229202E-002   1.4195513766770605E-002   0.0000000000000000     
   2.3494463402095433E-002   1.7554823197129407E-002   0.0000000000000000     
   2.7114789040962810E-002   2.1042937094671456E-002   0.0000000000000000     
   3.0596565013831324E-002   2.4659855459396741E-002   0.0000000000000000     
   1.3798269521340676E-002   9.9797919889648683E-003   0.0000000000000000     
   1.7407205936836485E-002   1.3206132416178171E-002   0.0000000000000000     
   2.0893513991718866E-002   1.6567722809862087E-002   0.0000000000000000     
   2.4257193685987822E-002   2.0064563170016605E-002   0.0000000000000000     
   2.7498245019643344E-002   2.3696653496641747E-002   0.0000000000000000     
   1.2195425021174175E-002   9.2195348263094806E-003   0.0000000000000000     
   1.5427033837758723E-002   1.2358983636603363E-002   0.0000000000000000     
   1.8575470175494723E-002   1.5668585403890541E-002   0.0000000000000000     
   2.1640734034382179E-002   1.9148340128171022E-002   0.0000000000000000     
   2.4622825414421085E-002   2.2798247809444797E-002   0.0000000000000000     
   3.7461906169104456E-002   2.6780648211580889E-002   0.0000000000000000     
   4.1280796767025001E-002   3.0575439916543962E-002   0.0000000000000000     
   4.5020218492250769E-002   3.4569507850774742E-002   0.0000000000000000     
   4.8680171344781746E-002   3.8762852014273208E-002   0.0000000000000000     
   5.2260655324617947E-002   4.3155472407039382E-002   0.0000000000000000     
   3.3917785396985034E-002   2.5687853697709793E-002   0.0000000000000000     
   3.7516307458443185E-002   2.9473708303652164E-002   0.0000000000000000     
   4.1034279442466716E-002   3.3471672071199589E-002   0.0000000000000000     
   4.4471701349055648E-002   3.7681745000352082E-002   0.0000000000000000     
   4.7828573178209946E-002   4.2103927091109633E-002   0.0000000000000000     
   3.0596565013831324E-002   2.4659855459396741E-002   0.0000000000000000     
   3.3968502025188481E-002   2.8450912256936117E-002   0.0000000000000000     
   3.7259310779521770E-002   3.2461441452920424E-002   0.0000000000000000     
   4.0468991276831200E-002   3.6691443047349649E-002   0.0000000000000000     
   4.3597543517116769E-002   4.1140917040223803E-002   0.0000000000000000     
   2.7498245019643344E-002   2.3696653496641747E-002   0.0000000000000000     
   3.0637380467260899E-002   2.7507051776395834E-002   0.0000000000000000     
   3.3695312503415932E-002   3.1538815995937219E-002   0.0000000000000000     
   3.6672041128108436E-002   3.5791946155265909E-002   0.0000000000000000     
   3.9567566341338421E-002   4.0266442254381890E-002   0.0000000000000000     
   2.4622825414421085E-002   2.2798247809444797E-002   0.0000000000000000     
   2.7522942784660429E-002   2.6642126862031310E-002   0.0000000000000000     
   3.0342284614149177E-002   3.0703795700249999E-002   0.0000000000000000     
   3.3080850902887336E-002   3.4983254324100863E-002   0.0000000000000000     
   3.5738641650874911E-002   3.9480502733583896E-002   0.0000000000000000     
   5.2260655324617947E-002   4.3155472407039382E-002   0.0000000000000000     
   5.5758841600237384E-002   4.7761052325002357E-002   0.0000000000000000     
   5.9171901340118037E-002   5.2593275064091255E-002   0.0000000000000000     
   6.2499834544259919E-002   5.7652140624306049E-002   0.0000000000000000     
   6.5742641212663044E-002   6.2937649005646759E-002   0.0000000000000000     
   4.7828573178209946E-002   4.2103927091109633E-002   0.0000000000000000     
   5.1108052219387391E-002   4.6742183601594323E-002   0.0000000000000000     
   5.4313295762045743E-002   5.1600479789928225E-002   0.0000000000000000     
   5.7444303806185003E-002   5.6678815656111332E-002   0.0000000000000000     
   6.0501076351805162E-002   6.1977191200143673E-002   0.0000000000000000     
   4.3597543517116769E-002   4.1140917040223803E-002   0.0000000000000000     
   4.6650604277937630E-002   4.5807461271641509E-002   0.0000000000000000     
   4.9633810336852935E-002   5.0688673581701399E-002   0.0000000000000000     
   5.2547161693862698E-002   5.5784553970403467E-002   0.0000000000000000     
   5.5390658348966906E-002   6.1095102437747718E-002   0.0000000000000000     
   3.9567566341338421E-002   4.0266442254381890E-002   0.0000000000000000     
   4.2386497775888085E-002   4.4956885335143928E-002   0.0000000000000000     
   4.5133445064539611E-002   4.9857856439410778E-002   0.0000000000000000     
   4.7808408207292985E-002   5.4969355567182444E-002   0.0000000000000000     
   5.0411387204148228E-002   6.0291382718458908E-002   0.0000000000000000     
   3.5738641650874911E-002   3.9480502733583896E-002   0.0000000000000000     
   3.8315732713238772E-002   4.4190455792101575E-002   0.0000000000000000     
   4.0812199945105751E-002   4.9108028363056361E-002   0.0000000000000000     
   4.3228043346475890E-002   5.4233220446448259E-002   0.0000000000000000     
   4.5563262917349162E-002   5.9566032042277256E-002   0.0000000000000000     
   6.5742641212663044E-002   6.2937649005646759E-002   0.0000000000000000     
   6.8903583159370327E-002   6.8416350002408449E-002   0.0000000000000000     
   7.1985922198424757E-002   7.4054793408886196E-002   0.0000000000000000     
   7.4989658329826292E-002   7.9852979225080015E-002   0.0000000000000000     
   7.7914791553574947E-002   8.5810907450989876E-002   0.0000000000000000     
   6.0501076351805162E-002   6.1977191200143673E-002   0.0000000000000000     
   6.3482475809778130E-002   6.7468432878045742E-002   0.0000000000000000     
   6.6387364590975773E-002   7.3125367145838088E-002   0.0000000000000000     
   6.9215742695398097E-002   7.8947994003520691E-002   0.0000000000000000     
   7.1967610123045117E-002   8.4936313451093579E-002   0.0000000000000000     
   5.5390658348966906E-002   6.1095102437747718E-002   0.0000000000000000     
   5.8163360238765185E-002   6.6598593078791096E-002   0.0000000000000000     
   6.0864327299857190E-002   7.2273299988590514E-002   0.0000000000000000     
   6.3493559532242907E-002   7.8119223167145965E-002   0.0000000000000000     
   6.6051056935922350E-002   8.4136362614457505E-002   0.0000000000000000     
   5.0411387204148228E-002   6.0291382718458908E-002   0.0000000000000000     
   5.2946236446331514E-002   6.5806830604644498E-002   0.0000000000000000     
   5.5416810325069003E-002   7.1498591937143460E-002   0.0000000000000000     
   5.7823108840360710E-002   7.7366666715955851E-002   0.0000000000000000     
   6.0165131992206633E-002   8.3411054941081614E-002   0.0000000000000000     
   4.5563262917349162E-002   5.9566032042277256E-002   0.0000000000000000     
   4.7831104432477095E-002   6.5093145455605961E-002   0.0000000000000000     
   5.0044813666611204E-002   7.0801242991496982E-002   0.0000000000000000     
   5.2204390619751496E-002   7.6690324649950306E-002   0.0000000000000000     
   5.4309835291897972E-002   8.2760390430965933E-002   0.0000000000000000     
   7.7914791553574947E-002   8.5810907450989876E-002   0.0000000000000000     
   8.0752011276279484E-002   9.1935281450232817E-002   0.0000000000000000     
   8.3492006904548666E-002   9.8232804586425859E-002   0.0000000000000000     
   8.6134778438382492E-002  0.10470347685956902        0.0000000000000000     
   8.8680325877780963E-002  0.11134729826966228        0.0000000000000000     
   7.1967610123045117E-002   8.4936313451093579E-002   0.0000000000000000     
   7.4633131418277057E-002   9.1093601026682208E-002   0.0000000000000000     
   7.7202471125454183E-002   9.7423132268411983E-002   0.0000000000000000     
   7.9675629244576468E-002  0.10392490717628296        0.0000000000000000     
   8.2052605775643939E-002  0.11059892575029510        0.0000000000000000     
   6.6051056935922350E-002   8.4136362614457505E-002   0.0000000000000000     
   6.8525491424851079E-002   9.0324537564970275E-002   0.0000000000000000     
   7.0905534912984694E-002   9.6683567253129529E-002   0.0000000000000000     
   7.3191187400323182E-002  0.10321345167893525        0.0000000000000000     
   7.5382448886866571E-002  0.10991419084238743        0.0000000000000000     
   6.0165131992206633E-002   8.3411054941081614E-002   0.0000000000000000     
   6.2429091296001549E-002   8.9628091065097060E-002   0.0000000000000000     
   6.4601198267140197E-002   9.6014109540578499E-002   0.0000000000000000     
   6.6681452905622621E-002  0.10256911036752590        0.0000000000000000     
   6.8669855211448819E-002  0.10929309354593927        0.0000000000000000     
   5.4309835291897972E-002   8.2760390430965933E-002   0.0000000000000000     
   5.6343931031728439E-002   8.9004261527062561E-002   0.0000000000000000     
   5.8289461187920708E-002   9.5414759130758892E-002   0.0000000000000000     
   6.0146425760474798E-002  0.10199188324205490        0.0000000000000000     
   6.1914824749390689E-002  0.10873563386095059        0.0000000000000000     
   8.8680325877780963E-002  0.11134729826966228        0.0000000000000000     
   9.1125069616925361E-002  0.11815760356332763        0.0000000000000000     
   9.3465430049997009E-002  0.12512772748718712        0.0000000000000000     
   9.5701407176995865E-002  0.13225767004124075        0.0000000000000000     
   9.7833000997921971E-002  0.13954743122548843        0.0000000000000000     
   8.2052605775643939E-002  0.11059892575029510        0.0000000000000000     
   8.4336205659128111E-002  0.11743491429194045        0.0000000000000000     
   8.6529233835500485E-002  0.12442259910271106        0.0000000000000000     
   8.8631690304761077E-002  0.13156198018260692        0.0000000000000000     
   9.0643575066909884E-002  0.13885305753162797        0.0000000000000000     
   7.5382448886866571E-002  0.10991419084238743        0.0000000000000000     
   7.7483515742876957E-002  0.11677295705306620        0.0000000000000000     
   7.9498584338616590E-002  0.12377692262055154        0.0000000000000000     
   8.1427654674085373E-002  0.13092608754484358        0.0000000000000000     
   8.3270726749283361E-002  0.13822045182594220        0.0000000000000000     
   6.8669855211448819E-002  0.10929309354593927        0.0000000000000000     
   7.0566999868171956E-002  0.11617173184670476        0.0000000000000000     
   7.2373481559345268E-002  0.12319069804070858        0.0000000000000000     
   7.4089300284968740E-002  0.13034999212795073        0.0000000000000000     
   7.5714456045042400E-002  0.13764961410843116        0.0000000000000000     
   6.1914824749390689E-002  0.10873563386095059        0.0000000000000000     
   6.3586658035013038E-002  0.11563123867285625        0.0000000000000000     
   6.5153925497686546E-002  0.12266392536318219        0.0000000000000000     
   6.6616627137411191E-002  0.12983369393192837        0.0000000000000000     
   6.7974762954186974E-002  0.13714054437909481        0.0000000000000000     
   9.7833000997921971E-002  0.13954743122548843        0.0000000000000000     
   9.9789044360142590E-002  0.14689342447169285        0.0000000000000000     
  0.10149837011102505       0.15419206321161646        0.0000000000000000     
  0.10296097825056935       0.16144334744525937        0.0000000000000000     
  0.10417686877877547       0.16864727717262146        0.0000000000000000     
   9.0643575066909884E-002  0.13885305753162797        0.0000000000000000     
   9.2543601791997221E-002  0.14625159395618695        0.0000000000000000     
   9.4310484150073398E-002  0.15371335226269647        0.0000000000000000     
   9.5944222141138402E-002  0.16123833245115657        0.0000000000000000     
   9.7444815765192233E-002  0.16882653452156721        0.0000000000000000     
   8.3270726749283361E-002  0.13822045182594220        0.0000000000000000     
   8.5032791825424295E-002  0.14564875461307200        0.0000000000000000     
   8.6718841163721888E-002  0.15319973505545736        0.0000000000000000     
   8.8328874764176168E-002  0.16087339315309837        0.0000000000000000     
   8.9862892626787122E-002  0.16866972890599502        0.0000000000000000     
   7.5714456045042400E-002  0.13764961410843116        0.0000000000000000     
   7.7256614460423811E-002  0.14508490644234798        0.0000000000000000     
   7.8723441151970552E-002  0.15265121158989914        0.0000000000000000     
   8.0114936119682650E-002  0.16034852955108475        0.0000000000000000     
   8.1431099363560092E-002  0.16817686032590476        0.0000000000000000     
   6.7974762954186974E-002  0.13714054437909481        0.0000000000000000     
   6.9215069696995757E-002  0.14456004944401485        0.0000000000000000     
   7.0324284114819391E-002  0.15206778186602180        0.0000000000000000     
   7.1302406207657862E-002  0.15966374164511574        0.0000000000000000     
   7.2149435975511184E-002  0.16734792878129656        0.0000000000000000     
   0.0000000000000000        0.0000000000000000        0.0000000000000000     
   2.8806021547570851E-003   1.7427672376624736E-003   0.0000000000000000     
   5.8733737098718101E-003   3.8602787879348779E-003   0.0000000000000000     
   8.9783146653441732E-003   6.3525346508172143E-003   0.0000000000000000     
   1.2195425021174175E-002   9.2195348263094806E-003   0.0000000000000000     
   0.0000000000000000        0.0000000000000000        0.0000000000000000     
   2.6103445602449617E-003   1.5870430855942656E-003   0.0000000000000000     
   5.2893791581323860E-003   3.5529345915481145E-003   0.0000000000000000     
   8.0371037936622716E-003   5.8976745178615474E-003   0.0000000000000000     
   1.0853518466834619E-002   8.6212628645345631E-003   0.0000000000000000     
   0.0000000000000000        0.0000000000000000        0.0000000000000000     
   2.3398136724900346E-003   1.4574442607718611E-003   0.0000000000000000     
   4.7191580132020499E-003   3.2969259564534460E-003   0.0000000000000000     
   7.1380330221360432E-003   5.5184450870447545E-003   0.0000000000000000     
   9.5964386992920172E-003   8.1220016525457850E-003   0.0000000000000000     
   0.0000000000000000        0.0000000000000000        0.0000000000000000     
   2.0690094914923049E-003   1.3539707631952599E-003   0.0000000000000000     
   4.1627102750808002E-003   3.0922528826508710E-003   0.0000000000000000     
   6.2811023507654872E-003   5.2148463583668340E-003   0.0000000000000000     
   8.4241857185463655E-003   7.7217511903431481E-003   0.0000000000000000     
   0.0000000000000000        0.0000000000000000        0.0000000000000000     
   1.7979320172517713E-003   1.2766225928644618E-003   0.0000000000000000     
   3.6200359437686398E-003   2.9389153701403908E-003   0.0000000000000000     
   5.4663117795506052E-003   4.9868783318277885E-003   0.0000000000000000     
   7.3367595245976691E-003   7.4205114779266534E-003   0.0000000000000000     
   1.2195425021174175E-002   9.2195348263094806E-003   0.0000000000000000     
   1.5427033837758723E-002   1.2358983636603363E-002   0.0000000000000000     
   1.8575470175494723E-002   1.5668585403890541E-002   0.0000000000000000     
   2.1640734034382179E-002   1.9148340128171022E-002   0.0000000000000000     
   2.4622825414421085E-002   2.2798247809444797E-002   0.0000000000000000     
   1.0853518466834619E-002   8.6212628645345631E-003   0.0000000000000000     
   1.3684758265569273E-002   1.1641256879482519E-002   0.0000000000000000     
   1.6476958277786072E-002   1.4875213810620774E-002   0.0000000000000000     
   1.9230118503485018E-002   1.8323133657949322E-002   0.0000000000000000     
   2.1944238942666106E-002   2.1985016421468169E-002   0.0000000000000000     
   9.5964386992920172E-003   8.1220016525457850E-003   0.0000000000000000     
   1.2070065685841486E-002   1.1040141596251978E-002   0.0000000000000000     
   1.4534604622955966E-002   1.4205410861458769E-002   0.0000000000000000     
   1.6990055510635458E-002   1.7617809448166152E-002   0.0000000000000000     
   1.9436418348879960E-002   2.1277337356374135E-002   0.0000000000000000     
   8.4241857185463655E-003   7.7217511903431481E-003   0.0000000000000000     
   1.0582956098575364E-002   1.0555637786911737E-002   0.0000000000000000     
   1.2748409211004412E-002   1.3659176556404525E-002   0.0000000000000000     
   1.4920545055833507E-002   1.7032367498821508E-002   0.0000000000000000     
   1.7099363633062654E-002   2.0675210614162692E-002   0.0000000000000000     
   7.3367595245976691E-003   7.4205114779266534E-003   0.0000000000000000     
   9.2234295037709104E-003   1.0187745451461803E-002   0.0000000000000000     
   1.1118372041931408E-002   1.3236510895458046E-002   0.0000000000000000     
   1.3021587139079164E-002   1.6566807809915398E-002   0.0000000000000000     
   1.4933074795214179E-002   2.0178636194833843E-002   0.0000000000000000     
   2.4622825414421085E-002   2.2798247809444797E-002   0.0000000000000000     
   2.7522942784660429E-002   2.6642126862031310E-002   0.0000000000000000     
   3.0342284614149177E-002   3.0703795700249999E-002   0.0000000000000000     
   3.3080850902887336E-002   3.4983254324100863E-002   0.0000000000000000     
   3.5738641650874911E-002   3.9480502733583896E-002   0.0000000000000000     
   2.1944238942666106E-002   2.1985016421468169E-002   0.0000000000000000     
   2.4599840183236441E-002   2.5860700140230730E-002   0.0000000000000000     
   2.7177442813103130E-002   2.9950022853290424E-002   0.0000000000000000     
   2.9677046832266164E-002   3.4252984560647251E-002   0.0000000000000000     
   3.2098652240725549E-002   3.8769585262301204E-002   0.0000000000000000     
   1.9436418348879960E-002   2.1277337356374135E-002   0.0000000000000000     
   2.1842723868838319E-002   2.5167334237382290E-002   0.0000000000000000     
   2.4178002801659389E-002   2.9271139742490182E-002   0.0000000000000000     
   2.6442255147343167E-002   3.3588753871697810E-002   0.0000000000000000     
   2.8635480905889646E-002   3.8120176625005192E-002   0.0000000000000000     
   1.7099363633062654E-002   2.0675210614162692E-002   0.0000000000000000     
   1.9251593841466057E-002   2.4562029153485977E-002   0.0000000000000000     
   2.1343964579817961E-002   2.8667146367849262E-002   0.0000000000000000     
   2.3376475848118333E-002   3.2990562257252554E-002   0.0000000000000000     
   2.5349127646367205E-002   3.7532276821695840E-002   0.0000000000000000     
   1.4933074795214179E-002   2.0178636194833843E-002   0.0000000000000000     
   1.6826450101119661E-002   2.4044784888541795E-002   0.0000000000000000     
   1.8675328147578833E-002   2.8138042729367672E-002   0.0000000000000000     
   2.0479708934591688E-002   3.2458409717311461E-002   0.0000000000000000     
   2.2239592462158227E-002   3.7005885852373174E-002   0.0000000000000000     
   3.5738641650874911E-002   3.9480502733583896E-002   0.0000000000000000     
   3.8315732713238772E-002   4.4190455792101575E-002   0.0000000000000000     
   4.0812199945105751E-002   4.9108028363056361E-002   0.0000000000000000     
   4.3228043346475890E-002   5.4233220446448259E-002   0.0000000000000000     
   4.5563262917349162E-002   5.9566032042277256E-002   0.0000000000000000     
   3.2098652240725549E-002   3.8769585262301204E-002   0.0000000000000000     
   3.4437590210771515E-002   4.3495827207424370E-002   0.0000000000000000     
   3.6689191914694323E-002   4.8427712645188824E-002   0.0000000000000000     
   3.8853457352493959E-002   5.3565241575594572E-002   0.0000000000000000     
   4.0930386524170415E-002   5.8908413998641614E-002   0.0000000000000000     
   2.8635480905889646E-002   3.8120176625005192E-002   0.0000000000000000     
   3.0751351389268215E-002   4.2860654146022227E-002   0.0000000000000000     
   3.2783537909448254E-002   4.7805432578358849E-002   0.0000000000000000     
   3.4732040466429755E-002   5.2954511922015071E-002   0.0000000000000000     
   3.6596859060212733E-002   5.8307892176990873E-002   0.0000000000000000     
   2.5349127646367205E-002   3.7532276821695840E-002   0.0000000000000000     
   2.7257016248728845E-002   4.2284936607895139E-002   0.0000000000000000     
   2.9095237929367541E-002   4.7241188162566429E-002   0.0000000000000000     
   3.0863792688283296E-002   5.2401031485709744E-002   0.0000000000000000     
   3.2562680525476118E-002   5.7764466577325042E-002   0.0000000000000000     
   2.2239592462158227E-002   3.7005885852373174E-002   0.0000000000000000     
   2.3954584789153410E-002   4.1768674593043106E-002   0.0000000000000000     
   2.5624291974452186E-002   4.6734979397811578E-002   0.0000000000000000     
   2.7248714018054572E-002   5.1904800266678583E-002   0.0000000000000000     
   2.8827850919960551E-002   5.7278137199644114E-002   0.0000000000000000     
   4.5563262917349162E-002   5.9566032042277256E-002   0.0000000000000000     
   4.7831104432477095E-002   6.5093145455605961E-002   0.0000000000000000     
   5.0044813666611204E-002   7.0801242991496982E-002   0.0000000000000000     
   5.2204390619751496E-002   7.6690324649950306E-002   0.0000000000000000     
   5.4309835291897972E-002   8.2760390430965933E-002   0.0000000000000000     
   4.0930386524170415E-002   5.8908413998641614E-002   0.0000000000000000     
   4.2941493558321470E-002   6.4447103112897322E-002   0.0000000000000000     
   4.4908292583544902E-002   7.0171182116929062E-002   0.0000000000000000     
   4.6830783599840692E-002   7.6080651010736855E-002   0.0000000000000000     
   4.8708966607208873E-002   8.2175509794320672E-002   0.0000000000000000     
   3.6596859060212733E-002   5.8307892176990873E-002   0.0000000000000000     
   3.8400933184984207E-002   6.3858269057740405E-002   0.0000000000000000     
   4.0167202334931207E-002   6.9598338278717781E-002   0.0000000000000000     
   4.1895666510053740E-002   7.5528099839922994E-002   0.0000000000000000     
   4.3586325710351814E-002   8.1647553741356071E-002   0.0000000000000000     
   3.2562680525476118E-002   5.7764466577325042E-002   0.0000000000000000     
   3.4209423312465286E-002   6.3326643290135223E-002   0.0000000000000000     
   3.5821542920770132E-002   6.9082711476863110E-002   0.0000000000000000     
   3.7399039350390635E-002   7.5032671137508763E-002   0.0000000000000000     
   3.8941912601326817E-002   8.1176522272072102E-002   0.0000000000000000     
   2.8827850919960551E-002   5.7278137199644114E-002   0.0000000000000000     
   3.0366963940764716E-002   6.2852225810081749E-002   0.0000000000000000     
   3.1871314341061663E-002   6.8624301711365090E-002   0.0000000000000000     
   3.3340902120851376E-002   7.4594364903494095E-002   0.0000000000000000     
   3.4775727280133867E-002   8.0762415386468805E-002   0.0000000000000000     
   5.4309835291897972E-002   8.2760390430965933E-002   0.0000000000000000     
   5.6343931031728439E-002   8.9004261527062561E-002   0.0000000000000000     
   5.8289461187920708E-002   9.5414759130758892E-002   0.0000000000000000     
   6.0146425760474798E-002  0.10199188324205490        0.0000000000000000     
   6.1914824749390689E-002  0.10873563386095059        0.0000000000000000     
   4.8708966607208873E-002   8.2175509794320672E-002   0.0000000000000000     
   5.0522850305970618E-002   8.8445159003044144E-002   0.0000000000000000     
   5.2252443396447169E-002   9.4878999172270856E-002   0.0000000000000000     
   5.3897745878638527E-002  0.10147703030200082        0.0000000000000000     
   5.5458757752544670E-002  0.10823925239223402        0.0000000000000000     
   4.3586325710351814E-002   8.1647553741356071E-002   0.0000000000000000     
   4.5218688792666904E-002   8.7942893545219211E-002   0.0000000000000000     
   4.6772264613840493E-002   9.4400312813714582E-002   0.0000000000000000     
   4.8247053173872616E-002  0.10101981154684225        0.0000000000000000     
   4.9643054472763237E-002  0.10780138974460220        0.0000000000000000     
   3.8941912601326817E-002   8.1176522272072102E-002   0.0000000000000000     
   4.0431446491817298E-002   8.7497465153587695E-002   0.0000000000000000     
   4.1848924840100714E-002   9.3978700055090084E-002   0.0000000000000000     
   4.3194347646177078E-002  0.10062022697657920        0.0000000000000000     
   4.4467714910046377E-002  0.10742204591805507        0.0000000000000000     
   3.4775727280133867E-002   8.0762415386468805E-002   0.0000000000000000     
   3.6161123403421785E-002   8.7108873828149705E-002   0.0000000000000000     
   3.7482424075227797E-002   9.3614160896397319E-002   0.0000000000000000     
   3.8739629295551907E-002  0.10027827659121165        0.0000000000000000     
   3.9932739064394103E-002  0.10710122091259269        0.0000000000000000     
   6.1914824749390689E-002  0.10873563386095059        0.0000000000000000     
   6.3586658035013038E-002  0.11563123867285625        0.0000000000000000     
   6.5153925497686546E-002  0.12266392536318219        0.0000000000000000     
   6.6616627137411191E-002  0.12983369393192837        0.0000000000000000     
   6.7974762954186974E-002  0.13714054437909481        0.0000000000000000     
   5.5458757752544670E-002  0.10823925239223402        0.0000000000000000     
   5.6919633380018146E-002  0.11515136900889823        0.0000000000000000     
   5.8264527122911518E-002  0.12219908371792117        0.0000000000000000     
   5.9493438981224743E-002  0.12938239651930289        0.0000000000000000     
   6.0606368954957836E-002  0.13670130741304334        0.0000000000000000     
   4.9643054472763237E-002  0.10780138974460220        0.0000000000000000     
   5.0943069039805181E-002  0.11473201433220827        0.0000000000000000     
   5.2129897404291227E-002  0.12179865223487445        0.0000000000000000     
   5.3203539566221418E-002  0.12900130345260066        0.0000000000000000     
   5.4163995525595726E-002  0.13633996798538695        0.0000000000000000     
   4.4467714910046377E-002  0.10742204591805507        0.0000000000000000     
   4.5656965014374107E-002  0.11437317464278644        0.0000000000000000     
   4.6750036341825715E-002  0.12146263091404197        0.0000000000000000     
   4.7746928892401223E-002  0.12869041473182169        0.0000000000000000     
   4.8647642666100617E-002  0.13605652609612562        0.0000000000000000     
   3.9932739064394103E-002  0.10710122091259269        0.0000000000000000     
   4.1061321303724932E-002  0.11407484994063266        0.0000000000000000     
   4.2124943935514955E-002  0.12119101975542376        0.0000000000000000     
   4.3123606959764159E-002  0.12844973035696600        0.0000000000000000     
   4.4057310376472543E-002  0.13585098174525936        0.0000000000000000     
   6.7974762954186974E-002  0.13714054437909481        0.0000000000000000     
   6.9215069696995757E-002  0.14456004944401485        0.0000000000000000     
   7.0324284114819391E-002  0.15206778186602180        0.0000000000000000     
   7.1302406207657862E-002  0.15966374164511574        0.0000000000000000     
   7.2149435975511184E-002  0.16734792878129656        0.0000000000000000     
   6.0606368954957836E-002  0.13670130741304334        0.0000000000000000     
   6.1564414876017340E-002  0.14410588936655469        0.0000000000000000     
   6.2328674576309771E-002  0.15154621534724907        0.0000000000000000     
   6.2899148055835130E-002  0.15902228535512652        0.0000000000000000     
   6.3275835314593437E-002  0.16653409939018696        0.0000000000000000     
   5.4163995525595726E-002  0.13633996798538695        0.0000000000000000     
   5.4960907338365762E-002  0.14375413195844955        0.0000000000000000     
   5.5543917060483117E-002  0.15118328149700469        0.0000000000000000     
   5.5913024691947810E-002  0.15862741660105234        0.0000000000000000     
   5.6068230232759850E-002  0.16608653727059250        0.0000000000000000     
   4.8647642666100617E-002  0.13605652609612562        0.0000000000000000     
   4.9404547084040996E-002  0.14350477721969937        0.0000000000000000     
   4.9970011567339434E-002  0.15097898031528856        0.0000000000000000     
   5.0344036115995923E-002  0.15847913538289313        0.0000000000000000     
   5.0526620730010470E-002  0.16600524242251322        0.0000000000000000     
   4.4057310376472543E-002  0.13585098174525936        0.0000000000000000     
   4.4895334113043070E-002  0.14335782515030418        0.0000000000000000     
   4.5606958096878696E-002  0.15093331180210071        0.0000000000000000     
   4.6192182327979434E-002  0.15857744170064902        0.0000000000000000     
   4.6651006806345277E-002  0.16629021484594905        0.0000000000000000     
   0.0000000000000000        0.0000000000000000        0.0000000000000000     
   1.7979320172517713E-003   1.2766225928644618E-003   0.0000000000000000     
   3.6200359437686398E-003   2.9389153701403908E-003   0.0000000000000000     
   5.4663117795506052E-003   4.9868783318277885E-003   0.0000000000000000     
   7.3367595245976691E-003   7.4205114779266534E-003   0.0000000000000000     
   0.0000000000000000        0.0000000000000000        0.0000000000000000     
   1.5347332911881148E-003   1.2181199636662908E-003   0.0000000000000000     
   3.0982676379909964E-003   2.8221222517627017E-003   0.0000000000000000     
   4.6906030404086458E-003   4.8120068642892311E-003   0.0000000000000000     
   6.3117394984410621E-003   7.1877738012458810E-003   0.0000000000000000     
   0.0000000000000000        0.0000000000000000        0.0000000000000000     
   1.2875653547210152E-003   1.1711830894875703E-003   0.0000000000000000     
   2.6045379764733016E-003   2.7270823603584961E-003   0.0000000000000000     
   3.9509178652568592E-003   4.6676978126127767E-003   0.0000000000000000     
   5.3267050210716888E-003   6.9930294462504147E-003   0.0000000000000000     
   0.0000000000000000        0.0000000000000000        0.0000000000000000     
   1.0564282078504726E-003   1.1358119703283004E-003   0.0000000000000000     
   2.1388469592155544E-003   2.6537956959277764E-003   0.0000000000000000     
   3.2472562540952457E-003   4.5539511767984280E-003   0.0000000000000000     
   4.3816560924895458E-003   6.8362784129402570E-003   0.0000000000000000     
   0.0000000000000000        0.0000000000000000        0.0000000000000000     
   8.4132185057648697E-004   1.1120066061884812E-003   0.0000000000000000     
   1.7011945862177554E-003   2.6022622584705420E-003   0.0000000000000000     
   2.5796182069238050E-003   4.4707669568461823E-003   0.0000000000000000     
   3.4765927126946361E-003   6.7175207013154027E-003   0.0000000000000000     
   7.3367595245976691E-003   7.4205114779266534E-003   0.0000000000000000     
   9.2234295037709104E-003   1.0187745451461803E-002   0.0000000000000000     
   1.1118372041931408E-002   1.3236510895458046E-002   0.0000000000000000     
   1.3021587139079164E-002   1.6566807809915398E-002   0.0000000000000000     
   1.4933074795214179E-002   2.0178636194833843E-002   0.0000000000000000     
   6.3117394984410621E-003   7.1877738012458810E-003   0.0000000000000000     
   7.9491638253786096E-003   9.9004287634902894E-003   0.0000000000000000     
   9.5903628345116489E-003   1.2900977451880099E-002   0.0000000000000000     
   1.1235336525840182E-002   1.6189419866415311E-002   0.0000000000000000     
   1.2884084899364209E-002   1.9765756007095923E-002   0.0000000000000000     
   5.3267050210716888E-003   6.9930294462504147E-003   0.0000000000000000     
   6.7178369873489565E-003   9.6576518965853300E-003   0.0000000000000000     
   8.1102513075198331E-003   1.2616139798931445E-002   0.0000000000000000     
   9.5039479815843160E-003   1.5868493153288758E-002   0.0000000000000000     
   1.0898927009542406E-002   1.9414711959657278E-002   0.0000000000000000     
   4.3816560924895458E-003   6.8362784129402570E-003   0.0000000000000000     
   5.5294489896819520E-003   9.4594148507469202E-003   0.0000000000000000     
   6.6780374609559569E-003   1.2381997936612082E-002   0.0000000000000000     
   7.8274215063115649E-003   1.5604027670535746E-002   0.0000000000000000     
   8.9776011257487725E-003   1.9125504052517908E-002   0.0000000000000000     
   3.4765927126946361E-003   6.7175207013154027E-003   0.0000000000000000     
   4.3839998323775935E-003   9.3057176259750615E-003   0.0000000000000000     
   5.2937212948200255E-003   1.2198551864922013E-002   0.0000000000000000     
   6.2057571000219310E-003   1.5396023418156263E-002   0.0000000000000000     
   7.1201072479833106E-003   1.8898132285677806E-002   0.0000000000000000     
   1.4933074795214179E-002   2.0178636194833843E-002   0.0000000000000000     
   1.6826450101119661E-002   2.4044784888541795E-002   0.0000000000000000     
   1.8675328147578833E-002   2.8138042729367672E-002   0.0000000000000000     
   2.0479708934591688E-002   3.2458409717311461E-002   0.0000000000000000     
   2.2239592462158227E-002   3.7005885852373174E-002   0.0000000000000000     
   1.2884084899364209E-002   1.9765756007095923E-002   0.0000000000000000     
   1.4520130822905567E-002   2.3604483654781315E-002   0.0000000000000000     
   1.6126997164286099E-002   2.7680100590330860E-002   0.0000000000000000     
   1.7704683923505802E-002   3.1992606813744565E-002   0.0000000000000000     
   1.9253191100564677E-002   3.6542002325022416E-002   0.0000000000000000     
   1.0898927009542406E-002   1.9414711959657278E-002   0.0000000000000000     
   1.2285474181930208E-002   2.3230007664436090E-002   0.0000000000000000     
   1.3653875289283827E-002   2.7289591714024286E-002   0.0000000000000000     
   1.5004130331603260E-002   3.1593464108421863E-002   0.0000000000000000     
   1.6336239308888511E-002   3.6141624847628825E-002   0.0000000000000000     
   8.9776011257487725E-003   1.9125504052517908E-002   0.0000000000000000     
   1.0122480178193591E-002   2.2921356917506120E-002   0.0000000000000000     
   1.1255962522572025E-002   2.6966516100447938E-002   0.0000000000000000     
   1.2378048158884072E-002   3.1260981601343364E-002   0.0000000000000000     
   1.3488737087129735E-002   3.5804753420192389E-002   0.0000000000000000     
   7.1201072479833106E-003   1.8898132285677806E-002   0.0000000000000000     
   8.0311488116957125E-003   2.2678531413991405E-002   0.0000000000000000     
   8.9332588641506845E-003   2.6710873749601825E-002   0.0000000000000000     
   9.8264374053482293E-003   3.0995159292509056E-002   0.0000000000000000     
   1.0710684435288345E-002   3.5531388042713115E-002   0.0000000000000000     
   2.2239592462158227E-002   3.7005885852373174E-002   0.0000000000000000     
   2.3954584789153410E-002   4.1768674593043106E-002   0.0000000000000000     
   2.5624291974452186E-002   4.6734979397811578E-002   0.0000000000000000     
   2.7248714018054572E-002   5.1904800266678583E-002   0.0000000000000000     
   2.8827850919960551E-002   5.7278137199644114E-002   0.0000000000000000     
   1.9253191100564677E-002   3.6542002325022416E-002   0.0000000000000000     
   2.0776490507543235E-002   4.1311957300897220E-002   0.0000000000000000     
   2.2278553956521979E-002   4.6286141918101723E-002   0.0000000000000000     
   2.3759381447500914E-002   5.1464556176635964E-002   0.0000000000000000     
   2.5218972980480047E-002   5.6847200076499904E-002   0.0000000000000000     
   1.6336239308888511E-002   3.6141624847628825E-002   0.0000000000000000     
   1.7655166900899636E-002   4.0914873930888544E-002   0.0000000000000000     
   1.8965877787396689E-002   4.5894011357444343E-002   0.0000000000000000     
   2.0268371968379679E-002   5.1079037127296244E-002   0.0000000000000000     
   2.1562649443848593E-002   5.6469951240444259E-002   0.0000000000000000     
   1.3488737087129735E-002   3.5804753420192389E-002   0.0000000000000000     
   1.4590613969222618E-002   4.0577424483017072E-002   0.0000000000000000     
   1.5686263467076324E-002   4.5558587715839413E-002   0.0000000000000000     
   1.6775685580690848E-002   5.0748243118659449E-002   0.0000000000000000     
   1.7858880310066199E-002   5.6146390691477158E-002   0.0000000000000000     
   1.0710684435288345E-002   3.5531388042713115E-002   0.0000000000000000     
   1.1582831712512179E-002   4.0299608957282802E-002   0.0000000000000000     
   1.2439710995560875E-002   4.5279870993286946E-002   0.0000000000000000     
   1.3281322284434438E-002   5.0472174150725552E-002   0.0000000000000000     
   1.4107665579132862E-002   5.5876518429598607E-002   0.0000000000000000     
   2.8827850919960551E-002   5.7278137199644114E-002   0.0000000000000000     
   3.0366963940764716E-002   6.2852225810081749E-002   0.0000000000000000     
   3.1871314341061663E-002   6.8624301711365090E-002   0.0000000000000000     
   3.3340902120851376E-002   7.4594364903494095E-002   0.0000000000000000     
   3.4775727280133867E-002   8.0762415386468805E-002   0.0000000000000000     
   2.5218972980480047E-002   5.6847200076499904E-002   0.0000000000000000     
   2.6650431890179082E-002   6.2432582034870697E-002   0.0000000000000000     
   2.8046861511317755E-002   6.8219210468925456E-002   0.0000000000000000     
   2.9408261843896059E-002   7.4207085378664162E-002   0.0000000000000000     
   3.0734632887913990E-002   8.0396206764086861E-002   0.0000000000000000     
   2.1562649443848593E-002   5.6469951240444259E-002   0.0000000000000000     
   2.2836703981004985E-002   6.2065277381792711E-002   0.0000000000000000     
   2.4078529347050379E-002   6.7863539236246009E-002   0.0000000000000000     
   2.5288125541984785E-002   7.3864736803804107E-002   0.0000000000000000     
   2.6465492565808196E-002   8.0068870084467003E-002   0.0000000000000000     
   1.7858880310066199E-002   5.6146390691477158E-002   0.0000000000000000     
   1.8925780213242413E-002   6.1750311850847825E-002   0.0000000000000000     
   1.9966317848259540E-002   6.7557288013326722E-002   0.0000000000000000     
   2.0980493215117569E-002   7.3567319178913876E-002   0.0000000000000000     
   2.1968306313816501E-002   7.9780405347609246E-002   0.0000000000000000     
   1.4107665579132862E-002   5.5876518429598607E-002   0.0000000000000000     
   1.4917660586891382E-002   6.1487685442036005E-002   0.0000000000000000     
   1.5710227014945226E-002   6.7300456800167635E-002   0.0000000000000000     
   1.6485364863294397E-002   7.3314832503993496E-002   0.0000000000000000     
   1.7243074131938894E-002   7.9530812553513588E-002   0.0000000000000000     
   3.4775727280133867E-002   8.0762415386468805E-002   0.0000000000000000     
   3.6161123403421785E-002   8.7108873828149705E-002   0.0000000000000000     
   3.7482424075227797E-002   9.3614160896397319E-002   0.0000000000000000     
   3.8739629295551907E-002  0.10027827659121165        0.0000000000000000     
   3.9932739064394103E-002  0.10710122091259269        0.0000000000000000     
   3.0734632887913990E-002   8.0396206764086861E-002   0.0000000000000000     
   3.2015734862271779E-002   8.6764970778945419E-002   0.0000000000000000     
   3.3241327985869658E-002   9.3291773576991713E-002   0.0000000000000000     
   3.4411412258707620E-002   9.9976615158225771E-002   0.0000000000000000     
   3.5525987680785680E-002  0.10681949552264761        0.0000000000000000     
   2.6465492565808196E-002   8.0068870084467003E-002   0.0000000000000000     
   2.7603296203158649E-002   8.6453607216015096E-002   0.0000000000000000     
   2.8694202238674166E-002   9.2996616336228660E-002   0.0000000000000000     
   2.9738210672354742E-002   9.9697897445107736E-002   0.0000000000000000     
   3.0735321504200375E-002  0.10655745054265235        0.0000000000000000     
   2.1968306313816501E-002   7.9780405347609246E-002   0.0000000000000000     
   2.2923807426082399E-002   8.6174783139358738E-002   0.0000000000000000     
   2.3841046833641320E-002   9.2728689174108148E-002   0.0000000000000000     
   2.4720024536493249E-002   9.9442123451857573E-002   0.0000000000000000     
   2.5560740534638204E-002  0.10631508597260689        0.0000000000000000     
   1.7243074131938894E-002   7.9530812553513588E-002   0.0000000000000000     
   1.7977268531043034E-002   8.5928498548976356E-002   0.0000000000000000     
   1.8681861770771122E-002   9.2487992090630231E-002   0.0000000000000000     
   1.9356853851123158E-002   9.9209293178475211E-002   0.0000000000000000     
   2.0002244772099151E-002  0.10609240181251131        0.0000000000000000     
   3.9932739064394103E-002  0.10710122091259269        0.0000000000000000     
   4.1061321303724932E-002  0.11407484994063266        0.0000000000000000     
   4.2124943935514955E-002  0.12119101975542376        0.0000000000000000     
   4.3123606959764159E-002  0.12844973035696600        0.0000000000000000     
   4.4057310376472543E-002  0.13585098174525936        0.0000000000000000     
   3.5525987680785680E-002  0.10681949552264761        0.0000000000000000     
   3.6595839272022555E-002  0.11381481656371364        0.0000000000000000     
   3.7631752052336986E-002  0.12095698017488042        0.0000000000000000     
   3.8633726021728952E-002  0.12824598635614790        0.0000000000000000     
   3.9601761180198480E-002  0.13568183510751611        0.0000000000000000     
   3.0735321504200375E-002  0.10655745054265235        0.0000000000000000     
   3.1700220283431828E-002  0.11357085084999606        0.0000000000000000     
   3.2647592559269814E-002  0.12073367358827253        0.0000000000000000     
   3.3577438331714345E-002  0.12804591875748178        0.0000000000000000     
   3.4489757600765419E-002  0.13550758635762378        0.0000000000000000     
   2.5560740534638204E-002  0.10631508597260689        0.0000000000000000     
   2.6374464337952749E-002  0.11334295279947985        0.0000000000000000     
   2.7172465456313466E-002  0.12052109999560008        0.0000000000000000     
   2.7954743889720340E-002  0.12784952756096754        0.0000000000000000     
   2.8721299638173384E-002  0.13532823549558232        0.0000000000000000     
   2.0002244772099151E-002  0.10609240181251131        0.0000000000000000     
   2.0618571435585327E-002  0.11313112241216507        0.0000000000000000     
   2.1206370743467918E-002  0.12031925939686310        0.0000000000000000     
   2.1765642695746927E-002  0.12765681276660532        0.0000000000000000     
   2.2296387292422351E-002  0.13514378252139181        0.0000000000000000     
   4.4057310376472543E-002  0.13585098174525936        0.0000000000000000     
   4.4895334113043070E-002  0.14335782515030418        0.0000000000000000     
   4.5606958096878696E-002  0.15093331180210071        0.0000000000000000     
   4.6192182327979434E-002  0.15857744170064902        0.0000000000000000     
   4.6651006806345277E-002  0.16629021484594905        0.0000000000000000     
   3.9601761180198480E-002  0.13568183510751611        0.0000000000000000     
   4.0524612355145560E-002  0.14324989409521066        0.0000000000000000     
   4.1391034373970209E-002  0.15093553098545726        0.0000000000000000     
   4.2201027236672434E-002  0.15873874577825586        0.0000000000000000     
   4.2954590943252227E-002  0.16665953847360651        0.0000000000000000     
   3.4489757600765419E-002  0.13550758635762378        0.0000000000000000     
   3.5383725740122052E-002  0.14311760239936552        0.0000000000000000     
   3.6258518123483234E-002  0.15087489289337419        0.0000000000000000     
   3.7114134750848966E-002  0.15877945783964970        0.0000000000000000     
   3.7950575622219269E-002  0.16683129723819201        0.0000000000000000     
   2.8721299638173384E-002  0.13532823549558232        0.0000000000000000     
   2.9472674267972537E-002  0.14296095006276885        0.0000000000000000     
   3.0209409345417767E-002  0.15075139752585154        0.0000000000000000     
   3.0931504870509056E-002  0.15869957788483047        0.0000000000000000     
   3.1638960843246418E-002  0.16680549113970558        0.0000000000000000     
   2.2296387292422351E-002  0.13514378252139181        0.0000000000000000     
   2.2791457938697034E-002  0.14277993708542047        0.0000000000000000     
   2.3243708039773811E-002  0.15056504488288927        0.0000000000000000     
   2.3653137595652692E-002  0.15849910591379815        0.0000000000000000     
   2.4019746606333658E-002  0.16658212017814722        0.0000000000000000     
   0.0000000000000000        0.0000000000000000        0.0000000000000000     
   8.4132185057648697E-004   1.1120066061884812E-003   0.0000000000000000     
   1.7011945862177554E-003   2.6022622584705420E-003   0.0000000000000000     
   2.5796182069238050E-003   4.4707669568461823E-003   0.0000000000000000     
   3.4765927126946361E-003   6.7175207013154027E-003   0.0000000000000000     
   0.0000000000000000        0.0000000000000000        0.0000000000000000     
   6.3342101305944990E-004   1.0962369303867646E-003   0.0000000000000000     
   1.2771451364299285E-003   2.5666875374956623E-003   0.0000000000000000     
   1.9311723701114357E-003   4.4113518213266933E-003   0.0000000000000000     
   2.5955027141039721E-003   6.6302297818798574E-003   0.0000000000000000     
   0.0000000000000000        0.0000000000000000        0.0000000000000000     
   4.2390042545975315E-004   1.0849728762418027E-003   0.0000000000000000     
   8.5226288880209877E-004   2.5412770225120068E-003   0.0000000000000000     
   1.2850873900270370E-003   4.3689124388106119E-003   0.0000000000000000     
   1.7223739291345678E-003   6.5678791251376177E-003   0.0000000000000000     
   0.0000000000000000        0.0000000000000000        0.0000000000000000     
   2.1276008777739667E-004   1.0782144437535956E-003   0.0000000000000000     
   4.2654784333426618E-004   2.5260307135195757E-003   0.0000000000000000     
   6.4136326667060860E-004   4.3434488092979383E-003   0.0000000000000000     
   8.5720635778642376E-004   6.5304687310886872E-003   0.0000000000000000     
   0.0000000000000000        0.0000000000000000        0.0000000000000000     
   1.2380504607611975E-014   1.0759616329221434E-003   0.0000000000000000     
   2.6430734770960251E-014   2.5209486105183679E-003   0.0000000000000000     
   4.2150419439501707E-014   4.3349609327886741E-003   0.0000000000000000     
   5.9540073609268274E-014   6.5179985997330624E-003   0.0000000000000000     
   3.4765927126946361E-003   6.7175207013154027E-003   0.0000000000000000     
   4.3839998323775935E-003   9.3057176259750615E-003   0.0000000000000000     
   5.2937212948200255E-003   1.2198551864922013E-002   0.0000000000000000     
   6.2057571000219310E-003   1.5396023418156263E-002   0.0000000000000000     
   7.1201072479833106E-003   1.8898132285677806E-002   0.0000000000000000     
   2.5955027141039721E-003   6.6302297818798574E-003   0.0000000000000000     
   3.2670150400166079E-003   9.1907187260150749E-003   0.0000000000000000     
   3.9425882194584162E-003   1.2060215960592263E-002   0.0000000000000000     
   4.6222222524293964E-003   1.5238721485611426E-002   0.0000000000000000     
   5.3059171389295478E-003   1.8726235301072557E-002   0.0000000000000000     
   1.7223739291345678E-003   6.5678791251376177E-003   0.0000000000000000     
   2.1640201371797159E-003   9.1085766546122830E-003   0.0000000000000000     
   2.6099236452175071E-003   1.1961404600353857E-002   0.0000000000000000     
   3.0600844532479416E-003   1.5126362962362345E-002   0.0000000000000000     
   3.5145025612710185E-003   1.8603451740637746E-002   0.0000000000000000     
   8.5720635778642376E-004   6.5304687310886872E-003   0.0000000000000000     
   1.0750151238669190E-003   9.0592914117666838E-003   0.0000000000000000     
   1.2957275720972999E-003   1.1902117784206795E-002   0.0000000000000000     
   1.5193437024775677E-003   1.5058947848409023E-002   0.0000000000000000     
   1.7458635150077212E-003   1.8529781604373359E-002   0.0000000000000000     
   5.9540073609268274E-014   6.5179985997330624E-003   0.0000000000000000     
   7.8215672870765585E-014   9.0428629974782810E-003   0.0000000000000000     
   9.7793551956468910E-014   1.1882355512151077E-002   0.0000000000000000     
   1.1827415979384030E-013   1.5036476143751455E-002   0.0000000000000000     
   1.3965705761981306E-013   1.8505224892279414E-002   0.0000000000000000     
   7.1201072479833106E-003   1.8898132285677806E-002   0.0000000000000000     
   8.0311488116957125E-003   2.2678531413991405E-002   0.0000000000000000     
   8.9332588641506845E-003   2.6710873749601825E-002   0.0000000000000000     
   9.8264374053482293E-003   3.0995159292509056E-002   0.0000000000000000     
   1.0710684435288345E-002   3.5531388042713115E-002   0.0000000000000000     
   5.3059171389295478E-003   1.8726235301072557E-002   0.0000000000000000     
   5.9875769750659287E-003   2.2494857642409310E-002   0.0000000000000000     
   6.6611058569455896E-003   2.6516688745055316E-002   0.0000000000000000     
   7.3265037845685350E-003   3.0791728609010575E-002   0.0000000000000000     
   7.9837707579347630E-003   3.5319977234275095E-002   0.0000000000000000     
   3.5145025612710185E-003   1.8603451740637746E-002   0.0000000000000000     
   3.9678615609335917E-003   2.2363662091277183E-002   0.0000000000000000     
   4.4148450438825136E-003   2.6377985170377771E-002   0.0000000000000000     
   4.8554530101177851E-003   3.0646420977939525E-002   0.0000000000000000     
   5.2896854596394052E-003   3.5168969513962429E-002   0.0000000000000000     
   1.7458635150077212E-003   1.8529781604373359E-002   0.0000000000000000     
   1.9720025692987033E-003   2.2284944760595022E-002   0.0000000000000000     
   2.1944764249614561E-003   2.6294763025569202E-002   0.0000000000000000     
   2.4132850819959797E-003   3.0559236399295905E-002   0.0000000000000000     
   2.6284285404022741E-003   3.5078364881775133E-002   0.0000000000000000     
   1.3965705761981306E-013   1.8505224892279414E-002   0.0000000000000000     
   1.6126433955571118E-013   2.2258705650362833E-002   0.0000000000000000     
   1.8241883155932503E-013   2.6267022310629606E-002   0.0000000000000000     
   2.0311960528254444E-013   3.0530174873079723E-002   0.0000000000000000     
   2.2336754841589812E-013   3.5048163337713191E-002   0.0000000000000000     
   1.0710684435288345E-002   3.5531388042713115E-002   0.0000000000000000     
   1.1582831712512179E-002   4.0299608957282802E-002   0.0000000000000000     
   1.2439710995560875E-002   4.5279870993286946E-002   0.0000000000000000     
   1.3281322284434438E-002   5.0472174150725552E-002   0.0000000000000000     
   1.4107665579132862E-002   5.5876518429598607E-002   0.0000000000000000     
   7.9837707579347630E-003   3.5319977234275095E-002   0.0000000000000000     
   8.6243570410749430E-003   4.0082610213201052E-002   0.0000000000000000     
   9.2397128980197391E-003   4.5060803138140627E-002   0.0000000000000000     
   9.8298383287691617E-003   5.0254556009093815E-002   0.0000000000000000     
   1.0394733333323199E-002   5.5663868826060635E-002   0.0000000000000000     
   5.2896854596394052E-003   3.5168969513962429E-002   0.0000000000000000     
   5.7077268652175293E-003   3.9927611110287101E-002   0.0000000000000000     
   6.0997616996223076E-003   4.4904326098754117E-002   0.0000000000000000     
   6.4657899628537433E-003   5.0099114479363493E-002   0.0000000000000000     
   6.8058116549118333E-003   5.5511976252115222E-002   0.0000000000000000     
   2.6284285404022741E-003   3.5078364881775133E-002   0.0000000000000000     
   2.8329411849399395E-003   3.9834611648540949E-002   0.0000000000000000     
   3.0198574003685763E-003   4.4810439875127422E-002   0.0000000000000000     
   3.1891771866881849E-003   5.0005849561534574E-002   0.0000000000000000     
   3.3409005438987649E-003   5.5420840707762375E-002   0.0000000000000000     
   2.2336754841589812E-013   3.5048163337713191E-002   0.0000000000000000     
   2.4217270983700745E-013   3.9803611827962604E-002   0.0000000000000000     
   2.5854584315490592E-013   4.4779144467260570E-002   0.0000000000000000     
   2.7248604035027407E-013   4.9974761255607070E-002   0.0000000000000000     
   2.8399461601824605E-013   5.5390462193002116E-002   0.0000000000000000     
   1.4107665579132862E-002   5.5876518429598607E-002   0.0000000000000000     
   1.4917660586891382E-002   6.1487685442036005E-002   0.0000000000000000     
   1.5710227014945226E-002   6.7300456800167635E-002   0.0000000000000000     
   1.6485364863294397E-002   7.3314832503993496E-002   0.0000000000000000     
   1.7243074131938894E-002   7.9530812553513588E-002   0.0000000000000000     
   1.0394733333323199E-002   5.5663868826060635E-002   0.0000000000000000     
   1.0942768633493447E-002   6.1280785700265315E-002   0.0000000000000000     
   1.1482314951091498E-002   6.7097350742932146E-002   0.0000000000000000     
   1.2013372286117345E-002   7.3113563954061114E-002   0.0000000000000000     
   1.2535940638570997E-002   7.9329425333652240E-002   0.0000000000000000     
   6.8058116549118333E-003   5.5511976252115222E-002   0.0000000000000000     
   7.1315278845901836E-003   6.1133000170443784E-002   0.0000000000000000     
   7.4546397606823972E-003   6.6952274987783680E-002   0.0000000000000000     
   7.7751472831884758E-003   7.2969800704134877E-002   0.0000000000000000     
   8.0930504521084211E-003   7.9185577319497436E-002   0.0000000000000000     
   3.3409005438987649E-003   5.5420840707762375E-002   0.0000000000000000     
   3.4839383401815902E-003   6.1044328852571404E-002   0.0000000000000000     
   3.6272014437179314E-003   6.6865229534722209E-002   0.0000000000000000     
   3.7706898545077912E-003   7.2883542754214783E-002   0.0000000000000000     
   3.9144035725511674E-003   7.9099268511049148E-002   0.0000000000000000     
   2.8399461601824605E-013   5.5390462193002116E-002   0.0000000000000000     
   2.6766696498148335E-013   6.1014771746648183E-002   0.0000000000000000     
   1.9809783154134397E-013   6.6836214383747761E-002   0.0000000000000000     
   7.5288679370760780E-014   7.2854790104300848E-002   0.0000000000000000     
  -1.0076141310211284E-013   7.9070498908307418E-002   0.0000000000000000     
   1.7243074131938894E-002   7.9530812553513588E-002   0.0000000000000000     
   1.7977268531043034E-002   8.5928498548976356E-002   0.0000000000000000     
   1.8681861770771122E-002   9.2487992090630231E-002   0.0000000000000000     
   1.9356853851123158E-002   9.9209293178475211E-002   0.0000000000000000     
   2.0002244772099151E-002  0.10609240181251131        0.0000000000000000     
   1.2535940638570997E-002   7.9329425333652240E-002   0.0000000000000000     
   1.3043641282315438E-002   8.5727235557653270E-002   0.0000000000000000     
   1.3530095491213662E-002   9.2289295302011992E-002   0.0000000000000000     
   1.3995303265265668E-002   9.9015604566728421E-002   0.0000000000000000     
   1.4439264604471459E-002  0.10590616335180253        0.0000000000000000     
   8.0930504521084211E-003   7.9185577319497436E-002   0.0000000000000000     
   8.4028874441745109E-003   8.5583476278174836E-002   0.0000000000000000     
   8.6991964361190326E-003   9.2147369024470682E-002   0.0000000000000000     
   8.9819774279419860E-003   9.8877255558384919E-002   0.0000000000000000     
   9.2512304196433713E-003  0.10577313587991757        0.0000000000000000     
   3.9144035725511674E-003   7.9099268511049148E-002   0.0000000000000000     
   4.0550070166202505E-003   8.5497220710541041E-002   0.0000000000000000     
   4.1891646054872294E-003   9.2062213258006245E-002   0.0000000000000000     
   4.3168763391521082E-003   9.8794246153444690E-002   0.0000000000000000     
   4.4381422176148809E-003  0.10569331939685646        0.0000000000000000     
  -1.0076141310211284E-013   7.9070498908307418E-002   0.0000000000000000     
  -3.4734194687136011E-013   8.5468468854751914E-002   0.0000000000000000     
  -6.8174242293106424E-013   9.2033828002618695E-002   0.0000000000000000     
  -1.1039636002227460E-012   9.8766576351907776E-002   0.0000000000000000     
  -1.6140045029644501E-012  0.10566671390261914        0.0000000000000000     
   2.0002244772099151E-002  0.10609240181251131        0.0000000000000000     
   2.0618571435585327E-002  0.11313112241216507        0.0000000000000000     
   2.1206370743467918E-002  0.12031925939686310        0.0000000000000000     
   2.1765642695746927E-002  0.12765681276660532        0.0000000000000000     
   2.2296387292422351E-002  0.13514378252139181        0.0000000000000000     
   1.4439264604471459E-002  0.10590616335180253        0.0000000000000000     
   1.4851689685114640E-002  0.11295280042593586        0.0000000000000000     
   1.5222288683478814E-002  0.12014734455782994        0.0000000000000000     
   1.5551061599563981E-002  0.12748979574748479        0.0000000000000000     
   1.5838008433370146E-002  0.13498015399490032        0.0000000000000000     
   9.2512304196433713E-003  0.10577313587991757        0.0000000000000000     
   9.4929671953257692E-003  0.11282542757867638        0.0000000000000000     
   9.6931995390917708E-003  0.12002454824426906        0.0000000000000000     
   9.8519274509413710E-003  0.12737049787669560        0.0000000000000000     
   9.9691509308745731E-003  0.13486327647595600        0.0000000000000000     
   4.4381422176148809E-003  0.10569331939685646        0.0000000000000000     
   4.5424039662187200E-003  0.11274900387038664        0.0000000000000000     
   4.6191033103067918E-003  0.11995087045618047        0.0000000000000000     
   4.6682402498790954E-003  0.12729891915423786        0.0000000000000000     
   4.6898147849356309E-003  0.13479314996455885        0.0000000000000000     
  -1.6140045029644501E-012  0.10566671390261914        0.0000000000000000     
  -2.2065110155677914E-012  0.11272352930106663        0.0000000000000000     
  -2.8761245772154775E-012  0.11992631119356410        0.0000000000000000     
  -3.6228478713078854E-012  0.12727505958011151        0.0000000000000000     
  -4.4466778349738778E-012  0.13476977446070887        0.0000000000000000     
   2.2296387292422351E-002  0.13514378252139181        0.0000000000000000     
   2.2791457938697034E-002  0.14277993708542047        0.0000000000000000     
   2.3243708039773811E-002  0.15056504488288927        0.0000000000000000     
   2.3653137595652692E-002  0.15849910591379815        0.0000000000000000     
   2.4019746606333658E-002  0.16658212017814722        0.0000000000000000     
   1.5838008433370146E-002  0.13498015399490032        0.0000000000000000     
   1.6067267748818632E-002  0.14261089294987594        0.0000000000000000     
   1.6222978109830768E-002  0.15037448626221098        0.0000000000000000     
   1.6305139516406553E-002  0.15827093393190539        0.0000000000000000     
   1.6313751968545984E-002  0.16630023595895915        0.0000000000000000     
   9.9691509308745731E-003  0.13486327647595600        0.0000000000000000     
   1.0027294694860437E-002  0.14249014713869076        0.0000000000000000     
   1.0008783458868025E-002  0.15023837296154025        0.0000000000000000     
   9.9136172228973408E-003  0.15810795394450458        0.0000000000000000     
   9.7417959869483817E-003  0.16609889008758369        0.0000000000000000     
   4.6898147849356309E-003  0.13479314996455885        0.0000000000000000     
   4.6715387768224478E-003  0.14241769965186485        0.0000000000000000     
   4.6011240868855871E-003  0.15015670498087716        0.0000000000000000     
   4.4785707151250532E-003  0.15801016595159581        0.0000000000000000     
   4.3038786615408452E-003  0.16597808256402080        0.0000000000000000     
  -4.4466778349738778E-012  0.13476977446070887        0.0000000000000000     
  -5.2953375191677754E-012  0.14239355048939825        0.0000000000000000     
  -6.1165488906417265E-012  0.15012948232022164        0.0000000000000000     
  -6.9103091846801912E-012  0.15797756995317902        0.0000000000000000     
  -7.6766197565358851E-012  0.16593781338827049        0.0000000000000000     
   0.0000000000000000        0.0000000000000000        0.0000000000000000     
   1.2380504607611975E-014   1.0759616329221434E-003   0.0000000000000000     
   2.6430734770960251E-014   2.5209486105183679E-003   0.0000000000000000     
   4.2150419439501707E-014   4.3349609327886741E-003   0.0000000000000000     
   5.9540073609268274E-014   6.5179985997330624E-003   0.0000000000000000     
   0.0000000000000000        0.0000000000000000        0.0000000000000000     
  -2.1276008775302218E-004   1.0782144437475405E-003   0.0000000000000000     
  -4.2654784328219152E-004   2.5260307135085425E-003   0.0000000000000000     
  -6.4136326658750797E-004   4.3434488092830075E-003   0.0000000000000000     
  -8.5720635766897214E-004   6.5304687310709332E-003   0.0000000000000000     
   0.0000000000000000        0.0000000000000000        0.0000000000000000     
  -4.2390042543653832E-004   1.0849728762298821E-003   0.0000000000000000     
  -8.5226288875238441E-004   2.5412770224902573E-003   0.0000000000000000     
  -1.2850873899475387E-003   4.3689124387811260E-003   0.0000000000000000     
  -1.7223739290220010E-003   6.5678791251024904E-003   0.0000000000000000     
   0.0000000000000000        0.0000000000000000        0.0000000000000000     
  -6.3342101303816777E-004   1.0962369303691678E-003   0.0000000000000000     
  -1.2771451363841483E-003   2.5666875374635123E-003   0.0000000000000000     
  -1.9311723700379409E-003   4.4113518212830329E-003   0.0000000000000000     
  -2.5955027139995465E-003   6.6302297818277315E-003   0.0000000000000000     
   0.0000000000000000        0.0000000000000000        0.0000000000000000     
  -8.4132185055791090E-004   1.1120066061653976E-003   0.0000000000000000     
  -1.7011945861774825E-003   2.6022622584283067E-003   0.0000000000000000     
  -2.5796182068587152E-003   4.4707669567887265E-003   0.0000000000000000     
  -3.4765927126016085E-003   6.7175207012466574E-003   0.0000000000000000     
   5.9540073609268274E-014   6.5179985997330624E-003   0.0000000000000000     
   7.8215672870765585E-014   9.0428629974782810E-003   0.0000000000000000     
   9.7793551956468910E-014   1.1882355512151077E-002   0.0000000000000000     
   1.1827415979384030E-013   1.5036476143751455E-002   0.0000000000000000     
   1.3965705761981306E-013   1.8505224892279414E-002   0.0000000000000000     
  -8.5720635766897214E-004   6.5304687310709332E-003   0.0000000000000000     
  -1.0750151237125304E-003   9.0592914117472254E-003   0.0000000000000000     
  -1.2957275719041304E-003   1.1902117784186789E-002   0.0000000000000000     
  -1.5193437022437725E-003   1.5058947848389617E-002   0.0000000000000000     
  -1.7458635147314561E-003   1.8529781604355717E-002   0.0000000000000000     
  -1.7223739290220010E-003   6.5678791251024904E-003   0.0000000000000000     
  -2.1640201370314565E-003   9.1085766545736749E-003   0.0000000000000000     
  -2.6099236450315920E-003   1.1961404600314005E-002   0.0000000000000000     
  -3.0600844530224054E-003   1.5126362962323482E-002   0.0000000000000000     
  -3.5145025610038997E-003   1.8603451740602114E-002   0.0000000000000000     
  -2.5955027139995465E-003   6.6302297818277315E-003   0.0000000000000000     
  -3.2670150398785625E-003   9.1907187259576226E-003   0.0000000000000000     
  -3.9425882192845891E-003   1.2060215960532731E-002   0.0000000000000000     
  -4.6222222522176266E-003   1.5238721485553049E-002   0.0000000000000000     
  -5.3059171386776720E-003   1.8726235301018589E-002   0.0000000000000000     
  -3.4765927126016085E-003   6.7175207012466574E-003   0.0000000000000000     
  -4.3839998322538496E-003   9.3057176258990789E-003   0.0000000000000000     
  -5.2937212946631250E-003   1.2198551864842967E-002   0.0000000000000000     
  -6.2057570998294339E-003   1.5396023418078324E-002   0.0000000000000000     
  -7.1201072477527754E-003   1.8898132285605149E-002   0.0000000000000000     
   1.3965705761981306E-013   1.8505224892279414E-002   0.0000000000000000     
   1.6126433955571118E-013   2.2258705650362833E-002   0.0000000000000000     
   1.8241883155932503E-013   2.6267022310629606E-002   0.0000000000000000     
   2.0311960528254444E-013   3.0530174873079723E-002   0.0000000000000000     
   2.2336754841589812E-013   3.5048163337713191E-002   0.0000000000000000     
  -1.7458635147314561E-003   1.8529781604355717E-002   0.0000000000000000     
  -1.9720025689794578E-003   2.2284944760580270E-002   0.0000000000000000     
  -2.1944764246000538E-003   2.6294763025558453E-002   0.0000000000000000     
  -2.4132850815932437E-003   3.0559236399290271E-002   0.0000000000000000     
  -2.6284285399590275E-003   3.5078364881775723E-002   0.0000000000000000     
  -3.5145025610038997E-003   1.8603451740602114E-002   0.0000000000000000     
  -3.9678615606241951E-003   2.2363662091246992E-002   0.0000000000000000     
  -4.4148450435314134E-003   2.6377985170355250E-002   0.0000000000000000     
  -4.8554530097255581E-003   3.0646420977926862E-002   0.0000000000000000     
  -5.2896854592066255E-003   3.5168969513961847E-002   0.0000000000000000     
  -5.3059171386776720E-003   1.8726235301018589E-002   0.0000000000000000     
  -5.9875769747729452E-003   2.2494857642363000E-002   0.0000000000000000     
  -6.6611058566116640E-003   2.6516688745019969E-002   0.0000000000000000     
  -7.3265037841938234E-003   3.0791728608989488E-002   0.0000000000000000     
  -7.9837707575194268E-003   3.5319977234271549E-002   0.0000000000000000     
  -7.1201072477527754E-003   1.8898132285605149E-002   0.0000000000000000     
  -8.0311488114257115E-003   2.2678531413928293E-002   0.0000000000000000     
  -8.9332588638407987E-003   2.6710873749552628E-002   0.0000000000000000     
  -9.8264374049980389E-003   3.0995159292478151E-002   0.0000000000000000     
  -1.0710684434897432E-002   3.5531388042704851E-002   0.0000000000000000     
   2.2336754841589812E-013   3.5048163337713191E-002   0.0000000000000000     
   2.4217270983700745E-013   3.9803611827962604E-002   0.0000000000000000     
   2.5854584315490592E-013   4.4779144467260570E-002   0.0000000000000000     
   2.7248604035027407E-013   4.9974761255607070E-002   0.0000000000000000     
   2.8399461601824605E-013   5.5390462193002116E-002   0.0000000000000000     
  -2.6284285399590275E-003   3.5078364881775723E-002   0.0000000000000000     
  -2.8329411844587966E-003   3.9834611648550622E-002   0.0000000000000000     
  -3.0198573998539415E-003   4.4810439875150758E-002   0.0000000000000000     
  -3.1891771861444615E-003   5.0005849561576145E-002   0.0000000000000000     
  -3.3409005433303568E-003   5.5420840707826782E-002   0.0000000000000000     
  -5.2896854592066255E-003   3.5168969513961847E-002   0.0000000000000000     
  -5.7077268647459951E-003   3.9927611110303518E-002   0.0000000000000000     
  -6.0997616991150406E-003   4.4904326098795230E-002   0.0000000000000000     
  -6.4657899623137664E-003   5.0099114479436956E-002   0.0000000000000000     
  -6.8058116543421674E-003   5.5511976252228715E-002   0.0000000000000000     
  -7.9837707575194268E-003   3.5319977234271549E-002   0.0000000000000000     
  -8.6243570406194219E-003   4.0082610213221334E-002   0.0000000000000000     
  -9.2397128975247548E-003   4.5060803138193981E-002   0.0000000000000000     
  -9.8298383282354272E-003   5.0254556009189516E-002   0.0000000000000000     
  -1.0394733332751436E-002   5.5663868826207920E-002   0.0000000000000000     
  -1.0710684434897432E-002   3.5531388042704851E-002   0.0000000000000000     
  -1.1582831712079080E-002   4.0299608957304042E-002   0.0000000000000000     
  -1.2439710995083083E-002   4.5279870993347029E-002   0.0000000000000000     
  -1.3281322283909448E-002   5.0472174150833812E-002   0.0000000000000000     
  -1.4107665578558167E-002   5.5876518429764391E-002   0.0000000000000000     
   2.8399461601824605E-013   5.5390462193002116E-002   0.0000000000000000     
   2.6766696498148335E-013   6.1014771746648183E-002   0.0000000000000000     
   1.9809783154134397E-013   6.6836214383747761E-002   0.0000000000000000     
   7.5288679370760780E-014   7.2854790104300848E-002   0.0000000000000000     
  -1.0076141310211284E-013   7.9070498908307418E-002   0.0000000000000000     
  -3.3409005433303568E-003   5.5420840707826782E-002   0.0000000000000000     
  -3.4839383396422135E-003   6.1044328852663039E-002   0.0000000000000000     
  -3.6272014433106174E-003   6.6865229534845305E-002   0.0000000000000000     
  -3.7706898543355682E-003   7.2883542754373559E-002   0.0000000000000000     
  -3.9144035727170668E-003   7.9099268511247808E-002   0.0000000000000000     
  -6.8058116543421674E-003   5.5511976252228715E-002   0.0000000000000000     
  -7.1315278840386759E-003   6.1133000170604856E-002   0.0000000000000000     
  -7.4546397602417280E-003   6.6952274987999771E-002   0.0000000000000000     
  -7.7751472829513200E-003   7.2969800704413446E-002   0.0000000000000000     
  -8.0930504521674503E-003   7.9185577319845865E-002   0.0000000000000000     
  -1.0394733332751436E-002   5.5663868826207920E-002   0.0000000000000000     
  -1.0942768632921726E-002   6.1280785700473649E-002   0.0000000000000000     
  -1.1482314950595233E-002   6.7097350743211173E-002   0.0000000000000000     
  -1.2013372285771963E-002   7.3113563954420507E-002   0.0000000000000000     
  -1.2535940638451910E-002   7.9329425334101644E-002   0.0000000000000000     
  -1.4107665578558167E-002   5.5876518429764391E-002   0.0000000000000000     
  -1.4917660586291358E-002   6.1487685442269423E-002   0.0000000000000000     
  -1.5710227014371136E-002   6.7300456800479538E-002   0.0000000000000000     
  -1.6485364862797499E-002   7.3314832504394759E-002   0.0000000000000000     
  -1.7243074131570446E-002   7.9530812554015076E-002   0.0000000000000000     
  -1.0076141310211284E-013   7.9070498908307418E-002   0.0000000000000000     
  -3.4734194687136011E-013   8.5468468854751914E-002   0.0000000000000000     
  -6.8174242293106424E-013   9.2033828002618695E-002   0.0000000000000000     
  -1.1039636002227460E-012   9.8766576351907776E-002   0.0000000000000000     
  -1.6140045029644501E-012  0.10566671390261914        0.0000000000000000     
  -3.9144035727170668E-003   7.9099268511247808E-002   0.0000000000000000     
  -4.0550070172598162E-003   8.5497220710777144E-002   0.0000000000000000     
  -4.1891646067685213E-003   9.2062213258270645E-002   0.0000000000000000     
  -4.3168763412431803E-003   9.8794246153728268E-002   0.0000000000000000     
  -4.4381422206837950E-003  0.10569331939715007        0.0000000000000000     
  -8.0930504521674503E-003   7.9185577319845865E-002   0.0000000000000000     
  -8.4028874446487236E-003   8.5583476278586493E-002   0.0000000000000000     
  -8.6991964371537344E-003   9.2147369024924639E-002   0.0000000000000000     
  -8.9819774296824948E-003   9.8877255558860372E-002   0.0000000000000000     
  -9.2512304222349909E-003  0.10577313588039364        0.0000000000000000     
  -1.2535940638451910E-002   7.9329425334101644E-002   0.0000000000000000     
  -1.3043641282514059E-002   8.5727235558179918E-002   0.0000000000000000     
  -1.3530095491837393E-002   9.2289295302580732E-002   0.0000000000000000     
  -1.3995303266421906E-002   9.9015604567304016E-002   0.0000000000000000     
  -1.4439264606267599E-002  0.10590616335234986        0.0000000000000000     
  -1.7243074131570446E-002   7.9530812554015076E-002   0.0000000000000000     
  -1.7977268530855829E-002   8.5928498549557461E-002   0.0000000000000000     
  -1.8681861770819486E-002   9.2487992091238855E-002   0.0000000000000000     
  -1.9356853851461412E-002   9.9209293179059271E-002   0.0000000000000000     
  -2.0002244772781612E-002  0.10609240181301871        0.0000000000000000     
  -1.6140045029644501E-012  0.10566671390261914        0.0000000000000000     
  -2.2065110155677914E-012  0.11272352930106663        0.0000000000000000     
  -2.8761245772154775E-012  0.11992631119356410        0.0000000000000000     
  -3.6228478713078854E-012  0.12727505958011151        0.0000000000000000     
  -4.4466778349738778E-012  0.13476977446070887        0.0000000000000000     
  -4.4381422206837950E-003  0.10569331939715007        0.0000000000000000     
  -4.5424039704213565E-003  0.11274900387065341        0.0000000000000000     
  -4.6191033157868579E-003  0.11995087045635568        0.0000000000000000     
  -4.6682402567802981E-003  0.12729891915425687        0.0000000000000000     
  -4.6898147934016799E-003  0.13479314996435701        0.0000000000000000     
  -9.2512304222349909E-003  0.10577313588039364        0.0000000000000000     
  -9.4929671988972526E-003  0.11282542757908398        0.0000000000000000     
  -9.6931995437552904E-003  0.12002454824449084        0.0000000000000000     
  -9.8519274568091061E-003  0.12737049787661422        0.0000000000000000     
  -9.9691509380586980E-003  0.13486327647545418        0.0000000000000000     
  -1.4439264606267599E-002  0.10590616335234986        0.0000000000000000     
  -1.4851689687634199E-002  0.11295280042635834        0.0000000000000000     
  -1.5222288686781419E-002  0.12014734455796956        0.0000000000000000     
  -1.5551061603709268E-002  0.12748979574718358        0.0000000000000000     
  -1.5838008438417740E-002  0.13498015399400035        0.0000000000000000     
  -2.0002244772781612E-002  0.10609240181301871        0.0000000000000000     
  -2.0618571436632194E-002  0.11313112241247650        0.0000000000000000     
  -2.1206370744865248E-002  0.12031925939679190        0.0000000000000000     
  -2.1765642697480783E-002  0.12765681276596494        0.0000000000000000     
  -2.2296387294478793E-002  0.13514378251999562        0.0000000000000000     
  -4.4466778349738778E-012  0.13476977446070887        0.0000000000000000     
  -5.2953375191677754E-012  0.14239355048939825        0.0000000000000000     
  -6.1165488906417265E-012  0.15012948232022164        0.0000000000000000     
  -6.9103091846801912E-012  0.15797756995317902        0.0000000000000000     
  -7.6766197565358851E-012  0.16593781338827049        0.0000000000000000     
  -4.6898147934016799E-003  0.13479314996435701        0.0000000000000000     
  -4.6715387868966774E-003  0.14241769965126982        0.0000000000000000     
  -4.6011240985109735E-003  0.15015670497960915        0.0000000000000000     
  -4.4785707282445613E-003  0.15801016594937495        0.0000000000000000     
  -4.3038786760974460E-003  0.16597808256056729        0.0000000000000000     
  -9.9691509380586980E-003  0.13486327647545418        0.0000000000000000     
  -1.0027294703385337E-002  0.14249014713745853        0.0000000000000000     
  -1.0008783468670273E-002  0.15023837295907522        0.0000000000000000     
  -9.9136172339135166E-003  0.15810795394030427        0.0000000000000000     
  -9.7417959991150608E-003  0.16609889008114564        0.0000000000000000     
  -1.5838008438417740E-002  0.13498015399400035        0.0000000000000000     
  -1.6067267754761312E-002  0.14261089294796431        0.0000000000000000     
  -1.6222978116594455E-002  0.15037448625861988        0.0000000000000000     
  -1.6305139523917170E-002  0.15827093392596694        0.0000000000000000     
  -1.6313751976729466E-002  0.16630023595000565        0.0000000000000000     
  -2.2296387294478793E-002  0.13514378251999562        0.0000000000000000     
  -2.2791457941024596E-002  0.14277993708278719        0.0000000000000000     
  -2.3243708042283512E-002  0.15056504487824302        0.0000000000000000     
  -2.3653137598255533E-002  0.15849910590636301        0.0000000000000000     
  -2.4019746608940663E-002  0.16658212016714721        0.0000000000000000     
   0.0000000000000000        0.0000000000000000        0.0000000000000000     
  -8.4132185055791090E-004   1.1120066061653976E-003   0.0000000000000000     
  -1.7011945861774825E-003   2.6022622584283067E-003   0.0000000000000000     
  -2.5796182068587152E-003   4.4707669567887265E-003   0.0000000000000000     
  -3.4765927126016085E-003   6.7175207012466574E-003   0.0000000000000000     
   0.0000000000000000        0.0000000000000000        0.0000000000000000     
  -1.0564282078352671E-003   1.1358119703001909E-003   0.0000000000000000     
  -2.1388469591822070E-003   2.6537956958762464E-003   0.0000000000000000     
  -3.2472562540408201E-003   4.5539511767281656E-003   0.0000000000000000     
  -4.3816560924111068E-003   6.8362784128559511E-003   0.0000000000000000     
   0.0000000000000000        0.0000000000000000        0.0000000000000000     
  -1.2875653547097365E-003   1.1711830894551663E-003   0.0000000000000000     
  -2.6045379764481416E-003   2.7270823602989370E-003   0.0000000000000000     
  -3.9509178652152154E-003   4.6676978125313115E-003   0.0000000000000000     
  -5.3267050210109579E-003   6.9930294461522918E-003   0.0000000000000000     
   0.0000000000000000        0.0000000000000000        0.0000000000000000     
  -1.5347332911813188E-003   1.2181199636303237E-003   0.0000000000000000     
  -3.0982676379752859E-003   2.8221222516963784E-003   0.0000000000000000     
  -4.6906030403819016E-003   4.8120068641981642E-003   0.0000000000000000     
  -6.3117394984011652E-003   7.1877738011356801E-003   0.0000000000000000     
   0.0000000000000000        0.0000000000000000        0.0000000000000000     
  -1.7979320172500147E-003   1.2766225928256634E-003   0.0000000000000000     
  -3.6200359437636403E-003   2.9389153700685707E-003   0.0000000000000000     
  -5.4663117795408778E-003   4.9868783317287228E-003   0.0000000000000000     
  -7.3367595245817270E-003   7.4205114778061170E-003   0.0000000000000000     
  -3.4765927126016085E-003   6.7175207012466574E-003   0.0000000000000000     
  -4.3839998322538496E-003   9.3057176258990789E-003   0.0000000000000000     
  -5.2937212946631250E-003   1.2198551864842967E-002   0.0000000000000000     
  -6.2057570998294339E-003   1.5396023418078324E-002   0.0000000000000000     
  -7.1201072477527754E-003   1.8898132285605149E-002   0.0000000000000000     
  -4.3816560924111068E-003   6.8362784128559511E-003   0.0000000000000000     
  -5.5294489895766795E-003   9.4594148506534116E-003   0.0000000000000000     
  -6.6780374608211542E-003   1.2381997936514360E-002   0.0000000000000000     
  -7.8274215061445301E-003   1.5604027670438798E-002   0.0000000000000000     
  -8.9776011255468073E-003   1.9125504052426721E-002   0.0000000000000000     
  -5.3267050210109579E-003   6.9930294461522918E-003   0.0000000000000000     
  -6.7178369872664175E-003   9.6576518964759991E-003   0.0000000000000000     
  -8.1102513074126394E-003   1.2616139798816562E-002   0.0000000000000000     
  -9.5039479814496217E-003   1.5868493153173974E-002   0.0000000000000000     
  -1.0898927009377368E-002   1.9414711959548241E-002   0.0000000000000000     
  -6.3117394984011652E-003   7.1877738011356801E-003   0.0000000000000000     
  -7.9491638253230620E-003   9.9004287633668447E-003   0.0000000000000000     
  -9.5903628344375779E-003   1.2900977451749569E-002   0.0000000000000000     
  -1.1235336525744708E-002   1.6189419866283857E-002   0.0000000000000000     
  -1.2884084899244454E-002   1.9765756006969712E-002   0.0000000000000000     
  -7.3367595245817270E-003   7.4205114778061170E-003   0.0000000000000000     
  -9.2234295037466121E-003   1.0187745451325942E-002   0.0000000000000000     
  -1.1118372041895967E-002   1.3236510895313384E-002   0.0000000000000000     
  -1.3021587139029789E-002   1.6566807809768446E-002   0.0000000000000000     
  -1.4933074795148072E-002   2.0178636194691124E-002   0.0000000000000000     
  -7.1201072477527754E-003   1.8898132285605149E-002   0.0000000000000000     
  -8.0311488114257115E-003   2.2678531413928293E-002   0.0000000000000000     
  -8.9332588638407987E-003   2.6710873749552628E-002   0.0000000000000000     
  -9.8264374049980389E-003   3.0995159292478151E-002   0.0000000000000000     
  -1.0710684434897432E-002   3.5531388042704851E-002   0.0000000000000000     
  -8.9776011255468073E-003   1.9125504052426721E-002   0.0000000000000000     
  -1.0122480177954807E-002   2.2921356917425938E-002   0.0000000000000000     
  -1.1255962522295349E-002   2.6966516100384245E-002   0.0000000000000000     
  -1.2378048158568440E-002   3.1260981601301648E-002   0.0000000000000000     
  -1.3488737086774069E-002   3.5804753420178137E-002   0.0000000000000000     
  -1.0898927009377368E-002   1.9414711959548241E-002   0.0000000000000000     
  -1.2285474181732550E-002   2.3230007664338991E-002   0.0000000000000000     
  -1.3653875289051848E-002   2.7289591713945831E-002   0.0000000000000000     
  -1.5004130331335257E-002   3.1593464108368788E-002   0.0000000000000000     
  -1.6336239308582780E-002   3.6141624847607842E-002   0.0000000000000000     
  -1.2884084899244454E-002   1.9765756006969712E-002   0.0000000000000000     
  -1.4520130822758940E-002   2.3604483654667451E-002   0.0000000000000000     
  -1.6126997164110285E-002   2.7680100590237403E-002   0.0000000000000000     
  -1.7704683923298489E-002   3.1992606813679568E-002   0.0000000000000000     
  -1.9253191100323551E-002   3.6542002324993939E-002   0.0000000000000000     
  -1.4933074795148072E-002   2.0178636194691124E-002   0.0000000000000000     
  -1.6826450101033980E-002   2.4044784888411323E-002   0.0000000000000000     
  -1.8675328147470669E-002   2.8138042729258947E-002   0.0000000000000000     
  -2.0479708934458139E-002   3.2458409717233981E-002   0.0000000000000000     
  -2.2239592461996388E-002   3.7005885852336454E-002   0.0000000000000000     
  -1.0710684434897432E-002   3.5531388042704851E-002   0.0000000000000000     
  -1.1582831712079080E-002   4.0299608957304042E-002   0.0000000000000000     
  -1.2439710995083083E-002   4.5279870993347029E-002   0.0000000000000000     
  -1.3281322283909448E-002   5.0472174150833812E-002   0.0000000000000000     
  -1.4107665578558167E-002   5.5876518429764391E-002   0.0000000000000000     
  -1.3488737086774069E-002   3.5804753420178137E-002   0.0000000000000000     
  -1.4590613968823728E-002   4.0577424483037347E-002   0.0000000000000000     
  -1.5686263466628891E-002   4.5558587715902897E-002   0.0000000000000000     
  -1.6775685580189565E-002   5.0748243118774752E-002   0.0000000000000000     
  -1.7858880309505751E-002   5.6146390691652955E-002   0.0000000000000000     
  -1.6336239308582780E-002   3.6141624847607842E-002   0.0000000000000000     
  -1.7655166900552133E-002   4.0914873930906953E-002   0.0000000000000000     
  -1.8965877787001054E-002   4.5894011357510096E-002   0.0000000000000000     
  -2.0268371967929539E-002   5.1079037127417237E-002   0.0000000000000000     
  -2.1562649443337582E-002   5.6469951240628431E-002   0.0000000000000000     
  -1.9253191100323551E-002   3.6542002324993939E-002   0.0000000000000000     
  -2.0776490507264295E-002   4.1311957300912860E-002   0.0000000000000000     
  -2.2278553956199560E-002   4.6286141918168634E-002   0.0000000000000000     
  -2.3759381447129354E-002   5.1464556176761295E-002   0.0000000000000000     
  -2.5218972980053666E-002   5.6847200076690807E-002   0.0000000000000000     
  -2.2239592461996388E-002   3.7005885852336454E-002   0.0000000000000000     
  -2.3954584788960214E-002   4.1768674593055055E-002   0.0000000000000000     
  -2.5624291974224427E-002   4.6734979397878532E-002   0.0000000000000000     
  -2.7248714017789021E-002   5.1904800266806883E-002   0.0000000000000000     
  -2.8827850919653994E-002   5.7278137199840082E-002   0.0000000000000000     
  -1.4107665578558167E-002   5.5876518429764391E-002   0.0000000000000000     
  -1.4917660586291358E-002   6.1487685442269423E-002   0.0000000000000000     
  -1.5710227014371136E-002   6.7300456800479538E-002   0.0000000000000000     
  -1.6485364862797499E-002   7.3314832504394759E-002   0.0000000000000000     
  -1.7243074131570446E-002   7.9530812554015076E-002   0.0000000000000000     
  -1.7858880309505751E-002   5.6146390691652955E-002   0.0000000000000000     
  -1.8925780212633848E-002   6.1750311851093476E-002   0.0000000000000000     
  -1.9966317847630290E-002   6.7557288013652267E-002   0.0000000000000000     
  -2.0980493214495056E-002   7.3567319179329349E-002   0.0000000000000000     
  -2.1968306313228173E-002   7.9780405348124736E-002   0.0000000000000000     
  -2.1562649443337582E-002   5.6469951240628431E-002   0.0000000000000000     
  -2.2836703980435483E-002   6.2065277382047118E-002   0.0000000000000000     
  -2.4078529346433557E-002   6.7863539236576814E-002   0.0000000000000000     
  -2.5288125541331790E-002   7.3864736804217485E-002   0.0000000000000000     
  -2.6465492565130186E-002   8.0068870084969157E-002   0.0000000000000000     
  -2.5218972980053666E-002   5.6847200076690807E-002   0.0000000000000000     
  -2.6650431889696267E-002   6.2432582035130371E-002   0.0000000000000000     
  -2.8046861510780938E-002   6.8219210469253139E-002   0.0000000000000000     
  -2.9408261843307675E-002   7.4207085379059110E-002   0.0000000000000000     
  -3.0734632887276486E-002   8.0396206764548311E-002   0.0000000000000000     
  -2.8827850919653994E-002   5.7278137199840082E-002   0.0000000000000000     
  -3.0366963940416190E-002   6.2852225810343193E-002   0.0000000000000000     
  -3.1871314340672433E-002   6.8624301711681254E-002   0.0000000000000000     
  -3.3340902120422726E-002   7.4594364903854279E-002   0.0000000000000000     
  -3.4775727279667074E-002   8.0762415386862227E-002   0.0000000000000000     
  -1.7243074131570446E-002   7.9530812554015076E-002   0.0000000000000000     
  -1.7977268530855829E-002   8.5928498549557461E-002   0.0000000000000000     
  -1.8681861770819486E-002   9.2487992091238855E-002   0.0000000000000000     
  -1.9356853851461412E-002   9.9209293179059271E-002   0.0000000000000000     
  -2.0002244772781612E-002  0.10609240181301871        0.0000000000000000     
  -2.1968306313228173E-002   7.9780405348124736E-002   0.0000000000000000     
  -2.2923807425542994E-002   8.6174783139945088E-002   0.0000000000000000     
  -2.3841046833152909E-002   9.2728689174697052E-002   0.0000000000000000     
  -2.4720024536057920E-002   9.9442123452380668E-002   0.0000000000000000     
  -2.5560740534258018E-002  0.10631508597299588        0.0000000000000000     
  -2.6465492565130186E-002   8.0068870084969157E-002   0.0000000000000000     
  -2.7603296202444512E-002   8.6453607216568792E-002   0.0000000000000000     
  -2.8694202237890563E-002   9.2996616336753282E-002   0.0000000000000000     
  -2.9738210671468323E-002   9.9697897445522710E-002   0.0000000000000000     
  -3.0735321503177804E-002  0.10655745054287699        0.0000000000000000     
  -3.0734632887276486E-002   8.0396206764548311E-002   0.0000000000000000     
  -3.2015734861560396E-002   8.6764970779428546E-002   0.0000000000000000     
  -3.3241327985032439E-002   9.3291773577407547E-002   0.0000000000000000     
  -3.4411412257692627E-002   9.9976615158485410E-002   0.0000000000000000     
  -3.5525987679540967E-002  0.10681949552266204        0.0000000000000000     
  -3.4775727279667074E-002   8.0762415386862227E-002   0.0000000000000000     
  -3.6161123402890627E-002   8.7108873828524364E-002   0.0000000000000000     
  -3.7482424074578559E-002   9.3614160896659873E-002   0.0000000000000000     
  -3.8739629294730842E-002  0.10027827659126876        0.0000000000000000     
  -3.9932739063347496E-002  0.10710122091235103        0.0000000000000000     
  -2.0002244772781612E-002  0.10609240181301871        0.0000000000000000     
  -2.0618571436632194E-002  0.11313112241247650        0.0000000000000000     
  -2.1206370744865248E-002  0.12031925939679190        0.0000000000000000     
  -2.1765642697480783E-002  0.12765681276596494        0.0000000000000000     
  -2.2296387294478793E-002  0.13514378251999562        0.0000000000000000     
  -2.5560740534258018E-002  0.10631508597299588        0.0000000000000000     
  -2.6374464337586955E-002  0.11334295279960040        0.0000000000000000     
  -2.7172465455878467E-002  0.12052109999525193        0.0000000000000000     
  -2.7954743889132556E-002  0.12784952755995041        0.0000000000000000     
  -2.8721299637349210E-002  0.13532823549369588        0.0000000000000000     
  -3.0735321503177804E-002  0.10655745054287699        0.0000000000000000     
  -3.1700220282194214E-002  0.11357085084989207        0.0000000000000000     
  -3.2647592557692777E-002  0.12073367358764377        0.0000000000000000     
  -3.3577438329673477E-002  0.12804591875613211        0.0000000000000000     
  -3.4489757598136342E-002  0.13550758635535712        0.0000000000000000     
  -3.5525987679540967E-002  0.10681949552266204        0.0000000000000000     
  -3.6595839270453963E-002  0.11381481656335139        0.0000000000000000     
  -3.7631752050308158E-002  0.12095698017396739        0.0000000000000000     
  -3.8633726019103573E-002  0.12824598635451001        0.0000000000000000     
  -3.9601761176840174E-002  0.13568183510497925        0.0000000000000000     
  -3.9932739063347496E-002  0.10710122091235103        0.0000000000000000     
  -4.1061321302366199E-002  0.11407484993997846        0.0000000000000000     
  -4.2124943933724630E-002  0.12119101975422285        0.0000000000000000     
  -4.3123606957422803E-002  0.12844973035508417        0.0000000000000000     
  -4.4057310373460709E-002  0.13585098174256241        0.0000000000000000     
  -2.2296387294478793E-002  0.13514378251999562        0.0000000000000000     
  -2.2791457941024596E-002  0.14277993708278719        0.0000000000000000     
  -2.3243708042283512E-002  0.15056504487824302        0.0000000000000000     
  -2.3653137598255533E-002  0.15849910590636301        0.0000000000000000     
  -2.4019746608940663E-002  0.16658212016714721        0.0000000000000000     
  -2.8721299637349210E-002  0.13532823549369588        0.0000000000000000     
  -2.9472674266821656E-002  0.14296095005951792        0.0000000000000000     
  -3.0209409343843092E-002  0.15075139752044614        0.0000000000000000     
  -3.0931504868413520E-002  0.15869957787648059        0.0000000000000000     
  -3.1638960840532943E-002  0.16680549112762116        0.0000000000000000     
  -3.4489757598136342E-002  0.13550758635535712        0.0000000000000000     
  -3.5383725736798925E-002  0.14311760239574714        0.0000000000000000     
  -3.6258518119378837E-002  0.15087489288773070        0.0000000000000000     
  -3.7114134745876055E-002  0.15877945783130773        0.0000000000000000     
  -3.7950575616290602E-002  0.16683129722647827        0.0000000000000000     
  -3.9601761176840174E-002  0.13568183510497925        0.0000000000000000     
  -4.0524612350956418E-002  0.14324989409147493        0.0000000000000000     
  -4.1391034368890738E-002  0.15093553098009665        0.0000000000000000     
  -4.2201027230643152E-002  0.15873874577084454        0.0000000000000000     
  -4.2954590936213635E-002  0.16665953846371853        0.0000000000000000     
  -4.4057310373460709E-002  0.13585098174256241        0.0000000000000000     
  -4.4895334109294117E-002  0.14335782514670117        0.0000000000000000     
  -4.5606958092378802E-002  0.15093331179754402        0.0000000000000000     
  -4.6192182322714791E-002  0.15857744169509091        0.0000000000000000     
  -4.6651006800302049E-002  0.16629021483934192        0.0000000000000000     
   0.0000000000000000        0.0000000000000000        0.0000000000000000     
  -1.7979320172500147E-003   1.2766225928256634E-003   0.0000000000000000     
  -3.6200359437636403E-003   2.9389153700685707E-003   0.0000000000000000     
  -5.4663117795408778E-003   4.9868783317287228E-003   0.0000000000000000     
  -7.3367595245817270E-003   7.4205114778061170E-003   0.0000000000000000     
   0.0000000000000000        0.0000000000000000        0.0000000000000000     
  -2.0690094914959673E-003   1.3539707631547056E-003   0.0000000000000000     
  -4.1627102750873323E-003   3.0922528825754717E-003   0.0000000000000000     
  -6.2811023507740949E-003   5.2148463582622987E-003   0.0000000000000000     
  -8.4241857185562551E-003   7.7217511902151854E-003   0.0000000000000000     
   0.0000000000000000        0.0000000000000000        0.0000000000000000     
  -2.3398136724993206E-003   1.4574442607309698E-003   0.0000000000000000     
  -4.7191580132204883E-003   3.2969259563770384E-003   0.0000000000000000     
  -7.1380330221635022E-003   5.5184450869382052E-003   0.0000000000000000     
  -9.5964386993283649E-003   8.1220016524144716E-003   0.0000000000000000     
   0.0000000000000000        0.0000000000000000        0.0000000000000000     
  -2.6103445602600746E-003   1.5870430855544570E-003   0.0000000000000000     
  -5.2893791581631088E-003   3.5529345914732712E-003   0.0000000000000000     
  -8.0371037937091022E-003   5.8976745177564431E-003   0.0000000000000000     
  -1.0853518466898056E-002   8.6212628644039731E-003   0.0000000000000000     
   0.0000000000000000        0.0000000000000000        0.0000000000000000     
  -2.8806021547782296E-003   1.7427672376251662E-003   0.0000000000000000     
  -5.8733737099151938E-003   3.8602787878641697E-003   0.0000000000000000     
  -8.9783146654108924E-003   6.3525346507170124E-003   0.0000000000000000     
  -1.2195425021265326E-002   9.2195348261836941E-003   0.0000000000000000     
  -7.3367595245817270E-003   7.4205114778061170E-003   0.0000000000000000     
  -9.2234295037466121E-003   1.0187745451325942E-002   0.0000000000000000     
  -1.1118372041895967E-002   1.3236510895313384E-002   0.0000000000000000     
  -1.3021587139029789E-002   1.6566807809768446E-002   0.0000000000000000     
  -1.4933074795148072E-002   2.0178636194691124E-002   0.0000000000000000     
  -8.4241857185562551E-003   7.7217511902151854E-003   0.0000000000000000     
  -1.0582956098584938E-002   1.0555637786766554E-002   0.0000000000000000     
  -1.2748409211011270E-002   1.3659176556248829E-002   0.0000000000000000     
  -1.4920545055835248E-002   1.7032367498662004E-002   0.0000000000000000     
  -1.7099363633056877E-002   2.0675210614006085E-002   0.0000000000000000     
  -9.5964386993283649E-003   8.1220016524144716E-003   0.0000000000000000     
  -1.2070065685885902E-002   1.1040141596101938E-002   0.0000000000000000     
  -1.4534604623006941E-002   1.4205410861296714E-002   0.0000000000000000     
  -1.6990055510691483E-002   1.7617809447998792E-002   0.0000000000000000     
  -1.9436418348939530E-002   2.1277337356208181E-002   0.0000000000000000     
  -1.0853518466898056E-002   8.6212628644039731E-003   0.0000000000000000     
  -1.3684758265649502E-002   1.1641256879332096E-002   0.0000000000000000     
  -1.6476958277882984E-002   1.4875213810457043E-002   0.0000000000000000     
  -1.9230118503598494E-002   1.8323133657778819E-002   0.0000000000000000     
  -2.1944238942796040E-002   2.1985016421297420E-002   0.0000000000000000     
  -1.2195425021265326E-002   9.2195348261836941E-003   0.0000000000000000     
  -1.5427033837875744E-002   1.2358983636457025E-002   0.0000000000000000     
  -1.8575470175639392E-002   1.5668585403729819E-002   0.0000000000000000     
  -2.1640734034556283E-002   1.9148340128002074E-002   0.0000000000000000     
  -2.4622825414626400E-002   2.2798247809273791E-002   0.0000000000000000     
  -1.4933074795148072E-002   2.0178636194691124E-002   0.0000000000000000     
  -1.6826450101033980E-002   2.4044784888411323E-002   0.0000000000000000     
  -1.8675328147470669E-002   2.8138042729258947E-002   0.0000000000000000     
  -2.0479708934458139E-002   3.2458409717233981E-002   0.0000000000000000     
  -2.2239592461996388E-002   3.7005885852336454E-002   0.0000000000000000     
  -1.7099363633056877E-002   2.0675210614006085E-002   0.0000000000000000     
  -1.9251593841449924E-002   2.4562029153341138E-002   0.0000000000000000     
  -2.1343964579788165E-002   2.8667146367727221E-002   0.0000000000000000     
  -2.3376475848071596E-002   3.2990562257164346E-002   0.0000000000000000     
  -2.5349127646300217E-002   3.7532276821652506E-002   0.0000000000000000     
  -1.9436418348939530E-002   2.1277337356208181E-002   0.0000000000000000     
  -2.1842723868899037E-002   2.5167334237227407E-002   0.0000000000000000     
  -2.4178002801717943E-002   2.9271139742358995E-002   0.0000000000000000     
  -2.6442255147396249E-002   3.3588753871602949E-002   0.0000000000000000     
  -2.8635480905933965E-002   3.8120176624959271E-002   0.0000000000000000     
  -2.1944238942796040E-002   2.1985016421297420E-002   0.0000000000000000     
  -2.4599840183381315E-002   2.5860700140070133E-002   0.0000000000000000     
  -2.7177442813260001E-002   2.9950022853154259E-002   0.0000000000000000     
  -2.9677046832432108E-002   3.4252984560549780E-002   0.0000000000000000     
  -3.2098652240897634E-002   3.8769585262256719E-002   0.0000000000000000     
  -2.4622825414626400E-002   2.2798247809273791E-002   0.0000000000000000     
  -2.7522942784896750E-002   2.6642126861869321E-002   0.0000000000000000     
  -3.0342284614414339E-002   3.0703795700113012E-002   0.0000000000000000     
  -3.3080850903179158E-002   3.4983254324004856E-002   0.0000000000000000     
  -3.5738641651191227E-002   3.9480502733544871E-002   0.0000000000000000     
  -2.2239592461996388E-002   3.7005885852336454E-002   0.0000000000000000     
  -2.3954584788960214E-002   4.1768674593055055E-002   0.0000000000000000     
  -2.5624291974224427E-002   4.6734979397878532E-002   0.0000000000000000     
  -2.7248714017789021E-002   5.1904800266806883E-002   0.0000000000000000     
  -2.8827850919653994E-002   5.7278137199840082E-002   0.0000000000000000     
  -2.5349127646300217E-002   3.7532276821652506E-002   0.0000000000000000     
  -2.7257016248640228E-002   4.2284936607905915E-002   0.0000000000000000     
  -2.9095237929257813E-002   4.7241188162638746E-002   0.0000000000000000     
  -3.0863792688152980E-002   5.2401031485851020E-002   0.0000000000000000     
  -3.2562680525325731E-002   5.7764466577542729E-002   0.0000000000000000     
  -2.8635480905933965E-002   3.8120176624959271E-002   0.0000000000000000     
  -3.0751351389304658E-002   4.2860654146037763E-002   0.0000000000000000     
  -3.2783537909481894E-002   4.7805432578448263E-002   0.0000000000000000     
  -3.4732040466465684E-002   5.2954511922190736E-002   0.0000000000000000     
  -3.6596859060256011E-002   5.8307892177265203E-002   0.0000000000000000     
  -3.2098652240897634E-002   3.8769585262256719E-002   0.0000000000000000     
  -3.4437590210953509E-002   4.3495827207450620E-002   0.0000000000000000     
  -3.6689191914896675E-002   4.8427712645307056E-002   0.0000000000000000     
  -3.8853457352727112E-002   5.3565241575826011E-002   0.0000000000000000     
  -4.0930386524444841E-002   5.8908413999007501E-002   0.0000000000000000     
  -3.5738641651191227E-002   3.9480502733544871E-002   0.0000000000000000     
  -3.8315732713586792E-002   4.4190455792144492E-002   0.0000000000000000     
  -4.0812199945502149E-002   4.9108028363215157E-002   0.0000000000000000     
  -4.3228043346937292E-002   5.4233220446756866E-002   0.0000000000000000     
  -4.5563262917892235E-002   5.9566032042769626E-002   0.0000000000000000     
  -2.8827850919653994E-002   5.7278137199840082E-002   0.0000000000000000     
  -3.0366963940416190E-002   6.2852225810343193E-002   0.0000000000000000     
  -3.1871314340672433E-002   6.8624301711681254E-002   0.0000000000000000     
  -3.3340902120422726E-002   7.4594364903854279E-002   0.0000000000000000     
  -3.4775727279667074E-002   8.0762415386862227E-002   0.0000000000000000     
  -3.2562680525325731E-002   5.7764466577542729E-002   0.0000000000000000     
  -3.4209423312297461E-002   6.3326643290421272E-002   0.0000000000000000     
  -3.5821542920589589E-002   6.9082711477194067E-002   0.0000000000000000     
  -3.7399039350202105E-002   7.5032671137861079E-002   0.0000000000000000     
  -3.8941912601135005E-002   8.1176522272422336E-002   0.0000000000000000     
  -3.6596859060256011E-002   5.8307892177265203E-002   0.0000000000000000     
  -3.8400933185042299E-002   6.3858269058100228E-002   0.0000000000000000     
  -4.0167202335013939E-002   6.9598338279124386E-002   0.0000000000000000     
  -4.1895666510170945E-002   7.5528099840337648E-002   0.0000000000000000     
  -4.3586325710513331E-002   8.1647553741740056E-002   0.0000000000000000     
  -4.0930386524444841E-002   5.8908413999007501E-002   0.0000000000000000     
  -4.2941493558650699E-002   6.4447103113380075E-002   0.0000000000000000     
  -4.4908292583945512E-002   7.0171182117472225E-002   0.0000000000000000     
  -4.6830783600329287E-002   7.6080651011284015E-002   0.0000000000000000     
  -4.8708966607802030E-002   8.2175509794815416E-002   0.0000000000000000     
  -4.5563262917892235E-002   5.9566032042769626E-002   0.0000000000000000     
  -4.7831104433122662E-002   6.5093145456260770E-002   0.0000000000000000     
  -5.0044813667384287E-002   7.0801242992237612E-002   0.0000000000000000     
  -5.2204390620677110E-002   7.6690324650700151E-002   0.0000000000000000     
  -5.4309835293001131E-002   8.2760390431648387E-002   0.0000000000000000     
  -3.4775727279667074E-002   8.0762415386862227E-002   0.0000000000000000     
  -3.6161123402890627E-002   8.7108873828524364E-002   0.0000000000000000     
  -3.7482424074578559E-002   9.3614160896659873E-002   0.0000000000000000     
  -3.8739629294730842E-002  0.10027827659126876        0.0000000000000000     
  -3.9932739063347496E-002  0.10710122091235103        0.0000000000000000     
  -3.8941912601135005E-002   8.1176522272422336E-002   0.0000000000000000     
  -4.0431446491601956E-002   8.7497465153875811E-002   0.0000000000000000     
  -4.1848924839816601E-002   9.3978700055219480E-002   0.0000000000000000     
  -4.3194347645778931E-002  0.10062022697645336        0.0000000000000000     
  -4.4467714909488976E-002  0.10742204591757745        0.0000000000000000     
  -4.3586325710513331E-002   8.1647553741740056E-002   0.0000000000000000     
  -4.5218688792861089E-002   8.7942893545502457E-002   0.0000000000000000     
  -4.6772264614034283E-002   9.4400312813795698E-002   0.0000000000000000     
  -4.8247053174032897E-002  0.10101981154661978        0.0000000000000000     
  -4.9643054472856954E-002  0.10780138974397474        0.0000000000000000     
  -4.8708966607802030E-002   8.2175509794815416E-002   0.0000000000000000     
  -5.0522850306668039E-002   8.8445159003404286E-002   0.0000000000000000     
  -5.2252443397231611E-002   9.4878999172388498E-002   0.0000000000000000     
  -5.3897745879492746E-002  0.10147703030176805        0.0000000000000000     
  -5.5458757753451438E-002  0.10823925239154294        0.0000000000000000     
  -5.4309835293001131E-002   8.2760390431648387E-002   0.0000000000000000     
  -5.6343931033022800E-002   8.9004261527581299E-002   0.0000000000000000     
  -5.8289461189408573E-002   9.5414759130997881E-002   0.0000000000000000     
  -6.0146425762158451E-002  0.10199188324189812        0.0000000000000000     
  -6.1914824751272426E-002  0.10873563386028201        0.0000000000000000     
  -3.9932739063347496E-002  0.10710122091235103        0.0000000000000000     
  -4.1061321302366199E-002  0.11407484993997846        0.0000000000000000     
  -4.2124943933724630E-002  0.12119101975422285        0.0000000000000000     
  -4.3123606957422803E-002  0.12844973035508417        0.0000000000000000     
  -4.4057310373460709E-002  0.13585098174256241        0.0000000000000000     
  -4.4467714909488976E-002  0.10742204591757745        0.0000000000000000     
  -4.5656965013591781E-002  0.11437317464186349        0.0000000000000000     
  -4.6750036340732458E-002  0.12146263091258326        0.0000000000000000     
  -4.7746928890910992E-002  0.12869041472973677        0.0000000000000000     
  -4.8647642664127390E-002  0.13605652609332397        0.0000000000000000     
  -4.9643054472856954E-002  0.10780138974397474        0.0000000000000000     
  -5.0943069039791559E-002  0.11473201433109670        0.0000000000000000     
  -5.2129897404121890E-002  0.12179865223322181        0.0000000000000000     
  -5.3203539565847925E-002  0.12900130345035007        0.0000000000000000     
  -5.4163995524969651E-002  0.13633996798248152        0.0000000000000000     
  -5.5458757753451438E-002  0.10823925239154294        0.0000000000000000     
  -5.6919633380965548E-002  0.11515136900767810        0.0000000000000000     
  -5.8264527123892920E-002  0.12219908371613850        0.0000000000000000     
  -5.9493438982233568E-002  0.12938239651692410        0.0000000000000000     
  -6.0606368955987491E-002  0.13670130741003492        0.0000000000000000     
  -6.1914824751272426E-002  0.10873563386028201        0.0000000000000000     
  -6.3586658037113719E-002  0.11563123867160770        0.0000000000000000     
  -6.5153925500045576E-002  0.12266392536133329        0.0000000000000000     
  -6.6616627140067969E-002  0.12983369392945884        0.0000000000000000     
  -6.7974762957180912E-002  0.13714054437598427        0.0000000000000000     
  -4.4057310373460709E-002  0.13585098174256241        0.0000000000000000     
  -4.4895334109294117E-002  0.14335782514670117        0.0000000000000000     
  -4.5606958092378802E-002  0.15093331179754402        0.0000000000000000     
  -4.6192182322714791E-002  0.15857744169509091        0.0000000000000000     
  -4.6651006800302049E-002  0.16629021483934192        0.0000000000000000     
  -4.8647642664127390E-002  0.13605652609332397        0.0000000000000000     
  -4.9404547081557074E-002  0.14350477721629151        0.0000000000000000     
  -4.9970011564375513E-002  0.15097898031158594        0.0000000000000000     
  -5.0344036112582667E-002  0.15847913537920727        0.0000000000000000     
  -5.0526620726178570E-002  0.16600524241915543        0.0000000000000000     
  -5.4163995524969651E-002  0.13633996798248152        0.0000000000000000     
  -5.4960907337490358E-002  0.14375413195511150        0.0000000000000000     
  -5.5543917059413306E-002  0.15118328149373561        0.0000000000000000     
  -5.5913024690738479E-002  0.15862741659835372        0.0000000000000000     
  -5.6068230231465913E-002  0.16608653726896591        0.0000000000000000     
  -6.0606368955987491E-002  0.13670130741003492        0.0000000000000000     
  -6.1564414877093944E-002  0.14410588936316115        0.0000000000000000     
  -6.2328674577492200E-002  0.15154621534399301        0.0000000000000000     
  -6.2899148057182247E-002  0.15902228535253038        0.0000000000000000     
  -6.3275835316164097E-002  0.16653409938877342        0.0000000000000000     
  -6.7974762957180912E-002  0.13714054437598427        0.0000000000000000     
  -6.9215069700367851E-002  0.14456004944044043        0.0000000000000000     
  -7.0324284118612176E-002  0.15206778186235809        0.0000000000000000     
  -7.1302406211913943E-002  0.15966374164173724        0.0000000000000000     
  -7.2149435980273111E-002  0.16734792877857790        0.0000000000000000     
   0.0000000000000000        0.0000000000000000        0.0000000000000000     
  -2.8806021547782296E-003   1.7427672376251662E-003   0.0000000000000000     
  -5.8733737099151938E-003   3.8602787878641697E-003   0.0000000000000000     
  -8.9783146654108924E-003   6.3525346507170124E-003   0.0000000000000000     
  -1.2195425021265326E-002   9.2195348261836941E-003   0.0000000000000000     
   0.0000000000000000        0.0000000000000000        0.0000000000000000     
  -3.2840549687600997E-003   1.9971224121549261E-003   0.0000000000000000     
  -6.6784515452559578E-003   4.3261285476811056E-003   0.0000000000000000     
  -1.0183189729487575E-002   6.9870184065785384E-003   0.0000000000000000     
  -1.3798269521454951E-002   9.9797919888472263E-003   0.0000000000000000     
   0.0000000000000000        0.0000000000000000        0.0000000000000000     
  -3.9541715149119987E-003   2.4226143043555655E-003   0.0000000000000000     
  -7.9119225409646169E-003   5.0576538730554487E-003   0.0000000000000000     
  -1.1873253078157854E-002   7.9051187060996501E-003   0.0000000000000000     
  -1.5838163126491708E-002   1.0965008803488168E-002   0.0000000000000000     
   0.0000000000000000        0.0000000000000000        0.0000000000000000     
  -4.8909517932339266E-003   3.0192429142270852E-003   0.0000000000000000     
  -9.5737866970411669E-003   6.0548547639872000E-003   0.0000000000000000     
  -1.4048504711421725E-002   9.1068355492803458E-003   0.0000000000000000     
  -1.8315105836375595E-002   1.2175185270106522E-002   0.0000000000000000     
   0.0000000000000000        0.0000000000000000        0.0000000000000000     
  -6.0943958037258843E-003   3.7870082417694826E-003   0.0000000000000000     
  -1.1664044013485614E-002   7.3177312204763577E-003   0.0000000000000000     
  -1.6708944629279188E-002   1.0592168936120626E-002   0.0000000000000000     
  -2.1229097651106608E-002   1.3610321388702286E-002   0.0000000000000000     
  -1.2195425021265326E-002   9.2195348261836941E-003   0.0000000000000000     
  -1.5427033837875744E-002   1.2358983636457025E-002   0.0000000000000000     
  -1.8575470175639392E-002   1.5668585403729819E-002   0.0000000000000000     
  -2.1640734034556283E-002   1.9148340128002074E-002   0.0000000000000000     
  -2.4622825414626400E-002   2.2798247809273791E-002   0.0000000000000000     
  -1.3798269521454951E-002   9.9797919888472263E-003   0.0000000000000000     
  -1.7407205936985359E-002   1.3206132416039754E-002   0.0000000000000000     
  -2.0893513991906077E-002   1.6567722809708706E-002   0.0000000000000000     
  -2.4257193686217097E-002   2.0064563169854086E-002   0.0000000000000000     
  -2.7498245019918426E-002   2.3696653496475897E-002   0.0000000000000000     
  -1.5838163126491708E-002   1.0965008803488168E-002   0.0000000000000000     
  -1.9735588097399094E-002   1.4195513766643313E-002   0.0000000000000000     
  -2.3494463402312933E-002   1.7554823196987385E-002   0.0000000000000000     
  -2.7114789041233212E-002   2.1042937094520393E-002   0.0000000000000000     
  -3.0596565014159940E-002   2.4659855459242333E-002   0.0000000000000000     
  -1.8315105836375595E-002   1.2175185270106522E-002   0.0000000000000000     
  -2.2412180319116948E-002   1.5327127688267701E-002   0.0000000000000000     
  -2.6378318406859957E-002   1.8629886565565853E-002   0.0000000000000000     
  -3.0213520099604624E-002   2.2083461902000986E-002   0.0000000000000000     
  -3.3917785397350936E-002   2.5687853697573097E-002   0.0000000000000000     
  -2.1229097651106608E-002   1.3610321388702286E-002   0.0000000000000000     
  -2.5436982602138919E-002   1.6600974180912921E-002   0.0000000000000000     
  -2.9545079005547162E-002   1.9792912915444116E-002   0.0000000000000000     
  -3.3553386861331330E-002   2.3186137592295871E-002   0.0000000000000000     
  -3.7461906169491431E-002   2.6780648211468184E-002   0.0000000000000000     
  -2.4622825414626400E-002   2.2798247809273791E-002   0.0000000000000000     
  -2.7522942784896750E-002   2.6642126861869321E-002   0.0000000000000000     
  -3.0342284614414339E-002   3.0703795700113012E-002   0.0000000000000000     
  -3.3080850903179158E-002   3.4983254324004856E-002   0.0000000000000000     
  -3.5738641651191227E-002   3.9480502733544871E-002   0.0000000000000000     
  -2.7498245019918426E-002   2.3696653496475897E-002   0.0000000000000000     
  -3.0637380467583717E-002   2.7507051776238370E-002   0.0000000000000000     
  -3.3695312503786622E-002   3.1538815995805748E-002   0.0000000000000000     
  -3.6672041128527150E-002   3.5791946155178028E-002   0.0000000000000000     
  -3.9567566341805291E-002   4.0266442254355203E-002   0.0000000000000000     
  -3.0596565014159940E-002   2.4659855459242333E-002   0.0000000000000000     
  -3.3968502025580556E-002   2.8450912256790695E-002   0.0000000000000000     
  -3.7259310779982506E-002   3.2461441452802955E-002   0.0000000000000000     
  -4.0468991277365786E-002   3.6691443047279129E-002   0.0000000000000000     
  -4.3597543517730410E-002   4.1140917040219209E-002   0.0000000000000000     
  -3.3917785397350936E-002   2.5687853697573097E-002   0.0000000000000000     
  -3.7516307458887274E-002   2.9473708303526285E-002   0.0000000000000000     
  -4.1034279443001996E-002   3.3471672071104644E-002   0.0000000000000000     
  -4.4471701349695095E-002   3.7681745000308166E-002   0.0000000000000000     
  -4.7828573178966570E-002   4.2103927091136889E-002   0.0000000000000000     
  -3.7461906169491431E-002   2.6780648211468184E-002   0.0000000000000000     
  -4.1280796767503875E-002   3.0575439916445131E-002   0.0000000000000000     
  -4.5020218492845085E-002   3.4569507850710793E-002   0.0000000000000000     
  -4.8680171345515048E-002   3.8762852014265159E-002   0.0000000000000000     
  -5.2260655325513786E-002   4.3155472407108236E-002   0.0000000000000000     
  -3.5738641651191227E-002   3.9480502733544871E-002   0.0000000000000000     
  -3.8315732713586792E-002   4.4190455792144492E-002   0.0000000000000000     
  -4.0812199945502149E-002   4.9108028363215157E-002   0.0000000000000000     
  -4.3228043346937292E-002   5.4233220446756866E-002   0.0000000000000000     
  -4.5563262917892235E-002   5.9566032042769626E-002   0.0000000000000000     
  -3.9567566341805291E-002   4.0266442254355203E-002   0.0000000000000000     
  -4.2386497776413075E-002   4.4956885335210472E-002   0.0000000000000000     
  -4.5133445065142518E-002   4.9857856439616988E-002   0.0000000000000000     
  -4.7808408207993598E-002   5.4969355567574769E-002   0.0000000000000000     
  -5.0411387204966351E-002   6.0291382719083804E-002   0.0000000000000000     
  -4.3597543517730410E-002   4.1140917040219209E-002   0.0000000000000000     
  -4.6650604278640942E-002   4.5807461271739680E-002   0.0000000000000000     
  -4.9633810337661934E-002   5.0688673581957014E-002   0.0000000000000000     
  -5.2547161694793426E-002   5.5784553970871197E-002   0.0000000000000000     
  -5.5390658350035385E-002   6.1095102438482249E-002   0.0000000000000000     
  -4.7828573178966570E-002   4.2103927091136889E-002   0.0000000000000000     
  -5.1108052220270372E-002   4.6742183601732129E-002   0.0000000000000000     
  -5.4313295763060439E-002   5.1600479790235215E-002   0.0000000000000000     
  -5.7444303807336748E-002   5.6678815656646168E-002   0.0000000000000000     
  -6.0501076353099342E-002   6.1977191200964982E-002   0.0000000000000000     
  -5.2260655325513786E-002   4.3155472407108236E-002   0.0000000000000000     
  -5.5758841601301401E-002   4.7761052325187799E-002   0.0000000000000000     
  -5.9171901341338005E-002   5.2593275064451613E-002   0.0000000000000000     
  -6.2499834545623613E-002   5.7652140624899671E-002   0.0000000000000000     
  -6.5742641214158223E-002   6.2937649006531982E-002   0.0000000000000000     
  -4.5563262917892235E-002   5.9566032042769626E-002   0.0000000000000000     
  -4.7831104433122662E-002   6.5093145456260770E-002   0.0000000000000000     
  -5.0044813667384287E-002   7.0801242992237612E-002   0.0000000000000000     
  -5.2204390620677110E-002   7.6690324650700151E-002   0.0000000000000000     
  -5.4309835293001131E-002   8.2760390431648387E-002   0.0000000000000000     
  -5.0411387204966351E-002   6.0291382719083804E-002   0.0000000000000000     
  -5.2946236447291670E-002   6.5806830605477720E-002   0.0000000000000000     
  -5.5416810326200473E-002   7.1498591938090175E-002   0.0000000000000000     
  -5.7823108841692762E-002   7.7366666716921120E-002   0.0000000000000000     
  -6.0165131993768536E-002   8.3411054941970597E-002   0.0000000000000000     
  -5.5390658350035385E-002   6.1095102438482249E-002   0.0000000000000000     
  -5.8163360239991219E-002   6.6598593079766330E-002   0.0000000000000000     
  -6.0864327301264294E-002   7.2273299989699627E-002   0.0000000000000000     
  -6.3493559533854618E-002   7.8119223168282084E-002   0.0000000000000000     
  -6.6051056937762184E-002   8.4136362615513702E-002   0.0000000000000000     
  -6.0501076353099342E-002   6.1977191200964982E-002   0.0000000000000000     
  -6.3482475811221309E-002   6.7468432879126572E-002   0.0000000000000000     
  -6.6387364592575757E-002   7.3125367147065898E-002   0.0000000000000000     
  -6.9215742697162672E-002   7.8947994004782931E-002   0.0000000000000000     
  -7.1967610124982082E-002   8.4936313452277687E-002   0.0000000000000000     
  -6.5742641214158223E-002   6.2937649006531982E-002   0.0000000000000000     
  -6.8903583160981927E-002   6.8416350003558460E-002   0.0000000000000000     
  -7.1985922200134819E-002   7.4054793410189057E-002   0.0000000000000000     
  -7.4989658331616915E-002   7.9852979226423759E-002   0.0000000000000000     
  -7.7914791555428201E-002   8.5810907452262553E-002   0.0000000000000000     
  -5.4309835293001131E-002   8.2760390431648387E-002   0.0000000000000000     
  -5.6343931033022800E-002   8.9004261527581299E-002   0.0000000000000000     
  -5.8289461189408573E-002   9.5414759130997881E-002   0.0000000000000000     
  -6.0146425762158451E-002  0.10199188324189812        0.0000000000000000     
  -6.1914824751272426E-002  0.10873563386028201        0.0000000000000000     
  -6.0165131993768536E-002   8.3411054941970597E-002   0.0000000000000000     
  -6.2429091297819601E-002   8.9628091065800719E-002   0.0000000000000000     
  -6.4601198269237783E-002   9.6014109540973600E-002   0.0000000000000000     
  -6.6681452908023048E-002  0.10256911036748924        0.0000000000000000     
  -6.8669855214175402E-002  0.10929309354534766        0.0000000000000000     
  -6.6051056937762184E-002   8.4136362615513702E-002   0.0000000000000000     
  -6.8525491426952689E-002   9.0324537565829754E-002   0.0000000000000000     
  -7.0905534915391810E-002   9.6683567253665420E-002   0.0000000000000000     
  -7.3191187403079561E-002  0.10321345167902068        0.0000000000000000     
  -7.5382448890015899E-002  0.10991419084189556        0.0000000000000000     
  -7.1967610124982082E-002   8.4936313452277687E-002   0.0000000000000000     
  -7.4633131420422064E-002   9.1093601027668419E-002   0.0000000000000000     
  -7.7202471127870681E-002   9.7423132269073301E-002   0.0000000000000000     
  -7.9675629247327948E-002  0.10392490717649241        0.0000000000000000     
  -8.2052605778793905E-002  0.11059892574992572        0.0000000000000000     
  -7.7914791555428201E-002   8.5810907452262553E-002   0.0000000000000000     
  -8.0752011278227676E-002   9.1935281451316686E-002   0.0000000000000000     
  -8.3492006906674368E-002   9.8232804587197312E-002   0.0000000000000000     
  -8.6134778440768278E-002  0.10470347685990448        0.0000000000000000     
  -8.8680325880509392E-002  0.11134729826943815        0.0000000000000000     
  -6.1914824751272426E-002  0.10873563386028201        0.0000000000000000     
  -6.3586658037113719E-002  0.11563123867160770        0.0000000000000000     
  -6.5153925500045576E-002  0.12266392536133329        0.0000000000000000     
  -6.6616627140067969E-002  0.12983369392945884        0.0000000000000000     
  -6.7974762957180912E-002  0.13714054437598427        0.0000000000000000     
  -6.8669855214175402E-002  0.10929309354534766        0.0000000000000000     
  -7.0566999871275266E-002  0.11617173184548933        0.0000000000000000     
  -7.2373481562902950E-002  0.12319069803885477        0.0000000000000000     
  -7.4089300289058468E-002  0.13034999212544396        0.0000000000000000     
  -7.5714456049741849E-002  0.13764961410525689        0.0000000000000000     
  -7.5382448890015899E-002  0.10991419084189556        0.0000000000000000     
  -7.7483515746489290E-002  0.11677295705192686        0.0000000000000000     
  -7.9498584342788142E-002  0.12377692261875139        0.0000000000000000     
  -8.1427654678912456E-002  0.13092608754236917        0.0000000000000000     
  -8.3270726754862218E-002  0.13822045182278014        0.0000000000000000     
  -8.2052605778793905E-002  0.11059892574992572        0.0000000000000000     
  -8.4336205662755848E-002  0.11743491429092030        0.0000000000000000     
  -8.6529233839701208E-002  0.12442259910102321        0.0000000000000000     
  -8.8631690309629932E-002  0.13156198018023446        0.0000000000000000     
  -9.0643575072542032E-002  0.13885305752855406        0.0000000000000000     
  -8.8680325880509392E-002  0.11134729826943815        0.0000000000000000     
  -9.1125069620074897E-002  0.11815760356246963        0.0000000000000000     
  -9.3465430053642079E-002  0.12512772748567022        0.0000000000000000     
  -9.5701407181210854E-002  0.13225767003903985        0.0000000000000000     
  -9.7833001002781278E-002  0.13954743122257862        0.0000000000000000     
  -6.7974762957180912E-002  0.13714054437598427        0.0000000000000000     
  -6.9215069700367851E-002  0.14456004944044043        0.0000000000000000     
  -7.0324284118612176E-002  0.15206778186235809        0.0000000000000000     
  -7.1302406211913943E-002  0.15966374164173724        0.0000000000000000     
  -7.2149435980273111E-002  0.16734792877857790        0.0000000000000000     
  -7.5714456049741849E-002  0.13764961410525689        0.0000000000000000     
  -7.7256614465781900E-002  0.14508490643857772        0.0000000000000000     
  -7.8723441158007459E-002  0.15265121158569053        0.0000000000000000     
  -8.0114936126418554E-002  0.16034852954659529        0.0000000000000000     
  -8.1431099371015142E-002  0.16817686032129203        0.0000000000000000     
  -8.3270726754862218E-002  0.13822045182278014        0.0000000000000000     
  -8.5032791831805982E-002  0.14564875460920140        0.0000000000000000     
  -8.6718841170912248E-002  0.15319973505084983        0.0000000000000000     
  -8.8328874772181057E-002  0.16087339314772556        0.0000000000000000     
  -8.9862892635612368E-002  0.16866972889982848        0.0000000000000000     
  -9.0643575072542032E-002  0.13885305752855406        0.0000000000000000     
  -9.2543601798440053E-002  0.14625159395231146        0.0000000000000000     
  -9.4310484157326527E-002  0.15371335225783611        0.0000000000000000     
  -9.5944222149201452E-002  0.16123833244512803        0.0000000000000000     
  -9.7444815774064789E-002  0.16882653451418722        0.0000000000000000     
  -9.7833001002781278E-002  0.13954743122257862        0.0000000000000000     
  -9.9789044365684171E-002  0.14689342446790793        0.0000000000000000     
 -0.10149837011725030       0.15419206320664933        0.0000000000000000     
 -0.10296097825747973       0.16144334743880276        0.0000000000000000     
 -0.10417686878637239       0.16864727716436823        0.0000000000000000     
 </DataArray>
 <DataArray  type="Float64" Name="stress" NumberOfComponents="3" format="ascii">
   13412085311.361841        4023625593.4085522        2891188337.2198677     
   11764793461.049782        1891037360.4816806        1714773957.1726265     
   10314324693.032448        414526068.53723621        810924148.10091484     
   9060679007.3098431       -405908282.42478037        179638910.00473392     
   8003856403.8819675       -570265692.40437031       -179081757.11591661     
   10538922699.802977        3161676809.9408927        2223550852.7888980     
   9668010741.9088287        1590585042.6659756        1445402021.6165054     
   8945437939.9404659        513957128.47701693        862327813.87037134     
   8371204293.8978910       -68206932.625982285        474328229.55049580     
   7945309803.7811089       -155907140.64302254        281403268.65687889     
   8339091184.4941587        2501727355.3482475        1710573542.5577264     
   8023159268.8771458        1425712098.6830516        1274125679.4964182     
   7807082582.8169804        682547607.20734668        955262492.31209743     
   7690861126.3136625        272233880.92113209        753983981.00476336     
   7674494899.3671904        194770919.82440758        670290145.57441628     
   6812590765.4353914        2043777229.6306174        1352256406.5263519     
   6830239041.9547386        1396418528.5329103        1200944930.8123648     
   6899258621.6619921        920297504.72822523        1089728183.4260931     
   7019649504.5571518        615414158.21656275        1018606164.3675367     
   7191411690.6402178        481768488.99792123        987578873.63669658     
   5959421442.6266708        1787826432.7880013        1148599444.6947753     
   6089250061.1416025        1502704332.2155502        1225859775.5643446     
   6221966056.4755001        1227206821.0396526        1265724887.2123587     
   6357569428.6283627        961333899.26030946        1268194779.6388164     
   6496060177.6001940        705085566.87752032        1233269452.8437178     
   8003856403.8819675       -570265692.40437031       -179081757.11591661     
   7921586307.6312551       -205852641.73270702       -79466990.986573771     
   7798364365.4581966        22054255.864454269       -11543401.888516000     
   7634190577.3627872        113455000.38711596        24689010.178254887     
   7429064943.3450222        68349591.835270405        29230245.213738807     
   7945309803.7811089       -155907140.64302254        281403268.65687889     
   7744957657.4332533        14245299.561737061        278144045.81987894     
   7521666318.9559584        107933766.00168324        260573025.43180099     
   7275435788.3492155        125158258.67681503        228690207.49264920     
   7006266065.6130314        65918777.587128162        182495592.00241774     
   7674494899.3671904        194770919.82440758        670290145.57441628     
   7405716072.8656521        185559360.54529858        585171696.52946270     
   7132010708.0275784        159926006.81106615        503120829.41364223     
   6853378804.8529673        117870858.62170625        424137544.22695667     
   6569820363.3418179        59393915.977221251        348221840.96940643     
   7191411690.6402178        481768488.99792123        987578873.63669658     
   6903861553.9284592        308089541.21798444        841615961.14218068     
   6629397532.6730642        178030978.29260945        716100010.05700731     
   6368019626.8740368        91592800.221796274        611031020.38117993     
   6119727836.5313835        48775007.005547047        526408992.11469877     
   6496060177.6001940        705085566.87752032        1233269452.8437178     
   6239394100.6216631        381835841.57978845        1047476839.6580297     
   6013826792.8924103        162248680.44631124        899510567.36189616     
   5819358254.4124327        46324083.477081537        789370635.95531893     
   5655988485.1817293        34062050.672106028        717057045.43829679     
   7429064943.3450222        68349591.835270405        29230245.213738807     
   7251262613.3364420       -15724056.280056000        15949715.705759440     
   7083314174.8988523       -66951399.158753395        1685025.7189150197     
   6925219628.0322456       -85332436.800841331       -13563824.746794293     
   6776978972.7366266       -70867169.206297398       -29796835.691371541     
   7006266065.6130314        65918777.587128162        182495592.00241774     
   6835132217.2476559        10993111.950763702        174101033.22582766     
   6670390123.5229845       -22626704.883245945        165093778.69695833     
   6512039784.4390173       -34940672.914910316        155473828.41581112     
   6360081199.9957542       -25948792.144236088        145241182.38239253     
   6569820363.3418179        59393915.977221251        348221840.96940643     
   6406416324.4099007        33934631.156897783        340674093.17220414     
   6245941903.1884069        18240738.704648733        332885114.34931827     
   6088397099.6773348        12312238.620474339        324854904.50074089     
   5933781913.8766861        16149130.904372454        316583463.62647659     
   6119727836.5313835        48775007.005547047        526408992.11469877     
   5965114934.8231812        53100501.338339806        515668895.54489481     
   5809969513.8951168        55650931.604930401        505059032.67598861     
   5654291573.7471952        56426297.805323124        494579403.50798774     
   5498081114.3794127        55426599.939518213        484230008.04088736     
   5655988485.1817293        34062050.672106028        717057045.43829679     
   5511228048.4874945        68490722.495090008        699085440.34389114     
   5362472955.6431179        89603873.817600012        681615533.67697573     
   5209723206.6485977        97401504.639636993        664647325.43755305     
   5052978801.5039368        91883614.961199999        648180815.62561953     
   6776978972.7366266       -70867169.206297398       -29796835.691371541     
   6619443548.2219124       -51175422.193891525       -21089554.725538999     
   6457338788.3012180       -46714793.201412916       -1935880.5121419623     
   6290664692.9745464       -57485282.228853941        27664186.948824048     
   6119421262.2419024       -83486889.276215792        67710647.657348156     
   6360081199.9957542       -25948792.144236088        145241182.38239253     
   6222746656.1697130       -8623414.3755009174        143377985.17618504     
   6081622303.7334375       -3930731.9742288589        147153618.92378804     
   5936708142.6869326       -11870744.940397263        156568083.62518710     
   5788004173.0301828       -32443453.274024248        171621379.28039727     
   5933781913.8766861        16149130.904372454        316583463.62647659     
   5802912358.4714336        26987371.749054432        305059236.17659980     
   5669032521.2516899        27791339.878759146        294366277.38676471     
   5532142402.2174578        18561035.293501616        284504587.25697190     
   5392242001.3687286       -703542.00674128532        275474165.78723055     
   5498081114.3794127        55426599.939518213        484230008.04088736     
   5359940655.1270685        55656936.179787636        463954198.27570200     
   5219569440.8559742        48451422.357561350        439702094.87680048     
   5076967471.5661278        33810058.472833395        411473697.84418535     
   4932134747.2575378        11732844.525615215        379269007.17785430     
   5052978801.5039368        91883614.961199999        648180815.62561953     
   4893831546.1366148        77385278.916696072        620062871.47349393     
   4733233062.5462856        58049515.462164640        583161071.39389348     
   4571183350.7329531        33876324.597622395        537475415.38681877     
   4407682410.6966152        4865706.3230531216        483005903.45227009     
   6119421262.2419024       -83486889.276215792        67710647.657348156     
   5961607926.4474754       -106472732.94589400        63854003.252594717     
   5807695839.1774120       -116454414.86768079        60551516.840574108     
   5657685000.4317236       -113431935.04156184        57803188.421291143     
   5511575410.2104034       -97405293.467538595        55609017.994739085     
   5788004173.0301828       -32443453.274024248        171621379.28039727     
   5634420566.5955830       -54720476.693992138        150628809.26373431     
   5484468247.4176044       -64893209.258580208        132172145.31965615     
   5338147215.4962330       -62961650.967792511        116251387.44816791     
   5195457470.8314762       -48925801.821633339        102866535.64926955     
   5392242001.3687286       -703542.00674128532        275474165.78723055     
   5248550261.6649733       -20573103.965702295        237030715.34627798     
   5108219847.9500771       -29238245.961798668        203104919.05776808     
   4971250760.2240353       -26698967.995044708        173696776.92169932     
   4837642998.4868507       -12955270.065434456        148806288.93807116     
   4932134747.2575378        11732844.525615215        379269007.17785430     
   4803997011.6556358       -4030614.7610256672        323059721.50022954     
   4678950640.7748299       -9489524.9773411751        273349838.05490696     
   4556995634.6151285       -4643886.1233117580        230139356.84187046     
   4438131993.1765289        10506301.801061153        193428277.86113253     
   4407682410.6966152        4865706.3230531216        483005903.45227009     
   4300760816.5675707       -5093009.0799827576        408715827.72559285     
   4196660625.8918748       -5647046.3051857948        342906902.31106591     
   4095381838.6695228        3203594.6474156380        285579127.20868427     
   3996924454.9005156        21458913.777842283        236732502.41845319     
   5511575410.2104034       -97405293.467538595        55609017.994739085     
   5327917723.0330467       -87363379.672433376        63839097.177118212     
   5143839909.0727987       -78721888.486954689        72562812.746667773     
   4959341968.3296499       -71480819.911159754        81780164.703372404     
   4774423900.8036118       -65640173.944971561        91491153.047247484     
   5195457470.8314762       -48925801.821633339        102866535.64926955     
   5012716838.8539457       -42499078.195842743        96110387.405532971     
   4829250067.3165855       -38492819.769499302        90400304.505890250     
   4645057156.2193966       -36907026.542583942        85736286.950334683     
   4460138105.5623617       -37741698.515134573        82118334.738863379     
   4837642998.4868507       -12955270.065434456        148806288.93807116     
   4657397790.1575136       -9670226.0744671822        126706898.36178596     
   4476120429.4914055       -9825689.8727221489        106206002.08651935     
   4293810916.4885297       -13421661.460219383        87303600.112268597     
   4110469251.1488795       -20458140.836943388        69999692.439032257     
   4438131993.1765289        10506301.801061153        193428277.86113253     
   4261960576.9437418        11123176.691714525        155628630.04587254     
   4084450995.5972505        7279501.2033567429        119979905.48856105     
   3905603249.1370487       -1024724.6640322208        86482104.189187661     
   3725417337.5631423       -13789500.910434246        55135226.147754759     
   3996924454.9005156        21458913.777842283        236732502.41845319     
   3826405199.2126446        19881130.102705479        182875582.45779639     
   3654241765.6341238        12822753.458740473        131722014.71200569     
   3480434154.1649628        283783.84597325325        83271799.181085557     
   3304982364.8051567       -17735778.735609293        37524935.865034074     
   4774423900.8036118       -65640173.944971561        91491153.047247484     
   4571362812.7963400       -74457308.436834574        98410065.372636423     
   4362646110.2662792       -102126491.33801556        118939322.32891053     
   4148273793.2133932       -148647722.64860678        153078923.91606787     
   3928245861.6377130       -214021002.36850095        200828870.13410398     
   4460138105.5623617       -37741698.515134573        82118334.738863379     
   4284378837.9197617       -43946998.475054502        67244115.089561448     
   4103992811.2270432       -65574828.602035284        59158220.044071175     
   3918980025.4842324       -102625188.89598584        57860649.602364384     
   3729340480.6913075       -155098079.35699368        63351403.764469244     
   4110469251.1488795       -20458140.836943388        69999692.439032257     
   3942520318.0792704       -29899052.002481461        34532672.199866004     
   3770973481.4322624       -51332975.092685461       -968043.46258803154     
   3595828741.2078457       -84759910.107579470       -36502454.548312247     
   3417086097.4060330       -130179857.04713058       -72070561.057319760     
   3725417337.5631423       -13789500.910434246        55135226.147754759     
   3545787253.2748766       -32313469.019075871        275736.70353296131     
   3363588120.8819180       -59400930.810014725       -61439468.191049330     
   3178819940.3842483       -95051886.283326387       -130010388.53598566     
   2991482711.7818851       -139266335.43894434       -205437024.33128724     
   3304982364.8051567       -17735778.735609293        37524935.865034074     
   3094179643.5065813       -51190249.524822474       -35526691.399423435     
   2881836729.5760078       -89778695.754035115       -122256054.14131351     
   2667953623.0134363       -133501117.42322946       -222663152.36064255     
   2452530323.8188725       -182357514.53241408       -336747986.05740929     
   3928245861.6377130       -214021002.36850095        200828870.13410398     
   3448165399.9988794       -235296495.26695967        154749876.28240663     
   3054254978.7117262        30661479.673481822        213381443.83864626     
   2746514597.7762127        583852922.45273519        376723572.80284142     
   2524944257.1923523        1424277833.0708427        644776263.17497742     
   3729340480.6913075       -155098079.35699368        63351403.764469244     
   3474470110.4990768       -152542031.12628818        38415580.190843850     
   3273412116.7051659        29388605.098800182        76508140.676847011     
   3126166499.3095956        390693829.31833744        177629085.22249603     
   3032733258.3123460        931373641.53232443        341778413.82776463     
   3417086097.4060330       -130179857.04713058       -72070561.057319760     
   3268333883.3795071       -139519848.27157998       -113613822.29843512     
   3141036381.7979860       -77344131.346048117       -133810876.82822682     
   3035193592.6614580        56347293.729503512       -132661724.64669067     
   2950805515.9699364        261554426.95503139       -110166365.75382510     
   2991482711.7818851       -139266335.43894434       -205437024.33128724     
   2829756718.6401963       -196229946.70279753       -301338331.18542933     
   2657127773.9901786       -289536729.66106761       -417575608.67656535     
   2473595877.8318334       -419186684.31378675       -554148856.80467463     
   2279161030.1651483       -585179810.66093493       -711058075.56977320     
   2452530323.8188725       -182357514.53241408       -336747986.05740929     
   2158738616.2811356       -322672326.41991675       -524757946.47014546     
   1821686293.2817357       -607189189.84629536       -774786054.86816740     
   1441373354.8206711       -1035908104.8115439       -1086832311.2514908     
   1017799800.8979571       -1608829071.3156357       -1460896715.6200943     
   5959421442.6266708        1787826432.7880013        1148599444.6947753     
   6089250061.1416025        1502704332.2155502        1225859775.5643446     
   6221966056.4755001        1227206821.0396526        1265724887.2123587     
   6357569428.6283627        961333899.26030946        1268194779.6388164     
   6496060177.6001940        705085566.87752032        1233269452.8437178     
   5435075955.5313873        1630522786.6594162        1032087784.9214579     
   5489704367.5413122        1373001252.4474056        1112177024.9653158     
   5546640932.5428181        1123173561.5406699        1165445810.0667768     
   5605885650.5359077        881039713.93921041        1191894140.2258410     
   5667438521.5205812        646599709.64302707        1191522015.4425073     
   4895047043.6129293        1468514113.0838788        935206555.06486106     
   4904688861.3440151        1247657228.9001589        1017448943.1510606     
   4916059608.2392988        1032563441.9304358        1083445640.5740218     
   4929159284.2987833        823232752.17471039        1133196647.3337438     
   4943987889.5224648        619665159.63298213        1166701963.4302285     
   4339334706.8712978        1301800412.0613892        857955755.12498510     
   4334203542.5497112        1126672261.5738101        941675530.12157834     
   4330222083.5649405        955376462.20894957        1019724378.7340916     
   4327390329.9169846        787913013.96680844        1092102300.9625254     
   4325708281.6058493        624281916.84738719        1158809296.8068798     
   3767938945.3064914        1130381683.5919473        800335385.10182989     
   3778248411.1584020        1010046350.4683597        884856785.87686944     
   3789128358.5197449        891612622.37621272        974282024.54698789     
   3800578787.3905201        775080499.31550646        1068611101.1121862     
   3812599697.7707262        660449981.28624070        1167844015.5724626     
   6496060177.6001940        705085566.87752032        1233269452.8437178     
   6239394100.6216631        381835841.57978845        1047476839.6580297     
   6013826792.8924103        162248680.44631124        899510567.36189616     
   5819358254.4124327        46324083.477081537        789370635.95531893     
   5655988485.1817293        34062050.672106028        717057045.43829679     
   5667438521.5205812        646599709.64302707        1191522015.4425073     
   5515028253.7276840        388420117.38097596        1069655185.5393131     
   5386979736.4601765        211446360.20354652        975142606.49651015     
   5283292969.7180548        115678438.11074305        907984278.31409621     
   5203967953.5013208        101116351.10255980        868180200.99207342     
   4943987889.5224648        619665159.63298213        1166701963.4302285     
   4865913173.6890182        417579623.23875642        1100901061.6316578     
   4805463189.6570692        274243192.84952354        1051982320.6643138     
   4762637937.4266186        189655868.46528530        1019945740.5281959     
   4737437416.9976654        163817650.08604097        1004791321.2233024     
   4325708281.6058493        624281916.84738719        1158809296.8068798     
   4292048860.5056620        469314359.15312874        1141214467.9350643     
   4269277152.4830885        350639178.38423789        1130029709.8653090     
   4257393157.5381212        268256374.54070973        1125255022.5976145     
   4256396875.6707644        222165947.62254786        1126890406.1319809     
   3812599697.7707262        660449981.28624070        1167844015.5724626     
   3793435314.1776190        543624325.12409782        1190595404.4495320     
   3778421624.9382300        440634316.80768728        1209284774.0994959     
   3767558630.0525646        351479956.33701658        1223912124.5223563     
   3760846329.5206189        276161243.71208084        1234477455.7181103     
   5655988485.1817293        34062050.672106028        717057045.43829679     
   5511228048.4874945        68490722.495090008        699085440.34389114     
   5362472955.6431179        89603873.817600012        681615533.67697573     
   5209723206.6485977        97401504.639636993        664647325.43755305     
   5052978801.5039368        91883614.961199999        648180815.62561953     
   5203967953.5013208        101116351.10255980        868180200.99207342     
   5053994988.7039824        100397576.94813085        843613852.06159437     
   4902762051.9051704        95478896.122127533        822647116.77294564     
   4750269143.1048841        86360308.624539852        805279995.12613118     
   4596516262.3031254        73041814.455375910        791512487.12114763     
   4737437416.9976654        163817650.08604097        1004791321.2233024     
   4591103110.4239149        130606785.85220838        976820693.29686046     
   4446243515.9973564        102311628.77569008        955547594.22659183     
   4302858633.7179918        78932178.856487751        940972024.01249635     
   4160948463.5858250        60468436.094601154        933093982.65457726     
   4256396875.6707644        222165947.62254786        1126890406.1319809     
   4122552413.6472888        159118349.20731640        1098705964.0496900     
   3992917347.9196739        110102071.77829218        1080316966.0379152     
   3867491678.4879217        75117115.335482359        1071723412.0966554     
   3746275405.3520365        54163479.878879786        1072925302.2259088     
   3760846329.5206189        276161243.71208084        1234477455.7181103     
   3648342898.3741069        185932267.01345813        1209269664.3200843     
   3542783547.6721253        118850225.12993991        1196955232.2069156     
   3444168277.4146762        74915118.061525822        1197534159.3786013     
   3352497087.6017580        54126945.808214545        1211006445.8351433     
   5052978801.5039368        91883614.961199999        648180815.62561953     
   4893831546.1366148        77385278.916696072        620062871.47349393     
   4733233062.5462856        58049515.462164640        583161071.39389348     
   4571183350.7329531        33876324.597622395        537475415.38681877     
   4407682410.6966152        4865706.3230531216        483005903.45227009     
   4596516262.3031254        73041814.455375910        791512487.12114763     
   4421906827.4056854        49962467.985530138        773075467.90784311     
   4246247109.9567623        23382179.677417755        753508553.54315221     
   4069537109.9563632       -6699050.4689469337        732811744.02707338     
   3891776827.4044876       -40281222.453572512        710985039.35961139     
   4160948463.5858250        60468436.094601154        933093982.65457726     
   3992745308.5185113        35368617.007490873        924805658.33021235     
   3823892816.5712466        8104341.6538798809        923041399.63054776     
   3654390987.7440314       -21324389.966233730        927801206.55558264     
   3484239822.0368671       -52917577.852847338        939085079.10531819     
   3746275405.3520365        54163479.878879786        1072925302.2259088     
   3606346989.4750977        33603725.982579470        1075253442.7405994     
   3466170182.3897367        12216001.391537189        1091759609.6560743     
   3325744984.0959530       -9999693.8942472935        1122443802.9723372     
   3185071394.5937467       -33043359.874771714        1167306022.6893883     
   3352497087.6017580        54126945.808214545        1211006445.8351433     
   3262711870.2754431        44667794.910797000        1224418821.1390040     
   3173079207.4122343        35717158.890399337        1259663183.6197379     
   3083599099.0121307        27275037.747017741        1316739533.2773464     
   2994271545.0751314        19341431.480655670        1395647870.1118276     
   4407682410.6966152        4865706.3230531216        483005903.45227009     
   4300760816.5675707       -5093009.0799827576        408715827.72559285     
   4196660625.8918748       -5647046.3051857948        342906902.31106591     
   4095381838.6695228        3203594.6474156380        285579127.20868427     
   3996924454.9005156        21458913.777842283        236732502.41845319     
   3891776827.4044876       -40281222.453572512        710985039.35961139     
   3805654301.5540986       -43785051.484704971        676651152.29338026     
   3722287783.0527992       -38102189.352190495        648345809.04352331     
   3641677271.9005952       -23232636.056028128        626069009.61004078     
   3563822768.0974846        823608.40377211571        609820753.99293673     
   3484239822.0368671       -52917577.852847338        939085079.10531819     
   3411908917.3343439       -52068754.651319027        944631085.24457169     
   3342268623.8766646       -42251227.300310135        953753028.70442700     
   3275318941.6638260       -23464995.799831152        966450909.48488355     
   3211059870.6958337        4289939.8501256704        982724727.58594441     
   3185071394.5937467       -33043359.874771714        1167306022.6893883     
   3119524663.9083147       -29944118.579814553        1212655626.5791688     
   3056603148.3634725       -18094160.149546504        1259128561.2937763     
   2996306847.9592185        2506515.4160158634        1306724826.8332138     
   2938635762.6955619        31857908.116884828        1355444423.1974761     
   2994271545.0751314        19341431.480655670        1395647870.1118276     
   2928501541.2760062        22588856.729809523        1480724776.2971711     
   2865291356.5132203        34369012.100097179        1564472406.8115695     
   2804640990.7867723        54681897.591512680        1646890761.6550264     
   2746550444.0966649        83527513.204066515        1727979840.8275380     
   3996924454.9005156        21458913.777842283        236732502.41845319     
   3826405199.2126446        19881130.102705479        182875582.45779639     
   3654241765.6341238        12822753.458740473        131722014.71200569     
   3480434154.1649628        283783.84597325325        83271799.181085557     
   3304982364.8051567       -17735778.735609293        37524935.865034074     
   3563822768.0974846        823608.40377211571        609820753.99293673     
   3402267844.9427218        1767090.9131779671        582737405.12811542     
   3239273857.6400299       -2086307.0705140829        559264513.80053294     
   3074840806.1894069       -10736585.547311902        539402080.01020432     
   2908968690.5908489       -24183744.517219663        523150103.75711441     
   3211059870.6958337        4289939.8501256704        982724727.58594441     
   3061061009.5666890        8532207.3918355703        982654249.18345714     
   2909828198.0323238        8661306.9161406755        987101333.64059055     
   2757361436.0927444        4677238.4230710268        996065980.95734656     
   2603660723.7479458       -3419998.0874036551        1009548191.1337222     
   2938635762.6955619        31857908.116884828        1355444423.1974761     
   2802784693.0845370        40176479.538645148        1382626114.6238241     
   2665904786.8110042        45065595.418711543        1415232474.2321665     
   2527996043.8749747        46525255.757112741        1453263502.0225060     
   2389058464.2764363        44555460.553826213        1496719197.9948490     
   2746550444.0966649        83527513.204066515        1727979840.8275380     
   2627438895.4962678        96699907.353626013        1782653001.4492142     
   2507503623.9760776        107126558.43720877        1843657935.5752676     
   2386744629.5360985        114807466.45483124        1910994643.2056930     
   2265161912.1763263        119742631.40647602        1984663124.3404942     
   3304982364.8051567       -17735778.735609293        37524935.865034074     
   3094179643.5065813       -51190249.524822474       -35526691.399423435     
   2881836729.5760078       -89778695.754035115       -122256054.14131351     
   2667953623.0134363       -133501117.42322946       -222663152.36064255     
   2452530323.8188725       -182357514.53241408       -336747986.05740929     
   2908968690.5908489       -24183744.517219663        523150103.75711441     
   2675342841.1489568       -60652514.677379608        485997168.17696548     
   2441378809.0172434       -98248560.470259905        445661323.20344847     
   2207076594.1957078       -136971881.89588523        402142568.83657861     
   1972436196.6843574       -176822478.95423377        355440905.07634425     
   2603660723.7479458       -3419998.0874036551        1009548191.1337222     
   2377196963.5458074       -33907502.403579950        1009696292.1704113     
   2151597030.5960245       -61515582.545233369        1017156309.8978162     
   1926860924.8986020       -86244238.512353659        1031928244.3159385     
   1702988646.4535384       -108093470.30494642        1054012095.4247732     
   2389058464.2764363        44555460.553826213        1496719197.9948490     
   2199742010.6971288        29044787.296550512        1535570680.5809205     
   2012491394.3123584        20420238.021071792        1592228905.9417827     
   1827306615.1221204        18681812.727361560        1666693874.0774424     
   1644187673.1264215        23829511.415452480        1758965584.9878886     
   2265161912.1763263        119742631.40647602        1984663124.3404942     
   2142977982.6029279        128204354.42303252        2063620333.4084861     
   2024061900.1662381        147558901.22862667        2170879111.3353510     
   1908413664.8662641        177806271.82326764        2306439458.1210842     
   1796033276.7030017        218946466.20695400        2470301373.7656813     
   2452530323.8188725       -182357514.53241408       -336747986.05740929     
   2158738616.2811356       -322672326.41991675       -524757946.47014546     
   1821686293.2817357       -607189189.84629536       -774786054.86816740     
   1441373354.8206711       -1035908104.8115439       -1086832311.2514908     
   1017799800.8979571       -1608829071.3156357       -1460896715.6200943     
   1972436196.6843574       -176822478.95423377        355440905.07634425     
   1561878198.5220273       -305117326.58608603        218121443.28950655     
   1128140380.6023529       -510678240.07576984        50226068.025436364     
   671222742.92533016       -793505219.42327857       -148245220.71587694     
   191125285.49094528       -1153598264.6286368       -377292422.93442595     
   1702988646.4535384       -108093470.30494642        1054012095.4247732     
   1265499313.4039197       -197417866.95994002        990810727.25219381     
   824910956.30125523       -297072343.79175496        928475680.11043847     
   381223575.14555669       -407056900.80035114        867006953.99949086     
  -65562830.063185304       -527371537.98576683        806404548.91935861     
   1644187673.1264215        23829511.415452480        1758965584.9878886     
   1269601960.9268022        426052.45848542452        1793309905.4179296     
   911998020.37845349        33628499.005760074        1859962781.3868382     
   571375851.48137176        123436851.05724365        1958924212.8946235     
   247735454.23555505        269851108.61295444        2090194199.9412775     
   1796033276.7030017        218946466.20695400        2470301373.7656813     
   1574186141.0906863        288414431.66923809        2625618977.7867045     
   1389401572.8339322        481424288.31673265        2844687371.8546524     
   1241679571.9327686        797976036.14952803        3127506555.9695148     
   1131020138.3871732        1238069675.1675525        3474076530.1313066     
   3767938945.3064914        1130381683.5919473        800335385.10182989     
   3778248411.1584020        1010046350.4683597        884856785.87686944     
   3789128358.5197449        891612622.37621272        974282024.54698789     
   3800578787.3905201        775080499.31550646        1068611101.1121862     
   3812599697.7707262        660449981.28624070        1167844015.5724626     
   3207735061.1989050        962320518.35967159        757055114.91783214     
   3235132258.7899032        869317754.39515507        853571294.48564136     
   3262227530.1478286        775308569.65372944        952020529.22865319     
   3289020875.2726812        680292964.13539410        1052402819.1468680     
   3315512294.1644607        584270937.84014964        1154718164.2402849     
   2685598356.8289328        805679507.04867983        722824614.49542820     
   2721595335.5308003        737462927.05476940        830317763.82308459     
   2756417980.2570901        665331900.47559953        936773185.60606718     
   2790066291.0078025        589286427.31116986        1042190879.8443757     
   2822540267.7829361        509326507.56148076        1146570846.5380108     
   2201528832.1965742        660458649.65897226        697643883.83461845     
   2237637641.3810930        614481868.44720221        815096193.88919926     
   2271699708.8475285        561682614.84182262        928539993.67923033     
   2303715034.5958815        502060888.84283304        1037975283.2047106     
   2333683618.6261511        435616690.45023382        1143402062.4656413     
   1755526487.3018293        526657946.19054884        681512922.93540275     
   1783259176.3407812        500374578.57245398        807906584.68398547     
   1808072715.9191449        464360712.75239903        927320953.44814181     
   1829967106.0369208        418616348.73038429        1039756029.2278715     
   1848942346.6941082        363141486.50640965        1145211812.0231745     
   3812599697.7707262        660449981.28624070        1167844015.5724626     
   3793435314.1776190        543624325.12409782        1190595404.4495320     
   3778421624.9382300        440634316.80768728        1209284774.0994959     
   3767558630.0525646        351479956.33701658        1223912124.5223563     
   3760846329.5206189        276161243.71208084        1234477455.7181103     
   3315512294.1644607        584270937.84014964        1154718164.2402849     
   3291001603.1025701        478410668.24935877        1184348726.4783754     
   3270394413.8938990        385562071.50263035        1211398289.9126570     
   3253690726.5384459        305725147.59996498        1235866854.5431292     
   3240890541.0362120        238899896.54136252        1257754420.3697910     
   2822540267.7829361        509326507.56148076        1146570846.5380108     
   2796914756.1759639        415701070.61915386        1182792190.8865378     
   2774945553.9217095        334263331.51921630        1217913556.8545506     
   2756632661.0201712        265013290.26166761        1251934944.4420493     
   2741976077.4713492        207950946.84650767        1284856353.6490338     
   2333683618.6261511        435616690.45023382        1143402062.4656413     
   2311174773.3978000        355495532.23348165        1185925797.6740181     
   2292075045.0216632        286738096.85744488        1228830574.9251759     
   2276384433.4977398        229344384.32212281        1272116394.2191162     
   2264102938.8260326        183314394.62751687        1315783255.5558360     
   1848942346.6941082        363141486.50640965        1145211812.0231745     
   1833781654.7680769        297794053.09234077        1193749546.8408163     
   1821782887.1937590        242986367.51731652        1244149344.1245341     
   1812946043.9711518        198718429.78133041        1296411203.8743293     
   1807271125.1002586        164990239.88438779        1350535126.0902007     
   3760846329.5206189        276161243.71208084        1234477455.7181103     
   3648342898.3741069        185932267.01345813        1209269664.3200843     
   3542783547.6721253        118850225.12993991        1196955232.2069156     
   3444168277.4146762        74915118.061525822        1197534159.3786013     
   3352497087.6017580        54126945.808214545        1211006445.8351433     
   3240890541.0362120        238899896.54136252        1257754420.3697910     
   3163230696.4643617        166783073.79782939        1245551506.7244864     
   3091007784.7882733        112789360.70682895        1243078264.8621199     
   3024221806.0079446        76918757.268365741        1250334694.7826972     
   2962872760.1233778        59171263.482441783        1267320796.4862118     
   2741976077.4713492        207950946.84650767        1284856353.6490338     
   2690120712.3258319        151234545.91356325        1283899978.9495499     
   2642195132.5273046        107617429.47058475        1289509588.5310898     
   2598199338.0757704        77099597.517578363        1301685182.3936548     
   2558133328.9712238        59681050.054537892        1320426760.5372458     
   2264102938.8260326        183314394.62751687        1315783255.5558360     
   2229012945.9585176        139286683.36066270        1324315080.9952750     
   2196345590.8892226        103334431.42120564        1336249203.2138219     
   2166100873.6181493        75457638.809154868        1351585622.2114794     
   2138278794.1452947        55656305.524500847        1370324337.9882472     
   1807271125.1002586        164990239.88438779        1350535126.0902007     
   1779907397.3624172        130939486.13912642        1366796812.8616612     
   1753459159.8740242        99940366.558692038        1383297108.9103172     
   1727926412.6350820        71992881.143096447        1400036014.2361679     
   1703309155.6455908        47097029.892332256        1417013528.8392127     
   3352497087.6017580        54126945.808214545        1211006445.8351433     
   3262711870.2754431        44667794.910797000        1224418821.1390040     
   3173079207.4122343        35717158.890399337        1259663183.6197379     
   3083599099.0121307        27275037.747017741        1316739533.2773464     
   2994271545.0751314        19341431.480655670        1395647870.1118276     
   2962872760.1233778        59171263.482441783        1267320796.4862118     
   2921377748.3719711        56764688.843201280        1271897244.8586586     
   2880633523.8830919        56860738.412381768        1290160500.4368894     
   2840640086.6567388        59459412.189984679        1322110563.2209024     
   2801397436.6929116        64560710.176009893        1367747433.2107024     
   2558133328.9712238        59681050.054537892        1320426760.5372458     
   2541656580.0201840        57345468.841106176        1316865220.2442708     
   2526528851.1310921        59506621.167505503        1318845307.1859899     
   2512750142.3039494        66164507.033730745        1326367021.3624046     
   2500320453.5387540        77319126.439784646        1339430362.7735138     
   2138278794.1452947        55656305.524500847        1370324337.9882472     
   2123548365.2200804        46410134.904519558        1359322747.2958395     
   2110765189.1562357        43654807.155772805        1345717603.8670409     
   2099929265.9537611        47390322.278257728        1329508907.7018449     
   2091040595.6126571        57616680.271978378        1310696658.8002567     
   1703309155.6455908        47097029.892332256        1417013528.8392127     
   1667053103.9716597        23958687.033434272        1399269826.0133684     
   1633342537.9585226        9305296.3771814704        1370777390.4800410     
   1602177457.6061759        3136857.9235644937        1331536222.2392302     
   1573557862.9146218        5453371.6725888848        1281546321.2909350     
   2994271545.0751314        19341431.480655670        1395647870.1118276     
   2928501541.2760062        22588856.729809523        1480724776.2971711     
   2865291356.5132203        34369012.100097179        1564472406.8115695     
   2804640990.7867723        54681897.591512680        1646890761.6550264     
   2746550444.0966649        83527513.204066515        1727979840.8275380     
   2801397436.6929116        64560710.176009893        1367747433.2107024     
   2734210815.6669865        64792753.542620540        1418492467.4458385     
   2668590288.7186756        70245110.501278639        1470172929.1503510     
   2604535855.8479805        80917781.051992893        1522788818.3242421     
   2542047517.0549006        96810765.194748163        1576340134.9675155     
   2500320453.5387540        77319126.439784646        1339430362.7735138     
   2438187795.6869526        76476962.044127703        1354684179.2732577     
   2376627506.9540429        77542694.711441875        1373138126.3827057     
   2315639587.3400207        80516324.441717505        1394792204.1018548     
   2255224036.8448896        85397851.234964490        1419646412.4307060     
   2091040595.6126571        57616680.271978378        1310696658.8002567     
   2040432481.3359034        57641482.234330058        1289299911.7794342     
   1989403011.2193170        56261764.730574489        1273367998.5086384     
   1937952185.2628937        53477527.760694504        1262900918.9878647     
   1886080003.4666381        49288771.324707508        1257898673.2171202     
   1573557862.9146218        5453371.6725888848        1281546321.2909350     
   1540944872.6138389        8286314.1132279634        1222339664.9643662     
   1506916801.5144992        6402320.5586768389        1170862545.5281463     
   1471473649.6165991       -198608.99107599258        1127114962.9822733     
   1434615416.9201400       -11516474.536026716        1091096917.3267491     
   2746550444.0966649        83527513.204066515        1727979840.8275380     
   2627438895.4962678        96699907.353626013        1782653001.4492142     
   2507503623.9760776        107126558.43720877        1843657935.5752676     
   2386744629.5360985        114807466.45483124        1910994643.2056930     
   2265161912.1763263        119742631.40647602        1984663124.3404942     
   2542047517.0549006        96810765.194748163        1576340134.9675155     
   2437044516.2007399        102057407.21099114        1601626933.8984821     
   2331865348.6262002        106716826.82595515        1633263708.0837162     
   2226510014.3312740        110789024.03963387        1671250457.5232193     
   2120978513.3159647        114273998.85204518        1715587182.2169874     
   2255224036.8448896        85397851.234964490        1419646412.4307060     
   2164381588.7366590        82734342.617787123        1416302331.9036090     
   2074010530.1074560        81642132.264028311        1419326428.3806734     
   1984110860.9572756        82121220.173684359        1428718701.8618968     
   1894682581.2861240        84171606.346768975        1444479152.3472764     
   1886080003.4666381        49288771.324707508        1257898673.2171202     
   1809450113.1040258        38730713.574014068        1226679195.4646010     
   1733939168.4198532        31902474.751452148        1201846096.4661348     
   1659547169.4141097        28804054.856987953        1183399376.2217200     
   1586274116.0868044        29435453.890649855        1171339034.7313547     
   1434615416.9201400       -11516474.536026716        1091096917.3267491     
   1372250089.3028424       -29953479.920310915        1032757524.5814573     
   1311651263.5633862       -42502145.711789846        980822712.34010482     
   1252818939.7017684       -49162471.910470247        935292480.60269558     
   1195753117.7180033       -49934458.516313612        896166829.36922836     
   2265161912.1763263        119742631.40647602        1984663124.3404942     
   2142977982.6029279        128204354.42303252        2063620333.4084861     
   2024061900.1662381        147558901.22862667        2170879111.3353510     
   1908413664.8662641        177806271.82326764        2306439458.1210842     
   1796033276.7030017        218946466.20695400        2470301373.7656813     
   2120978513.3159647        114273998.85204518        1715587182.2169874     
   2061958306.1383569        134748364.83036745        1763587802.5623560     
   2005116025.9105320        162482487.30797017        1829102184.4390554     
   1950451672.6324980        197476366.28487247        1912130327.8470907     
   1897965246.3042541        239730001.76107973        2012672232.7864547     
   1894682581.2861240        84171606.346768975        1444479152.3472764     
   1868003789.8542018        107411923.29181600        1460251610.4186068     
   1842413005.1851447        134278929.44641644        1482750022.6937339     
   1817910227.2789509        164772624.81055659        1511974389.1726549     
   1794495456.1356237        198893009.38425738        1547924709.8553729     
   1586274116.0868044        29435453.890649855        1171339034.7313547     
   1561114433.7504656        46195029.807397485        1153611756.9772353     
   1535952837.9900687        62948227.643947601        1131822626.0993752     
   1510789328.8056140        79695047.400303662        1105971642.0977776     
   1485623906.1970990        96435489.076465011        1076058804.9724410     
   1195753117.7180033       -49934458.516313612        896166829.36922836     
   1141290237.8271484       -48902315.622895300        843668242.23824823     
   1085735524.3253109       -51509618.099418342        776319994.65599012     
   1029088977.2124865       -57756365.945898771        694122086.62245691     
   971350596.48868442       -67642559.162304342        597074518.13765287     
   1796033276.7030017        218946466.20695400        2470301373.7656813     
   1574186141.0906863        288414431.66923809        2625618977.7867045     
   1389401572.8339322        481424288.31673265        2844687371.8546524     
   1241679571.9327686        797976036.14952803        3127506555.9695148     
   1131020138.3871732        1238069675.1675525        3474076530.1313066     
   1897965246.3042541        239730001.76107973        2012672232.7864547     
   1811558366.7588344        312853669.12656659        2120155386.4689736     
   1750036967.6401722        468928937.91457546        2267228938.9475975     
   1713401048.9482753        707955808.12513006        2453892890.2223234     
   1701650610.6831331        1029934279.7582068        2680147240.2931623     
   1794495456.1356237        198893009.38425738        1547924709.8553729     
   1774499143.3690584        254963471.86654091        1593366811.7824299     
   1767211224.1004360        353395246.00862861        1654238921.2547760     
   1772631698.3297527        494188331.81051326        1730541038.2724206     
   1790760566.0570166        677342729.27222502        1822273162.8353422     
   1485623906.1970990        96435489.076465011        1076058804.9724410     
   1463008470.9213467        114743839.88912970        1045253253.7270814     
   1440924342.2147205        134823212.59887630        1005717318.7762065     
   1419371520.0772200        156673607.20571190        957451000.11980247     
   1398350004.5088451        180295023.70963350        900454297.75786912     
   971350596.48868442       -67642559.162304342        597074518.13765287     
   877086349.41570210       -107805226.80566472        475814712.30293036     
   771176321.98302877       -186787162.31465960        321664131.51186967     
   653620514.19065630       -304588365.68931985        134622775.76446414     
   524418926.03860581       -461208836.92957854       -85309354.939263523     
   1755526487.3018293        526657946.19054884        681512922.93540275     
   1783259176.3407812        500374578.57245398        807906584.68398547     
   1808072715.9191449        464360712.75239903        927320953.44814181     
   1829967106.0369208        418616348.73038429        1039756029.2278715     
   1848942346.6941082        363141486.50640965        1145211812.0231745     
   1325579515.5775344        397673854.67326033        671357606.41897702     
   1338762216.2066901        375676284.11319578        793575179.95529652     
   1349755554.7404928        346380839.90195382        910590717.60896194     
   1358559531.1789420        309787522.03953481        1022404219.3799729     
   1365174145.5220382        265896330.52593839        1129015685.2683299     
   889676110.45652437        266902833.13695732        664103808.90653694     
   893386700.10951889        250714422.86501348        782996712.82336736     
   895637715.03239501        229660763.49267507        898464837.95931566     
   896429155.22515261        203741855.01994184        1010508184.3143820     
   895761020.68779194        172957697.44681400        1119126751.8885660     
   447816271.93879956        134344881.58163989        659751530.39808261     
   447132628.04926771        125488994.82790734        776171183.28819799     
   445719196.79485226        114200483.52456278        890943314.49920309     
   443575978.17555302        100479347.67160571        1004067924.0310984     
   440702972.19137031        84325587.269037068        1115545011.8838837     
   2.4360092697596068E-002   7.3080278092788201E-003   658300770.89361417     
   2.5936676112697482E-002   1.8772357752521365E-003   773098591.34978807     
   2.7864286542031401E-002  -2.3831626347245536E-003   888026147.22862411     
   3.0142999760606817E-002  -5.4731967298528392E-003   1003083438.5301225     
   3.2773051671753546E-002  -7.3922753220909704E-003   1118270465.2542830     
   1848942346.6941082        363141486.50640965        1145211812.0231745     
   1833781654.7680769        297794053.09234077        1193749546.8408163     
   1821782887.1937590        242986367.51731652        1244149344.1245341     
   1812946043.9711518        198718429.78133041        1296411203.8743293     
   1807271125.1002586        164990239.88438779        1350535126.0902007     
   1365174145.5220382        265896330.52593839        1129015685.2683299     
   1358709324.6019630        218357464.87232140        1185233163.1438258     
   1354615946.9457662        178723410.09829894        1242168040.6131070     
   1352894012.5534489        146994166.20387352        1299820317.6761744     
   1353543521.4250093        123169733.18904328        1358189994.3330276     
   895761020.68779194        172957697.44681400        1119126751.8885660     
   894721605.42427015        142246259.94882616        1182101744.8861108     
   895263152.33679295        116804696.37098873        1244649474.6051495     
   897385661.42536068        96633006.713300586        1306769941.0456836     
   901089132.68997335        81731190.975762129        1368463144.2077117     
   440702972.19137031        84325587.269037068        1115545011.8838837     
   441818497.23499835        69460438.321858123        1184355292.0676706     
   443724503.36683810        57230226.335384384        1251593646.1006615     
   446420990.58688825        47634951.309612393        1317260073.9828556     
   449907958.89515001        40674613.244545549        1381354575.7142527     
   3.2773051671753546E-002  -7.3922753220909704E-003   1118270465.2542830     
   3.4148468164906742E-002  -8.5830552829903768E-003   1191993804.6885064     
   3.5901208459842154E-002  -8.5163060783835683E-003   1263000555.0996420     
   3.8031697539982763E-002  -7.1907195170778076E-003   1331290716.4876904     
   4.0538863474894979E-002  -4.6086760781287317E-003   1396864288.8526514     
   1807271125.1002586        164990239.88438779        1350535126.0902007     
   1779907397.3624172        130939486.13912642        1366796812.8616612     
   1753459159.8740242        99940366.558692038        1383297108.9103172     
   1727926412.6350820        71992881.143096447        1400036014.2361679     
   1703309155.6455908        47097029.892332256        1417013528.8392127     
   1353543521.4250093        123169733.18904328        1358189994.3330276     
   1329998686.1029694        96725056.025232434        1376184440.5737724     
   1307140468.4681060        72569104.485343218        1395122638.6460660     
   1284968868.5204167        50701878.569369912        1415004588.5499082     
   1263483886.2599044        31123378.277317584        1435830290.2852995     
   901089132.68997335        81731190.975762129        1368463144.2077117     
   883377882.79617703        63496998.297138453        1387923331.9284198     
   866124378.02728105        46788622.701517314        1409032414.0350318     
   849328618.38328791        31606064.188904196        1431790390.5275466     
   832990603.86419559        17949322.759295642        1456197261.4059639     
   449907958.89515001        40674613.244545549        1381354575.7142527     
   440044987.44203699        31255312.954837620        1402013486.9256060     
   430410888.55155230        22598921.207223609        1425026435.0772154     
   421005662.22369498        14705438.001700565        1450393420.1690826     
   411829308.45846516        7574863.3382691294        1478114442.2012076     
   4.0538863474894979E-002  -4.6086760781287317E-003   1396864288.8526514     
   4.0552085499103080E-002  -1.6641450122684941E-003   1418454905.5653274     
   4.0917898648106375E-002   2.4560367476042354E-003   1443104701.7726154     
   4.1637581089037437E-002   7.7553491330338486E-003   1470813677.4745157     
   4.2710295007646046E-002   1.4231953527764763E-002   1501581832.6710274     
   1703309155.6455908        47097029.892332256        1417013528.8392127     
   1667053103.9716597        23958687.033434272        1399269826.0133684     
   1633342537.9585226        9305296.3771814704        1370777390.4800410     
   1602177457.6061759        3136857.9235644937        1331536222.2392302     
   1573557862.9146218        5453371.6725888848        1281546321.2909350     
   1263483886.2599044        31123378.277317584        1435830290.2852995     
   1207218763.2382600        5047695.8556014895        1427343159.3492482     
   1152862754.4626305       -14664272.412729919        1414891015.3677046     
   1100415859.9330168       -28012526.527674317        1398473858.3406682     
   1049878079.6494213       -34997066.489227772        1378091688.2681408     
   832990603.86419559        17949322.759295642        1456197261.4059639     
   776098465.67195392       -5249082.3721081913        1456224269.0424669     
   720479070.31095195       -24205011.399377137        1459069983.2954688     
   666132417.78118980       -38918464.322513372        1464734404.1649692     
   613058508.08266902       -49389441.141514122        1473217531.6509686     
   411829308.45846516        7574863.3382691294        1478114442.2012076     
   373692211.27274370       -6931647.6496875137        1485913155.0930254     
   336191485.50348830       -19316920.582758203        1503314294.2633333     
   299327131.15069574       -29580955.460952580        1530317859.7121308     
   263099148.21436876       -37723752.284262776        1566923851.4394221     
   4.2710295007646046E-002   1.4231953527764763E-002   1501581832.6710274     
   4.0629930738515160E-002   2.2863773603325428E-002   1516409817.5009224     
   4.0237341846716734E-002   3.7121164658632425E-002   1547623948.2712998     
   4.1533569166336354E-002   5.7007769612985315E-002   1595224224.9821589     
   4.4518326753943911E-002   8.2523502683355052E-002   1659210647.6334980     
   1573557862.9146218        5453371.6725888848        1281546321.2909350     
   1540944872.6138389        8286314.1132279634        1222339664.9643662     
   1506916801.5144992        6402320.5586768389        1170862545.5281463     
   1471473649.6165991       -198608.99107599258        1127114962.9822733     
   1434615416.9201400       -11516474.536026716        1091096917.3267491     
   1049878079.6494213       -34997066.489227772        1378091688.2681408     
   1035086807.5153900       -29971818.473920524        1346713556.1490440     
   1019234224.7828146       -28484272.453760982        1320808984.4429445     
   1002320331.4516920       -30534428.428757608        1300377973.1498454     
   984345127.52202487       -36122286.398902714        1285420522.2697453     
   613058508.08266902       -49389441.141514122        1473217531.6509686     
   609643307.03724885       -44105581.674978286        1470080655.6393592     
   605520565.59329617       -41180190.203550637        1470161363.5633986     
   600690283.75081158       -40613266.727229506        1473459655.4230883     
   595152461.50979495       -42404811.246018171        1479975531.2184250     
   263099148.21436876       -37723752.284262776        1566923851.4394221     
   264614371.17941684       -34114975.489944190        1592440963.4353170     
   265775823.94594577       -31685432.690690726        1618919682.8895085     
   266583506.51395690       -30435123.886496186        1646360009.8020031     
   267037418.88345003       -30364049.077362299        1674761944.1727962     
   4.4518326753943911E-002   8.2523502683355052E-002   1659210647.6334980     
  -5.8105580786454329E-002   8.1184441037905550E-002   1713794479.5369115     
 -0.15923594860272255        8.4823151250165679E-002   1767083942.4212749     
 -0.25887080940406165        9.3446884845522923E-002   1819079036.2865868     
 -0.35701148996798726       0.10705191312164877        1869779761.1328516     
   1434615416.9201400       -11516474.536026716        1091096917.3267491     
   1372250089.3028424       -29953479.920310915        1032757524.5814573     
   1311651263.5633862       -42502145.711789846        980822712.34010482     
   1252818939.7017684       -49162471.910470247        935292480.60269558     
   1195753117.7180033       -49934458.516313612        896166829.36922836     
   984345127.52202487       -36122286.398902714        1285420522.2697453     
   939584884.11662042       -49345914.734463513        1250026663.9352272     
   896149517.11897922       -58153288.377476752        1220567510.5562077     
   854039026.52910233       -62544407.327944696        1197043062.1326883     
   813253412.34698522       -62519271.585879087        1179453318.6646669     
   595152461.50979495       -42404811.246018171        1479975531.2184250     
   566654800.74930775       -50817813.002935082        1467011977.5795877     
   539040390.92650163       -56286644.967581570        1459513253.3478076     
   512309232.04137802       -58811307.139953464        1457479358.5230834     
   486461324.09393477       -58391799.520057648        1460910293.1054184     
   267037418.88345003       -30364049.077362299        1674761944.1727962     
   253459839.20089889       -34369174.725739643        1683713465.5145428     
   240323884.98594910       -36902215.482112184        1697659940.7149050     
   227629556.23859996       -37963171.346483260        1716601369.7738833     
   215376852.95885369       -37552042.318843663        1740537752.6914763     
 -0.35701148996798726       0.10705191312164877        1869779761.1328516     
 -0.52860257380063047        9.7131346006600033E-002   1900131127.7400901     
 -0.70267436558002738        7.8941752402372029E-002   1935007572.6575038     
 -0.87922418887567233        5.2492053743984024E-002   1974409095.8850894     
  -1.0582584259449253        1.7760975840236171E-002   2018335697.4228456     
   1195753117.7180033       -49934458.516313612        896166829.36922836     
   1141290237.8271484       -48902315.622895300        843668242.23824823     
   1085735524.3253109       -51509618.099418342        776319994.65599012     
   1029088977.2124865       -57756365.945898771        694122086.62245691     
   971350596.48868442       -67642559.162304342        597074518.13765287     
   813253412.34698522       -62519271.585879087        1179453318.6646669     
   729300004.17837083       -74677038.895629495        1150366879.6681316     
   644527720.79592323       -89564390.251489222        1116488904.8022456     
   558936562.19964564       -107181325.65344658        1077819394.0670159     
   472526528.38954121       -127527845.10149971        1034358347.4624342     
   486461324.09393477       -58391799.520057648        1460910293.1054184     
   401754886.45306838       -75118227.391322702        1455554453.7066686     
   316502531.99551964       -93664377.984858587        1455465203.0205021     
   230704260.72129661       -114030251.30064358        1460642541.0469153     
   144360072.63039684       -136215847.33868378        1471086467.7859089     
   215376852.95885369       -37552042.318843663        1740537752.6914763     
   158654884.65123725       -50225881.109987020        1759230964.3538644     
   101659957.92410167       -63809581.299527057        1793248889.3107607     
   44392072.777434081       -78303142.887506291        1842591527.5621641     
  -13148770.788748408       -93706565.873870611        1907258879.1080744     
  -1.0582584259449253        1.7760975840236171E-002   2018335697.4228456     
  -1.2271098057095617       -5.1582822262670025E-002   2061396411.6097145     
  -1.4183383862991179      -0.19551798367136575        2129839963.6730216     
  -1.6319348345200353      -0.41401235690656985        2223666353.6127601     
  -1.8678978693457466      -0.70706201882442132        2342875581.4289379     
   971350596.48868442       -67642559.162304342        597074518.13765287     
   877086349.41570210       -107805226.80566472        475814712.30293036     
   771176321.98302877       -186787162.31465960        321664131.51186967     
   653620514.19065630       -304588365.68931985        134622775.76446414     
   524418926.03860581       -461208836.92957854       -85309354.939263523     
   472526528.38954121       -127527845.10149971        1034358347.4624342     
   314408115.10334027       -183875914.32952178        971139331.74426162     
   147555366.52296317       -269338434.53813219        895427594.26103151     
  -28031717.351589650       -383915405.72732496        807223135.01274061     
  -212353136.52031097       -527606827.89708209        706525953.99939203     
   144360072.63039684       -136215847.33868378        1471086467.7859089     
  -19332354.893937550       -191265272.55884194        1469304928.0940568     
  -188847672.64693582       -265724331.87454438        1475428719.8284280     
  -364185880.62858737       -359593025.28576219        1489457842.9890144     
  -545346978.83889651       -472871352.79249972        1511392297.5758181     
  -13148770.788748408       -93706565.873870611        1907258879.1080744     
  -124135060.57613760       -129973301.49365124        1970311501.3523149     
  -238032795.52666730       -175944854.32390153        2061667508.2140529     
  -354841975.64034194       -231621224.36463320        2181326899.6932898     
  -474562600.91714925       -297002411.61581075        2329289675.7900195     
  -1.8678978693457466      -0.70706201882442132        2342875581.4289379     
  -1.9432529303646635       -1.1339251653026574        2474159051.5190334     
  -2.1162390978795829       -1.8862232517660633        2654143959.4179111     
  -2.3868439047569514       -2.9639181905497485        2882830305.1255622     
  -2.7550718117142790       -4.3670227690439081        3160218088.6419921     
   2.4360092697596068E-002   7.3080278092788201E-003   658300770.89361417     
   2.5936676112697482E-002   1.8772357752521365E-003   773098591.34978807     
   2.7864286542031401E-002  -2.3831626347245536E-003   888026147.22862411     
   3.0142999760606817E-002  -5.4731967298528392E-003   1003083438.5301225     
   3.2773051671753546E-002  -7.3922753220909704E-003   1118270465.2542830     
  -447816271.89088053       -134344881.56726417        659751530.39321327     
  -447132627.99810451       -125488994.82400218        776171183.28355348     
  -445719196.73978287       -114200483.52892095        890943314.49476373     
  -443575978.11591512       -100479347.68201999        1004067924.0268433     
  -440702972.12650180       -84325587.283300072        1115545011.8797932     
  -889676110.41100872       -266902833.12330261        664103808.89696133     
  -893386700.06072569       -250714422.86145556        782996712.81419528     
  -895637714.97970259       -229660763.49714023        898464837.95050657     
  -896429155.16793859       -203741855.03035647        1010508184.3058953     
  -895761020.62543380       -172957697.46110398        1119126751.8803613     
  -1325579515.5360243       -397673854.66080731        671357606.40485859     
  -1338762216.1619272       -375676284.11048311        793575179.94171321     
  -1349755554.6918948       -346380839.90704131        910590717.59585273     
  -1358559531.1259267       -309787522.05048215        1022404219.3672773     
  -1365174145.4640238       -265896330.54080564        1129015685.2559867     
  -1755526487.2659278       -526657946.17977834        681512922.91690493     
  -1783259176.3017085       -500374578.57108450        807906584.66610718     
  -1808072715.8763595       -464360712.75862432        927320953.43080235     
  -1829967105.9898806       -418616348.74239802        1039756029.2109902     
  -1848942346.6422713       -363141486.52240455        1145211812.0066705     
   3.2773051671753546E-002  -7.3922753220909704E-003   1118270465.2542830     
   3.4148468164906742E-002  -8.5830552829903768E-003   1191993804.6885064     
   3.5901208459842154E-002  -8.5163060783835683E-003   1263000555.0996420     
   3.8031697539982763E-002  -7.1907195170778076E-003   1331290716.4876904     
   4.0538863474894979E-002  -4.6086760781287317E-003   1396864288.8526514     
  -440702972.12650180       -84325587.283300072        1115545011.8797932     
  -441818497.16733932       -69460438.338624239        1184355292.0638208     
  -443724503.29568052       -57230226.352294222        1251593646.0971110     
  -446420990.51152521       -47634951.324309155        1317260073.9796627     
  -449907958.81487417       -40674613.254670948        1381354575.7114768     
  -895761020.62543380       -172957697.46110398        1119126751.8803613     
  -894721605.35891426       -142246259.96569091        1182101744.8783321     
  -895263152.26777911       -116804696.38822678        1244649474.5979145     
  -897385661.35202897       -96633006.728712320        1306769941.0391085     
  -901089132.61166358       -81731190.987146765        1368463144.2019145     
  -1365174145.4640238       -265896330.54080564        1129015685.2559867     
  -1358709324.5405765       -218357464.88978419        1185233163.1320395     
  -1354615946.8803949       -178723410.11631539        1242168040.6020536     
  -1352894012.4834790       -146994166.22039860        1299820317.6660287     
  -1353543521.3498297       -123169733.20203567        1358189994.3239653     
  -1848942346.6422713       -363141486.52240455        1145211812.0066705     
  -1833781654.7123260       -297794053.11090320        1193749546.8249435     
  -1821782887.1335275       -242986367.53655767        1244149344.1095273     
  -1812946043.9058759       -198718429.79936928        1296411203.8604224     
  -1807271125.0293715       -164990239.89933681        1350535126.0776284     
   4.0538863474894979E-002  -4.6086760781287317E-003   1396864288.8526514     
   4.0552085499103080E-002  -1.6641450122684941E-003   1418454905.5653274     
   4.0917898648106375E-002   2.4560367476042354E-003   1443104701.7726154     
   4.1637581089037437E-002   7.7553491330338486E-003   1470813677.4745157     
   4.2710295007646046E-002   1.4231953527764763E-002   1501581832.6710274     
  -449907958.81487417       -40674613.254670948        1381354575.7114768     
  -440044987.36177498       -31255312.959738135        1402013486.9233027     
  -430410888.47060341       -22598921.204563603        1425026435.0755091     
  -421005662.14136171       -14705437.989155516        1450393420.1680956     
  -411829308.37404722       -7574863.3135047406        1478114442.2010620     
  -901089132.61166358       -81731190.987146765        1368463144.2019145     
  -883377882.71756876       -63496998.303848803        1387923331.9235618     
  -866124377.94768500       -46788622.701253742        1409032414.0313575     
  -849328618.30201125       -31606064.179358959        1431790390.5253005     
  -832990603.78054845       -17949322.738167852        1456197261.4053917     
  -1353543521.3498297       -123169733.20203567        1358189994.3239653     
  -1329998686.0268307       -96725056.033999860        1376184440.5661044     
  -1307140468.3903251       -72569104.487609923        1395122638.6401596     
  -1284968868.4403124       -50701878.562859952        1415004588.5461304     
  -1263483886.1767924       -31123378.259753883        1435830290.2840173     
  -1807271125.0293715       -164990239.89933681        1350535126.0776284     
  -1779907397.2895603       -130939486.15019405        1366796812.8509309     
  -1753459159.7985253       -99940366.563634455        1383297108.9019167     
  -1727926412.5562639       -71992881.139655888        1400036014.2305868     
  -1703309155.5627778       -47097029.878260672        1417013528.8369398     
   4.2710295007646046E-002   1.4231953527764763E-002   1501581832.6710274     
   4.0629930738515160E-002   2.2863773603325428E-002   1516409817.5009224     
   4.0237341846716734E-002   3.7121164658632425E-002   1547623948.2712998     
   4.1533569166336354E-002   5.7007769612985315E-002   1595224224.9821589     
   4.4518326753943911E-002   8.2523502683355052E-002   1659210647.6334980     
  -411829308.37404722       -7574863.3135047406        1478114442.2010620     
  -373692211.19223225        6931647.6896154284        1485913155.0966876     
  -336191485.42445600        19316920.645940021        1503314294.2714851     
  -299327131.07071549        29580955.555478260        1530317859.7254536     
  -263099148.13101244        37723752.418224618        1566923851.4585924     
  -832990603.78054845       -17949322.738167852        1456197261.4053917     
  -776098465.59001279        5249082.4068865478        1456224269.0484028     
  -720479070.22924078        24205011.452729762        1459069983.3092744     
  -666132417.69822991        38918464.399369121        1464734404.1880057     
  -613058507.99698234        49389441.246797323        1473217531.6845961     
  -1263483886.1767924       -31123378.259753883        1435830290.2840173     
  -1207218763.1527100       -5047695.8253164291        1427343159.3560679     
  -1152862754.3741159        14664272.457494915        1414891015.3846672     
  -1100415859.8410113        28012526.588674963        1398473858.3698142     
  -1049878079.5533919        34997066.568238199        1378091688.3115110     
  -1703309155.5627778       -47097029.878260672        1417013528.8369398     
  -1667053103.8803225       -23958687.006989896        1399269826.0196822     
  -1633342537.8590837       -9305296.3397709727        1370777390.4976621     
  -1602177457.4990547       -3136857.8765870333        1331536222.2708812     
  -1573557862.8002412       -5453371.6174545884        1281546321.3393362     
   4.4518326753943911E-002   8.2523502683355052E-002   1659210647.6334980     
  -5.8105580786454329E-002   8.1184441037905550E-002   1713794479.5369115     
 -0.15923594860272255        8.4823151250165679E-002   1767083942.4212749     
 -0.25887080940406165        9.3446884845522923E-002   1819079036.2865868     
 -0.35701148996798726       0.10705191312164877        1869779761.1328516     
  -263099148.13101244        37723752.418224618        1566923851.4585924     
  -264614371.29838488        34114975.608885944        1592440963.4629564     
  -265775824.26488262        31685432.802460477        1618919682.9307156     
  -266583507.03050902        30435123.998942718        1646360009.8618739     
  -267037419.59526169        30364049.198333740        1674761944.2564278     
  -613058507.99698234        49389441.246797323        1473217531.6845961     
  -609643307.13639700        44105581.757271707        1470080655.6891866     
  -605520565.87556040        41180190.268585145        1470161363.6396184     
  -600690284.21447182        40613266.780737817        1473459655.5358953     
  -595152462.15312946        42404811.293736935        1479975531.3780169     
  -1049878079.5533919        34997066.568238199        1378091688.3115110     
  -1035086807.5721453        29971818.526332915        1346713556.2156022     
  -1019234224.9912666        28484272.483202994        1320808984.5479836     
  -1002320331.8107579        30534428.438839316        1300377973.3086555     
  -984345128.03061604        36122286.393252850        1285420522.4976180     
  -1573557862.8002412       -5453371.6174545884        1281546321.3393362     
  -1540944872.6056268       -8286314.0839217305        1222339665.0422034     
  -1506916801.6120021       -6402320.5536866784        1170862545.6558077     
  -1471473649.8193698        198608.97323828936        1127114963.1801515     
  -1434615417.2277231        11516474.496879339        1091096917.6152313     
 -0.35701148996798726       0.10705191312164877        1869779761.1328516     
 -0.52860257380063047        9.7131346006600033E-002   1900131127.7400901     
 -0.70267436558002738        7.8941752402372029E-002   1935007572.6575038     
 -0.87922418887567233        5.2492053743984024E-002   1974409095.8850894     
  -1.0582584259449253        1.7760975840236171E-002   2018335697.4228456     
  -267037419.59526169        30364049.198333740        1674761944.2564278     
  -253459840.24729609        34369174.806998536        1683713465.6202257     
  -240323886.37353471        36902215.501648709        1697659940.8538349     
  -227629557.97397348        37963171.282297984        1716601369.9572585     
  -215376855.04861763        37552042.148930579        1740537752.9304919     
  -595152462.15312946        42404811.293736935        1479975531.3780169     
  -566654801.68663323        50817813.000674337        1467011977.7813597     
  -539040392.16606081        56286644.887866378        1459513253.6141586     
  -512309233.59141487        58811306.955303043        1457479358.8764110     
  -486461325.96269441        58391799.202988237        1460910293.5681164     
  -984345128.03061604        36122286.393252850        1285420522.4976180     
  -939584884.84661329        49345914.678159714        1250026664.2234974     
  -896149518.08025789        58153288.237575829        1220567510.9384739     
  -854039027.73155105        62544407.071496248        1197043062.6425450     
  -813253413.80049026        62519271.179930210        1179453319.3357151     
  -1434615417.2277231        11516474.496879339        1091096917.6152313     
  -1372250089.7272396        29953479.839444578        1032757524.9466369     
  -1311651264.1161218        42502145.550791085        980822712.82678092     
  -1252818940.3943801        49162471.630883932        935292481.25566339     
  -1195753118.5620058        49934458.079752862        896166830.23328078     
  -1.0582584259449253        1.7760975840236171E-002   2018335697.4228456     
  -1.2271098057095617       -5.1582822262670025E-002   2061396411.6097145     
  -1.4183383862991179      -0.19551798367136575        2129839963.6730216     
  -1.6319348345200353      -0.41401235690656985        2223666353.6127601     
  -1.8678978693457466      -0.70706201882442132        2342875581.4289379     
  -215376855.04861763        37552042.148930579        1740537752.9304919     
  -158654887.06587985        50225880.776868753        1759230964.6208723     
  -101659960.70075497        63809580.679432645        1793248889.6212780     
  -44392075.953238368        78303141.856634229        1842591527.9317136     
   13148767.176668108        93706564.308469385        1907258879.5521803     
  -486461325.96269441        58391799.202988237        1460910293.5681164     
  -401754888.58952302        75118226.899873406        1455554454.2342215     
  -316502534.42920548        93664377.220579341        1455465203.6439490     
  -230704263.48173553        114030250.16512594        1460642541.7972996     
  -144360075.74711761        136215845.73350027        1471086468.6942790     
  -813253413.80049026        62519271.179930210        1179453319.3357151     
  -729300005.79804575        74677038.317406684        1150366880.4497614     
  -644527722.60369110        89564389.427917361        1116488905.7410302     
  -558936564.21742785        107181324.51145744        1077819395.2095201     
  -472526530.63925761        127527843.56801906        1034358348.8552246     
  -1195753118.5620058        49934458.079752862        896166830.23328078     
  -1141290238.6914458        48902315.029478371        843668243.26749671     
  -1085735525.2242169        51509617.301432550        776319995.91252601     
  -1029088978.1603159        57756364.895626783        694122088.16837001     
  -971350597.49974895        67642557.812042415        597074520.03502488     
  -1.8678978693457466      -0.70706201882442132        2342875581.4289379     
  -1.9432529303646635       -1.1339251653026574        2474159051.5190334     
  -2.1162390978795829       -1.8862232517660633        2654143959.4179111     
  -2.3868439047569514       -2.9639181905497485        2882830305.1255622     
  -2.7550718117142790       -4.3670227690439081        3160218088.6419921     
   13148767.176668108        93706564.308469385        1907258879.5521803     
   124135056.85323110        129973299.19383806        1970311501.7214141     
   238032791.53392309        175944850.75963601        2061667508.5112939     
   354841971.21873599        231621219.00583684        2181326899.9218140     
   474562595.90767676        297002403.93246621        2329289675.9529896     
  -144360075.74711761        136215845.73350027        1471086468.6942790     
   19332351.715274557        191265270.34128410        1469304928.8946867     
   188847669.28354329        265724328.63532227        1475428720.5276065     
   364185876.95768726        359593020.61561155        1489457843.5930412     
   545346974.73770201        472871346.28213823        1511392298.0909841     
  -472526530.63925761        127527843.56801906        1034358348.8552246     
  -314408117.35712892        183875912.30839527        971139333.03884983     
  -147555368.86737287        269338431.74085945        895427595.46685386     
   28031714.830001757        383915401.86538440        807223136.13924026     
   212353133.73500174        527606822.68199927        706525955.05600965     
  -971350597.49974895        67642557.812042415        597074520.03502488     
  -877086350.36397755        107805225.09517282        475814714.15390611     
  -771176322.91883457        186787160.07621217        321664133.32903534     
  -653620515.16431379        304588362.75517476        134622777.56041151     
  -524418927.10042614        461208833.13202864       -85309353.151965007     
  -1755526487.2659278       -526657946.17977834        681512922.91690493     
  -1783259176.3017085       -500374578.57108450        807906584.66610718     
  -1808072715.8763595       -464360712.75862432        927320953.43080235     
  -1829967105.9898806       -418616348.74239802        1039756029.2109902     
  -1848942346.6422713       -363141486.52240455        1145211812.0066705     
  -2201528832.1675897       -660458649.65027690        697643883.81212938     
  -2237637641.3488631       -614481868.44648111        815096193.86747849     
  -2271699708.8116369       -561682614.84768605        928539993.65808618     
  -2303715034.5559106       -502060888.85389107        1037975283.1839522     
  -2333683618.5816841       -435616690.46509677        1143402062.4450772     
  -2685598356.8078814       -805679507.04236448        722824614.46956098     
  -2721595335.5067449       -737462927.05509579        830317763.79798830     
  -2756417980.2297378       -665331900.48159456        936773185.58144009     
  -2790066290.9768624       -589286427.32186103        1042190879.8199164     
  -2822540267.7481179       -509326507.57589501        1146570846.5134172     
  -3207735061.1868019       -962320518.35604048        757055114.88919997     
  -3235132258.7753530       -869317754.39692843        853571294.45763719     
  -3262227530.1306643       -775308569.66035104        952020529.20086443     
  -3289020875.2527361       -680292964.14630747        1052402819.1188824     
  -3315512294.1415677       -584270937.85479832        1154718164.2116909     
  -3767938945.3043532       -1130381683.5913060        800335385.07104611     
  -3778248411.1546888       -1010046350.4719794        884856785.84642458     
  -3789128358.5144153       -891612622.38395429        974282024.51635921     
  -3800578787.3835320       -775080499.32723045        1068611101.0808505     
  -3812599697.7620392       -660449981.30180776        1167844015.5398979     
  -1848942346.6422713       -363141486.52240455        1145211812.0066705     
  -1833781654.7123260       -297794053.11090320        1193749546.8249435     
  -1821782887.1335275       -242986367.53655767        1244149344.1095273     
  -1812946043.9058759       -198718429.79936928        1296411203.8604224     
  -1807271125.0293715       -164990239.89933681        1350535126.0776284     
  -2333683618.5816841       -435616690.46509677        1143402062.4450772     
  -2311174773.3488932       -355495532.25082344        1185925797.6538491     
  -2292075044.9678478       -286738096.87570387        1228830574.9055521     
  -2276384433.4385481       -229344384.33973867        1272116394.2001860     
  -2264102938.7609959       -183314394.64292622        1315783255.5377512     
  -2822540267.7481179       -509326507.57589501        1146570846.5134172     
  -2796914756.1364217       -415701070.63603175        1182792190.8619893     
  -2774945553.8770728       -334263331.53732097        1217913556.8301120     
  -2756632660.9700680       -265013290.27976108        1251934944.4177861     
  -2741976077.4154096       -207950946.86335254        1284856353.6250107     
  -3315512294.1415677       -584270937.85479832        1154718164.2116909     
  -3291001603.0749125       -478410668.26652884        1184348726.4493632     
  -3270394413.8612022       -385562071.52140903        1211398289.8832076     
  -3253690726.5004363       -305725147.61943865        1235866854.5132225     
  -3240890540.9926147       -238899896.56061506        1257754420.3394079     
  -3812599697.7620392       -660449981.30180776        1167844015.5398979     
  -3793435314.1643653       -543624325.14231467        1190595404.4159722     
  -3778421624.9202361       -440634316.82796884        1209284774.0648379     
  -3767558630.0296516       -351479956.35876989        1223912124.4864941     
  -3760846329.4926105       -276161243.73471665        1234477455.6809413     
  -1807271125.0293715       -164990239.89933681        1350535126.0776284     
  -1779907397.2895603       -130939486.15019405        1366796812.8509309     
  -1753459159.7985253       -99940366.563634455        1383297108.9019167     
  -1727926412.5562639       -71992881.139655888        1400036014.2305868     
  -1703309155.5627778       -47097029.878260672        1417013528.8369398     
  -2264102938.7609959       -183314394.64292622        1315783255.5377512     
  -2229012945.8904648       -139286683.37287426        1324315080.9787138     
  -2196345590.8174095       -103334431.42774379        1336249203.1992602     
  -2166100873.5418315       -75457638.807536483        1351585622.1993904     
  -2138278794.0637312       -55656305.512250781        1370324337.9791048     
  -2741976077.4154096       -207950946.86335254        1284856353.6250107     
  -2690120712.2658715       -151234545.92790735        1283899978.9268150     
  -2642195132.4625120       -107617429.47972119        1289509588.5101039     
  -2598199338.0053306       -77099597.518797159        1301685182.3748760     
  -2558133328.8943267       -59681050.045129418        1320426760.5211322     
  -3240890540.9926147       -238899896.56061506        1257754420.3394079     
  -3163230696.4157844       -166783073.81528854        1245551506.6952355     
  -3091007784.7338338       -112789360.71956301        1243078264.8344467     
  -3024221805.9467611       -76918757.273433685        1250334694.7570429     
  -2962872760.0545692       -59171263.476903319        1267320796.4630241     
  -3760846329.4926105       -276161243.73471665        1234477455.6809413     
  -3648342898.3401995       -185932267.03502429        1209269664.2839737     
  -3542783547.6313720       -118850225.14726985        1196955232.1722913     
  -3444168277.3661246       -74915118.071453691        1197534159.3458915     
  -3352497087.5444579       -54126945.807571173        1211006445.8047771     
  -1703309155.5627778       -47097029.878260672        1417013528.8369398     
  -1667053103.8803225       -23958687.006989896        1399269826.0196822     
  -1633342537.8590837       -9305296.3397709727        1370777390.4976621     
  -1602177457.4990547       -3136857.8765870333        1331536222.2708812     
  -1573557862.8002412       -5453371.6174545884        1281546321.3393362     
  -2138278794.0637312       -55656305.512250781        1370324337.9791048     
  -2123548365.1241663       -46410134.878452063        1359322747.2929323     
  -2110765189.0464218       -43654807.117388129        1345717603.8717928     
  -2099929265.8304951       -47390322.229049206        1329508907.7156844     
  -2091040595.4763873       -57616680.213440776        1310696658.8246098     
  -2558133328.8943267       -59681050.045129418        1320426760.5211322     
  -2541656579.9268136       -57345468.817555785        1316865220.2320065     
  -2526528851.0217257       -59506621.131396770        1318845307.1777074     
  -2512750142.1790614       -66164506.986649156        1326367021.3582339     
  -2500320453.3988199       -77319126.383313417        1339430362.7735868     
  -2962872760.0545692       -59171263.476903319        1267320796.4630241     
  -2921377748.2882671       -56764688.824299574        1271897244.8369040     
  -2880633523.7849951       -56860738.381798148        1290160500.4154065     
  -2840640086.5447507       -59459412.149384141        1322110563.1985285     
  -2801397436.5675368       -64560710.127074599        1367747433.1862705     
  -3352497087.5444579       -54126945.807571173        1211006445.8047771     
  -3262711870.2085252       -44667794.898684978        1224418821.1076264     
  -3173079207.3362265       -35717158.868581295        1259663183.5848897     
  -3083599098.9275637       -27275037.717257619        1316739533.2365668     
  -2994271544.9825330       -19341431.444712520        1395647870.0626600     
  -1573557862.8002412       -5453371.6174545884        1281546321.3393362     
  -1540944872.6056268       -8286314.0839217305        1222339665.0422034     
  -1506916801.6120021       -6402320.5536866784        1170862545.6558077     
  -1471473649.8193698        198608.97323828936        1127114963.1801515     
  -1434615417.2277231        11516474.496879339        1091096917.6152313     
  -2091040595.4763873       -57616680.213440776        1310696658.8246098     
  -2040432481.2566831       -57641482.190413833        1289299911.8234508     
  -1989403011.1986279       -56261764.706221104        1273367998.5871274     
  -1937952185.3022234       -53477527.760861993        1262900919.1156363     
  -1886080003.5674651       -49288771.354325294        1257898673.4089797     
  -2500320453.3988199       -77319126.383313417        1339430362.7735868     
  -2438187795.5708938       -76476961.995852947        1354684179.2809684     
  -2376627506.8652763       -77542694.682758689        1373138126.4072800     
  -2315639587.2819681       -80516324.444027662        1394792204.1525192     
  -2255224036.8209658       -85397851.279654026        1419646412.5166903     
  -2801397436.5675368       -64560710.127074599        1367747433.1862705     
  -2734210815.5482535       -64792753.500234127        1418492467.4147551     
  -2668590288.6119413       -70245110.483296275        1470172929.1162639     
  -2604535855.7585998       -80917781.076257229        1522788818.2907996     
  -2542047516.9882259       -96810765.279114127        1576340134.9383614     
  -2994271544.9825330       -19341431.444712520        1395647870.0626600     
  -2928501541.1887703       -22588856.703567982        1480724776.2248104     
  -2865291356.4386330       -34369012.107851863        1564472406.7140827     
  -2804640990.7321281       -54681897.657566547        1646890761.5304770     
  -2746550444.0692434       -83527513.352694631        1727979840.6739902     
  -1434615417.2277231        11516474.496879339        1091096917.6152313     
  -1372250089.7272396        29953479.839444578        1032757524.9466369     
  -1311651264.1161218        42502145.550791085        980822712.82678092     
  -1252818940.3943801        49162471.630883932        935292481.25566339     
  -1195753118.5620058        49934458.079752862        896166830.23328078     
  -1886080003.5674651       -49288771.354325294        1257898673.4089797     
  -1809450113.2181177       -38730713.634569764        1226679195.6862614     
  -1733939168.5562332       -31902474.873019695        1201846096.7499654     
  -1659547169.5818071       -28804055.069661379        1183399376.6000905     
  -1586274116.2948446       -29435454.224524021        1171339035.2366376     
  -2255224036.8209658       -85397851.279654026        1419646412.5166903     
  -2164381588.6579466       -82734342.693274140        1416302331.9754086     
  -2074010529.9804757       -81642132.392059326        1419326428.4582310     
  -1984110860.7885571       -82121220.376020193        1428718701.9651637     
  -1894682581.0821908       -84171606.645149708        1444479152.4961972     
  -2542047516.9882259       -96810765.279114127        1576340134.9383614     
  -2437044516.0467176       -102057407.33665872        1601626933.8140743     
  -2331865348.3888531       -106716827.00634623        1633263707.9515817     
  -2226510014.0146294       -110789024.28816891        1671250457.3508787     
  -2120978512.9240458       -114273999.18213320        1715587182.0119617     
  -2746550444.0692434       -83527513.352694631        1727979840.6739902     
  -2627438895.3844376       -96699907.564728022        1782653001.2022638     
  -2507503623.7813621       -107126558.71586704        1843657935.2300129     
  -2386744629.2600193       -114807466.80611420        1910994642.7572353     
  -2265161911.8204083       -119742631.83546531        1984663123.7839341     
  -1195753118.5620058        49934458.079752862        896166830.23328078     
  -1141290238.6914458        48902315.029478371        843668243.26749671     
  -1085735525.2242169        51509617.301432550        776319995.91252601     
  -1029088978.1603159        57756364.895626783        694122088.16837001     
  -971350597.49974895        67642557.812042415        597074520.03502488     
  -1586274116.2948446       -29435454.224524021        1171339035.2366376     
  -1561114433.8241196       -46195030.228299260        1153611757.5485604     
  -1535952837.9323511       -62948228.161926806        1131822626.7775273     
  -1510789328.6195300       -79695048.025384068        1105971642.9235392     
  -1485623905.8856623       -96435489.818683863        1076058805.9865928     
  -1894682581.0821908       -84171606.645149708        1444479152.4961972     
  -1868003789.4220724       -107411923.62567472        1460251610.5476024     
  -1842413004.5165262       -134278929.78810132        1482750022.8222849     
  -1817910226.3655536       -164772625.13243759        1511974389.3202424     
  -1794495454.9691529       -198893009.65868497        1547924710.0414774     
  -2120978512.9240458       -114273999.18213320        1715587182.0119617     
  -2061958305.4853001       -134748365.16262913        1763587802.2646289     
  -2005116024.9767499       -162482487.57710212        1829102184.0467997     
  -1950451671.3983886       -197476366.42554134        1912130327.3584824     
  -1897965244.7502191       -239730001.70795465        2012672232.1996670     
  -2265161911.8204083       -119742631.83546531        1984663123.7839341     
  -2142977982.0138011       -128204354.83915699        2063620332.6996326     
  -2024061899.3130088       -147558901.52889544        2170879110.4510732     
  -1908413663.7180264       -177806271.90466791        2306439457.0382504     
  -1796033275.2288623       -218946465.96650070        2470301372.4611669     
  -971350597.49974895        67642557.812042415        597074520.03502488     
  -877086350.36397755        107805225.09517282        475814714.15390611     
  -771176322.91883457        186787160.07621217        321664133.32903534     
  -653620515.16431379        304588362.75517476        134622777.56041151     
  -524418927.10042614        461208833.13202864       -85309353.151965007     
  -1485623905.8856623       -96435489.818683863        1076058805.9865928     
  -1463008470.4413860       -114743840.69087338        1045253254.5141959     
  -1440924341.5337787       -134823213.35195541        1005717319.3356284     
  -1419371519.1628344       -156673607.80191213        957451000.45089233     
  -1398350003.3285503       -180295024.04075024        900454297.85998547     
  -1794495454.9691529       -198893009.65868497        1547924710.0414774     
  -1774499141.9661379       -254963471.91113573        1593366811.6574228     
  -1767211222.3458283       -353395245.43926442        1654238920.8047829     
  -1772631696.1082184       -494188330.24306297        1730541037.4835496     
  -1790760563.2533092       -677342726.32252622        1822273161.6937437     
  -1897965244.7502191       -239730001.70795465        2012672232.1996670     
  -1811558364.9382279       -312853668.56559968        2120155385.5835760     
  -1750036965.3549798       -468928936.18571573        2267228937.7364893     
  -1713401046.0004618       -707955804.56826258        2453892888.6583991     
  -1701650606.8746810       -1029934273.7132862        2680147238.3492951     
  -1796033275.2288623       -218946465.96650070        2470301372.4611669     
  -1574186139.3576548       -288414430.65425467        2625618976.2926717     
  -1389401570.5612280       -481424285.59127533        2844687370.1307564     
  -1241679568.8395727       -797976030.77753377        3127506553.9754214     
  -1131020134.1926861       -1238069666.2130291        3474076527.8266630     
  -3767938945.3043532       -1130381683.5913060        800335385.07104611     
  -3778248411.1546888       -1010046350.4719794        884856785.84642458     
  -3789128358.5144153       -891612622.38395429        974282024.51635921     
  -3800578787.3835320       -775080499.32723045        1068611101.0808505     
  -3812599697.7620392       -660449981.30180776        1167844015.5398979     
  -4339334706.8798618       -1301800412.0639586        857955755.09292924     
  -4334203542.5572643       -1126672261.5780852        941675530.08966124     
  -4330222083.5716085       -955376462.21535373        1019724378.7018136     
  -4327390329.9228954       -787913013.97576451        1092102300.9293866     
  -4325708281.6111250       -624281916.85931706        1158809296.7723806     
  -4895047043.6326618       -1468514113.0897985        935206555.03267992     
  -4904688861.3632307       -1247657228.9052081        1017448943.1186204     
  -4916059608.2582951       -1032563441.9356010        1083445640.5408463     
  -4929159284.3178530       -823232752.18097675        1133196647.2993572     
  -4943987889.5419083       -619665159.64133573        1166701963.3941529     
  -5435075955.5627499       -1630522786.6688251        1032087784.8902975     
  -5489704367.5725889       -1373001252.4533484        1112177024.9333029     
  -5546640932.5744753       -1123173561.5446963        1165445810.0334575     
  -5605885650.5684090       -881039713.94286788        1191894140.1907616     
  -5667438521.5543900       -646599709.64786434        1191522015.4052148     
  -5959421442.6701269       -1787826432.8010380        1148599444.6657825     
  -6089250061.1853380       -1502704332.2225060        1225859775.5337081     
  -6221966056.5201483       -1227206821.0426397        1265724887.1796474     
  -6357569428.6745577       -961333899.26143754        1268194779.6036000     
  -6496060177.6485672       -705085566.87890053        1233269452.8055665     
  -3812599697.7620392       -660449981.30180776        1167844015.5398979     
  -3793435314.1643653       -543624325.14231467        1190595404.4159722     
  -3778421624.9202361       -440634316.82796884        1209284774.0648379     
  -3767558630.0296516       -351479956.35876989        1223912124.4864941     
  -3760846329.4926105       -276161243.73471665        1234477455.6809413     
  -4325708281.6111250       -624281916.85931706        1158809296.7723806     
  -4292048860.5069532       -469314359.16712856        1141214467.8994539     
  -4269277152.4803309       -350639178.40010476        1130029709.8281136     
  -4257393157.5312548       -268256374.55824327        1125255022.5583596     
  -4256396875.6597309       -222165947.64154577        1126890406.0901916     
  -4943987889.5419083       -619665159.64133573        1166701963.3941529     
  -4865913173.7061062       -417579623.24891281        1100901061.5942197     
  -4805463189.6718616       -274243192.86167169        1051982320.6246681     
  -4762637937.4391708       -189655868.47961044        1019945740.4854970     
  -4737437417.0080338       -163817650.10273099        1004791321.1767080     
  -5667438521.5543900       -646599709.64786434        1191522015.4052148     
  -5515028253.7618332       -388420117.38766956        1069655185.5002685     
  -5386979736.4948349       -211446360.21267104        975142606.45449972     
  -5283292969.7533960       -115678438.12287116        907984278.26790679     
  -5203967953.5375166       -101116351.11826921        868180200.94049048     
  -6496060177.6485672       -705085566.87890053        1233269452.8055665     
  -6239394100.6741247       -381835841.58339405        1047476839.6176018     
  -6013826792.9492464       -162248680.45310187        899510567.31760931     
  -5819358254.4739323       -46324083.488024950        789370635.90558755     
  -5655988485.2481813       -34062050.688163280        717057045.38153839     
  -3760846329.4926105       -276161243.73471665        1234477455.6809413     
  -3648342898.3401995       -185932267.03502429        1209269664.2839737     
  -3542783547.6313720       -118850225.14726985        1196955232.1722913     
  -3444168277.3661246       -74915118.071453691        1197534159.3458915     
  -3352497087.5444579       -54126945.807571173        1211006445.8047771     
  -4256396875.6597309       -222165947.64154577        1126890406.0901916     
  -4122552413.6296754       -159118349.22546625        1098705964.0084000     
  -3992917347.8944926       -110102071.79230189        1080316965.9972706     
  -3867491678.4541893       -75117115.342058182        1071723412.0568024     
  -3746275405.3087549       -54163479.874724150        1072925302.1869966     
  -4737437417.0080338       -163817650.10273099        1004791321.1767080     
  -4591103110.4278231       -130606785.86850810        976820693.25024939     
  -4446243515.9937820       -102311628.78818274        955547594.17983019     
  -4302858633.7059088       -78932178.861752748        940972023.96544993     
  -4160948463.5642071       -60468436.089220762        933093982.60710859     
  -5203967953.5375166       -101116351.11826921        868180200.94049048     
  -5053994988.7346487       -100397576.96415520        843613852.00952256     
  -4902762051.9292383       -95478896.134913683        822647116.71996939     
  -4750269143.1212959       -86360308.630551100        805279995.07183516     
  -4596516262.3108120       -73041814.451062918        791512487.06511688     
  -5655988485.2481813       -34062050.688163280        717057045.38153839     
  -5511228048.5501461       -68490722.512401819        699085440.28621745     
  -5362472955.7008648       -89603873.832497358        681615533.61768842     
  -5209723206.7003403       -97401504.648447752        664647325.37595582     
  -5052978801.5485744       -91883614.960254908        648180815.56101632     
  -3352497087.5444579       -54126945.807571173        1211006445.8047771     
  -3262711870.2085252       -44667794.898684978        1224418821.1076264     
  -3173079207.3362265       -35717158.868581295        1259663183.5848897     
  -3083599098.9275637       -27275037.717257619        1316739533.2365668     
  -2994271544.9825330       -19341431.444712520        1395647870.0626600     
  -3746275405.3087549       -54163479.874724150        1072925302.1869966     
  -3606346989.4288716       -33603725.965261698        1075253442.6985087     
  -3466170182.3386445       -12216001.354660749        1091759609.6077447     
  -3325744984.0380740        9999693.9570822716        1122443802.9147046     
  -3185071394.5271654        33043359.969962955        1167306022.6193871     
  -4160948463.5642071       -60468436.089220762        933093982.60710859     
  -3992745308.5023437       -35368616.987776756        924805658.28025687     
  -3823892816.5561628       -8104341.6052708626        923041399.57443881     
  -3654390987.7256641        21324390.058295488        927801206.48965335     
  -3484239822.0108438        52917578.002928019        939085079.02589941     
  -4596516262.3108120       -73041814.451062918        791512487.06511688     
  -4421906827.4289484       -49962467.966231823        773075467.85287356     
  -4246247109.9887848       -23382179.620415211        753508553.48497272     
  -4069537109.9903269        6699050.5863900185        732811743.96141446     
  -3891776827.4335766        40281222.654172659        710985039.28219831     
  -5052978801.5485744       -91883614.960254908        648180815.56101632     
  -4893831546.2086763       -77385278.900624037        620062871.41635597     
  -4733233062.6365099       -58049515.400084496        583161071.33934748     
  -4571183350.8320694       -33876324.458641768        537475415.32998645     
  -4407682410.7953568       -4865706.0762901306        483005903.38828021     
  -2994271544.9825330       -19341431.444712520        1395647870.0626600     
  -2928501541.1887703       -22588856.703567982        1480724776.2248104     
  -2865291356.4386330       -34369012.107851863        1564472406.7140827     
  -2804640990.7321281       -54681897.657566547        1646890761.5304770     
  -2746550444.0692434       -83527513.352694631        1727979840.6739902     
  -3185071394.5271654        33043359.969962955        1167306022.6193871     
  -3119524663.8453603        29944118.693138123        1212655626.4708500     
  -3056603148.3130074        18094160.251488447        1259128561.1439838     
  -2996306847.9300976       -2506515.3549810648        1306724826.6387861     
  -2938635762.6966381       -31857908.126282096        1355444422.9552608     
  -3484239822.0108438        52917578.002928019        939085079.02589941     
  -3411908917.3137231        52068754.846314669        944631085.10988665     
  -3342268623.8718662        42251227.505483627        953753028.51009333     
  -3275318941.6852756        23464995.980433464        966450909.22651863     
  -3211059870.7539496       -4289939.7288331985        982724727.25916314     
  -3891776827.4335766        40281222.654172659        710985039.28219831     
  -3805654301.5938511        43785051.755959034        676651152.14192069     
  -3722287783.1152096        38102189.654134750        648345808.81241107     
  -3641677271.9976559        23232636.348686457        626069009.29367089     
  -3563822768.2411819       -823608.16036772728        609820753.58569896     
  -4407682410.7953568       -4865706.0762901306        483005903.38828021     
  -4300760816.6857481        5093009.4220733643        408715827.56695116     
  -4196660626.0430412        5647046.6974325180        342906902.05093902     
  -4095381838.8672400       -3203594.2502167225        285579126.84024549     
  -3996924455.1583366       -21458913.420872688        236732501.93486694     
  -2746550444.0692434       -83527513.352694631        1727979840.6739902     
  -2627438895.3844376       -96699907.564728022        1782653001.2022638     
  -2507503623.7813621       -107126558.71586704        1843657935.2300129     
  -2386744629.2600193       -114807466.80611420        1910994642.7572353     
  -2265161911.8204083       -119742631.83546531        1984663123.7839341     
  -2938635762.6966381       -31857908.126282096        1355444422.9552608     
  -2802784693.0160866       -40176479.605857372        1382626114.2744720     
  -2665904786.6755900       -45065595.552282214        1415232473.7680588     
  -2527996043.6751423       -46525255.965546131        1453263501.4360242     
  -2389058464.0147552       -44555460.845663190        1496719197.2783649     
  -3211059870.7539496       -4289939.7288331985        982724727.25916314     
  -3061061009.5779352       -8532207.3260514736        982654248.73460305     
  -2909828198.0002947       -8661306.9178467989        987101333.05932295     
  -2757361436.0210252       -4677238.5042158365        996065980.23332191     
  -2603660723.6401329        3419997.9148280621        1009548190.2566007     
  -3563822768.2411819       -823608.16036772728        609820753.58569896     
  -3402267845.0699825       -1767090.7252976894        582737404.58265865     
  -3239273857.7554784        2086307.1874480247        559264513.10380542     
  -3074840806.2976689        10736585.577881098        539402079.14913023     
  -2908968690.6965532        24183744.446012497        523150102.71863854     
  -3996924455.1583366       -21458913.420872688        236732501.93486694     
  -3826405199.4922323       -19881129.803611517        182875581.81864226     
  -3654241765.9411435       -12822753.236403942        131722013.90150467     
  -3480434154.5050678       -283783.71923422813        83271798.183450893     
  -3304982365.1840086        17735778.747873068        37524934.664481595     
  -2265161911.8204083       -119742631.83546531        1984663123.7839341     
  -2142977982.0138011       -128204354.83915699        2063620332.6996326     
  -2024061899.3130088       -147558901.52889544        2170879110.4510732     
  -1908413663.7180264       -177806271.90466791        2306439457.0382504     
  -1796033275.2288623       -218946465.96650070        2470301372.4611669     
  -2389058464.0147552       -44555460.845663190        1496719197.2783649     
  -2199742010.2765884       -29044787.609470844        1535570679.7220125     
  -2012491393.7085009       -20420238.273539901        1592228904.9142244     
  -1827306614.3104868       -18681812.837853074        1666693872.8549976     
  -1644187672.0825546       -23829511.302441657        1758965583.5443347     
  -2603660723.6401329        3419997.9148280621        1009548190.2566007     
  -2377196963.3623400        33907502.173328400        1009696291.1532209     
  -2151597030.3188891        61515582.317351103        1017156308.7112288     
  -1926860924.5097771        86244238.346913099        1031928242.9306239     
  -1702988645.9350123        108093470.26198626        1054012093.8114054     
  -2908968690.6965532        24183744.446012497        523150102.71863854     
  -2675342841.2710600        60652514.509235859        485997166.99325466     
  -2441378809.1441717        98248560.243781686        445661321.84208220     
  -2207076594.3158941        136971881.64962769        402142567.26512188     
  -1972436196.7862163        176822478.72679782        355440903.26237404     
  -3304982365.1840086        17735778.747873068        37524934.664481595     
  -3094179644.0027456        51190249.398253798       -35526692.757881656     
  -2881836730.1843586        89778695.505724430       -122256055.69320866     
  -2667953623.7288375        133501117.07030690       -222663154.14149654     
  -2452530324.6361923        182357514.09196103       -336747988.10275012     
  -1796033275.2288623       -218946465.96650070        2470301372.4611669     
  -1574186139.3576548       -288414430.65425467        2625618976.2926717     
  -1389401570.5612280       -481424285.59127533        2844687370.1307564     
  -1241679568.8395727       -797976030.77753377        3127506553.9754214     
  -1131020134.1926861       -1238069666.2130291        3474076527.8266630     
  -1644187672.0825546       -23829511.302441657        1758965583.5443347     
  -1269601959.7978177       -426051.86540448666        1793309904.0242624     
  -911998018.99053788       -33628497.353232771        1859962780.0176821     
  -571375849.66071343       -123436847.76592872        1958924211.5245919     
  -247735451.80835760       -269851103.10348988        2090194198.5450017     
  -1702988645.9350123        108093470.26198626        1054012093.8114054     
  -1265499312.9312713        197417867.11546028        990810725.80328834     
  -824910955.80767226        297072344.36845195        928475678.81557524     
  -381223574.56421745        407056902.02096725        867006952.84827065     
   65562830.799090043        527371540.07299197        806404547.90137029     
  -1972436196.7862163        176822478.72679782        355440903.26237404     
  -1561878198.7580135        305117326.28833759        218121441.62975016     
  -1128140381.0126350        510678239.57379013        50226066.524441957     
  -671222743.55008221        793505218.58314180       -148245222.05355066     
  -191125286.37036490        1153598263.3164029       -377292424.10420913     
  -2452530324.6361923        182357514.09196103       -336747988.10275012     
  -2158738617.2780480        322672325.65323043       -524757948.49635673     
  -1821686294.6054194        607189188.26278448       -774786056.85572696     
  -1441373356.6183043        1035908101.9206264       -1086832313.1808672     
  -1017799803.3167057        1608829066.6267414       -1460896717.4717722     
  -5959421442.6701269       -1787826432.8010380        1148599444.6657825     
  -6089250061.1853380       -1502704332.2225060        1225859775.5337081     
  -6221966056.5201483       -1227206821.0426397        1265724887.1796474     
  -6357569428.6745577       -961333899.26143754        1268194779.6036000     
  -6496060177.6485672       -705085566.87890053        1233269452.8055665     
  -6812590765.4868822       -2043777229.6460645        1352256406.5004058     
  -6830239042.0080919       -1396418528.5412443        1200944930.7867091     
  -6899258621.7178993       -920297504.73174214        1089728183.3997009     
  -7019649504.6163025       -615414158.21755838        1018606164.3393818     
  -7191411690.7033005       -481768488.99869299        987578873.60575211     
  -8339091184.5451021       -2501727355.3635306        1710573542.5354388     
  -8023159268.9332428       -1425712098.6907008        1274125679.4762909     
  -7807082582.8789721       -682547607.20984125        955262492.29250753     
  -7690861126.3822918       -272233880.92095280        753983980.98408771     
  -7674494899.4432106       -194770919.82403851        670290145.55103278     
  -10538922699.844790       -3161676809.9534369        2223550852.7708817     
  -9668010741.9607830       -1590585042.6708739        1445402021.6024542     
  -8945437940.0033665       -513957128.47693729        862327813.85806656     
  -8371204293.9725370        68206932.628375053        474328229.53771806     
  -7945309803.8682928        155907140.64506292        281403268.64140862     
  -13412085311.385941       -4023625593.4157825        2891188337.2067347     
  -11764793461.090719       -1891037360.4817674        1714773957.1651988     
  -10314324693.091082       -414526068.53302908        810924148.09637809     
  -9060679007.3870277        405908282.43043137        179638910.00027227     
  -8003856403.9785547        570265692.40861368       -179081757.12311998     
  -6496060177.6485672       -705085566.87890053        1233269452.8055665     
  -6239394100.6741247       -381835841.58339405        1047476839.6176018     
  -6013826792.9492464       -162248680.45310187        899510567.31760931     
  -5819358254.4739323       -46324083.488024950        789370635.90558755     
  -5655988485.2481813       -34062050.688163280        717057045.38153839     
  -7191411690.7033005       -481768488.99869299        987578873.60575211     
  -6903861553.9993706       -308089541.22097468        841615961.10946274     
  -6629397532.7519646       -178030978.29832149        716100010.02121818     
  -6368019626.9610758       -91592800.230733871        611031020.34101820     
  -6119727836.6267090       -48775007.018212318        526408992.06886339     
  -7674494899.4432106       -194770919.82403851        670290145.55103278     
  -7405716072.9524460       -185559360.54690266        585171696.50497162     
  -7132010708.1251574       -159926006.81468391        503120829.38702744     
  -6853378804.9613428       -117870858.62738061        424137544.19720131     
  -6569820363.4610043       -59393915.984993935        348221840.93549263     
  -7945309803.8682928        155907140.64506292        281403268.64140862     
  -7744957657.5333433       -14245299.561180592        278144045.80412745     
  -7521666319.0688229       -107933766.00218678        260573025.41503662     
  -7275435788.4747314       -125158258.67796278        228690207.47413725     
  -7006266065.7510738       -65918777.588504314        182495591.98142725     
  -8003856403.9785547        570265692.40861368       -179081757.12311998     
  -7921586307.7420654        205852641.73619795       -79466990.993067786     
  -7798364365.5829649       -22054255.860833168       -11543401.894753998     
  -7634190577.5012445       -113455000.38248158        24689010.171824023     
  -7429064943.4969130       -68349591.828749180        29230245.206666257     
  -5655988485.2481813       -34062050.688163280        717057045.38153839     
  -5511228048.5501461       -68490722.512401819        699085440.28621745     
  -5362472955.7008648       -89603873.832497358        681615533.61768842     
  -5209723206.7003403       -97401504.648447752        664647325.37595582     
  -5052978801.5485744       -91883614.960254908        648180815.56101632     
  -6119727836.6267090       -48775007.018212318        526408992.06886339     
  -5965114934.9188099       -53100501.351128578        515668895.50007778     
  -5809969513.9901028       -55650931.614682913        505059032.62947261     
  -5654291573.8405857       -56426297.808876038        494579403.45704621     
  -5498081114.4702644       -55426599.933713675        484230007.98279607     
  -6569820363.4610043       -59393915.984993935        348221840.93549263     
  -6406416324.5392847       -33934631.165397406        340674093.14106995     
  -6245941903.3271942       -18240738.711223364        332885114.31620950     
  -6088397099.8247290       -12312238.622477531        324854904.46091533     
  -5933781914.0318918       -16149130.899151802        316583463.57518470     
  -7006266065.7510738       -65918777.588504314        182495591.98142725     
  -6835132217.4115734       -10993111.955206871        174101033.20918837     
  -6670390123.7121391        22626704.877880573        165093778.67790267     
  -6512039784.6527700        34940672.910757065        155473828.38756397     
  -6360081200.2334557        25948792.143427849        145241182.33817977     
  -7429064943.4969130       -68349591.828749180        29230245.206666257     
  -7251262613.5356779        15724056.279432297        15949715.704439661     
  -7083314175.1449432        66951399.152622223        1685025.7145540849     
  -6925219628.3247042        85332436.790819168       -13563824.763000479     
  -6776978973.0749655        70867169.194020748       -29796835.728222832     
  -5052978801.5485744       -91883614.960254908        648180815.56101632     
  -4893831546.2086763       -77385278.900624037        620062871.41635597     
  -4733233062.6365099       -58049515.400084496        583161071.33934748     
  -4571183350.8320694       -33876324.458641768        537475415.32998645     
  -4407682410.7953568       -4865706.0762901306        483005903.38828021     
  -5498081114.4702644       -55426599.933713675        484230007.98279607     
  -5359940655.2530909       -55656936.164544106        463954198.23051238     
  -5219569441.0106049       -48451422.310996532        439702094.84474212     
  -5076967471.7428112       -33810058.373085499        411473697.82548690     
  -4932134747.4497004       -11732844.350787163        379269007.17274243     
  -5933781914.0318918       -16149130.899151802        316583463.57518470     
  -5802912358.6549778       -26987371.735705137        305059236.14048862     
  -5669032521.4597149       -27791339.844414473        294366277.37117338     
  -5532142402.4460936       -18561035.225281000        284504587.26723313     
  -5392242001.6141272        703542.12169027328        275474165.82866776     
  -6360081200.2334557        25948792.143427849        145241182.33817977     
  -6222746656.4143381        8623414.3858964443        143377985.14628989     
  -6081622303.9838305        3930731.9996638298        147153618.91863841     
  -5936708142.9419289        11870744.984750032        156568083.65522662     
  -5788004173.2886305        32443453.341147900        171621379.35605586     
  -6776978973.0749655        70867169.194020748       -29796835.728222832     
  -6619443548.5311775        51175422.200245857       -21089554.752088916     
  -6457338788.5829554        46714793.221246719       -1935880.5128660626     
  -6290664693.2303009        57485282.257022142        27664186.989466939     
  -6119421262.4732151        83486889.307578325        67710647.754900888     
  -4407682410.7953568       -4865706.0762901306        483005903.38828021     
  -4300760816.6857481        5093009.4220733643        408715827.56695116     
  -4196660626.0430412        5647046.6974325180        342906902.05093902     
  -4095381838.8672400       -3203594.2502167225        285579126.84024549     
  -3996924455.1583366       -21458913.420872688        236732501.93486694     
  -4932134747.4497004       -11732844.350787163        379269007.17274243     
  -4803997011.8847837        4030614.9999086857        323059721.40472901     
  -4678950641.0505419        9489525.2483596802        273349837.86956042     
  -4556995634.9469786        4643886.3945529461        230139356.56723270     
  -4438131993.5740910       -10506301.561514616        193428277.49774933     
  -5392242001.6141272        703542.12169027328        275474165.82866776     
  -5248550261.9438248        20573104.119744062        237030715.30623293     
  -5108219848.2679691        29238246.136312723        203104918.94416833     
  -4971250760.5865669        26698968.171369553        173696776.74247405     
  -4837642998.8996172        12955270.224915981        148806288.70114753     
  -5788004173.2886305        32443453.341147900        171621379.35605586     
  -5634420566.8628645        54720476.781585455        150628809.27146244     
  -5484468247.6953287        64893209.361275911        132172145.27476636     
  -5338147215.7860117        62961651.080228090        116251387.36596851     
  -5195457471.1349220        48925801.938417673        102866535.54506582     
  -6119421262.4732151        83486889.307578325        67710647.754900888     
  -5961607926.6419163        106472732.98540664        63854003.300417356     
  -5807695839.3326073        116454414.92327332        60551516.861352362     
  -5657685000.5452986        113431935.12112999        57803188.437712781     
  -5511575410.2799950        97405293.578982115        55609018.029499739     
  -3996924455.1583366       -21458913.420872688        236732501.93486694     
  -3826405199.4922323       -19881129.803611517        182875581.81864226     
  -3654241765.9411435       -12822753.236403942        131722013.90150467     
  -3480434154.5050678       -283783.71923422813        83271798.183450893     
  -3304982365.1840086        17735778.747873068        37524934.664481595     
  -4438131993.5740910       -10506301.561514616        193428277.49774933     
  -4261960577.4010029       -11123176.501780748        155628629.56545314     
  -4084450996.1176367       -7279501.0744502544        119979904.87579969     
  -3905603249.7239904        1024724.7204709053        86482103.428783014     
  -3725417338.2200689        13789500.882985353        55135225.224411301     
  -4837642998.8996172        12955270.224915981        148806288.70114753     
  -4657397790.6665325        9670226.1930274963        126706898.04895927     
  -4476120430.0978765        9825689.9463622570        106206001.68296348     
  -4293810917.1936421        13421661.484966993        87303599.603161812     
  -4110469251.9538393        20458140.808800220        69999691.809557900     
  -5195457471.1349220        48925801.938417673        102866535.54506582     
  -5012716839.2888241        42499078.280784607        96110387.269154727     
  -4829250067.8818569        38492819.826064825        90400304.322999850     
  -4645057156.9140158        36907026.574241638        85736286.706594899     
  -4460138106.3853130        37741698.525299072        82118334.419936523     
  -5511575410.2799950        97405293.578982115        55609018.029499739     
  -5327917723.2678671        87363379.761556149        63839097.226048298     
  -5143839909.4695749        78721888.564647913        72562812.795901790     
  -4959341968.8851194        71480819.988294601        81780164.739059329     
  -4774423901.5145063        65640174.032469511        91491153.055535719     
  -3304982365.1840086        17735778.747873068        37524934.664481595     
  -3094179644.0027456        51190249.398253798       -35526692.757881656     
  -2881836730.1843586        89778695.505724430       -122256055.69320866     
  -2667953623.7288375        133501117.07030690       -222663154.14149654     
  -2452530324.6361923        182357514.09196103       -336747988.10275012     
  -3725417338.2200689        13789500.882985353        55135225.224411301     
  -3545787254.1170382        32313468.871293545        275735.67933476710     
  -3363588121.9071136        59400930.549250841       -61439469.337092362     
  -3178819941.5903001        95051885.916831732       -130010389.82486705     
  -2991482713.1665897        139266334.97407734       -205437025.78399521     
  -4110469251.9538393        20458140.808800220        69999691.809557900     
  -3942520319.0958614        29899051.884967327        34532671.523168527     
  -3770973482.6612248        51332974.883354187       -968044.19296436792     
  -3595828742.6499376        84759909.803904057       -36502455.338835023     
  -3417086099.0619745        130179856.64669919       -72070561.914442480     
  -4460138106.3853130        37741698.525299072        82118334.419936523     
  -4284378838.9392147        43946998.439299107        67244114.773615703     
  -4103992812.4466891        65574828.508056641        59158219.739168480     
  -3918980026.9077411        102625188.73155689        57860649.316599503     
  -3729340482.3223662        155098079.10981154        63351403.505900837     
  -4774423901.5145063        65640174.032469511        91491153.055535719     
  -4571362813.6471043        74457308.534249783        98410065.430681020     
  -4362646111.2635059        102126491.42335296        118939322.45931199     
  -4148273794.3637328        148647722.69971132        153078924.14143583     
  -3928245862.9477491        214021002.36342669        200828870.47703993     
  -2452530324.6361923        182357514.09196103       -336747988.10275012     
  -2158738617.2780480        322672325.65323043       -524757948.49635673     
  -1821686294.6054194        607189188.26278448       -774786056.85572696     
  -1441373356.6183043        1035908101.9206264       -1086832313.1808672     
  -1017799803.3167057        1608829066.6267414       -1460896717.4717722     
  -2991482713.1665897        139266334.97407734       -205437025.78399521     
  -2829756720.1448750        196229945.96706617       -301338332.67859226     
  -2657127775.7423573        289536728.22940242       -417575610.19661349     
  -2473595879.9590468        419186681.76106417       -554148858.33805811     
  -2279161032.7949238        585179806.56207681       -711058077.10292685     
  -3417086099.0619745        130179856.64669919       -72070561.914442480     
  -3268333885.1128626        139519847.65054250       -113613823.23266539     
  -3141036383.7166324        77344130.144796848       -133810877.83196253     
  -3035193594.8732719       -56347295.870539427       -132661725.71234673     
  -2950805518.5828032       -261554430.39548647       -110166366.87380356     
  -3729340482.3223662        155098079.10981154        63351403.505900837     
  -3474470112.1820102        152542030.70367956        38415579.841433927     
  -3273412118.5282168       -29388605.990997076        76508140.238229394     
  -3126166501.3609800       -390693830.97418618        177629084.69628027     
  -3032733260.6803055       -931373644.24593306        341778413.21560431     
  -3928245862.9477491        214021002.36342669        200828870.47703993     
  -3448165401.3523169        235296495.12644911        154749876.54368865     
  -3054254980.1771150       -30661480.177948236        213381444.01394641     
  -2746514599.4221716       -583852923.54987562        376723572.88779992     
  -2524944259.0874696       -1424277834.9892850        644776263.16527236     
 </DataArray>
 <DataArray  type="Float64" Name="VM" NumberOfComponents="1" format="ascii">
   12930015297.718504     
   11338433431.444307     
   10210502592.531679     
   9275520506.9402313     
   8309479877.5348082     
   10128028416.529470     
   9321489163.0834560     
   8827132492.8529797     
   8445569814.4737682     
   8039188320.1245193     
   7982176053.0765629     
   7735322433.1153708     
   7669764236.4359417     
   7670411899.5629940     
   7667392378.0283546     
   6492364175.5094261     
   6587190896.3616714     
   6757208674.6714802     
   6960380565.4865704     
   7170065796.9273195     
   5658132037.9098520     
   5890241144.3328104     
   6114690300.8314190     
   6328985613.3795242     
   6532880363.5747585     
   8309479877.5348082     
   8027672727.2272520     
   7787386326.2324018     
   7578220724.9042530     
   7395300349.8338356     
   8039188320.1245193     
   7752827557.2687435     
   7481909318.0748253     
   7224537857.7962971     
   6980700458.8511639     
   7667392378.0283546     
   7384588047.5882444     
   7107035301.7960711     
   6834804964.8253241     
   6568076981.6419268     
   7170065796.9273195     
   6910583785.8016682     
   6658736082.8029575     
   6410684455.1433706     
   6163300845.1124840     
   6532880363.5747585     
   6323372220.9188700     
   6135475503.1720953     
   5955402419.5744476     
   5774185987.7093754     
   7395300349.8338356     
   7259189980.6551142     
   7117026661.6613054     
   6968317323.3944883     
   6812884486.2074242     
   6980700458.8511639     
   6836296322.6747017     
   6687848172.9059343     
   6535130786.0534887     
   6378058296.8966217     
   6568076981.6419268     
   6416704669.7761574     
   6263435948.9340115     
   6108220785.4338694     
   5951040114.4101734     
   6163300845.1124840     
   6005531490.6185026     
   5848142135.9263716     
   5691131060.4252567     
   5534497647.3006582     
   5774185987.7093754     
   5609547125.1545343     
   5447700974.8506260     
   5288528743.0011454     
   5131974913.9855785     
   6812884486.2074242     
   6645279447.7100716     
   6480823326.3861094     
   6319785074.9935169     
   6162704948.8218346     
   6378058296.8966217     
   6232012786.6537867     
   6088925445.9102573     
   5948836720.6209631     
   5811900671.9911375     
   5951040114.4101734     
   5813527175.3058071     
   5678125270.8783493     
   5544825548.2547016     
   5413661054.5086193     
   5534497647.3006582     
   5392541528.8481550     
   5251035223.7877464     
   5110090123.7031898     
   4969885088.6105909     
   5131974913.9855785     
   4972956772.1754494     
   4811687187.4992237     
   4648510450.3310966     
   4483985451.4478340     
   6162704948.8218346     
   6016567642.8855391     
   5867727317.3177319     
   5716122125.2897472     
   5561751972.4074802     
   5811900671.9911375     
   5667986833.5842209     
   5521948592.5881920     
   5373678589.2766619     
   5223132064.2276087     
   5413661054.5086193     
   5274868031.7222528     
   5134965930.0520897     
   4993724655.1849022     
   4850985521.1327353     
   4969885088.6105909     
   4838477998.9255047     
   4707571621.4157372     
   4576711190.2625027     
   4445530464.7601185     
   4483985451.4478340     
   4361148843.7628803     
   4241278871.5059085     
   4123555387.9967661     
   4007271236.0173416     
   5561751972.4074802     
   5373270029.8238716     
   5185172612.6518593     
   4997473770.0746098     
   4810191069.5515852     
   5223132064.2276087     
   5036852563.1377363     
   4851138630.0000114     
   4665983871.9834576     
   4481385924.7907972     
   4850985521.1327353     
   4667402885.2096491     
   4484815576.9554834     
   4303195110.5922928     
   4122519670.0364618     
   4445530464.7601185     
   4264936805.5578203     
   4086103974.9128718     
   3908986751.1597929     
   3733552706.8204861     
   4007271236.0173416     
   3829625201.5415735     
   3654974956.2686577     
   3483279613.9038119     
   3314523161.4672332     
   4810191069.5515852     
   4612193279.8643551     
   4419399544.1726732     
   4232871664.9616981     
   4054459811.2478905     
   4481385924.7907972     
   4308095201.9179897     
   4138438686.6215601     
   3972551572.8876910     
   3810838435.5733838     
   4122519670.0364618     
   3958006511.8866844     
   3796900600.6372094     
   3639498315.2749262     
   3486236146.5135736     
   3733552706.8204861     
   3562053946.8705077     
   3395346551.9024324     
   3235242187.1230822     
   3084086554.3582907     
   3314523161.4672332     
   3120696456.4609652     
   2935406329.8672395     
   2764183516.1701827     
   2614496931.5081806     
   4054459811.2478905     
   3581674590.5767508     
   3061431127.1197543     
   2589677209.0937710     
   2460670234.1249804     
   3810838435.5733838     
   3553820707.0924258     
   3261510393.4600387     
   2966284033.0490966     
   2755132938.7345920     
   3486236146.5135736     
   3346071414.4605527     
   3188847511.1208086     
   3016180965.5773158     
   2835538317.4951687     
   3084086554.3582907     
   2978880101.3598752     
   2904583236.5402007     
   2872722639.5854831     
   2896125030.5926743     
   2614496931.5081806     
   2507378663.5167956     
   2567919036.9680905     
   2861364448.6957884     
   3415314182.4744158     
   5658132037.9098520     
   5890241144.3328104     
   6114690300.8314190     
   6328985613.3795242     
   6532880363.5747585     
   5150947058.0510368     
   5309936790.0763359     
   5465500511.5468292     
   5614713878.6417685     
   5756089003.5807686     
   4642564753.8471622     
   4753825609.9497967     
   4866132886.7788792     
   4976834533.6475220     
   5083991004.2641840     
   4133258585.5327177     
   4222764762.3250198     
   4318111699.4022903     
   4417642938.8175440     
   4519904374.0538054     
   3624572755.9849901     
   3718610393.9777088     
   3823834267.2670050     
   3940200940.5135674     
   4067635451.7462683     
   6532880363.5747585     
   6323372220.9188700     
   6135475503.1720953     
   5955402419.5744476     
   5774185987.7093754     
   5756089003.5807686     
   5644178022.8109388     
   5547784449.2667103     
   5457903386.3832932     
   5369032623.3875895     
   5083991004.2641840     
   5045347065.2025642     
   5016953322.1559687     
   4993625454.3282547     
   4972211825.2327099     
   4519904374.0538054     
   4531526300.6768560     
   4547922695.1021976     
   4566605054.5828915     
   4585879587.2175627     
   4067635451.7462683     
   4108044233.9918628     
   4146424404.2596493     
   4181829445.7642202     
   4213482397.3829136     
   5774185987.7093754     
   5609547125.1545343     
   5447700974.8506260     
   5288528743.0011454     
   5131974913.9855785     
   5369032623.3875895     
   5213500662.9613800     
   5060467022.3947964     
   4909960074.9133387     
   4762041056.1134272     
   4972211825.2327099     
   4833031417.5313540     
   4697218354.6619282     
   4564808183.6230755     
   4435936839.4417248     
   4585879587.2175627     
   4470598137.1689434     
   4360864270.1201344     
   4256570551.7265825     
   4157897052.0239320     
   4213482397.3829136     
   4129604267.8725071     
   4054933477.0332279     
   3989003799.6438794     
   3931960815.6771822     
   5131974913.9855785     
   4972956772.1754494     
   4811687187.4992237     
   4648510450.3310966     
   4483985451.4478340     
   4762041056.1134272     
   4596494740.2784834     
   4431162392.9902391     
   4266084663.6730065     
   4101318587.7116151     
   4435936839.4417248     
   4285772354.5679474     
   4140923580.0049820     
   4001924676.4628086     
   3869463437.8617229     
   4157897052.0239320     
   4044031530.6931181     
   3943090077.5959291     
   3856627593.8210139     
   3786664384.9739742     
   3931960815.6771822     
   3872873631.3417549     
   3836225750.1650147     
   3824477878.7145090     
   3840783983.8681154     
   4483985451.4478340     
   4361148843.7628803     
   4241278871.5059085     
   4123555387.9967661     
   4007271236.0173416     
   4101318587.7116151     
   4003139131.8435516     
   3906374571.7664709     
   3810885210.1748405     
   3716657404.4914336     
   3869463437.8617229     
   3807685796.5615935     
   3747358294.9824142     
   3688794139.3077846     
   3632408610.5094552     
   3786664384.9739742     
   3773240411.2964869     
   3762269404.7202826     
   3754056477.9486461     
   3748955192.7326875     
   3840783983.8681154     
   3884342624.0969419     
   3931325512.9058127     
   3981505449.9724693     
   4034705274.2255926     
   4007271236.0173416     
   3829625201.5415735     
   3654974956.2686577     
   3483279613.9038119     
   3314523161.4672332     
   3716657404.4914336     
   3547980572.7702122     
   3382009459.8639846     
   3218794550.8831034     
   3058445936.2790427     
   3632408610.5094552     
   3498696588.1303058     
   3371213338.5222354     
   3250632160.7061424     
   3137758439.7359486     
   3748955192.7326875     
   3671454082.7774868     
   3605216709.4432669     
   3551230399.9752946     
   3510504950.5119953     
   4034705274.2255926     
   4023961741.1954508     
   4028356245.4802022     
   4048631392.9603462     
   4085428189.2569904     
   3314523161.4672332     
   3120696456.4609652     
   2935406329.8672395     
   2764183516.1701827     
   2614496931.5081806     
   3058445936.2790427     
   2834075520.9753251     
   2608771217.8916378     
   2382731995.1441073     
   2156283030.5726180     
   3137758439.7359486     
   2965009231.2223749     
   2805232890.5101700     
   2661022256.5802951     
   2535500142.5483041     
   3510504950.5119953     
   3442346499.0709782     
   3408081822.9268818     
   3411578298.3068824     
   3456388367.7423491     
   4085428189.2569904     
   4136379881.3675728     
   4237697511.9899240     
   4392416053.7949009     
   4602999519.7317429     
   2614496931.5081806     
   2507378663.5167956     
   2567919036.9680905     
   2861364448.6957884     
   3415314182.4744158     
   2156283030.5726180     
   1775344215.2032599     
   1455052473.6533778     
   1295661680.4453027     
   1419453537.7349954     
   2535500142.5483041     
   2198957069.4368591     
   1897363844.9568162     
   1649639232.2556932     
   1482804148.4942467     
   3456388367.7423491     
   3355477559.7943311     
   3343738444.4706254     
   3432685595.7941208     
   3629611021.7957525     
   4602999519.7317429     
   4773767059.6200972     
   5076421292.9341221     
   5525540258.0690870     
   6133462688.4243298     
   3624572755.9849901     
   3718610393.9777088     
   3823834267.2670050     
   3940200940.5135674     
   4067635451.7462683     
   3138176712.2195501     
   3255025045.0490870     
   3381276111.2584987     
   3516477521.0335102     
   3660185642.9022341     
   2695413272.9474306     
   2830572352.6390471     
   2973080188.9920664     
   3121868942.6582699     
   3276038247.0160642     
   2299790649.8548675     
   2450054660.1801023     
   2605128068.6327267     
   2763103498.6859703     
   2922559567.8601761     
   1956542730.9420884     
   2120431465.2365937     
   2285811089.0094752     
   2449743437.4486542     
   2610280090.6358423     
   4067635451.7462683     
   4108044233.9918628     
   4146424404.2596493     
   4181829445.7642202     
   4213482397.3829136     
   3660185642.9022341     
   3700427510.5319009     
   3739739982.8020377     
   3777212832.0623770     
   3812090606.2775159     
   3276038247.0160642     
   3321121975.3755555     
   3366664900.5061655     
   3411852091.6980095     
   3456016121.5937290     
   2922559567.8601761     
   2977507950.1557941     
   3034579914.5103021     
   3093103507.9080453     
   3152551403.5581398     
   2610280090.6358423     
   2679638245.3065019     
   2752996481.6838021     
   2829848513.6384687     
   2909828857.9953055     
   4213482397.3829136     
   4129604267.8725071     
   4054933477.0332279     
   3989003799.6438794     
   3931960815.6771822     
   3812090606.2775159     
   3763039643.9292002     
   3722116130.8108215     
   3689068336.4589038     
   3664028562.9302015     
   3456016121.5937290     
   3434818716.9370117     
   3420078261.9547496     
   3411658975.8163505     
   3409621146.5652819     
   3152551403.5581398     
   3152595593.1987705     
   3156634225.8433089     
   3164583554.7674618     
   3176427474.6673131     
   2909828857.9953055     
   2925159126.4709601     
   2941070965.7520037     
   2957501781.0718656     
   2974397658.4262443     
   3931960815.6771822     
   3872873631.3417549     
   3836225750.1650147     
   3824477878.7145090     
   3840783983.8681154     
   3664028562.9302015     
   3636620255.6961741     
   3623676316.1037388     
   3625989210.9552865     
   3644630927.6486821     
   3409621146.5652819     
   3394106098.8438678     
   3384464907.6637011     
   3380796440.3744259     
   3383264564.6725988     
   3176427474.6673131     
   3155365650.4266381     
   3130169002.9023643     
   3100840893.5247393     
   3067420550.0848799     
   2974397658.4262443     
   2934888039.5228338     
   2879199135.3843703     
   2807298127.3622394     
   2719304288.2640438     
   3840783983.8681154     
   3884342624.0969419     
   3931325512.9058127     
   3981505449.9724693     
   4034705274.2255926     
   3644630927.6486821     
   3652302353.1069593     
   3663751957.9931784     
   3679138323.7386718     
   3698624744.5859246     
   3383264564.6725988     
   3357030076.4176769     
   3335656759.5417504     
   3319421435.5100260     
   3308613723.5314484     
   3067420550.0848799     
   3005986774.1367159     
   2951840202.6405921     
   2905105474.8658447     
   2865953909.7320838     
   2719304288.2640438     
   2616133364.3043532     
   2524668052.1483660     
   2444727266.6279287     
   2376184585.5422177     
   4034705274.2255926     
   4023961741.1954508     
   4028356245.4802022     
   4048631392.9603462     
   4085428189.2569904     
   3698624744.5859246     
   3660124280.6627040     
   3633563847.6694908     
   3619693696.3750930     
   3619247690.3256321     
   3308613723.5314484     
   3245005520.9905663     
   3190974930.2745585     
   3147096055.9950495     
   3113998800.8118544     
   2865953909.7320838     
   2778444534.5707493     
   2699175425.1821775     
   2628388678.3173628     
   2566426449.6702147     
   2376184585.5422177     
   2263809951.7816048     
   2159634932.5409513     
   2063463106.7861705     
   1975189411.5039122     
   4085428189.2569904     
   4136379881.3675728     
   4237697511.9899240     
   4392416053.7949009     
   4602999519.7317429     
   3619247690.3256321     
   3650028695.7799444     
   3709169583.6363683     
   3798265091.5395756     
   3918838078.8153248     
   3113998800.8118544     
   3114054254.1164355     
   3124221848.0813780     
   3144933295.4858880     
   3176644848.2351089     
   2566426449.6702147     
   2521816168.1120601     
   2471739359.6106677     
   2416185648.6651397     
   2355168567.5373836     
   1975189411.5039122     
   1869779368.7343192     
   1745112859.9783177     
   1602252406.3947084     
   1443362767.2651131     
   4602999519.7317429     
   4773767059.6200972     
   5076421292.9341221     
   5525540258.0690870     
   6133462688.4243298     
   3918838078.8153248     
   4037083729.7364378     
   4228813302.2372246     
   4504298314.5652704     
   4873741767.2973251     
   3176644848.2351089     
   3221470861.2767711     
   3291339984.1068339     
   3390390567.2863159     
   3523449498.5066013     
   2355168567.5373836     
   2294199602.9808373     
   2221389696.9177427     
   2137035640.3384678     
   2041623694.6408386     
   1443362767.2651131     
   1246858390.2820148     
   1041178006.3582584     
   879459452.47412121     
   866849757.63508356     
   1956542730.9420884     
   2120431465.2365937     
   2285811089.0094752     
   2449743437.4486542     
   2610280090.6358423     
   1655391294.6079192     
   1822020972.9899693     
   1990431271.3775053     
   2157943159.8814969     
   2322807732.7044401     
   1395852870.6174514     
   1573614992.2164798     
   1752408438.8569610     
   1930242525.3175216     
   2105874513.8461900     
   1210058834.1829650     
   1402458544.1792939     
   1594410854.8272676     
   1785145011.1958399     
   1974206017.1224203     
   1140210381.8494990     
   1339046039.4777620     
   1538106405.4496169     
   1737391479.7650650     
   1936901262.4241049     
   2610280090.6358423     
   2679638245.3065019     
   2752996481.6838021     
   2829848513.6384687     
   2909828857.9953055     
   2322807732.7044401     
   2410688623.7453141     
   2500753718.9789548     
   2592616543.4739494     
   2685996171.8682413     
   2105874513.8461900     
   2210335620.0821099     
   2314740903.9134641     
   2418856119.1470165     
   2522512369.8021359     
   1974206017.1224203     
   2092231297.9353647     
   2207766347.4233294     
   2320736489.7378178     
   2431088882.5701542     
   1936901262.4241049     
   2064593832.0278261     
   2187581131.4202752     
   2305863160.6014533     
   2419439919.5713601     
   2909828857.9953055     
   2925159126.4709601     
   2941070965.7520037     
   2957501781.0718656     
   2974397658.4262443     
   2685996171.8682413     
   2707629754.5092750     
   2730956974.5032287     
   2755953427.5585728     
   2782599895.0759635     
   2522512369.8021359     
   2550939049.5698686     
   2582237959.2313938     
   2616406940.3839602     
   2653445929.2565250     
   2431088882.5701542     
   2465317057.5664196     
   2503625060.6816092     
   2546015350.4400454     
   2592490717.4107809     
   2419439919.5713601     
   2456835964.6844611     
   2499530664.1117024     
   2547524017.8530850     
   2600816025.9086075     
   2974397658.4262443     
   2934888039.5228338     
   2879199135.3843703     
   2807298127.3622394     
   2719304288.2640438     
   2782599895.0759635     
   2750133529.8532767     
   2711450390.6771469     
   2666404431.4936805     
   2614884611.9038377     
   2653445929.2565250     
   2639734371.3533168     
   2631305916.4423256     
   2628214702.0084271     
   2630526250.5858765     
   2592490717.4107809     
   2601172415.0233788     
   2626738213.9416375     
   2669259148.5589147     
   2728794678.7913938     
   2600816025.9086075     
   2626498849.0078468     
   2680563309.4162393     
   2763009407.1337848     
   2873837142.1604800     
   2719304288.2640438     
   2616133364.3043532     
   2524668052.1483660     
   2444727266.6279287     
   2376184585.5422177     
   2614884611.9038377     
   2558170957.8996964     
   2510436421.0739064     
   2471665894.8458629     
   2441867052.7855167     
   2630526250.5858765     
   2623720705.2345495     
   2622481595.7845526     
   2626808770.6606836     
   2636707163.7302999     
   2728794678.7913938     
   2772691215.3816967     
   2818291112.7420096     
   2865590761.1492376     
   2914587793.2910357     
   2873837142.1604800     
   2968379112.2889915     
   3060679169.5127649     
   3150737313.8317976     
   3238553545.2460980     
   2376184585.5422177     
   2263809951.7816048     
   2159634932.5409513     
   2063463106.7861705     
   1975189411.5039122     
   2441867052.7855167     
   2370510373.5242195     
   2308231995.8696060     
   2255093369.3024750     
   2211213281.3674030     
   2636707163.7302999     
   2609377070.8960886     
   2591256512.7082410     
   2582399530.7157898     
   2582873637.5799046     
   2914587793.2910357     
   2928960129.0600562     
   2951971146.5249591     
   2983631804.5676804     
   3023954396.3165965     
   3238553545.2460980     
   3291123654.2889843     
   3351531428.8733230     
   3419776868.9991059     
   3495859974.6663327     
   1975189411.5039122     
   1869779368.7343192     
   1745112859.9783177     
   1602252406.3947084     
   1443362767.2651131     
   2211213281.3674030     
   2135871951.8088117     
   2054460249.9995785     
   1966949266.6324914     
   1873365029.5984943     
   2582873637.5799046     
   2559911161.5264006     
   2548279567.2499108     
   2548129611.5191622     
   2559559513.7366390     
   3023954396.3165965     
   3052923738.1165071     
   3109359745.3661819     
   3193275542.3641272     
   3304637798.6573381     
   3495859974.6663327     
   3570443319.4481916     
   3688991029.0723252     
   3851503103.5387220     
   4057979542.8473949     
   1443362767.2651131     
   1246858390.2820148     
   1041178006.3582584     
   879459452.47412121     
   866849757.63508356     
   1873365029.5984943     
   1737759965.9713290     
   1593558859.7941616     
   1446458632.9693561     
   1307272207.9599226     
   2559559513.7366390     
   2551436742.5960622     
   2566468617.4309301     
   2605078462.3550701     
   2667592868.3946881     
   3304637798.6573381     
   3415047666.6943974     
   3577311043.4029460     
   3791033291.3831491     
   4055766886.6671457     
   4057979542.8473949     
   4285369183.2373896     
   4597112188.3138504     
   4993208558.0767622     
   5473658292.5261364     
   1140210381.8494990     
   1339046039.4777620     
   1538106405.4496169     
   1737391479.7650650     
   1936901262.4241049     
   1210058834.1609910     
   1402458544.1578329     
   1594410854.8061061     
   1785145011.1748116     
   1974206017.1014085     
   1395852870.5808659     
   1573614992.1794171     
   1752408438.8193781     
   1930242525.2793224     
   2105874513.8072793     
   1655391294.5644822     
   1822020972.9443827     
   1990431271.3299470     
   2157943159.8320065     
   2322807732.6529989     
   1956542730.8973105     
   2120431465.1881614     
   2285811088.9576769     
   2449743437.3936048     
   2610280090.5775685     
   1936901262.4241049     
   2064593832.0278261     
   2187581131.4202752     
   2305863160.6014533     
   2419439919.5713601     
   1974206017.1014085     
   2092231297.9144490     
   2207766347.4026513     
   2320736489.7175450     
   2431088882.5504699     
   2105874513.8072793     
   2210335620.0429487     
   2314740903.8743787     
   2418856119.1083760     
   2522512369.7643313     
   2322807732.6529989     
   2410688623.6927719     
   2500753718.9258170     
   2592616543.4207869     
   2685996171.8156548     
   2610280090.5775685     
   2679638245.2459455     
   2752996481.6215882     
   2829848513.5753164     
   2909828857.9319878     
   2419439919.5713601     
   2456835964.6844611     
   2499530664.1117024     
   2547524017.8530850     
   2600816025.9086075     
   2431088882.5504699     
   2465317057.5482969     
   2503625060.6653490     
   2546015350.4259462     
   2592490717.3991399     
   2522512369.7643313     
   2550939049.5347009     
   2582237959.1994414     
   2616406940.3558140     
   2653445929.2327800     
   2685996171.8156548     
   2707629754.4597025     
   2730956974.4574986     
   2755953427.5175395     
   2782599895.0404963     
   2909828857.9319878     
   2925159126.4103456     
   2941070965.6951160     
   2957501781.0197711     
   2974397658.3800344     
   2600816025.9086075     
   2626498849.0078468     
   2680563309.4162393     
   2763009407.1337848     
   2873837142.1604800     
   2592490717.3991399     
   2601172415.0209556     
   2626738213.9497361     
   2669259148.5787644     
   2728794678.8241148     
   2653445929.2327800     
   2639734371.3441491     
   2631305916.4503369     
   2628214702.0361795     
   2630526250.6358466     
   2782599895.0404963     
   2750133529.8330112     
   2711450390.6755853     
   2666404431.5143142     
   2614884611.9501290     
   2974397658.3800344     
   2934888039.4876513     
   2879199135.3637786     
   2807298127.3595538     
   2719304288.2822433     
   2873837142.1604800     
   2968379112.2889915     
   3060679169.5127649     
   3150737313.8317976     
   3238553545.2460980     
   2728794678.8241148     
   2772691215.4485445     
   2818291112.8514185     
   2865590761.3096523     
   2914587793.5109301     
   2630526250.6358466     
   2623720705.3531199     
   2622481595.9886580     
   2626808770.9670730     
   2636707164.1555734     
   2614884611.9501290     
   2558170958.0393267     
   2510436421.3318229     
   2471665895.2465162     
   2441867053.3529377     
   2719304288.2822433     
   2616133364.4171710     
   2524668052.3855324     
   2444727267.0183034     
   2376184586.1140542     
   3238553545.2460980     
   3291123654.2889843     
   3351531428.8733230     
   3419776868.9991059     
   3495859974.6663327     
   2914587793.5109301     
   2928960129.3434715     
   2951971146.8873301     
   2983631805.0243607     
   3023954396.8829718     
   2636707164.1555734     
   2609377071.4487901     
   2591256513.4196005     
   2582399531.6166663     
   2582873638.7010918     
   2441867053.3529377     
   2370510374.2648649     
   2308231996.8306546     
   2255093370.5307851     
   2211213282.9102054     
   2376184586.1140542     
   2263809952.5158777     
   2159634933.4931221     
   2063463108.0113001     
   1975189413.0584404     
   3495859974.6663327     
   3570443319.4481916     
   3688991029.0723252     
   3851503103.5387220     
   4057979542.8473949     
   3023954396.8829718     
   3052923738.7093034     
   3109359745.9998426     
   3193275543.0544848     
   3304637799.4218459     
   2582873638.7010918     
   2559911162.7399511     
   2548279568.5896087     
   2548129613.0190444     
   2559559515.4309001     
   2211213282.9102054     
   2135871953.5341768     
   2054460251.9715662     
   1966949268.9145207     
   1873365032.2517776     
   1975189413.0584404     
   1869779370.4697807     
   1745112861.9559793     
   1602252408.6545634     
   1443362769.8062532     
   4057979542.8473949     
   4285369183.2373896     
   4597112188.3138504     
   4993208558.0767622     
   5473658292.5261364     
   3304637799.4218459     
   3415047667.2230415     
   3577311043.6926541     
   3791033291.4222169     
   4055766886.4320636     
   2559559515.4309001     
   2551436743.9164691     
   2566468618.3472018     
   2605078462.8130946     
   2667592868.3068142     
   1873365032.2517776     
   1737759968.2720664     
   1593558861.6397417     
   1446458634.1535127     
   1307272208.1015110     
   1443362769.8062532     
   1246858392.3596156     
   1041178007.5889686     
   879459452.08455932     
   866849754.86304867     
   1956542730.8973105     
   2120431465.1881614     
   2285811088.9576769     
   2449743437.3936048     
   2610280090.5775685     
   2299790649.8124814     
   2450054660.1331787     
   2605128068.5813971     
   2763103498.6302819     
   2922559567.8001280     
   2695413272.9100504     
   2830572352.5968943     
   2973080188.9450521     
   3121868942.6062832     
   3276038246.9589815     
   3138176712.1890550     
   3255025045.0141306     
   3381276111.2187586     
   3516477520.9886656     
   3660185642.8519650     
   3624572755.9628425     
   3718610393.9518518     
   3823834267.2369022     
   3940200940.4786711     
   4067635451.7060151     
   2610280090.5775685     
   2679638245.2459455     
   2752996481.6215882     
   2829848513.5753164     
   2909828857.9319878     
   2922559567.8001280     
   2977507950.0919919     
   3034579914.4431868     
   3093103507.8381443     
   3152551403.4860411     
   3276038246.9589815     
   3321121975.3135066     
   3366664900.4394035     
   3411852091.6268611     
   3456016121.5185676     
   3660185642.8519650     
   3700427510.4758196     
   3739739982.7402368     
   3777212831.9950070     
   3812090606.2047663     
   4067635451.7060151     
   4108044233.9453216     
   4146424404.2067995     
   4181829445.7050815     
   4213482397.3175435     
   2909828857.9319878     
   2925159126.4103456     
   2941070965.6951160     
   2957501781.0197711     
   2974397658.3800344     
   3152551403.4860411     
   3152595593.1275096     
   3156634225.7739644     
   3164583554.7011595     
   3176427474.6051974     
   3456016121.5185676     
   3434818716.8608918     
   3420078261.8787336     
   3411658975.7415705     
   3409621146.4929056     
   3812090606.2047663     
   3763039643.8538322     
   3722116130.7338095     
   3689068336.3813276     
   3664028562.8532057     
   4213482397.3175435     
   4129604267.8030362     
   4054933476.9604945     
   3989003799.5688567     
   3931960815.6009293     
   2974397658.3800344     
   2934888039.4876513     
   2879199135.3637786     
   2807298127.3595538     
   2719304288.2822433     
   3176427474.6051974     
   3155365650.3674250     
   3130169002.8476152     
   3100840893.4759154     
   3067420550.0433364     
   3409621146.4929056     
   3394106098.7688818     
   3384464907.5861797     
   3380796440.2944922     
   3383264564.5904460     
   3664028562.8532057     
   3636620255.6140571     
   3623676316.0152564     
   3625989210.8592358     
   3644630927.5438581     
   3931960815.6009293     
   3872873631.2609677     
   3836225750.0769911     
   3824477878.6162910     
   3840783983.7563896     
   2719304288.2822433     
   2616133364.4171710     
   2524668052.3855324     
   2444727267.0183034     
   2376184586.1140542     
   3067420550.0433364     
   3005986774.1544018     
   2951840202.7361646     
   2905105475.0583000     
   2865953910.0409622     
   3383264564.5904460     
   3357030076.3604717     
   3335656759.5194364     
   3319421435.5333486     
   3308613723.6120543     
   3644630927.5438581     
   3652302352.9980230     
   3663751957.8816280     
   3679138323.6267996     
   3698624744.4769125     
   3840783983.7563896     
   3884342623.9584131     
   3931325512.7326341     
   3981505449.7574406     
   4034705273.9624147     
   2376184586.1140542     
   2263809952.5158777     
   2159634933.4931221     
   2063463108.0113001     
   1975189413.0584404     
   2865953910.0409622     
   2778444534.9189696     
   2699175425.6105094     
   2628388678.8685870     
   2566426450.3901024     
   3308613723.6120543     
   3245005521.0098310     
   3190974930.2588100     
   3147096055.9730220     
   3113998800.8150592     
   3698624744.4769125     
   3660124280.4131570     
   3633563847.2898908     
   3619693695.8776212     
   3619247689.7242889     
   4034705273.9624147     
   4023961740.7317243     
   4028356244.8082328     
   4048631392.0728946     
   4085428188.1474004     
   1975189413.0584404     
   1869779370.4697807     
   1745112861.9559793     
   1602252408.6545634     
   1443362769.8062532     
   2566426450.3901024     
   2521816168.8184748     
   2471739360.3593788     
   2416185649.5109859     
   2355168568.5336804     
   3113998800.8150592     
   3114054253.9575181     
   3124221847.7984161     
   3144933295.1185303     
   3176644847.8244095     
   3619247689.7242889     
   3650028694.9099336     
   3709169582.5107794     
   3798265090.1711950     
   3918838077.2157221     
   4085428188.1474004     
   4136379879.9156609     
   4237697510.1770077     
   4392416051.5990925     
   4602999517.1267958     
   1443362769.8062532     
   1246858392.3596156     
   1041178007.5889686     
   879459452.08455932     
   866849754.86304867     
   2355168568.5336804     
   2294199603.5470772     
   2221389697.0579910     
   2137035640.0554018     
   2041623693.9355073     
   3176644847.8244095     
   3221470860.3652687     
   3291339982.6721497     
   3390390565.2600260     
   3523449495.7624159     
   3918838077.2157221     
   4037083727.6774583     
   4228813299.6362863     
   4504298311.2370348     
   4873741762.9409847     
   4602999517.1267958     
   4773767056.7417984     
   5076421289.6362886     
   5525540254.0391092     
   6133462683.1761532     
   3624572755.9628425     
   3718610393.9518518     
   3823834267.2369022     
   3940200940.4786711     
   4067635451.7060151     
   4133258585.5198588     
   4222764762.3093581     
   4318111699.3835773     
   4417642938.7954407     
   4519904374.0278950     
   4642564753.8441505     
   4753825609.9449921     
   4866132886.7723827     
   4976834533.6392756     
   5083991004.2540264     
   5150947058.0584488     
   5309936790.0829782     
   5465500511.5531740     
   5614713878.6480761     
   5756089003.5871611     
   5658132037.9283533     
   5890241144.3514967     
   6114690300.8511362     
   6328985613.4008551     
   6532880363.5981054     
   4067635451.7060151     
   4108044233.9453216     
   4146424404.2067995     
   4181829445.7050815     
   4213482397.3175435     
   4519904374.0278950     
   4531526300.6459274     
   4547922695.0657654     
   4566605054.5405302     
   4585879587.1688862     
   5083991004.2540264     
   5045347065.1897726     
   5016953322.1396399     
   4993625454.3075371     
   4972211825.2067690     
   5756089003.5871611     
   5644178022.8181229     
   5547784449.2734690     
   5457903386.3884640     
   5369032623.3899918     
   6532880363.5981054     
   6323372220.9473991     
   6135475503.2044258     
   5955402419.6092663     
   5774185987.7453566     
   4213482397.3175435     
   4129604267.8030362     
   4054933476.9604945     
   3989003799.5688567     
   3931960815.6009293     
   4585879587.1688862     
   4470598137.1148500     
   4360864270.0611286     
   4256570551.6632571     
   4157897051.9569116     
   4972211825.2067690     
   4833031417.4994497     
   4697218354.6244049     
   4564808183.5803070     
   4435936839.3940897     
   5369032623.3899918     
   5213500662.9580774     
   5060467022.3860989     
   4909960074.8995552     
   4762041056.0948629     
   5774185987.7453566     
   5609547125.1858501     
   5447700974.8776531     
   5288528743.0242395     
   5131974914.0050993     
   3931960815.6009293     
   3872873631.2609677     
   3836225750.0769911     
   3824477878.6162910     
   3840783983.7563896     
   4157897051.9569116     
   4044031530.6260910     
   3943090077.5270452     
   3856627593.7479625     
   3786664384.8938074     
   4435936839.3940897     
   4285772354.5296335     
   4140923579.9758949     
   4001924676.4426570     
   3869463437.8499117     
   4762041056.0948629     
   4596494740.2820730     
   4431162393.0181713     
   4266084663.7277966     
   4101318587.7962465     
   5131974914.0050993     
   4972956772.2320881     
   4811687187.5973854     
   4648510450.4758110     
   4483985451.6451788     
   3840783983.7563896     
   3884342623.9584131     
   3931325512.7326341     
   3981505449.7574406     
   4034705273.9624147     
   3786664384.8938074     
   3773240411.1874986     
   3762269404.5706687     
   3754056477.7466984     
   3748955192.4672022     
   3869463437.8499117     
   3807685796.5327649     
   3747358294.9235363     
   3688794139.2051535     
   3632408610.3490381     
   4101318587.7962465     
   4003139131.9366603     
   3906374571.8579736     
   3810885210.2535796     
   3716657404.5453939     
   4483985451.6451788     
   4361148844.0039654     
   4241278871.7870736     
   4123555388.3134408     
   4007271236.3642149     
   4034705273.9624147     
   4023961740.7317243     
   4028356244.8082328     
   4048631392.0728946     
   4085428188.1474004     
   3748955192.4672022     
   3671454082.3060017     
   3605216708.7497063     
   3551230399.0428777     
   3510504949.3235416     
   3632408610.3490381     
   3498696587.7905493     
   3371213337.9833083     
   3250632159.9454870     
   3137758438.7280197     
   3716657404.5453939     
   3547980572.7134371     
   3382009459.6850252     
   3218794550.5685134     
   3058445935.8126755     
   4007271236.3642149     
   3829625201.8765049     
   3654974956.5978136     
   3483279614.2353840     
   3314523161.8114128     
   4085428188.1474004     
   4136379879.9156609     
   4237697510.1770077     
   4392416051.5990925     
   4602999517.1267958     
   3510504949.3235416     
   3442346497.5572438     
   3408081821.0588794     
   3411578296.0537510     
   3456388365.0715990     
   3137758438.7280197     
   2965009229.9401212     
   2805232888.9114385     
   2661022254.6155343     
   2535500140.1606803     
   3058445935.8126755     
   2834075520.3999739     
   2608771217.2006149     
   2382731994.3350186     
   2156283029.6502533     
   3314523161.8114128     
   3120696456.9385552     
   2935406330.5382104     
   2764183517.1209502     
   2614496932.8563881     
   4602999517.1267958     
   4773767056.7417984     
   5076421289.6362886     
   5525540254.0391092     
   6133462683.1761532     
   3456388365.0715990     
   3355477557.2448530     
   3343738442.0230060     
   3432685593.3338733     
   3629611019.0864921     
   2535500140.1606803     
   2198957067.2437940     
   1897363843.0183153     
   1649639230.6767037     
   1482804147.4312541     
   2156283029.6502533     
   1775344214.6372437     
   1455052473.5172641     
   1295661680.6872783     
   1419453537.9887464     
   2614496932.8563881     
   2507378665.2827020     
   2567919038.9265552     
   2861364450.3504906     
   3415314183.2336435     
   5658132037.9283533     
   5890241144.3514967     
   6114690300.8511362     
   6328985613.4008551     
   6532880363.5981054     
   6492364175.5358973     
   6587190896.3947515     
   6757208674.7106705     
   6960380565.5308352     
   7170065796.9753485     
   7982176053.1042795     
   7735322433.1558838     
   7669764236.4879179     
   7670411899.6245747     
   7667392378.0975227     
   10128028416.551977     
   9321489163.1246681     
   8827132492.9113216     
   8445569814.5471106     
   8039188320.2109537     
   12930015297.729443     
   11338433431.479969     
   10210502592.590591     
   9275520507.0200672     
   8309479877.6339579     
   6532880363.5981054     
   6323372220.9473991     
   6135475503.2044258     
   5955402419.6092663     
   5774185987.7453566     
   7170065796.9753485     
   6910583785.8576164     
   6658736082.8662186     
   6410684455.2134132     
   6163300845.1888266     
   7667392378.0975227     
   7384588047.6676102     
   7107035301.8855085     
   6834804964.9247732     
   6568076981.7513952     
   8039188320.2109537     
   7752827557.3672209     
   7481909318.1854773     
   7224537857.9192934     
   6980700458.9867353     
   8309479877.6339579     
   8027672727.3400240     
   7787386326.3590002     
   7578220725.0448980     
   7395300349.9888477     
   5774185987.7453566     
   5609547125.1858501     
   5447700974.8776531     
   5288528743.0242395     
   5131974914.0050993     
   6163300845.1888266     
   6005531490.6952820     
   5848142136.0034828     
   5691131060.5025692     
   5534497647.3780346     
   6568076981.7513952     
   6416704669.8958349     
   6263435949.0636721     
   6108220785.5732880     
   5951040114.5591211     
   6980700458.9867353     
   6836296322.8349743     
   6687848173.0908098     
   6535130786.2629499     
   6378058297.1307106     
   7395300349.9888477     
   7259189980.8540268     
   7117026661.9042749     
   6968317323.6819210     
   6812884486.5399895     
   5131974914.0050993     
   4972956772.2320881     
   4811687187.5973854     
   4648510450.4758110     
   4483985451.6451788     
   5534497647.3780346     
   5392541528.9685202     
   5251035223.9553967     
   5110090123.9225168     
   4969885088.8862343     
   5951040114.5591211     
   5813527175.4895058     
   5678125271.1000843     
   5544825548.5178156     
   5413661054.8166504     
   6378058297.1307106     
   6232012786.9013586     
   6088925446.1727753     
   5948836720.9002857     
   5811900672.2897444     
   6812884486.5399895     
   6645279448.0227919     
   6480823326.6778660     
   6319785075.2640657     
   6162704949.0723019     
   4483985451.6451788     
   4361148844.0039654     
   4241278871.7870736     
   4123555388.3134408     
   4007271236.3642149     
   4969885088.8862343     
   4838477999.2527742     
   4707571621.7929964     
   4576711190.6869726     
   4445530465.2281237     
   5413661054.8166504     
   5274868032.0720959     
   5134965930.4435472     
   4993724655.6167784     
   4850985521.6030617     
   5811900672.2897444     
   5667986833.8962088     
   5521948592.9146461     
   5373678589.6180506     
   5223132064.5838881     
   6162704949.0723019     
   6016567643.1017218     
   5867727317.5021381     
   5716122125.4447432     
   5561751972.5352678     
   4007271236.3642149     
   3829625201.8765049     
   3654974956.5978136     
   3483279614.2353840     
   3314523161.8114128     
   4445530465.2281237     
   4264936806.0559797     
   4086103975.4428043     
   3908986751.7240438     
   3733552707.4224920     
   4850985521.6030617     
   4667402885.7520256     
   4484815577.5696821     
   4303195111.2784042     
   4122519670.7948308     
   5223132064.5838881     
   5036852563.6075430     
   4851138630.5833549     
   4665983872.6802807     
   4481385925.6009235     
   5561751972.5352678     
   5373270030.1059971     
   5185172613.0902681     
   4997473770.6709423     
   4810191070.3071356     
   3314523161.8114128     
   3120696456.9385552     
   2935406330.5382104     
   2764183517.1209502     
   2614496932.8563881     
   3733552707.4224920     
   3562053947.6375113     
   3395346552.8554964     
   3235242188.2903814     
   3084086555.7765388     
   4122519670.7948308     
   3958006512.8260112     
   3796900601.7598648     
   3639498316.5832052     
   3486236148.0095468     
   4481385925.6009235     
   4308095202.9040918     
   4138438687.7795544     
   3972551574.2125502     
   3810838437.0588489     
   4810191070.3071356     
   4612193280.7680197     
   4419399545.2232370     
   4232871666.1605334     
   4054459812.5999551     
   2614496932.8563881     
   2507378665.2827020     
   2567919038.9265552     
   2861364450.3504906     
   3415314183.2336435     
   3084086555.7765388     
   2978880102.8940110     
   2904583238.0884609     
   2872722640.9881992     
   2896125031.6161323     
   3486236148.0095468     
   3346071415.9557400     
   3188847512.5395565     
   3016180966.8857570     
   2835538318.7514801     
   3810838437.0588489     
   3553820708.5378432     
   3261510394.8109746     
   2966284034.3269663     
   2755132940.1369019     
   4054459812.5999551     
   3581674591.8811946     
   3061431128.3644357     
   2589677210.3565083     
   2460670235.6396575     
 </DataArray>
 <DataArray  type="Float64" Name="strain" NumberOfComponents="3" format="ascii">
  0.20341662722232126        0.0000000000000000       0.12528482794619428     
  0.18662470421508795       -2.7306677963887558E-002   7.4306871477480482E-002
  0.16983278120785461       -4.4662855656208297E-002   3.5140046417706308E-002
  0.15304085820062130       -5.2068533076962228E-002   7.7843527668718035E-003
  0.13624893519338799       -4.9523710226149348E-002  -7.7602094750230527E-003
  0.15984032761367847        0.0000000000000000        9.6353870287518920E-002
  0.15318058715181726       -2.1830302998444545E-002   6.2634087603381905E-002
  0.14652084668995602       -3.6161237558418713E-002   3.7367538601049424E-002
  0.13986110622809478       -4.2992803679922503E-002   2.0554223280521484E-002
  0.13320136576623359       -4.2325001362955923E-002   1.2194141641798086E-002
  0.12647621629816141        0.0000000000000000        7.4124853510834809E-002
  0.12659076065453717       -1.6353928033001536E-002   5.5212112778178120E-002
  0.12670530501091296       -2.7659619460629128E-002   4.1394708000190891E-002
  0.12681984936728871       -3.3917074282882778E-002   3.2672639176873082E-002
  0.12693439372366447       -3.5126292499762499E-002   2.9045906308224706E-002
  0.10332429327577010        0.0000000000000000        5.8597777616141919E-002
  0.10685522472324775       -1.0877553067558519E-002   5.2040947001869148E-002
  0.11038615617072541       -1.9158001362839537E-002   4.7221554615130702E-002
  0.11391708761820306       -2.4841344885843046E-002   4.4139600455926589E-002
  0.11744801906568068       -2.7927583636569067E-002   4.2795084524256850E-002
   9.0384558546504512E-002   0.0000000000000000        4.9772642603440262E-002
   9.3973979357948961E-002  -5.4011781021155092E-003   5.3120590274454940E-002
   9.7563400169393397E-002  -1.0656383265049953E-002   5.4848078445868878E-002
  0.10115282098083785       -1.5765615488803328E-002   5.4955107117682041E-002
  0.10474224179228230       -2.0728874773375629E-002   5.3441676289894442E-002
  0.13624893519338799       -4.9523710226149348E-002  -7.7602094750230527E-003
  0.13305570166918446       -4.3038808900368063E-002  -3.4435696094181970E-003
  0.12986246814498101       -3.8624250896216746E-002  -5.0021408183569330E-004
  0.12666923462077753       -3.6280036213695334E-002   1.0698571077243785E-003
  0.12347600109657403       -3.6006164852803946E-002   1.2666439592620149E-003
  0.13320136576623359       -4.2325001362955923E-002   1.2194141641798086E-002
  0.12901140112607887       -3.8487366627803984E-002   1.2052908652194754E-002
  0.12482143648592423       -3.5809435494751740E-002   1.1291497768711377E-002
  0.12063147184576951       -3.4291207963799163E-002   9.9099089913481323E-003
  0.11644150720561489       -3.3932684034946356E-002   7.9081423201047690E-003
  0.12693439372366447       -3.5126292499762499E-002   2.9045906308224706E-002
  0.12250080441170105       -3.3935924355239955E-002   2.5357440182943385E-002
  0.11806721509973765       -3.2994620093286797E-002   2.1801902607924497E-002
  0.11363362578777425       -3.2302379713903061E-002   1.8379293583168123E-002
  0.10920003647581086       -3.1859203217088738E-002   1.5089613108674280E-002
  0.11744801906568068       -2.7927583636569067E-002   4.2795084524256850E-002
  0.11352391152605106       -2.9384482082675890E-002   3.6470024982827830E-002
  0.10959980398642136       -3.0179804691821827E-002   3.1031000435803650E-002
  0.10567569644679163       -3.0313551464006914E-002   2.6478010883184466E-002
  0.10175158890716199       -2.9785722399231135E-002   2.2811056324970280E-002
  0.10474224179228230       -2.0728874773375629E-002   5.3441676289894442E-002
  0.10208072246912878       -2.4833039810111840E-002   4.5390663051847954E-002
   9.9419203145975285E-002  -2.7364989290356866E-002   3.8978791252348835E-002
   9.6757683822821808E-002  -2.8324723214110805E-002   3.4206060891397154E-002
   9.4096164499668289E-002  -2.7712241581373545E-002   3.1072471968992862E-002
  0.12347600109657403       -3.6006164852803946E-002   1.2666439592620149E-003
  0.12093299717034098       -3.6518380671349812E-002   6.9115434724957570E-004
  0.11838999324410798       -3.6532427527140157E-002   7.3017781152984185E-005
  0.11584698931787496       -3.6048305420175245E-002  -5.8776573902775270E-004
  0.11330398539164194       -3.5066014350454755E-002  -1.2911962132927668E-003
  0.11644150720561489       -3.3932684034946356E-002   7.9081423201047690E-003
  0.11386390472770710       -3.3992442553725549E-002   7.5443781064525317E-003
  0.11128630224979931       -3.3729062365669027E-002   7.1540637435348609E-003
  0.10870869977189151       -3.3142543470776928E-002   6.7371992313518154E-003
  0.10613109729398376       -3.2232885869049377E-002   6.2937845699036765E-003
  0.10920003647581086       -3.1859203217088738E-002   1.5089613108674280E-002
  0.10660393225104720       -3.1466504436101210E-002   1.4762544037462178E-002
  0.10400782802628354       -3.0925697204197890E-002   1.4425021621803792E-002
  0.10141172380151989       -3.0236781521378771E-002   1.4077045861698771E-002
   9.8815619576756233E-002  -2.9399757387643888E-002   1.3718616757147320E-002
  0.10175158890716199       -2.9785722399231135E-002   2.2811056324970280E-002
   9.9153079740361319E-002  -2.8940566318476909E-002   2.2345652140278775E-002
   9.6554570573560622E-002  -2.8122332042726742E-002   2.1885891415959507E-002
   9.3956061406759966E-002  -2.7331019571980589E-002   2.1431774152012802E-002
   9.1357552239959297E-002  -2.6566628906238426E-002   2.0983300348438452E-002
   9.4096164499668289E-002  -2.7712241581373545E-002   3.1072471968992862E-002
   9.1511347195649462E-002  -2.6414628200852643E-002   3.0293702414901952E-002
   8.8926529891630635E-002  -2.5318966881255591E-002   2.9536673126002284E-002
   8.6341712587611766E-002  -2.4425257622582366E-002   2.8801384102293968E-002
   8.3756895283592953E-002  -2.3733500424833021E-002   2.8087835343776846E-002
  0.11330398539164194       -3.5066014350454755E-002  -1.2911962132927668E-003
  0.11057993624800133       -3.3950141444341081E-002  -9.1388070477335659E-004
  0.10785588710436070       -3.3065273828196309E-002  -8.3888155526151698E-005
  0.10513183796072005       -3.2411411502020301E-002   1.1987814344490422E-003
  0.10240778881707946       -3.1988554465813113E-002   2.9341280651517532E-003
  0.10613109729398376       -3.2232885869049377E-002   6.2937845699036765E-003
  0.10375556134137273       -3.1257456853773583E-002   6.2130460243013524E-003
  0.10138002538876177       -3.0473623718237669E-002   6.3766568200308155E-003
   9.9004489436150866E-002  -2.9881386462441283E-002   6.7846169570914411E-003
   9.6628953483539837E-002  -2.9480745086384652E-002   7.4369264354838815E-003
   9.8815619576756233E-002  -2.9399757387643888E-002   1.3718616757147320E-002
   9.6580269115778633E-002  -2.8564772263206265E-002   1.3219233567652658E-002
   9.4344918654801047E-002  -2.7881973608279133E-002   1.2755872020093137E-002
   9.2109568193823446E-002  -2.7351361422862257E-002   1.2328532114468781E-002
   8.9874217732845846E-002  -2.6972935706955997E-002   1.1937213850779990E-002
   9.1357552239959297E-002  -2.6566628906238426E-002   2.0983300348438452E-002
   8.9054059571218869E-002  -2.5872087672638884E-002   2.0104681925280421E-002
   8.6750566902478427E-002  -2.5290323498320517E-002   1.9053757444661354E-002
   8.4447074233737957E-002  -2.4821336383283415E-002   1.7830526906581365E-002
   8.2143581564997570E-002  -2.4465126327527439E-002   1.6434990311040353E-002
   8.3756895283592953E-002  -2.3733500424833021E-002   2.8087835343776846E-002
   8.1176932707693439E-002  -2.3179403082071476E-002   2.6869391097184739E-002
   7.8596970131793939E-002  -2.2698673388362019E-002   2.5270313093735383E-002
   7.6017007555894439E-002  -2.2291311343704392E-002   2.3290601333428813E-002
   7.3437044979994981E-002  -2.1957316948098854E-002   2.0930255816265037E-002
  0.10240778881707946       -3.1988554465813113E-002   2.9341280651517532E-003
   9.9892495772187395E-002  -3.1582585181335610E-002   2.7670068076124377E-003
   9.7377202727295276E-002  -3.0979386110348409E-002   2.6238990630915449E-003
   9.4861909682403212E-002  -3.0178957252851319E-002   2.5048048315892829E-003
   9.2346616637511092E-002  -2.9181298608844330E-002   2.4097241131053604E-003
   9.6628953483539837E-002  -2.9480745086384652E-002   7.4369264354838815E-003
   9.4180611826729682E-002  -2.9084110777877786E-002   6.5272484014284871E-003
   9.1732270169919639E-002  -2.8503894724731027E-002   5.7274596305184333E-003
   8.9283928513109512E-002  -2.7740096926944374E-002   5.0375601227539424E-003
   8.6835586856299440E-002  -2.6792717384517939E-002   4.4575498781350142E-003
   8.9874217732845846E-002  -2.6972935706955997E-002   1.1937213850779990E-002
   8.7578703214244741E-002  -2.6585636374419908E-002   1.0271330998338712E-002
   8.5283188695643608E-002  -2.6028403339113694E-002   8.8012131591699502E-003
   8.2987674177042489E-002  -2.5301236601037592E-002   7.5268603332736377E-003
   8.0692159658441343E-002  -2.4404136160191492E-002   6.4482725206497504E-003
   8.2143581564997570E-002  -2.4465126327527439E-002   1.6434990311040353E-002
   8.0086769934732405E-002  -2.4087161970961946E-002   1.3999254598343280E-002
   7.8029958304467212E-002  -2.3552911953496503E-002   1.1845159649045969E-002
   7.5973146674202047E-002  -2.2862376275130842E-002   9.9727054631477199E-003
   7.3916335043936854E-002  -2.2015554935864962E-002   8.3818920406490763E-003
   7.3437044979994981E-002  -2.1957316948098854E-002   2.0930255816265037E-002
   7.1704811988192757E-002  -2.1588687567504233E-002   1.7711019201442357E-002
   6.9972578996390505E-002  -2.1077420567879139E-002   1.4859299100146189E-002
   6.8240346004588309E-002  -2.0423515949224022E-002   1.2375095512376318E-002
   6.6508113012786058E-002  -1.9626973711538542E-002   1.0258408438132971E-002
   9.2346616637511092E-002  -2.9181298608844330E-002   2.4097241131053604E-003
   8.9235445615579612E-002  -2.8095644943039122E-002   2.7663608776751225E-003
   8.6124274593648076E-002  -2.7031231020146568E-002   3.1443885523556037E-003
   8.3013103571716623E-002  -2.5988056840167577E-002   3.5438071371461377E-003
   7.9901932549785060E-002  -2.4966122403100921E-002   3.9646166320473908E-003
   8.6835586856299440E-002  -2.6792717384517939E-002   4.4575498781350142E-003
   8.3757776038544979E-002  -2.5771902164200444E-002   4.1647834542397622E-003
   8.0679965220790600E-002  -2.4787797332741252E-002   3.9173465285885778E-003
   7.7602154403036194E-002  -2.3840402890140049E-002   3.7152391011811697E-003
   7.4524343585281705E-002  -2.2929718836397384E-002   3.5584611720174131E-003
   8.0692159658441343E-002  -2.4404136160191492E-002   6.4482725206497504E-003
   7.7671647632997554E-002  -2.3448159385362016E-002   5.4906322623440584E-003
   7.4651135607553695E-002  -2.2544363645335727E-002   4.6022600904158384E-003
   7.1630623582109920E-002  -2.1692748940112968E-002   3.7831560048649723E-003
   6.8610111556666048E-002  -2.0893315269693458E-002   3.0333200056913978E-003
   7.3916335043936854E-002  -2.2015554935864962E-002   8.3818920406490763E-003
   7.0977060398937114E-002  -2.1124416606523463E-002   6.7439073019878101E-003
   6.8037785753937388E-002  -2.0300929957930307E-002   5.1991292378376457E-003
   6.5098511108937634E-002  -1.9545094990085776E-002   3.7475578481981318E-003
   6.2159236463937874E-002  -1.8856911702989615E-002   2.3891931330693728E-003
   6.6508113012786058E-002  -1.9626973711538542E-002   1.0258408438132971E-002
   6.3674014336363882E-002  -1.8800673827684800E-002   7.9246085731711768E-003
   6.0839915659941693E-002  -1.8057496270524942E-002   5.7079539708535798E-003
   5.8005816983519511E-002  -1.7397441040058595E-002   3.6084446311803742E-003
   5.5171718307097328E-002  -1.6820508136285939E-002   1.6260805541514767E-003
   7.9901932549785060E-002  -2.4966122403100921E-002   3.9646166320473908E-003
   7.6561666755456503E-002  -2.4097769204595609E-002   4.2644361661475783E-003
   7.3221400961128058E-002  -2.3515338740298319E-002   5.1540373009194562E-003
   6.9881135166799585E-002  -2.3218831010210411E-002   6.6334200363629414E-003
   6.6540869372471056E-002  -2.3208246014330247E-002   8.7025843724778396E-003
   7.4524343585281705E-002  -2.2929718836397384E-002   3.5584611720174131E-003
   7.1626048957704636E-002  -2.2154344164183049E-002   2.9139116538809962E-003
   6.8727754330127566E-002  -2.1612877866169139E-002   2.5635228685764178E-003
   6.5829459702550469E-002  -2.1305319942354260E-002   2.5072948161024566E-003
   6.2931165074973427E-002  -2.1231670392739765E-002   2.7452274964603340E-003
   6.8610111556666048E-002  -2.0893315269693458E-002   3.0333200056913978E-003
   6.5858167228000253E-002  -2.0210919123771043E-002   1.4964157953275270E-003
   6.3106222899334471E-002  -1.9710416992039403E-002  -4.1948550045481370E-005
   6.0354278570668655E-002  -1.9391808874498886E-002  -1.5817730304268640E-003
   5.7602334242002867E-002  -1.9255094771149006E-002  -3.1230576458171899E-003
   6.2159236463937874E-002  -1.8856911702989615E-002   2.3891931330693728E-003
   5.9258021566343327E-002  -1.8267494083358982E-002   1.1948590486428323E-005
   5.6356806668748705E-002  -1.7807956117909834E-002  -2.6623769549454709E-003
   5.3455591771154103E-002  -1.7478297806643346E-002  -5.6337835032260457E-003
   5.0554376873559473E-002  -1.7278519149558497E-002  -8.9022710543557801E-003
   5.5171718307097328E-002  -1.6820508136285939E-002   1.6260805541514767E-003
   5.1825611972733804E-002  -1.6324069042946615E-002  -1.5394899606416823E-003
   4.8479505638370307E-002  -1.5905495243780626E-002  -5.2977623461235857E-003
   4.5133399304006755E-002  -1.5564786738787674E-002  -9.6487366022945109E-003
   4.1787292969643286E-002  -1.5301943527967932E-002  -1.4592412729154403E-002
   6.6540869372471056E-002  -2.3208246014330247E-002   8.7025843724778396E-003
   5.8645905809649457E-002  -2.1162435254443723E-002   6.7058279722376213E-003
   5.0750942246828024E-002  -1.4760250232333932E-002   9.2465292330080051E-003
   4.2855978684006535E-002  -4.0016909480021443E-003   1.6324688154789796E-002
   3.4961015121184991E-002   1.1113242598552286E-002   2.7940304737582355E-002
   6.2931165074973427E-002  -2.1231670392739765E-002   2.7452274964603340E-003
   5.8670545330616053E-002  -1.9914717737933518E-002   1.6646751416032335E-003
   5.4409925586258762E-002  -1.5877250498545825E-002   3.3153527626633705E-003
   5.0149305841901567E-002  -9.1192686745756868E-003   7.6972603596414946E-003
   4.5888686097544151E-002   3.5922773397700780E-004   1.4810397932536468E-002
   5.7602334242002867E-002  -1.9255094771149006E-002  -3.1230576458171899E-003
   5.5169830631016353E-002  -1.8667000221423868E-002  -4.9232656329321889E-003
   5.2737327020030006E-002  -1.6994250764757399E-002  -5.7984713292231621E-003
   5.0304823409043450E-002  -1.4236846401148900E-002  -5.7486747346899292E-003
   4.7872319798057117E-002  -1.0394787130599159E-002  -4.7738758493324207E-003
   5.0554376873559473E-002  -1.7278519149558497E-002  -8.9022710543557801E-003
   4.8143761710850594E-002  -1.7419282704914274E-002  -1.3057994351368604E-002
   4.5733146548141652E-002  -1.8111251030968688E-002  -1.8094943042651166E-002
   4.3322531385432822E-002  -1.9354424127722279E-002  -2.4013117128202567E-002
   4.0911916222723818E-002  -2.1148801995174660E-002  -3.0812516608023505E-002
   4.1787292969643286E-002  -1.5301943527967932E-002  -1.4592412729154403E-002
   3.7592338570118511E-002  -1.6171565188404291E-002  -2.2739511013706304E-002
   3.3397384170593736E-002  -1.9228251297180268E-002  -3.3574062377620589E-002
   2.9202429771068905E-002  -2.4472001854295756E-002  -4.7096066820897939E-002
   2.5007475371544130E-002  -3.1902816859750383E-002  -6.3305524343537423E-002
   9.0384558546504512E-002   0.0000000000000000        4.9772642603440262E-002
   9.3973979357948961E-002  -5.4011781021155092E-003   5.3120590274454940E-002
   9.7563400169393397E-002  -1.0656383265049953E-002   5.4848078445868878E-002
  0.10115282098083785       -1.5765615488803328E-002   5.4955107117682041E-002
  0.10474224179228230       -2.0728874773375629E-002   5.3441676289894442E-002
   8.2431985325559370E-002   0.0000000000000000        4.4723804013263174E-002
   8.4630066530118175E-002  -4.5651676302498031E-003   4.8194337748497018E-002
   8.6828147734676953E-002  -9.0136453037029246E-003   5.0502651769560328E-002
   8.9026228939235744E-002  -1.3345433020359367E-002   5.1648746076453117E-002
   9.1224310143794549E-002  -1.7560530780219123E-002   5.1632620669175316E-002
   7.4241546828129432E-002   0.0000000000000000        4.0525617386143978E-002
   7.5506528211232798E-002  -3.7291571583840956E-003   4.4089454203212627E-002
   7.6771509594336138E-002  -7.3709073423558983E-003   4.6949311091540942E-002
   7.8036490977439504E-002  -1.0925250551915410E-002   4.9105188051128901E-002
   7.9301472360542843E-002  -1.4392186787062625E-002   5.0557085081976566E-002
   6.5813243054214682E-002   0.0000000000000000        3.7178082722082686E-002
   6.6603364401292803E-002  -2.8931466865183891E-003   4.0805939638601726E-002
   6.7393485748370924E-002  -5.7281693810088729E-003   4.4188056411810638E-002
   6.8183607095449045E-002  -8.5050680834714530E-003   4.7324433041709434E-002
   6.8973728442527207E-002  -1.1223842793906124E-002   5.0215069528298129E-002
   5.7147074003815121E-002   0.0000000000000000        3.4681200021079293E-002
   5.7920575100298237E-002  -2.0571362146526821E-003   3.8343794054664343E-002
   5.8694076196781353E-002  -4.0854314196618457E-003   4.2218887730369477E-002
   5.9467577293264469E-002  -6.0848856150274942E-003   4.6306481048194736E-002
   6.0241078389747571E-002  -8.0554988007496189E-003   5.0606574008140046E-002
  0.10474224179228230       -2.0728874773375629E-002   5.3441676289894442E-002
  0.10208072246912878       -2.4833039810111840E-002   4.5390663051847954E-002
   9.9419203145975285E-002  -2.7364989290356866E-002   3.8978791252348835E-002
   9.6757683822821808E-002  -2.8324723214110805E-002   3.4206060891397154E-002
   9.4096164499668289E-002  -2.7712241581373545E-002   3.1072471968992862E-002
   9.1224310143794549E-002  -1.7560530780219123E-002   5.1632620669175316E-002
   8.9975036975223188E-002  -2.1101472645622156E-002   4.6351724706703568E-002
   8.8725763806651869E-002  -2.3410792678908436E-002   4.2256179614848774E-002
   8.7476490638080537E-002  -2.4488490880077894E-002   3.9345985393610838E-002
   8.6227217469509218E-002  -2.4334567249130606E-002   3.7621142042989851E-002
   7.9301472360542843E-002  -1.4392186787062625E-002   5.0557085081976566E-002
   7.9010654778623193E-002  -1.7369905481132486E-002   4.7705712670705176E-002
   7.8719837196703529E-002  -1.9456596067459950E-002   4.5585900562120266E-002
   7.8429019614783879E-002  -2.0652258546045004E-002   4.4197648756221820E-002
   7.8138202032864229E-002  -2.0956892916887647E-002   4.3540957253009771E-002
   6.8973728442527207E-002  -1.1223842793906124E-002   5.0215069528298129E-002
   6.9187575879328722E-002  -1.3638338316642830E-002   4.9452626943852787E-002
   6.9401423316130278E-002  -1.5502399456011475E-002   4.8967954094163393E-002
   6.9615270752931807E-002  -1.6816026212012111E-002   4.8761050979229968E-002
   6.9829118189733336E-002  -1.7579218584644691E-002   4.8831917599052505E-002
   6.0241078389747571E-002  -8.0554988007496189E-003   5.0606574008140046E-002
   6.0505800277339830E-002  -9.9067711521531321E-003   5.1592467526146386E-002
   6.0770522164932068E-002  -1.1548202844563028E-002   5.2402340210978157E-002
   6.1035244052524328E-002  -1.2979793877979214E-002   5.3036192062635434E-002
   6.1299965940116580E-002  -1.4201544252401749E-002   5.3494023081118114E-002
   9.4096164499668289E-002  -2.7712241581373545E-002   3.1072471968992862E-002
   9.1511347195649462E-002  -2.6414628200852643E-002   3.0293702414901952E-002
   8.8926529891630635E-002  -2.5318966881255591E-002   2.9536673126002284E-002
   8.6341712587611766E-002  -2.4425257622582366E-002   2.8801384102293968E-002
   8.3756895283592953E-002  -2.3733500424833021E-002   2.8087835343776846E-002
   8.6227217469509218E-002  -2.4334567249130606E-002   3.7621142042989851E-002
   8.3731261926992387E-002  -2.3596681994384399E-002   3.6556600256002422E-002
   8.1235306384475542E-002  -2.2922495324157060E-002   3.5648041726827645E-002
   7.8739350841958711E-002  -2.2312007238448759E-002   3.4895466455465686E-002
   7.6243395299441893E-002  -2.1765217737259368E-002   3.4298874441916399E-002
   7.8138202032864229E-002  -2.0956892916887647E-002   4.3540957253009771E-002
   7.5865351244470872E-002  -2.0778735787916103E-002   4.2328896709530620E-002
   7.3592500456077486E-002  -2.0526023767058615E-002   4.1407062416485646E-002
   7.1319649667684101E-002  -2.0198756854315165E-002   4.0775454373874843E-002
   6.9046798879290744E-002  -1.9796935049685771E-002   4.0434072581698351E-002
   6.9829118189733336E-002  -1.7579218584644691E-002   4.8831917599052505E-002
   6.7913615148084902E-002  -1.7960789581447839E-002   4.7610591775486572E-002
   6.5998112106436441E-002  -1.8129552209960167E-002   4.6813735194976329E-002
   6.4082609064787951E-002  -1.8085506470181572E-002   4.6441347857521735E-002
   6.2167106023139546E-002  -1.7828652362112188E-002   4.6493429763122714E-002
   6.1299965940116580E-002  -1.4201544252401749E-002   5.3494023081118114E-002
   5.9876053637834485E-002  -1.5142843374979564E-002   5.2401685453870327E-002
   5.8452141335552391E-002  -1.5733080652861629E-002   5.1868060062299673E-002
   5.7028229033270310E-002  -1.5972256086047951E-002   5.1893146906406055E-002
   5.5604316730988229E-002  -1.5860369674538549E-002   5.2476945986189544E-002
   8.3756895283592953E-002  -2.3733500424833021E-002   2.8087835343776846E-002
   8.1176932707693439E-002  -2.3179403082071476E-002   2.6869391097184739E-002
   7.8596970131793939E-002  -2.2698673388362019E-002   2.5270313093735383E-002
   7.6017007555894439E-002  -2.2291311343704392E-002   2.3290601333428813E-002
   7.3437044979994981E-002  -2.1957316948098854E-002   2.0930255816265037E-002
   7.6243395299441893E-002  -2.1765217737259368E-002   3.4298874441916399E-002
   7.3448634783500444E-002  -2.1276826337269593E-002   3.3499936942673204E-002
   7.0653874267558953E-002  -2.0841532555160185E-002   3.2652037320203262E-002
   6.7859113751617461E-002  -2.0459336390930935E-002   3.1755175574506515E-002
   6.5064353235675998E-002  -2.0130237844581983E-002   3.0809351705583160E-002
   6.9046798879290744E-002  -1.9796935049685771E-002   4.0434072581698351E-002
   6.6368912056937734E-002  -1.9374249592467710E-002   4.0074911860975872E-002
   6.3691025234584711E-002  -1.8984391721958236E-002   3.9998460650657069E-002
   6.1013138412231688E-002  -1.8627361438157387E-002   4.0204718950741916E-002
   5.8335251589878692E-002  -1.8303158741065126E-002   4.0693686761230453E-002
   6.2167106023139546E-002  -1.7828652362112188E-002   4.6493429763122714E-002
   5.9937764528005394E-002  -1.7471672847665827E-002   4.6594315852092644E-002
   5.7708423032871256E-002  -1.7127250888756398E-002   4.7309583085096550E-002
   5.5479081537737118E-002  -1.6795386485383885E-002   4.8639231462134613E-002
   5.3249740042602967E-002  -1.6476079637548262E-002   5.0583260983206826E-002
   5.5604316730988229E-002  -1.5860369674538549E-002   5.2476945986189544E-002
   5.4155192196703394E-002  -1.5569096102863930E-002   5.3058148916023506E-002
   5.2706067662418574E-002  -1.5270110055554516E-002   5.4585404623521974E-002
   5.1256943128133753E-002  -1.4963411532610356E-002   5.7058713108685009E-002
   4.9807818593848918E-002  -1.4649000534031398E-002   6.0478074371512536E-002
   7.3437044979994981E-002  -2.1957316948098854E-002   2.0930255816265037E-002
   7.1704811988192757E-002  -2.1588687567504233E-002   1.7711019201442357E-002
   6.9972578996390505E-002  -2.1077420567879139E-002   1.4859299100146189E-002
   6.8240346004588309E-002  -2.0423515949224022E-002   1.2375095512376318E-002
   6.6508113012786058E-002  -1.9626973711538542E-002   1.0258408438132971E-002
   6.5064353235675998E-002  -2.0130237844581983E-002   3.0809351705583160E-002
   6.3646496949991832E-002  -1.9758022365848907E-002   2.9321549932713145E-002
   6.2228640664307611E-002  -1.9246475404467174E-002   2.8094985058552679E-002
   6.0810784378623396E-002  -1.8595596960436778E-002   2.7129657083101770E-002
   5.9392928092939223E-002  -1.7805387033757891E-002   2.6425566006360590E-002
   5.8335251589878692E-002  -1.8303158741065126E-002   4.0693686761230453E-002
   5.7125492395495664E-002  -1.7927357164193705E-002   4.0934013693931438E-002
   5.5915733201112629E-002  -1.7415530241055157E-002   4.1329297910525170E-002
   5.4705974006729594E-002  -1.6767677971649651E-002   4.1879539411011621E-002
   5.3496214812346600E-002  -1.5983800355977074E-002   4.2584738195390923E-002
   5.3249740042602967E-002  -1.6476079637548262E-002   5.0583260983206826E-002
   5.2141798324704322E-002  -1.6096691962538483E-002   5.2548410485097320E-002
   5.1033856606805608E-002  -1.5584585077643138E-002   5.4562237656063640E-002
   4.9925914888906894E-002  -1.4939758982862494E-002   5.6624742496105933E-002
   4.8817973171008271E-002  -1.4162213678196395E-002   5.8735925005223968E-002
   4.9807818593848918E-002  -1.4649000534031398E-002   6.0478074371512536E-002
   4.8695414737617723E-002  -1.4266026760883205E-002   6.4164740306210749E-002
   4.7583010881386514E-002  -1.3753639914231147E-002   6.7793804295168014E-002
   4.6470607025155306E-002  -1.3111839994075315E-002   7.1365266338384484E-002
   4.5358203168924083E-002  -1.2340627000415549E-002   7.4879126435859977E-002
   6.6508113012786058E-002  -1.9626973711538542E-002   1.0258408438132971E-002
   6.3674014336363882E-002  -1.8800673827684800E-002   7.9246085731711768E-003
   6.0839915659941693E-002  -1.8057496270524942E-002   5.7079539708535798E-003
   5.8005816983519511E-002  -1.7397441040058595E-002   3.6084446311803742E-003
   5.5171718307097328E-002  -1.6820508136285939E-002   1.6260805541514767E-003
   5.9392928092939223E-002  -1.7805387033757891E-002   2.6425566006360590E-002
   5.6695628627812814E-002  -1.6981887709493979E-002   2.5251954222218334E-002
   5.3998329162686404E-002  -1.6231141072708719E-002   2.4234795598023093E-002
   5.1301029697560008E-002  -1.5553147123402233E-002   2.3374090133775519E-002
   4.8603730232433584E-002  -1.4947905861574573E-002   2.2669837829474959E-002
   5.3496214812346600E-002  -1.5983800355977074E-002   4.2584738195390923E-002
   5.0975022455818975E-002  -1.5163101591302852E-002   4.2581684131283146E-002
   4.8453830099291356E-002  -1.4404785874892606E-002   4.2774391124425590E-002
   4.5932637742763717E-002  -1.3708853206745870E-002   4.3162859174818352E-002
   4.3411445386236119E-002  -1.3075303586863124E-002   4.3747088282461294E-002
   4.8817973171008271E-002  -1.4162213678196395E-002   5.8735925005223968E-002
   4.6512195820382393E-002  -1.3344315473111934E-002   5.9913798300365709E-002
   4.4206418469756509E-002  -1.2578430677076494E-002   6.1326740550060550E-002
   4.1900641119130680E-002  -1.1864559290089661E-002   6.2974751754308597E-002
   3.9594863768504802E-002  -1.1202701312151744E-002   6.4857831913110120E-002
   4.5358203168924083E-002  -1.2340627000415549E-002   7.4879126435859977E-002
   4.3307148721503000E-002  -1.1525529354920905E-002   7.7248296729465954E-002
   4.1256094274081917E-002  -1.0752075479260242E-002   7.9891843874928259E-002
   3.9205039826660820E-002  -1.0020265373433306E-002   8.2809767872246698E-002
   3.7153985379239723E-002  -9.3300990374403647E-003   8.6002068721421410E-002
   5.5171718307097328E-002  -1.6820508136285939E-002   1.6260805541514767E-003
   5.1825611972733804E-002  -1.6324069042946615E-002  -1.5394899606416823E-003
   4.8479505638370307E-002  -1.5905495243780626E-002  -5.2977623461235857E-003
   4.5133399304006755E-002  -1.5564786738787674E-002  -9.6487366022945109E-003
   4.1787292969643286E-002  -1.5301943527967932E-002  -1.4592412729154403E-002
   4.8603730232433584E-002  -1.4947905861574573E-002   2.2669837829474959E-002
   4.4892309925869511E-002  -1.4387589450367777E-002   2.1059877287668505E-002
   4.1180889619305355E-002  -1.3844370052923882E-002   1.9311990672149434E-002
   3.7469469312741220E-002  -1.3318247669243291E-002   1.7426177982918407E-002
   3.3758049006177127E-002  -1.2809222299325684E-002   1.5402439219974917E-002
   4.3411445386236119E-002  -1.3075303586863124E-002   4.3747088282461294E-002
   3.9789486904448022E-002  -1.2451109857788703E-002   4.3753505994051159E-002
   3.6167528422659911E-002  -1.1783244862067346E-002   4.4076773428905369E-002
   3.2545569940871800E-002  -1.1071708599698905E-002   4.4716890587024001E-002
   2.8923611459083703E-002  -1.0316501070683465E-002   4.5673857468406839E-002
   3.9594863768504802E-002  -1.1202701312151744E-002   6.4857831913110120E-002
   3.6517142908469392E-002  -1.0514630265209803E-002   6.6541396158506558E-002
   3.3439422048433948E-002  -9.7221196712105953E-003   6.8996585924143913E-002
   3.0361701188398531E-002  -8.8251695301545755E-003   7.2223401210022506E-002
   2.7283980328363093E-002  -7.8237798420412313E-003   7.6221842016141836E-002
   3.7153985379239723E-002  -9.3300990374403647E-003   8.6002068721421410E-002
   3.5075277937933635E-002  -8.5781506726307633E-003   8.9423547781034396E-002
   3.2996570496627506E-002  -7.6609944803540803E-003   9.4071428157865206E-002
   3.0917863055321397E-002  -6.5786304606101943E-003   9.9945709851913658E-002
   2.8839155614015261E-002  -5.3310586133991089E-003  0.10704639286317952     
   4.1787292969643286E-002  -1.5301943527967932E-002  -1.4592412729154403E-002
   3.7592338570118511E-002  -1.6171565188404291E-002  -2.2739511013706304E-002
   3.3397384170593736E-002  -1.9228251297180268E-002  -3.3574062377620589E-002
   2.9202429771068905E-002  -2.4472001854295756E-002  -4.7096066820897939E-002
   2.5007475371544130E-002  -3.1902816859750383E-002  -6.3305524343537423E-002
   3.3758049006177127E-002  -1.2809222299325684E-002   1.5402439219974917E-002
   2.7556889941630885E-002  -1.2894679769044903E-002   9.4519292092119511E-003
   2.1355730877084728E-002  -1.4152005904274595E-002   2.1764629477689090E-003
   1.5154571812538563E-002  -1.6581200705014627E-002  -6.4239595643546671E-003
   8.9534127479922732E-003  -2.0182264171265341E-002  -1.6349338327158458E-002
   2.8923611459083703E-002  -1.0316501070683465E-002   4.5673857468406839E-002
   2.2078744558198360E-002  -9.6177943496852658E-003   4.2935131514261732E-002
   1.5233877657313030E-002  -9.0757605113688591E-003   4.0233946138119002E-002
   8.3890107564277006E-003  -8.6903995557336359E-003   3.7570301339977935E-002
   1.5441438555424125E-003  -8.4617114827801876E-003   3.4944197119838871E-002
   2.7283980328363093E-002  -7.8237798420412313E-003   7.6221842016141836E-002
   2.1157902419820941E-002  -6.3409089303259197E-003   7.7710095901443621E-002
   1.5031824511278758E-002  -3.9995151184629325E-003   8.0598387193429655E-002
   8.9057466027366444E-003  -7.9959840645279796E-004   8.4886715892100353E-002
   2.7796686941944787E-003   3.2588412057047988E-003   9.0575081997455356E-002
   2.8839155614015261E-002  -5.3310586133991089E-003  0.10704639286317952     
   2.4794363526498581E-002  -3.0640235109661296E-003  0.11377682237075720     
   2.0749571438981873E-002   1.0767302744425500E-003  0.12326978611370160     
   1.6704779351465172E-002   7.0912027428282898E-003  0.13552528409201231     
   1.2659987263948458E-002   1.4979393894190007E-002  0.15054331630568996     
   5.7147074003815121E-002   0.0000000000000000        3.4681200021079293E-002
   5.7920575100298237E-002  -2.0571362146526821E-003   3.8343794054664343E-002
   5.8694076196781353E-002  -4.0854314196618457E-003   4.2218887730369477E-002
   5.9467577293264469E-002  -6.0848856150274942E-003   4.6306481048194736E-002
   6.0241078389747571E-002  -8.0554988007496189E-003   5.0606574008140046E-002
   4.8650648428183396E-002   0.0000000000000000        3.2805721646439391E-002
   4.9572282207855943E-002  -1.6870320540302635E-003   3.6988089427711125E-002
   5.0493915987528497E-002  -3.3893281565103191E-003   4.1254222933241637E-002
   5.1415549767201051E-002  -5.1068883074401709E-003   4.5604122163030947E-002
   5.2337183546873597E-002  -6.8397125068198079E-003   5.0037787117079013E-002
   4.0731575078572148E-002   0.0000000000000000        3.1322399961468558E-002
   4.1672607623572826E-002  -1.3169278934078450E-003   3.5980436432333666E-002
   4.2613640168573511E-002  -2.6932248933587933E-003   4.0593504709596245E-002
   4.3554672713574188E-002  -4.1288909998528469E-003   4.5161604793256281E-002
   4.4495705258574866E-002  -5.6239262128900012E-003   4.9684736683313802E-002
   3.3389853954981376E-002   0.0000000000000000        3.0231234966166802E-002
   3.4221551347448871E-002  -9.4682373278542680E-004   3.5320835068531967E-002
   3.5053248739916366E-002  -1.9971216302072672E-003   4.0236733059433316E-002
   3.5884946132383862E-002  -3.1508936922655232E-003   4.4978928938870795E-002
   3.6716643524851350E-002  -4.4081399189601911E-003   4.9547422706844459E-002
   2.6625485057411080E-002   0.0000000000000000        2.9532226660534122E-002
   2.7219113379484086E-002  -5.7671957216300779E-004   3.5009285336306040E-002
   2.7812741701557089E-002  -1.3010183670557410E-003   4.0183907982752815E-002
   2.8406370023630091E-002  -2.1728963846781996E-003   4.5056094599874433E-002
   2.8999998345703090E-002  -3.1923536250303818E-003   4.9625845187670894E-002
   6.0241078389747571E-002  -8.0554988007496189E-003   5.0606574008140046E-002
   6.0505800277339830E-002  -9.9067711521531321E-003   5.1592467526146386E-002
   6.0770522164932068E-002  -1.1548202844563028E-002   5.2402340210978157E-002
   6.1035244052524328E-002  -1.2979793877979214E-002   5.3036192062635434E-002
   6.1299965940116580E-002  -1.4201544252401749E-002   5.3494023081118114E-002
   5.2337183546873597E-002  -6.8397125068198079E-003   5.0037787117079013E-002
   5.2457973377129374E-002  -8.4814968780235374E-003   5.1321778147396274E-002
   5.2578763207385165E-002  -9.9259375444256549E-003   5.2493925896215134E-002
   5.2699553037640942E-002  -1.1173034506026148E-002   5.3554230363535599E-002
   5.2820342867896719E-002  -1.2222787762825017E-002   5.4502691549357607E-002
   4.4495705258574866E-002  -5.6239262128900012E-003   4.9684736683313802E-002
   4.4536740583170295E-002  -7.0562226038939219E-003   5.1254328271749972E-002
   4.4577775907765745E-002  -8.3036722442882769E-003   5.2776254130363860E-002
   4.4618811232361180E-002  -9.3662751340730620E-003   5.4250514259155468E-002
   4.4659846556956616E-002  -1.0244031273248286E-002   5.5677108658124801E-002
   3.6716643524851350E-002  -4.4081399189601911E-003   4.9547422706844459E-002
   3.6742101895462592E-002  -5.6309483297643063E-003   5.1390117899207458E-002
   3.6767560266073827E-002  -6.6814069441508998E-003   5.3249324913424288E-002
   3.6793018636685049E-002  -7.5595157621199862E-003   5.5125043749495041E-002
   3.6818477007296291E-002  -8.2652747836715473E-003   5.7017274407419556E-002
   2.8999998345703090E-002  -3.1923536250303818E-003   4.9625845187670894E-002
   2.9074057314006245E-002  -4.2056740556347056E-003   5.1729147029768704E-002
   2.9148116282309400E-002  -5.0591416440135192E-003   5.3913138245396480E-002
   2.9222175250612544E-002  -5.7527563901669191E-003   5.6177818834554270E-002
   2.9296234218915702E-002  -6.2865182940948297E-003   5.8523188797242033E-002
   6.1299965940116580E-002  -1.4201544252401749E-002   5.3494023081118114E-002
   5.9876053637834485E-002  -1.5142843374979564E-002   5.2401685453870327E-002
   5.8452141335552391E-002  -1.5733080652861629E-002   5.1868060062299673E-002
   5.7028229033270310E-002  -1.5972256086047951E-002   5.1893146906406055E-002
   5.5604316730988229E-002  -1.5860369674538549E-002   5.2476945986189544E-002
   5.2820342867896719E-002  -1.2222787762825017E-002   5.4502691549357607E-002
   5.1886596238750221E-002  -1.3036435585691321E-002   5.3973898624727741E-002
   5.0952849609603744E-002  -1.3575216245494218E-002   5.3866724810691866E-002
   5.0019102980457253E-002  -1.3839129742233629E-002   5.4181170107250216E-002
   4.9085356351310755E-002  -1.3828176075909526E-002   5.4917234514402516E-002
   4.4659846556956616E-002  -1.0244031273248286E-002   5.5677108658124801E-002
   4.4079172475862717E-002  -1.0930027796403105E-002   5.5635665754480500E-002
   4.3498498394768825E-002  -1.1417351838126779E-002   5.5878748836347220E-002
   4.2917824313674954E-002  -1.1706003398419214E-002   5.6406357903725043E-002
   4.2337150232581042E-002  -1.1795982477280489E-002   5.7218492956613985E-002
   3.6818477007296291E-002  -8.2652747836715473E-003   5.7017274407419556E-002
   3.6453782349171980E-002  -8.8236200071148754E-003   5.7386986843128582E-002
   3.6089087691047683E-002  -9.2594874307593538E-003   5.7904132139265617E-002
   3.5724393032923379E-002  -9.5728770546048315E-003   5.8568710295830780E-002
   3.5359698374799076E-002  -9.7637888786514596E-003   5.9380721312824042E-002
   2.9296234218915702E-002  -6.2865182940948297E-003   5.8523188797242033E-002
   2.9010425858677989E-002  -6.7172122178266458E-003   5.9227861890671987E-002
   2.8724617498440276E-002  -7.1016230233919200E-003   5.9942874719447078E-002
   2.8438809138202549E-002  -7.4397507107904683E-003   6.0668227283567279E-002
   2.8153000777964850E-002  -7.7315952800224158E-003   6.1403919583032554E-002
   5.5604316730988229E-002  -1.5860369674538549E-002   5.2476945986189544E-002
   5.4155192196703394E-002  -1.5569096102863930E-002   5.3058148916023506E-002
   5.2706067662418574E-002  -1.5270110055554516E-002   5.4585404623521974E-002
   5.1256943128133753E-002  -1.4963411532610356E-002   5.7058713108685009E-002
   4.9807818593848918E-002  -1.4649000534031398E-002   6.0478074371512536E-002
   4.9085356351310755E-002  -1.3828176075909526E-002   5.4917234514402516E-002
   4.8405805695316849E-002  -1.3660810594473168E-002   5.5115547277208542E-002
   4.7726255039322957E-002  -1.3455488645875764E-002   5.5906955018931871E-002
   4.7046704383329058E-002  -1.3212210230117283E-002   5.7291457739572435E-002
   4.6367153727335145E-002  -1.2930975347197726E-002   5.9269055439130441E-002
   4.2337150232581042E-002  -1.1795982477280489E-002   5.7218492956613985E-002
   4.2074215656130863E-002  -1.1752525086082481E-002   5.7064159543918407E-002
   4.1811281079680677E-002  -1.1640867236197037E-002   5.7149963311392896E-002
   4.1548346503230506E-002  -1.1461008927624236E-002   5.7475904259037536E-002
   4.1285411926780313E-002  -1.1212950160364027E-002   5.8041982386852264E-002
   3.5359698374799076E-002  -9.7637888786514596E-003   5.9380721312824042E-002
   3.5160422079145409E-002  -9.8442395776917428E-003   5.8903985716153053E-002
   3.4961145783491729E-002  -9.8262458265182973E-003   5.8314429500905110E-002
   3.4761869487838062E-002  -9.7098076251311768E-003   5.7612052667079944E-002
   3.4562593192184396E-002  -9.4949249735303137E-003   5.6796855214677790E-002
   2.8153000777964850E-002  -7.7315952800224158E-003   6.1403919583032554E-002
   2.7664424964360487E-002  -7.9359540693010600E-003   6.0635025793912625E-002
   2.7175849150756135E-002  -8.0116244168395891E-003   5.9400353587468445E-002
   2.6687273337151776E-002  -7.9586063226381384E-003   5.7699902963699978E-002
   2.6198697523547421E-002  -7.7768997866966283E-003   5.5533673922607191E-002
   4.9807818593848918E-002  -1.4649000534031398E-002   6.0478074371512536E-002
   4.8695414737617723E-002  -1.4266026760883205E-002   6.4164740306210749E-002
   4.7583010881386514E-002  -1.3753639914231147E-002   6.7793804295168014E-002
   4.6470607025155306E-002  -1.3111839994075315E-002   7.1365266338384484E-002
   4.5358203168924083E-002  -1.2340627000415549E-002   7.4879126435859977E-002
   4.6367153727335145E-002  -1.2930975347197726E-002   5.9269055439130441E-002
   4.5246216493403345E-002  -1.2591174852624593E-002   6.1468006922653001E-002
   4.4125279259471538E-002  -1.2172199601905402E-002   6.3707493596515216E-002
   4.3004342025539710E-002  -1.1674049595040021E-002   6.5987515460717155E-002
   4.1883404791607931E-002  -1.1096724832028698E-002   6.8308072515259000E-002
   4.1285411926780313E-002  -1.1212950160364027E-002   5.8041982386852264E-002
   4.0254078451228567E-002  -1.0916322944365967E-002   5.8702981101841169E-002
   3.9222744975676842E-002  -1.0590759289579518E-002   5.9502652143250581E-002
   3.8191411500125089E-002  -1.0236259196004811E-002   6.0440995511080377E-002
   3.7160078024573343E-002  -9.8528226636417082E-003   6.1518011205330597E-002
   3.4562593192184396E-002  -9.4949249735303137E-003   5.6796855214677790E-002
   3.3719000611093404E-002  -9.2414710361073474E-003   5.5869662843775481E-002
   3.2875408030002412E-002  -9.0093189772536761E-003   5.5179279935374331E-002
   3.2031815448911420E-002  -8.7984687969695583E-003   5.4725706489474141E-002
   3.1188222867820432E-002  -8.6089204952547321E-003   5.4508942506075207E-002
   2.6198697523547421E-002  -7.7768997866966283E-003   5.5533673922607191E-002
   2.5640982972997842E-002  -7.5666191278487283E-003   5.2968052148455874E-002
   2.5083268422448270E-002  -7.4278786649278825E-003   5.0737376972886342E-002
   2.4525553871898701E-002  -7.3606783979342626E-003   4.8841648395898517E-002
   2.3967839321349133E-002  -7.3650183268678115E-003   4.7280866417492462E-002
   4.5358203168924083E-002  -1.2340627000415549E-002   7.4879126435859977E-002
   4.3307148721503000E-002  -1.1525529354920905E-002   7.7248296729465954E-002
   4.1256094274081917E-002  -1.0752075479260242E-002   7.9891843874928259E-002
   3.9205039826660820E-002  -1.0020265373433306E-002   8.2809767872246698E-002
   3.7153985379239723E-002  -9.3300990374403647E-003   8.6002068721421410E-002
   4.1883404791607931E-002  -1.1096724832028698E-002   6.8308072515259000E-002
   4.0107121567290710E-002  -1.0484265794153846E-002   6.9403833802267556E-002
   3.8330838342973558E-002  -9.8807129626984139E-003   7.0774760683627702E-002
   3.6554555118656400E-002  -9.2860663376624717E-003   7.2420853159339507E-002
   3.4778271894339186E-002  -8.7003259190457372E-003   7.4342111229402791E-002
   3.7160078024573343E-002  -9.8528226636417082E-003   6.1518011205330597E-002
   3.5659354765855383E-002  -9.4430022333868435E-003   6.1373101049156394E-002
   3.4158631507137459E-002  -9.0093504461368074E-003   6.1504145229829180E-002
   3.2657908248419507E-002  -8.5518673018916379E-003   6.1911143747348858E-002
   3.1157184989701554E-002  -8.0705528006511373E-003   6.2594096601715318E-002
   3.1188222867820432E-002  -8.6089204952547321E-003   5.4508942506075207E-002
   2.9963848317197030E-002  -8.4017386726198962E-003   5.3156098470132716E-002
   2.8739473766573626E-002  -8.1379879295750621E-003   5.2079997513532511E-002
   2.7515099215950221E-002  -7.8176682661207485E-003   5.1280639636274536E-002
   2.6290724665326823E-002  -7.4407796822565236E-003   5.0758024838358701E-002
   2.3967839321349133E-002  -7.3650183268678115E-003   4.7280866417492462E-002
   2.3020602221315592E-002  -7.3604751118527267E-003   4.4752826065196483E-002
   2.2073365121282051E-002  -7.2666254130134278E-003   4.2502317534737877E-002
   2.1126128021248490E-002  -7.0834692303500119E-003   4.0529340826116811E-002
   2.0178890921214956E-002  -6.8110065638619099E-003   3.8833895939333229E-002
   3.7153985379239723E-002  -9.3300990374403647E-003   8.6002068721421410E-002
   3.5075277937933635E-002  -8.5781506726307633E-003   8.9423547781034396E-002
   3.2996570496627506E-002  -7.6609944803540803E-003   9.4071428157865206E-002
   3.0917863055321397E-002  -6.5786304606101943E-003   9.9945709851913658E-002
   2.8839155614015261E-002  -5.3310586133991089E-003  0.10704639286317952     
   3.4778271894339186E-002  -8.7003259190457372E-003   7.4342111229402791E-002
   3.3692229944820781E-002  -8.0639854501856623E-003   7.6422138111035431E-002
   3.2606187995302349E-002  -7.3175386744198240E-003   7.9261094659025741E-002
   3.1520146045783938E-002  -6.4609855917479482E-003   8.2858980873373927E-002
   3.0434104096265499E-002  -5.4943262021699413E-003   8.7215796754079700E-002
   3.1157184989701554E-002  -8.0705528006511373E-003   6.2594096601715318E-002
   3.0596336881110950E-002  -7.5498202277407417E-003   6.3277569784806295E-002
   3.0035488772520328E-002  -6.9740828684854497E-003   6.4252500983395133E-002
   2.9474640663929734E-002  -6.3433407228854783E-003   6.5518890197481708E-002
   2.8913792555339109E-002  -5.6575937909404961E-003   6.7076737427066158E-002
   2.6290724665326823E-002  -7.4407796822565236E-003   5.0758024838358701E-002
   2.5787598746804107E-002  -7.0356550052957031E-003   4.9989842802346862E-002
   2.5284472828281408E-002  -6.6306270625512177E-003   4.9045647130972932E-002
   2.4781346909758716E-002  -6.2256958540230093E-003   4.7925437824237034E-002
   2.4278220991235992E-002  -5.8208613797110786E-003   4.6629214882139114E-002
   2.0178890921214956E-002  -6.8110065638619099E-003   3.8833895939333229E-002
   1.9266015541900286E-002  -6.5214897828506646E-003   3.6558957163657424E-002
   1.8353140162585609E-002  -6.2871712566168608E-003   3.3640533101759573E-002
   1.7440264783270935E-002  -6.1080509851607449E-003   3.0078623753639802E-002
   1.6527389403956261E-002  -5.9841289684818277E-003   2.5873229119298291E-002
   2.8839155614015261E-002  -5.3310586133991089E-003  0.10704639286317952     
   2.4794363526498581E-002  -3.0640235109661296E-003  0.11377682237075720     
   2.0749571438981873E-002   1.0767302744425500E-003  0.12326978611370160     
   1.6704779351465172E-002   7.0912027428282898E-003  0.13552528409201231     
   1.2659987263948458E-002   1.4979393894190007E-002  0.15054331630568996     
   3.0434104096265499E-002  -5.4943262021699413E-003   8.7215796754079700E-002
   2.8628371100347744E-002  -3.8435640150180639E-003   9.1873400080322187E-002
   2.6822638104429995E-002  -9.3470253962460448E-004   9.8246587354395898E-002
   2.5016905108512271E-002   3.2322582240107908E-003  0.10633535857630069     
   2.3211172112594519E-002   8.6573182758877820E-003  0.11613971374603704     
   2.8913792555339109E-002  -5.6575937909404961E-003   6.7076737427066158E-002
   2.8300168363484937E-002  -4.6231045190696096E-003   6.9045895177238636E-002
   2.7686544171630790E-002  -2.9461353536917034E-003   7.1683686587706963E-002
   2.7072919979776643E-002  -6.2668629480687466E-004   7.4990111658471567E-002
   2.6459295787922485E-002   2.3352426575853347E-003   7.8965170389531492E-002
   2.4278220991235992E-002  -5.8208613797110786E-003   4.6629214882139114E-002
   2.3809755315910130E-002  -5.4026450231212386E-003   4.5294307661506862E-002
   2.3341289640584292E-002  -4.9575681677589967E-003   4.3581083813635617E-002
   2.2872823965258440E-002  -4.4856308136242348E-003   4.1489543338524774E-002
   2.2404358289932588E-002  -3.9868329607170017E-003   3.9019686236174328E-002
   1.6527389403956261E-002  -5.9841289684818277E-003   2.5873229119298291E-002
   1.5157131957623360E-002  -6.1821855271729231E-003   2.0618637533126982E-002
   1.3786874511290445E-002  -6.9690009818261373E-003   1.3938779032181020E-002
   1.2416617064957537E-002  -8.3445753324419454E-003   5.8336536164601133E-003
   1.1046359618624657E-002  -1.0308908579019338E-002  -3.6967387140347530E-003
   2.6625485057411080E-002   0.0000000000000000        2.9532226660534122E-002
   2.7219113379484086E-002  -5.7671957216300779E-004   3.5009285336306040E-002
   2.7812741701557089E-002  -1.3010183670557410E-003   4.0183907982752815E-002
   2.8406370023630091E-002  -2.1728963846781996E-003   4.5056094599874433E-002
   2.8999998345703090E-002  -3.1923536250303818E-003   4.9625845187670894E-002
   2.0104622652925938E-002   0.0000000000000000        2.9092162944822336E-002
   2.0434322182878856E-002  -4.3253967914685422E-004   3.4388257798062850E-002
   2.0764021712831777E-002  -9.7576377533656680E-004   3.9458931096388351E-002
   2.1093721242784691E-002  -1.6296722885691291E-003   4.4304182839798825E-002
   2.1423420772737612E-002  -2.3942652188445514E-003   4.8924013028294293E-002
   1.3493421008590620E-002   0.0000000000000000        2.8777831719283269E-002
   1.3636206220833580E-002  -2.8835978613070239E-004   3.3929857555679253E-002
   1.3778991433076542E-002  -6.5050918361739089E-004   3.8933476311570347E-002
   1.3921776645319501E-002  -1.0864481924600655E-003   4.3788687986956551E-002
   1.4064561857562462E-002  -1.5961768126587254E-003   4.8495492581837864E-002
   6.7918801244051270E-003   0.0000000000000000        2.8589232983916916E-002
   6.8247654933482589E-003  -1.4417989311454969E-004   3.3634084609155249E-002
   6.8576508622913901E-003  -3.2525459189821498E-004   3.8607543628298803E-002
   6.8905362312345220E-003  -5.4322409635100370E-004   4.3509610041347596E-002
   6.9234216001776532E-003  -7.9808840647290066E-004   4.8340283848301628E-002
   3.6946140591354037E-013   0.0000000000000000        2.8526366738723281E-002
   4.2289175633536402E-013  -9.8396117642618464E-014   3.3500938958490815E-002
   4.7632058887414619E-013  -1.7904080995556626E-013   3.8481133046573711E-002
   5.2974931299271111E-013  -2.4193494430058138E-013   4.3466949002971975E-002
   5.8317890447301401E-013  -2.8706984706028393E-013   4.8458386827685593E-002
   2.8999998345703090E-002  -3.1923536250303818E-003   4.9625845187670894E-002
   2.9074057314006245E-002  -4.2056740556347056E-003   5.1729147029768704E-002
   2.9148116282309400E-002  -5.0591416440135192E-003   5.3913138245396480E-002
   2.9222175250612544E-002  -5.7527563901669191E-003   5.6177818834554270E-002
   2.9296234218915702E-002  -6.2865182940948297E-003   5.8523188797242033E-002
   2.1423420772737612E-002  -2.3942652188445514E-003   4.8924013028294293E-002
   2.1553368085671112E-002  -3.1542555418044593E-003   5.1360103736232454E-002
   2.1683315398604609E-002  -3.7943562330905157E-003   5.3827281759901299E-002
   2.1813262711538113E-002  -4.3145672927026859E-003   5.6325547099300891E-002
   2.1943210024471603E-002  -4.7148887206409917E-003   5.8854899754431200E-002
   1.4064561857562462E-002  -1.5961768126587254E-003   4.8495492581837864E-002
   1.4200795457327038E-002  -2.1028370279742481E-003   5.1224408945064803E-002
   1.4337029057091605E-002  -2.5295708221674852E-003   5.3934810566223144E-002
   1.4473262656856174E-002  -2.8763781952384606E-003   5.6626697445312957E-002
   1.4609496256620745E-002  -3.1432591471871642E-003   5.9300069582334171E-002
   6.9234216001776532E-003  -7.9808840647290066E-004   4.8340283848301628E-002
   7.0163394289740151E-003  -1.0514185141440229E-003   5.1322062656265731E-002
   7.1092572577703796E-003  -1.2647854112444509E-003   5.4235724664362002E-002
   7.2021750865667424E-003  -1.4381890977742348E-003   5.7081269872590407E-002
   7.2950929153631060E-003  -1.5716295737333245E-003   5.9858698280950952E-002
   5.8317890447301401E-013  -2.8706984706028393E-013   4.8458386827685593E-002
   6.1205641249673093E-013  -3.1379326220770665E-013   5.1653064869835279E-002
   6.4093500472262033E-013  -3.2144447693893685E-013   5.4730024054317823E-002
   6.6981522325176845E-013  -3.1000381298454394E-013   5.7689264381133254E-002
   6.9869110497222664E-013  -2.7950558534328707E-013   6.0530785850281564E-002
   2.9296234218915702E-002  -6.2865182940948297E-003   5.8523188797242033E-002
   2.9010425858677989E-002  -6.7172122178266458E-003   5.9227861890671987E-002
   2.8724617498440276E-002  -7.1016230233919200E-003   5.9942874719447078E-002
   2.8438809138202549E-002  -7.4397507107904683E-003   6.0668227283567279E-002
   2.8153000777964850E-002  -7.7315952800224158E-003   6.1403919583032554E-002
   2.1943210024471603E-002  -4.7148887206409917E-003   5.8854899754431200E-002
   2.1683019488256662E-002  -5.0379091634276396E-003   5.9634659091530137E-002
   2.1422828952041718E-002  -5.3262172675848096E-003   6.0455314341329530E-002
   2.1162638415826763E-002  -5.5798130331125850E-003   6.1316865503829351E-002
   2.0902447879611822E-002  -5.7986964600108964E-003   6.2219312579029643E-002
   1.4609496256620745E-002  -3.1432591471871642E-003   5.9300069582334171E-002
   1.4405479721783925E-002  -3.3586061090285779E-003   6.0143344383564862E-002
   1.4201463186947098E-002  -3.5508115117777834E-003   6.1058071274851376E-002
   1.3997446652110277E-002  -3.7198753554347026E-003   6.2044250256193693E-002
   1.3793430117273449E-002  -3.8657976399993840E-003   6.3101881327591772E-002
   7.2950929153631060E-003  -1.5716295737333245E-003   5.9858698280950952E-002
   7.1778065592597619E-003  -1.6793030546295579E-003   6.0753917766776258E-002
   7.0605202031564203E-003  -1.7754057559707013E-003   6.1751145520012672E-002
   6.9432338470530805E-003  -1.8599376777567989E-003   6.2850381540660250E-002
   6.8259474909497398E-003  -1.9328988199878404E-003   6.4051625828718997E-002
   6.9869110497222664E-013  -2.7950558534328707E-013   6.0530785850281564E-002
   6.8418881671306053E-013  -2.3049617769999031E-013   6.1466379241164187E-002
   6.6968479373041845E-013  -1.6365554744712796E-013   6.2534537076813335E-002
   6.5518293915212134E-013  -7.8932086561289694E-014   6.3735259357229013E-002
   6.4067848248861026E-013   2.3647750424515834E-014   6.5068546082411194E-002
   2.8153000777964850E-002  -7.7315952800224158E-003   6.1403919583032554E-002
   2.7664424964360487E-002  -7.9359540693010600E-003   6.0635025793912625E-002
   2.7175849150756135E-002  -8.0116244168395891E-003   5.9400353587468445E-002
   2.6687273337151776E-002  -7.9586063226381384E-003   5.7699902963699978E-002
   2.6198697523547421E-002  -7.7768997866966283E-003   5.5533673922607191E-002
   2.0902447879611822E-002  -5.7986964600108964E-003   6.2219312579029643E-002
   2.0095074241359659E-002  -5.9519655519312750E-003   6.1851536905134084E-002
   1.9287700603107492E-002  -6.0087183125253178E-003   6.1311943999267204E-002
   1.8480326964855319E-002  -5.9689547417929893E-003   6.0600533861428961E-002
   1.7672953326603159E-002  -5.8326748397342365E-003   5.9717306491619437E-002
   1.3793430117273449E-002  -3.8657976399993840E-003   6.3101881327591772E-002
   1.2961219839726441E-002  -3.9679770345615734E-003   6.3103051658506895E-002
   1.2129009562179417E-002  -4.0058122082110448E-003   6.3226365942803647E-002
   1.1296799284632397E-002  -3.9793031609478384E-003   6.3471824180482000E-002
   1.0464589007085388E-002  -3.8884498927719141E-003   6.3839426371541969E-002
   6.8259474909497398E-003  -1.9328988199878404E-003   6.4051625828718997E-002
   6.2628617594608334E-003  -1.9839885171918439E-003   6.4389570054031106E-002
   5.6997760279719296E-003  -2.0029061038967450E-003   6.5143619418077781E-002
   5.1366902964830249E-003  -1.9896515801026884E-003   6.6313773920859007E-002
   4.5736045649941272E-003  -1.9442249458095570E-003   6.7900033562374965E-002
   6.4067848248861026E-013   2.3647750424515834E-014   6.5068546082411194E-002
   5.6284664429195885E-013   1.7791323969618134E-013   6.5711092091706641E-002
   4.8501654081878343E-013   4.1749936841029012E-013   6.7063704425089660E-002
   4.0718730470734599E-013   7.4246164771807344E-013   6.9126383082560222E-002
   3.2935459914895659E-013   1.1528000776195313E-012   7.1899128064118245E-002
   2.6198697523547421E-002  -7.7768997866966283E-003   5.5533673922607191E-002
   2.5640982972997842E-002  -7.5666191278487283E-003   5.2968052148455874E-002
   2.5083268422448270E-002  -7.4278786649278825E-003   5.0737376972886342E-002
   2.4525553871898701E-002  -7.3606783979342626E-003   4.8841648395898517E-002
   2.3967839321349133E-002  -7.3650183268678115E-003   4.7280866417492462E-002
   1.7672953326603159E-002  -5.8326748397342365E-003   5.9717306491619437E-002
   1.7401305884292770E-002  -5.6749643454756249E-003   5.8357587433125246E-002
   1.7129658441982380E-002  -5.5709089981434215E-003   5.7235055992527595E-002
   1.6858010999671987E-002  -5.5205087977377530E-003   5.6349712169826635E-002
   1.6586363557361594E-002  -5.5237637442585030E-003   5.5701555965022298E-002
   1.0464589007085388E-002  -3.8884498927719141E-003   6.3839426371541969E-002
   1.0381249692329040E-002  -3.7833095631025493E-003   6.3703495077705563E-002
   1.0297910377572691E-002  -3.7139393313589918E-003   6.3706992421080605E-002
   1.0214571062816341E-002  -3.6803391975412164E-003   6.3849918401667163E-002
   1.0131231748060007E-002  -3.6825091616492778E-003   6.4132273019465086E-002
   4.5736045649941272E-003  -1.9442249458095570E-003   6.7900033562374965E-002
   4.5808143971066686E-003  -1.8916547807294876E-003   6.9005775082197074E-002
   4.5880242292192161E-003  -1.8569696645745742E-003   7.0153186258545372E-002
   4.5952340613317627E-003  -1.8401695973447210E-003   7.1342267091420136E-002
   4.6024438934443128E-003  -1.8412545790399554E-003   7.2573017580821172E-002
   3.2935459914895659E-013   1.1528000776195313E-012   7.1899128064118245E-002
  -1.3743485516304332E-012   1.6436019212306974E-012   7.4264427446599501E-002
  -3.0780482329628711E-012   2.2098989305163741E-012   7.6573637504921910E-002
  -4.7817479142953090E-012   2.8518021277790240E-012   7.8826758239085429E-002
  -6.4854510650746988E-012   3.5692560018674158E-012   8.1023789649090239E-002
   2.3967839321349133E-002  -7.3650183268678115E-003   4.7280866417492462E-002
   2.3020602221315592E-002  -7.3604751118527267E-003   4.4752826065196483E-002
   2.2073365121282051E-002  -7.2666254130134278E-003   4.2502317534737877E-002
   2.1126128021248490E-002  -7.0834692303500119E-003   4.0529340826116811E-002
   2.0178890921214956E-002  -6.8110065638619099E-003   3.8833895939333229E-002
   1.6586363557361594E-002  -5.5237637442585030E-003   5.5701555965022298E-002
   1.5906477642282660E-002  -5.5203563328241612E-003   5.4167822103859842E-002
   1.5226591727203705E-002  -5.4499690585528421E-003   5.2891258790769002E-002
   1.4546705812124763E-002  -5.3126019214445909E-003   5.1871866025749822E-002
   1.3866819897045815E-002  -5.1082549214995776E-003   5.1109643808802230E-002
   1.0131231748060007E-002  -3.6825091616492778E-003   6.4132273019465086E-002
   9.6983357441698045E-003  -3.6802375537954568E-003   6.3570519028448805E-002
   9.2654397402796018E-003  -3.6333127040922009E-003   6.3245574311738328E-002
   8.8325437363894008E-003  -3.5417346125394475E-003   6.3157438869333615E-002
   8.3996477324991999E-003  -3.4055032791373008E-003   6.3306112701234804E-002
   4.6024438934443128E-003  -1.8412545790399554E-003   7.2573017580821172E-002
   4.3961765269770131E-003  -1.8401187747668218E-003   7.2960916838963524E-002
   4.1899091605097126E-003  -1.8166563496316152E-003   7.3565264097645883E-002
   3.9836417940424156E-003  -1.7708673036343874E-003   7.4386059356868275E-002
   3.7773744275751133E-003  -1.7027516367749962E-003   7.5423302616630647E-002
  -6.4854510650746988E-012   3.5692560018674158E-012   8.1023789649090239E-002
  -9.2956996267101744E-012   4.2618686357798197E-012   8.2339015535403903E-002
  -1.2105948188345650E-011   4.8290677012730043E-012   8.3850328148491832E-002
  -1.4916196749981125E-011   5.2709885067780959E-012   8.5557727488353871E-002
  -1.7726445311616601E-011   5.5873083937285628E-012   8.7461213554989981E-002
   2.0178890921214956E-002  -6.8110065638619099E-003   3.8833895939333229E-002
   1.9266015541900286E-002  -6.5214897828506646E-003   3.6558957163657424E-002
   1.8353140162585609E-002  -6.2871712566168608E-003   3.3640533101759573E-002
   1.7440264783270935E-002  -6.1080509851607449E-003   3.0078623753639802E-002
   1.6527389403956261E-002  -5.9841289684818277E-003   2.5873229119298291E-002
   1.3866819897045815E-002  -5.1082549214995776E-003   5.1109643808802230E-002
   1.2528385264117661E-002  -4.8911173358190119E-003   4.9849231452285703E-002
   1.1189950631189501E-002  -4.7153784415044364E-003   4.8381185874763977E-002
   9.8515159982613260E-003  -4.5810382385556708E-003   4.6705507076237357E-002
   8.5130813653331860E-003  -4.4880967269727012E-003   4.4822195056705483E-002
   8.3996477324991999E-003  -3.4055032791373008E-003   6.3306112701234804E-002
   7.0715059111744194E-003  -3.2607448887873869E-003   6.3074026327288979E-002
   5.7433640898496199E-003  -3.1435856263919079E-003   6.3070158797555093E-002
   4.4152222685248281E-003  -3.0540254919505429E-003   6.3294510112032992E-002
   3.0870804472000329E-003  -2.9920644854633804E-003   6.3747080270722720E-002
   3.7773744275751133E-003  -1.7027516367749962E-003   7.5423302616630647E-002
   2.8953774830705560E-003  -1.6303724417559701E-003   7.6233341788667461E-002
   2.0133805385659964E-003  -1.5717928112792927E-003   7.7707451870132963E-002
   1.1313835940614328E-003  -1.5270127453456085E-003   7.9845632861027110E-002
   2.4938664955687952E-004  -1.4960322439541013E-003   8.2647884761349891E-002
  -1.7726445311616601E-011   5.5873083937285628E-012   8.7461213554989981E-002
  -2.0193915983846011E-011   5.2758353241699751E-012   8.9327177836420968E-002
  -2.2661383186628470E-011   3.8330588703061608E-012   9.2293065092497600E-002
  -2.5128852124134404E-011   1.2594682241573452E-012   9.6358875323219614E-002
  -2.7596321061640339E-011  -2.4448776336782885E-012  0.10152460852858730     
   1.6527389403956261E-002  -5.9841289684818277E-003   2.5873229119298291E-002
   1.5157131957623360E-002  -6.1821855271729231E-003   2.0618637533126982E-002
   1.3786874511290445E-002  -6.9690009818261373E-003   1.3938779032181020E-002
   1.2416617064957537E-002  -8.3445753324419454E-003   5.8336536164601133E-003
   1.1046359618624657E-002  -1.0308908579019338E-002  -3.6967387140347530E-003
   8.5130813653331860E-003  -4.4880967269727012E-003   4.4822195056705483E-002
   6.1595148233699465E-003  -4.6366391476753976E-003   4.2082704375584673E-002
   3.8059482814067139E-003  -5.2267507415836856E-003   3.8801862417978034E-002
   1.4523817394434639E-003  -6.2584315086974679E-003   3.4979669183885426E-002
  -9.0118480251977218E-004  -7.7316814490164809E-003   3.0616124673306988E-002
   3.0870804472000329E-003  -2.9920644854633804E-003   6.3747080270722720E-002
   6.3412044789525057E-004  -3.0910927681776779E-003   6.3669880217409131E-002
  -1.8188395514095422E-003  -3.4845005013410604E-003   6.3935244525898549E-002
  -4.2717995507143124E-003  -4.1722876849530997E-003   6.4543173196190629E-002
  -6.7247595500191104E-003  -5.1544543190138459E-003   6.5493666228285452E-002
   2.4938664955687952E-004  -1.4960322439541013E-003   8.2647884761349891E-002
  -1.4190511688007036E-003  -1.5455463886801662E-003   8.5380165058600313E-002
  -3.0874889871582807E-003  -1.7422502610983555E-003   8.9338925355942289E-002
  -4.7559268055158664E-003  -2.0861438612088433E-003   9.4524165653375888E-002
  -6.4243646238734339E-003  -2.5772271890110998E-003  0.10093588595090085     
  -2.7596321061640339E-011  -2.4448776336782885E-012  0.10152460852858730     
  -2.6717923012897771E-011  -9.1824881032209760E-012  0.10721355889915812     
  -2.5839535372496059E-011  -2.0855858706703145E-011  0.11501290490810948     
  -2.4961140793200443E-011  -3.7464416985377724E-011  0.12492264655544104     
  -2.4082749683351778E-011  -5.9008353758827070E-011  0.13694278384115299     
   3.6946140591354037E-013   0.0000000000000000        2.8526366738723281E-002
   4.2289175633536402E-013  -9.8396117642618464E-014   3.3500938958490815E-002
   4.7632058887414619E-013  -1.7904080995556626E-013   3.8481133046573711E-002
   5.2974931299271111E-013  -2.4193494430058138E-013   4.3466949002971975E-002
   5.8317890447301401E-013  -2.8706984706028393E-013   4.8458386827685593E-002
  -6.7918801236783550E-003   0.0000000000000000        2.8589232983705908E-002
  -6.8247654925150643E-003   1.4417989292381944E-004   3.3634084608953986E-002
  -6.8576508613517771E-003   3.2525459155023206E-004   3.8607543628106429E-002
  -6.8905362301884855E-003   5.4322409587924218E-004   4.3509610041163209E-002
  -6.9234215990251965E-003   7.9808840591084115E-004   4.8340283848124367E-002
  -1.3493421007900299E-002   0.0000000000000000        2.8777831718868326E-002
  -1.3636206220038151E-002   2.8835978594603543E-004   3.3929857555281794E-002
  -1.3778991432176008E-002   6.5050918327950839E-004   3.8933476311188618E-002
  -1.3921776644313860E-002   1.0864481920004176E-003   4.3788687986588797E-002
  -1.4064561856451710E-002   1.5961768121087699E-003   4.8495492581482329E-002
  -2.0104622652296369E-002   0.0000000000000000        2.9092162944210537E-002
  -2.0434322182146372E-002   4.3253967896825078E-004   3.4388257797474238E-002
  -2.0764021711996372E-002   9.7576377500878473E-004   3.9458931095820285E-002
  -2.1093721241846369E-002   1.6296722881215973E-003   4.4304182839248682E-002
  -2.1423420771696369E-002   2.3942652183066918E-003   4.8924013027759429E-002
  -2.6625485056866571E-002   0.0000000000000000        2.9532226659732548E-002
  -2.7219113378839720E-002   5.7671957199046785E-004   3.5009285335531312E-002
  -2.7812741700812868E-002   1.3010183667380593E-003   4.0183907982001436E-002
  -2.8406370022786020E-002   2.1728963842427684E-003   4.5056094599142907E-002
  -2.8999998344759165E-002   3.1923536245046132E-003   4.9625845186955717E-002
   5.8317890447301401E-013  -2.8706984706028393E-013   4.8458386827685593E-002
   6.1205641249673093E-013  -3.1379326220770665E-013   5.1653064869835279E-002
   6.4093500472262033E-013  -3.2144447693893685E-013   5.4730024054317823E-002
   6.6981522325176845E-013  -3.1000381298454394E-013   5.7689264381133254E-002
   6.9869110497222664E-013  -2.7950558534328707E-013   6.0530785850281564E-002
  -6.9234215990251965E-003   7.9808840591084115E-004   4.8340283848124367E-002
  -7.0163394277625345E-003   1.0514185135262928E-003   5.1322062656098899E-002
  -7.1092572564998707E-003   1.2647854106068322E-003   5.4235724664208139E-002
  -7.2021750852372078E-003   1.4381890971524734E-003   5.7081269872452052E-002
  -7.2950929139745484E-003   1.5716295731631885E-003   5.9858698280830666E-002
  -1.4064561856451710E-002   1.5961768121087699E-003   4.8495492581482329E-002
  -1.4200795456153449E-002   2.1028370273663889E-003   5.1224408944727726E-002
  -1.4337029055855184E-002   2.5295708215351161E-003   5.3934810565909624E-002
  -1.4473262655556922E-002   2.8763781946149402E-003   5.6626697445028032E-002
  -1.4609496255258659E-002   3.1432591466058722E-003   5.9300069582082969E-002
  -2.1423420771696369E-002   2.3942652183066918E-003   4.8924013027759429E-002
  -2.1553368084560688E-002   3.1542555412064797E-003   5.1360103735721717E-002
  -2.1683315397425008E-002   3.7943562324633858E-003   5.3827281759422321E-002
  -2.1813262710289324E-002   4.3145672920774187E-003   5.6325547098861242E-002
  -2.1943210023153650E-002   4.7148887200485542E-003   5.8854899754038494E-002
  -2.8999998344759165E-002   3.1923536245046132E-003   4.9625845186955717E-002
  -2.9074057312984250E-002   4.2056740550465762E-003   5.1729147029080887E-002
  -2.9148116281209335E-002   5.0591416433916755E-003   5.3913138244746188E-002
  -2.9222175249434417E-002   5.7527563895398912E-003   5.6177818833951641E-002
  -2.9296234217659506E-002   6.2865182934912431E-003   5.8523188796697233E-002
   6.9869110497222664E-013  -2.7950558534328707E-013   6.0530785850281564E-002
   6.8418881671306053E-013  -2.3049617769999031E-013   6.1466379241164187E-002
   6.6968479373041845E-013  -1.6365554744712796E-013   6.2534537076813335E-002
   6.5518293915212134E-013  -7.8932086561289694E-014   6.3735259357229013E-002
   6.4067848248861026E-013   2.3647750424515834E-014   6.5068546082411194E-002
  -7.2950929139745484E-003   1.5716295731631885E-003   5.9858698280830666E-002
  -7.1778065578975599E-003   1.6793030541465727E-003   6.0753917766676449E-002
  -7.0605202018205722E-003   1.7754057556102903E-003   6.1751145519938731E-002
  -6.9432338457435846E-003   1.8599376775542166E-003   6.2850381540617478E-002
  -6.8259474896665961E-003   1.9328988199784902E-003   6.4051625828712683E-002
  -1.4609496255258659E-002   3.1432591466058722E-003   5.9300069582082969E-002
  -1.4405479720440236E-002   3.3586061085236971E-003   6.0143344383354350E-002
  -1.4201463185621814E-002   3.5508115113841955E-003   6.1058071274692156E-002
  -1.3997446650803394E-002   3.7198753551874074E-003   6.2044250256096355E-002
  -1.3793430115984967E-002   3.8657976399332772E-003   6.3101881327566972E-002
  -2.1943210023153650E-002   4.7148887200485542E-003   5.8854899754038494E-002
  -2.1683019486943844E-002   5.0379091629008214E-003   5.9634659091197861E-002
  -2.1422828950734038E-002   5.3262172671581284E-003   6.0455314341073582E-002
  -2.1162638414524239E-002   5.5798130328205625E-003   6.1316865503665649E-002
  -2.0902447878314436E-002   5.7986964598880641E-003   6.2219312578974090E-002
  -2.9296234217659506E-002   6.2865182934912431E-003   5.8523188796697233E-002
  -2.9010425857408369E-002   6.7172122172779007E-003   5.9227861890207012E-002
  -2.8724617497157250E-002   7.1016230229320517E-003   5.9942874719083064E-002
  -2.8438809136906117E-002   7.4397507104537203E-003   6.0668227283325431E-002
  -2.8153000776654995E-002   7.7315952798428789E-003   6.1403919582934063E-002
   6.4067848248861026E-013   2.3647750424515834E-014   6.5068546082411194E-002
   5.6284664429195885E-013   1.7791323969618134E-013   6.5711092091706641E-002
   4.8501654081878343E-013   4.1749936841029012E-013   6.7063704425089660E-002
   4.0718730470734599E-013   7.4246164771807344E-013   6.9126383082560222E-002
   3.2935459914895659E-013   1.1528000776195313E-012   7.1899128064118245E-002
  -6.8259474896665961E-003   1.9328988199784902E-003   6.4051625828712683E-002
  -6.2628617583186143E-003   1.9839885174547517E-003   6.4389570054189799E-002
  -5.6997760269706333E-003   2.0029061045546137E-003   6.5143619418431026E-002
  -5.1366902956226489E-003   1.9896515812782151E-003   6.6313773921436323E-002
  -4.5736045642746637E-003   1.9442249476254725E-003   6.7900033563205675E-002
  -1.3793430115984967E-002   3.8657976399332772E-003   6.3101881327566972E-002
  -1.2961219838534647E-002   3.9679770347315069E-003   6.3103051658764120E-002
  -1.2129009561084330E-002   4.0058122086917003E-003   6.3226365943401891E-002
  -1.1296799283634012E-002   3.9793031618139685E-003   6.3471824181480244E-002
  -1.0464589006183692E-002   3.8884498940982004E-003   6.3839426372999164E-002
  -2.0902447878314436E-002   5.7986964598880641E-003   6.2219312578974090E-002
  -2.0095074240085251E-002   5.9519655520082759E-003   6.1851536905429605E-002
  -1.9287700601856073E-002   6.0087183128288285E-003   6.1311944000002241E-002
  -1.8480326963626895E-002   5.9689547423496386E-003   6.0600533862691944E-002
  -1.7672953325397721E-002   5.8326748405709283E-003   5.9717306493498809E-002
  -2.8153000776654995E-002   7.7315952798428789E-003   6.1403919582934063E-002
  -2.7664424962970426E-002   7.9359540692851144E-003   6.0635025794186226E-002
  -2.7175849149285874E-002   8.0116244169659012E-003   5.9400353588232022E-002
  -2.6687273335601308E-002   7.9586063228854892E-003   5.7699902965071520E-002
  -2.6198697521916746E-002   7.7768997870436285E-003   5.5533673924704569E-002
   3.2935459914895659E-013   1.1528000776195313E-012   7.1899128064118245E-002
  -1.3743485516304332E-012   1.6436019212306974E-012   7.4264427446599501E-002
  -3.0780482329628711E-012   2.2098989305163741E-012   7.6573637504921910E-002
  -4.7817479142953090E-012   2.8518021277790240E-012   7.8826758239085429E-002
  -6.4854510650746988E-012   3.5692560018674158E-012   8.1023789649090239E-002
  -4.5736045642746637E-003   1.9442249476254725E-003   6.7900033563205675E-002
  -4.5808143996841771E-003   1.8916547833066899E-003   6.9005775083394782E-002
  -4.5880242350936802E-003   1.8569696680320880E-003   7.0153186260331013E-002
  -4.5952340705031972E-003   1.8401696018015903E-003   7.1342267094014533E-002
  -4.6024439059126968E-003   1.8412545846152040E-003   7.2573017584445204E-002
  -1.0464589006183692E-002   3.8884498940982004E-003   6.3839426372999164E-002
  -1.0381249694392976E-002   3.7833095649698473E-003   6.3703495079864753E-002
  -1.0297910382602266E-002   3.7139393338542215E-003   6.3706992424383463E-002
  -1.0214571070811553E-002   3.6803392007513230E-003   6.3849918406555461E-002
  -1.0131231759020842E-002   3.6825091656612630E-003   6.4132273026380734E-002
  -1.7672953325397721E-002   5.8326748405709283E-003   5.9717306493498809E-002
  -1.7401305885500755E-002   5.6749643466329422E-003   5.8357587436009432E-002
  -1.7129658445603792E-002   5.5709089996763828E-003   5.7235055997079287E-002
  -1.6858011005706827E-002   5.5205087997011112E-003   5.6349712176708408E-002
  -1.6586363565809864E-002   5.5237637467072942E-003   5.5701555974896774E-002
  -2.6198697521916746E-002   7.7768997870436285E-003   5.5533673924704569E-002
  -2.5640982973007508E-002   7.5666191282961065E-003   5.2968052151828815E-002
  -2.5083268424098266E-002   7.4278786654985648E-003   5.0737376978418333E-002
  -2.4525553875189024E-002   7.3606783986508214E-003   4.8841648404473227E-002
  -2.3967839326279779E-002   7.3650183277532699E-003   4.7280866429993351E-002
  -6.4854510650746988E-012   3.5692560018674158E-012   8.1023789649090239E-002
  -9.2956996267101744E-012   4.2618686357798197E-012   8.2339015535403903E-002
  -1.2105948188345650E-011   4.8290677012730043E-012   8.3850328148491832E-002
  -1.4916196749981125E-011   5.2709885067780959E-012   8.5557727488353871E-002
  -1.7726445311616601E-011   5.5873083937285628E-012   8.7461213554989981E-002
  -4.6024439059126968E-003   1.8412545846152040E-003   7.2573017584445204E-002
  -4.3961765448232611E-003   1.8401187813531228E-003   7.2960916843543111E-002
  -4.1899091837338219E-003   1.8166563568951521E-003   7.3565264103666178E-002
  -3.9836418226443810E-003   1.7708673112415002E-003   7.4386059364814530E-002
  -3.7773744615549470E-003   1.7027516443919311E-003   7.5423302626987987E-002
  -1.0131231759020842E-002   3.6825091656612630E-003   6.4132273026380734E-002
  -9.6983357597805915E-003   3.6802375584444047E-003   6.3570519037192255E-002
  -9.2654397605403446E-003   3.6333127089614101E-003   6.3245574323280207E-002
  -8.8325437613000959E-003   3.5417346172121247E-003   6.3157438884644479E-002
  -8.3996477620598472E-003   3.4055032831966092E-003   6.3306112721285043E-002
  -1.6586363565809864E-002   5.5237637467072942E-003   5.5701555974896774E-002
  -1.5906477654167687E-002   5.5203563355357282E-003   5.4167822116351558E-002
  -1.5226591742525511E-002   5.4499690610275535E-003   5.2891258807333870E-002
  -1.4546705830883333E-002   5.3126019231826927E-003   5.1871866047843621E-002
  -1.3866819919241154E-002   5.1082549220012874E-003   5.1109643837880983E-002
  -2.3967839326279779E-002   7.3650183277532699E-003   4.7280866429993351E-002
  -2.3020602227984549E-002   7.3604751126269408E-003   4.4752826081020936E-002
  -2.2073365129689319E-002   7.2666254130937941E-003   4.2502317555827174E-002
  -2.1126128031394086E-002   7.0834692291532990E-003   4.0529340854412080E-002
  -2.0178890933098860E-002   6.8110065608059100E-003   3.8833895976775501E-002
  -1.7726445311616601E-011   5.5873083937285628E-012   8.7461213554989981E-002
  -2.0193915983846011E-011   5.2758353241699751E-012   8.9327177836420968E-002
  -2.2661383186628470E-011   3.8330588703061608E-012   9.2293065092497600E-002
  -2.5128852124134404E-011   1.2594682241573452E-012   9.6358875323219614E-002
  -2.7596321061640339E-011  -2.4448776336782885E-012  0.10152460852858730     
  -3.7773744615549470E-003   1.7027516443919311E-003   7.5423302626987987E-002
  -2.8953775216490080E-003   1.6303724482772119E-003   7.6233341800237803E-002
  -2.0133805817430794E-003   1.5717928148276522E-003   7.7707451883588713E-002
  -1.1313836418371439E-003   1.5270127440434288E-003   7.9845632877040926E-002
  -2.4938670193121182E-004   1.4960322359244826E-003   8.2647884780594483E-002
  -8.3996477620598472E-003   3.4055032831966092E-003   6.3306112721285043E-002
  -7.0715059443247508E-003   3.2607448912788384E-003   6.3074026350149595E-002
  -5.7433641265896545E-003   3.1435856258223496E-003   6.3070158824571121E-002
  -4.4152223088545547E-003   3.0540254868274431E-003   6.3294510144549648E-002
  -3.0870804911194618E-003   2.9920644742939262E-003   6.3747080310085427E-002
  -1.3866819919241154E-002   5.1082549220012874E-003   5.1109643837880983E-002
  -1.2528385288221129E-002   4.8911173342803399E-003   4.9849231486156331E-002
  -1.1189950657201107E-002   4.7153784368170783E-003   4.8381185915444644E-002
  -9.8515160261810862E-003   4.5810382296114305E-003   4.6705507125745872E-002
  -8.5130813951610554E-003   4.4880967126632726E-003   4.4822195117059732E-002
  -2.0178890933098860E-002   6.8110065608059100E-003   3.8833895976775501E-002
  -1.9266015553338157E-002   6.5214897772818692E-003   3.6558957208258192E-002
  -1.8353140173577445E-002   6.2871712478116265E-003   3.3640533156209462E-002
  -1.7440264793816732E-002   6.1080509723953590E-003   3.0078623820629369E-002
  -1.6527389414056029E-002   5.9841289510327855E-003   2.5873229201517745E-002
  -2.7596321061640339E-011  -2.4448776336782885E-012  0.10152460852858730     
  -2.6717923012897771E-011  -9.1824881032209760E-012  0.10721355889915812     
  -2.5839535372496059E-011  -2.0855858706703145E-011  0.11501290490810948     
  -2.4961140793200443E-011  -3.7464416985377724E-011  0.12492264655544104     
  -2.4082749683351778E-011  -5.9008353758827070E-011  0.13694278384115299     
  -2.4938670193121182E-004   1.4960322359244826E-003   8.2647884780594483E-002
   1.4190511182513282E-003   1.5455463689644788E-003   8.5380165074594616E-002
   3.0874889384338716E-003   1.7422502216576513E-003   8.9338925368822736E-002
   4.7559267586164151E-003   2.0861437940036011E-003   9.4524165663278606E-002
   6.4243645787989481E-003   2.5772270860027202E-003  0.10093588595796288     
  -3.0870804911194618E-003   2.9920644742939262E-003   6.3747080310085427E-002
  -6.3412048978517786E-004   3.0910927471116956E-003   6.3669880252103087E-002
   1.8188395115491104E-003   3.4845004641709879E-003   6.3935244556196286E-002
   4.2717995128833961E-003   4.1722876254717562E-003   6.4543173222365122E-002
   6.7247595142176757E-003   5.1544542310137942E-003   6.5493666250609317E-002
  -8.5130813951610554E-003   4.4880967126632726E-003   4.4822195117059732E-002
  -6.1595148508274584E-003   4.6366391252588984E-003   4.2082704431683493E-002
  -3.8059483064938455E-003   5.2267507066845222E-003   3.8801862470230333E-002
  -1.4523817621602262E-003   6.2584314569397318E-003   3.4979669232700412E-002
   9.0118478217336619E-004   7.7316813760249792E-003   3.0616124719093751E-002
  -1.6527389414056029E-002   5.9841289510327855E-003   2.5873229201517745E-002
  -1.5157131964875489E-002   6.1821855034061013E-003   2.0618637613335933E-002
  -1.3786874515694970E-002   6.9690009491977095E-003   1.3938779110924865E-002
  -1.2416617066514438E-002   8.3445752884078149E-003   5.8336536942844991E-003
  -1.1046359617333912E-002   1.0308908521035942E-002  -3.6967386365851507E-003
  -2.6625485056866571E-002   0.0000000000000000        2.9532226659732548E-002
  -2.7219113378839720E-002   5.7671957199046785E-004   3.5009285335531312E-002
  -2.7812741700812868E-002   1.3010183667380593E-003   4.0183907982001436E-002
  -2.8406370022786020E-002   2.1728963842427684E-003   4.5056094599142907E-002
  -2.8999998344759165E-002   3.1923536245046132E-003   4.9625845186955717E-002
  -3.3389853954541776E-002   0.0000000000000000        3.0231234965192273E-002
  -3.4221551346915312E-002   9.4682373263629740E-004   3.5320835067590733E-002
  -3.5053248739288854E-002   1.9971216299300848E-003   4.0236733058517070E-002
  -3.5884946131662390E-002   3.1508936918813683E-003   4.4978928937971265E-002
  -3.6716643524035919E-002   4.4081399184901409E-003   4.9547422705953345E-002
  -4.0731575078252868E-002   0.0000000000000000        3.1322399960347642E-002
  -4.1672607623170266E-002   1.3169278932821265E-003   3.5980436431246161E-002
  -4.2613640168087663E-002   2.6932248931221146E-003   4.0593504708529071E-002
  -4.3554672713005067E-002   4.1288909995199621E-003   4.5161604792196379E-002
  -4.4495705257922485E-002   5.6239262124756721E-003   4.9684736682248078E-002
  -4.8650648427999828E-002   0.0000000000000000        3.2805721645198668E-002
  -4.9572282207604575E-002   1.6870320539279576E-003   3.6988089426497610E-002
  -5.0493915987209322E-002   3.3893281563141401E-003   4.1254222932037461E-002
  -5.1415549766814062E-002   5.1068883071585559E-003   4.5604122161818236E-002
  -5.2337183546418808E-002   6.8397125064612015E-003   5.0037787115839935E-002
  -5.7147074003782689E-002   0.0000000000000000        3.4681200019745333E-002
  -5.7920575100218245E-002   2.0571362145737860E-003   3.8343794053345065E-002
  -5.8694076196653816E-002   4.0854314195061716E-003   4.2218887729042233E-002
  -5.9467577293089380E-002   6.0848856147971541E-003   4.6306481046836857E-002
  -6.0241078389524944E-002   8.0554988004467309E-003   5.0606574006728910E-002
  -2.8999998344759165E-002   3.1923536245046132E-003   4.9625845186955717E-002
  -2.9074057312984250E-002   4.2056740550465762E-003   5.1729147029080887E-002
  -2.9148116281209335E-002   5.0591416433916755E-003   5.3913138244746188E-002
  -2.9222175249434417E-002   5.7527563895398912E-003   5.6177818833951641E-002
  -2.9296234217659506E-002   6.2865182934912431E-003   5.8523188796697233E-002
  -3.6716643524035919E-002   4.4081399184901409E-003   4.9547422705953345E-002
  -3.6742101894560765E-002   5.6309483292307401E-003   5.1390117898333462E-002
  -3.6767560265085611E-002   6.6814069435775078E-003   5.3249324912573927E-002
  -3.6793018635610443E-002   7.5595157615304300E-003   5.5125043748674725E-002
  -3.6818477006135296E-002   8.2652747830895407E-003   5.7017274406635884E-002
  -4.4495705257922485E-002   5.6239262124756721E-003   4.9684736682248078E-002
  -4.4536740582426869E-002   7.0562226034149118E-003   5.1254328270686204E-002
  -4.4577775906931273E-002   8.3036722437633478E-003   5.2776254129304853E-002
  -4.4618811231435664E-002   9.3662751335209897E-003   5.4250514258104066E-002
  -4.4659846555940068E-002   1.0244031272687842E-002   5.5677108657083800E-002
  -5.2337183546418808E-002   6.8397125064612015E-003   5.0037787115839935E-002
  -5.2457973376582569E-002   8.4814968775990835E-003   5.1321778146139078E-002
  -5.2578763206746329E-002   9.9259375439491940E-003   5.2493925894938995E-002
  -5.2699553036910082E-002   1.1173034505511539E-002   5.3554230362239635E-002
  -5.2820342867073836E-002   1.2222787762286155E-002   5.4502691548041014E-002
  -6.0241078389524944E-002   8.0554988004467309E-003   5.0606574006728910E-002
  -6.0505800277027851E-002   9.9067711517832509E-003   5.1592467524692126E-002
  -6.0770522164530758E-002   1.1548202844135033E-002   5.2402340209476310E-002
  -6.1035244052033678E-002   1.2979793877502092E-002   5.3036192061081414E-002
  -6.1299965939536592E-002   1.4201544251884440E-002   5.3494023079507458E-002
  -2.9296234217659506E-002   6.2865182934912431E-003   5.8523188796697233E-002
  -2.9010425857408369E-002   6.7172122172779007E-003   5.9227861890207012E-002
  -2.8724617497157250E-002   7.1016230229320517E-003   5.9942874719083064E-002
  -2.8438809136906117E-002   7.4397507104537203E-003   6.0668227283325431E-002
  -2.8153000776654995E-002   7.7315952798428789E-003   6.1403919582934063E-002
  -3.6818477006135296E-002   8.2652747830895407E-003   5.7017274406635884E-002
  -3.6453782347976707E-002   8.8236200065710847E-003   5.7386986842410934E-002
  -3.6089087689818104E-002   9.2594874302913167E-003   5.7904132138634608E-002
  -3.5724393031659508E-002   9.5728770542502159E-003   5.8568710295306921E-002
  -3.5359698373500933E-002   9.7637888784478100E-003   5.9380721312427873E-002
  -4.4659846555940068E-002   1.0244031272687842E-002   5.5677108657083800E-002
  -4.4079172474791657E-002   1.0930027795864236E-002   5.5635665753495323E-002
  -4.3498498393643267E-002   1.1417351837650542E-002   5.5878748835437843E-002
  -4.2917824312494857E-002   1.1706003398046699E-002   5.6406357902911299E-002
  -4.2337150231346467E-002   1.1795982477052810E-002   5.7218492955915731E-002
  -5.2820342867073836E-002   1.2222787762286155E-002   5.4502691548041014E-002
  -5.1886596237853293E-002   1.3036435585157446E-002   5.3973898623460206E-002
  -5.0952849608632750E-002   1.3575216245009786E-002   5.3866724809492686E-002
  -5.0019102979412186E-002   1.3839129741843245E-002   5.4181170106138529E-002
  -4.9085356350191636E-002   1.3828176075657790E-002   5.4917234513397709E-002
  -6.1299965939536592E-002   1.4201544251884440E-002   5.3494023079507458E-002
  -5.9876053637161537E-002   1.5142843374450592E-002   5.2401685452305530E-002
  -5.8452141334786517E-002   1.5733080652369030E-002   5.1868060060799290E-002
  -5.7028229032411476E-002   1.5972256085639729E-002   5.1893146904988627E-002
  -5.5604316730036442E-002   1.5860369674262770E-002   5.2476945984873680E-002
  -2.8153000776654995E-002   7.7315952798428789E-003   6.1403919582934063E-002
  -2.7664424962970426E-002   7.9359540692851144E-003   6.0635025794186226E-002
  -2.7175849149285874E-002   8.0116244169659012E-003   5.9400353588232022E-002
  -2.6687273335601308E-002   7.9586063228854892E-003   5.7699902965071520E-002
  -2.6198697521916746E-002   7.7768997870436285E-003   5.5533673924704569E-002
  -3.5359698373500933E-002   9.7637888784478100E-003   5.9380721312427873E-002
  -3.5160422077677174E-002   9.8442395776466296E-003   5.8903985716027063E-002
  -3.4961145781853421E-002   9.8262458266089731E-003   5.8314429501111022E-002
  -3.4761869486029676E-002   9.7098076253349895E-003   5.7612052667679658E-002
  -3.4562593190205923E-002   9.4949249738245922E-003   5.6796855215733091E-002
  -4.2337150231346467E-002   1.1795982477052810E-002   5.7218492955915731E-002
  -4.2074215654692444E-002   1.1752525086008138E-002   5.7064159543386950E-002
  -4.1811281078038449E-002   1.1640867236252017E-002   5.7149963311033988E-002
  -4.1548346501384448E-002   1.1461008927784490E-002   5.7475904258856805E-002
  -4.1285411924730432E-002   1.1212950160605542E-002   5.8041982386855422E-002
  -4.9085356350191636E-002   1.3828176075657790E-002   5.4917234513397709E-002
  -4.8405805694016292E-002   1.3660810594369677E-002   5.5115547276265844E-002
  -4.7726255037840927E-002   1.3455488645895006E-002   5.5906955018000949E-002
  -4.7046704381665590E-002   1.3212210230234018E-002   5.7291457738602905E-002
  -4.6367153725490245E-002   1.2930975347386443E-002   5.9269055438071726E-002
  -5.5604316730036442E-002   1.5860369674262770E-002   5.2476945984873680E-002
  -5.4155192195648662E-002   1.5569096102731210E-002   5.3058148914663816E-002
  -5.2706067661260875E-002   1.5270110055538112E-002   5.4585404622011890E-002
  -5.1256943126873108E-002   1.4963411532683527E-002   5.7058713106917895E-002
  -4.9807818592485315E-002   1.4649000534167456E-002   6.0478074369381934E-002
  -2.6198697521916746E-002   7.7768997870436285E-003   5.5533673924704569E-002
  -2.5640982973007508E-002   7.5666191282961065E-003   5.2968052151828815E-002
  -2.5083268424098266E-002   7.4278786654985648E-003   5.0737376978418333E-002
  -2.4525553875189024E-002   7.3606783986508214E-003   4.8841648404473227E-002
  -2.3967839326279779E-002   7.3650183277532699E-003   4.7280866429993351E-002
  -3.4562593190205923E-002   9.4949249738245922E-003   5.6796855215733091E-002
  -3.3719000609992646E-002   9.2414710364431829E-003   5.5869662845682871E-002
  -3.2875408029779361E-002   9.0093189775561217E-003   5.5179279938775520E-002
  -3.2031815449566084E-002   8.7984687971634189E-003   5.4725706495010906E-002
  -3.1188222869352793E-002   8.6089204952652376E-003   5.4508942514389119E-002
  -4.1285411924730432E-002   1.1212950160605542E-002   5.8041982386855422E-002
  -4.0254078449535630E-002   1.0916322944590252E-002   5.8702981102175297E-002
  -3.9222744974340813E-002   1.0590759289613737E-002   5.9502652144315465E-002
  -3.8191411499145997E-002   1.0236259195676046E-002   6.0440995513275829E-002
  -3.7160078023951160E-002   9.8528226627772608E-003   6.1518011209056575E-002
  -4.6367153725490245E-002   1.2930975347386443E-002   5.9269055438071726E-002
  -4.5246216491636390E-002   1.2591174852737367E-002   6.1468006921306051E-002
  -4.4125279257782542E-002   1.2172199601671435E-002   6.3707493595038106E-002
  -4.3004342023928714E-002   1.1674049594188713E-002   6.5987515459267981E-002
  -4.1883404790074866E-002   1.1096724830289229E-002   6.8308072513995663E-002
  -4.9807818592485315E-002   1.4649000534167456E-002   6.0478074369381934E-002
  -4.8695414736294997E-002   1.4266026760884384E-002   6.4164740303075118E-002
  -4.7583010880104623E-002   1.3753639913728966E-002   6.7793804290943588E-002
  -4.6470607023914305E-002   1.3111839992701199E-002   7.1365266332987343E-002
  -4.5358203167723918E-002   1.2340626997801307E-002   7.4879126429206244E-002
  -2.3967839326279779E-002   7.3650183277532699E-003   4.7280866429993351E-002
  -2.3020602227984549E-002   7.3604751126269408E-003   4.4752826081020936E-002
  -2.2073365129689319E-002   7.2666254130937941E-003   4.2502317555827174E-002
  -2.1126128031394086E-002   7.0834692291532990E-003   4.0529340854412080E-002
  -2.0178890933098860E-002   6.8110065608059100E-003   3.8833895976775501E-002
  -3.1188222869352793E-002   8.6089204952652376E-003   5.4508942514389119E-002
  -2.9963848318795783E-002   8.4017386721810944E-003   5.3156098479737998E-002
  -2.8739473768238790E-002   8.1379879282308387E-003   5.2079997525831839E-002
  -2.7515099217681811E-002   7.8176682634146788E-003   5.1280639652670587E-002
  -2.6290724667124791E-002   7.4407796777321566E-003   5.0758024860254297E-002
  -3.7160078023951160E-002   9.8528226627772608E-003   6.1518011209056575E-002
  -3.5659354764166075E-002   9.4430022317351647E-003   6.1373101052267703E-002
  -3.4158631504380962E-002   9.0093504433680568E-003   6.1504145233190012E-002
  -3.2657908244595850E-002   8.5518672976757828E-003   6.1911143751823758E-002
  -3.1157184984810765E-002   8.0705527946584588E-003   6.2594096608168545E-002
  -4.1883404790074866E-002   1.1096724830289229E-002   6.8308072513995663E-002
  -4.0107121564095335E-002   1.0484265791289277E-002   6.9403833798609885E-002
  -3.8330838338115819E-002   9.8807129585051605E-003   7.0774760677901880E-002
  -3.6554555112136310E-002   9.2860663319369978E-003   7.2420853151871412E-002
  -3.4778271886156766E-002   8.7003259115846776E-003   7.4342111220518342E-002
  -4.5358203167723918E-002   1.2340626997801307E-002   7.4879126429206244E-002
  -4.3307148718583655E-002   1.1525529350843389E-002   7.7248296718764764E-002
  -4.1256094269443370E-002   1.0752075473642361E-002   7.9891843859967226E-002
  -3.9205039820303086E-002   1.0020265366198194E-002   8.2809767852813534E-002
  -3.7153985371162809E-002   9.3300990285109520E-003   8.6002068697303813E-002
  -2.0178890933098860E-002   6.8110065608059100E-003   3.8833895976775501E-002
  -1.9266015553338157E-002   6.5214897772818692E-003   3.6558957208258192E-002
  -1.8353140173577445E-002   6.2871712478116265E-003   3.3640533156209462E-002
  -1.7440264793816732E-002   6.1080509723953590E-003   3.0078623820629369E-002
  -1.6527389414056029E-002   5.9841289510327855E-003   2.5873229201517745E-002
  -2.6290724667124791E-002   7.4407796777321566E-003   5.0758024860254297E-002
  -2.5787598745927162E-002   7.0356549986489436E-003   4.9989842827104281E-002
  -2.5284472824729551E-002   6.6306270536296424E-003   4.9045647160359515E-002
  -2.4781346903531915E-002   6.2256958426745827E-003   4.7925437860020036E-002
  -2.4278220982334286E-002   5.8208613657835806E-003   4.6629214926085683E-002
  -3.1157184984810765E-002   8.0705527946584588E-003   6.2594096608168545E-002
  -3.0596336872239498E-002   7.5498202200157821E-003   6.3277569790396102E-002
  -3.0035488759668265E-002   6.9740828594476098E-003   6.4252500988965677E-002
  -2.9474640647097039E-002   6.3433407129538082E-003   6.5518890203877175E-002
  -2.8913792534525792E-002   5.6575937805343479E-003   6.7076737435130693E-002
  -3.4778271886156766E-002   8.7003259115846776E-003   7.4342111220518342E-002
  -3.3692229932275192E-002   8.0639854413826831E-003   7.6422138098133918E-002
  -3.2606187978393653E-002   7.3175386652653794E-003   7.9261094642027990E-002
  -3.1520146024512107E-002   6.4609855832329218E-003   8.2858980852200906E-002
  -3.0434104070630547E-002   5.4943261952851846E-003   8.7215796728652234E-002
  -3.7153985371162809E-002   9.3300990285109520E-003   8.6002068697303813E-002
  -3.5075277926034237E-002   8.5781506627497228E-003   8.9423547750317411E-002
  -3.2996570480905672E-002   7.6609944710834543E-003   9.4071428119546496E-002
  -3.0917863035777104E-002   6.5786304535123338E-003   9.9945709804990845E-002
  -2.8839155590648535E-002   5.3310586100359658E-003  0.10704639280665057     
  -1.6527389414056029E-002   5.9841289510327855E-003   2.5873229201517745E-002
  -1.5157131964875489E-002   6.1821855034061013E-003   2.0618637613335933E-002
  -1.3786874515694970E-002   6.9690009491977095E-003   1.3938779110924865E-002
  -1.2416617066514438E-002   8.3445752884078149E-003   5.8336536942844991E-003
  -1.1046359617333912E-002   1.0308908521035942E-002  -3.6967386365851507E-003
  -2.4278220982334286E-002   5.8208613657835806E-003   4.6629214926085683E-002
  -2.3809755303902069E-002   5.4026450073590415E-003   4.5294307695615155E-002
  -2.3341289625469865E-002   4.9575681518029685E-003   4.3581083837877233E-002
  -2.2872823947037678E-002   4.4856307991156356E-003   4.1489543352871999E-002
  -2.2404358268605422E-002   3.9868329492969146E-003   3.9019686240599372E-002
  -2.8913792534525792E-002   5.6575937805343479E-003   6.7076737435130693E-002
  -2.8300168339879951E-002   4.6231045113117597E-003   6.9045895171821650E-002
  -2.7686544145234152E-002   2.9461353544080679E-003   7.1683686568207255E-002
  -2.7072919950588324E-002   6.2668630982337485E-004   7.4990111624287148E-002
  -2.6459295755942525E-002  -2.3352426224422240E-003   7.8965170340062230E-002
  -3.0434104070630547E-002   5.4943261952851846E-003   8.7215796728652234E-002
  -2.8628371072809133E-002   3.8435640152644779E-003   9.1873400041954961E-002
  -2.6822638074987751E-002   9.3470255701296953E-004   9.8246587301914531E-002
  -2.5016905077166383E-002  -3.2322581794687342E-003  0.10633535850853063     
  -2.3211172079344922E-002  -8.6573181941813626E-003  0.11613971366180280     
  -2.8839155590648535E-002   5.3310586100359658E-003  0.10704639280665057     
  -2.4794363502689640E-002   3.0640235192173626E-003  0.11377682230601577     
  -2.0749571414730758E-002  -1.0767302403817819E-003  0.12326978603899943     
  -1.6704779326771876E-002  -7.0912026687610340E-003  0.13552528400560160     
  -1.2659987238812953E-002  -1.4979393765920390E-002  0.15054331620582206     
  -5.7147074003782689E-002   0.0000000000000000        3.4681200019745333E-002
  -5.7920575100218245E-002   2.0571362145737860E-003   3.8343794053345065E-002
  -5.8694076196653816E-002   4.0854314195061716E-003   4.2218887729042233E-002
  -5.9467577293089380E-002   6.0848856147971541E-003   4.6306481046836857E-002
  -6.0241078389524944E-002   8.0554988004467309E-003   5.0606574006728910E-002
  -6.5813243054344578E-002   0.0000000000000000        3.7178082720693603E-002
  -6.6603364401397316E-002   2.8931466864849046E-003   4.0805939637218652E-002
  -6.7393485748450041E-002   5.7281693809354802E-003   4.4188056410411923E-002
  -6.8183607095502766E-002   8.5050680833517363E-003   4.7324433040273423E-002
  -6.8973728442555504E-002   1.1223842793733674E-002   5.0215069526803158E-002
  -7.4241546828428706E-002   0.0000000000000000        4.0525617384749461E-002
  -7.5506528211527812E-002   3.7291571583960210E-003   4.4089454201806884E-002
  -7.6771509594626919E-002   7.3709073423647931E-003   4.6949311090103342E-002
  -7.8036490977726011E-002   1.0925250551906324E-002   4.9105188049638808E-002
  -7.9301472360825118E-002   1.4392186787020610E-002   5.0557085080413289E-002
  -8.2431985326035045E-002   0.0000000000000000        4.4723804011912893E-002
  -8.4630066530609740E-002   4.5651676303071365E-003   4.8194337747109794E-002
  -8.6828147735184449E-002   9.0136453037941069E-003   5.0502651768116497E-002
  -8.9026228939759131E-002   1.3345433020460909E-002   5.1648746074933007E-002
  -9.1224310144333839E-002   1.7560530780307546E-002   5.1632620667559311E-002
  -9.0384558547163596E-002   0.0000000000000000        4.9772642602183906E-002
  -9.3973979358643100E-002   5.4011781022182560E-003   5.3120590273127349E-002
  -9.7563400170122605E-002   1.0656383265223415E-002   5.4848078444451387E-002
 -0.10115282098160211        1.5765615489015495E-002   5.4955107116156005E-002
 -0.10474224179308161        2.0728874773594492E-002   5.3441676288241216E-002
  -6.0241078389524944E-002   8.0554988004467309E-003   5.0606574006728910E-002
  -6.0505800277027851E-002   9.9067711517832509E-003   5.1592467524692126E-002
  -6.0770522164530758E-002   1.1548202844135033E-002   5.2402340209476310E-002
  -6.1035244052033678E-002   1.2979793877502092E-002   5.3036192061081414E-002
  -6.1299965939536592E-002   1.4201544251884440E-002   5.3494023079507458E-002
  -6.8973728442555504E-002   1.1223842793733674E-002   5.0215069526803158E-002
  -6.9187575879280247E-002   1.3638338316415956E-002   4.9452626942309667E-002
  -6.9401423316004990E-002   1.5502399455733239E-002   4.8967954092551585E-002
  -6.9615270752729705E-002   1.6816026211685556E-002   4.8761050977528919E-002
  -6.9829118189454448E-002   1.7579218584272888E-002   4.8831917597241641E-002
  -7.9301472360825118E-002   1.4392186787020610E-002   5.0557085080413289E-002
  -7.9010654778857214E-002   1.7369905481048654E-002   4.7705712669082849E-002
  -7.8719837196889339E-002   1.9456596067331446E-002   4.5585900560402286E-002
  -7.8429019614921464E-002   2.0652258545869013E-002   4.4197648754371537E-002
  -7.8138202032953574E-002   2.0956892916661321E-002   4.3540957250990678E-002
  -9.1224310144333839E-002   1.7560530780307546E-002   5.1632620667559311E-002
  -8.9975036975758871E-002   2.1101472645681338E-002   4.6351724705011636E-002
  -8.8725763807183902E-002   2.3410792678929659E-002   4.2256179613028320E-002
  -8.7476490638608906E-002   2.4488490880052456E-002   3.9345985391609294E-002
  -8.6227217470033923E-002   2.4334567249049761E-002   3.7621142040754590E-002
 -0.10474224179308161        2.0728874773594492E-002   5.3441676288241216E-002
 -0.10208072246998512        2.4833039810314060E-002   4.5390663050096078E-002
  -9.9419203146888596E-002   2.7364989290527865E-002   3.8978791250429738E-002
  -9.6757683823792073E-002   2.8324723214235910E-002   3.4206060889242128E-002
  -9.4096164500695550E-002   2.7712241581438188E-002   3.1072471966533330E-002
  -6.1299965939536592E-002   1.4201544251884440E-002   5.3494023079507458E-002
  -5.9876053637161537E-002   1.5142843374450592E-002   5.2401685452305530E-002
  -5.8452141334786517E-002   1.5733080652369030E-002   5.1868060060799290E-002
  -5.7028229032411476E-002   1.5972256085639729E-002   5.1893146904988627E-002
  -5.5604316730036442E-002   1.5860369674262770E-002   5.2476945984873680E-002
  -6.9829118189454448E-002   1.7579218584272888E-002   4.8831917597241641E-002
  -6.7913615147700598E-002   1.7960789581057277E-002   4.7610591773697336E-002
  -6.5998112105946707E-002   1.8129552209600767E-002   4.6813735193215064E-002
  -6.4082609064192872E-002   1.8085506469903312E-002   4.6441347855794769E-002
  -6.2167106022438967E-002   1.7828652361965042E-002   4.6493429761436521E-002
  -7.8138202032953574E-002   2.0956892916661321E-002   4.3540957250990678E-002
  -7.5865351244454510E-002   2.0778735787663979E-002   4.2328896707510805E-002
  -7.3592500455955459E-002   2.0526023766832532E-002   4.1407062414459309E-002
  -7.1319649667456381E-002   2.0198756854166996E-002   4.0775454371836162E-002
  -6.9046798878957344E-002   1.9796935049667355E-002   4.0434072579641371E-002
  -8.6227217470033923E-002   2.4334567249049761E-002   3.7621142040754590E-002
  -8.3731261927423375E-002   2.3596681994270660E-002   3.6556600253745977E-002
  -8.1235306384812744E-002   2.2922495324064297E-002   3.5648041724532009E-002
  -7.8739350842202183E-002   2.2312007238430631E-002   3.4895466453112860E-002
  -7.6243395299591551E-002   2.1765217737369676E-002   3.4298874439488397E-002
  -9.4096164500695550E-002   2.7712241581438188E-002   3.1072471966533330E-002
  -9.1511347196607098E-002   2.6414628200877366E-002   3.0293702412402757E-002
  -8.8926529892518591E-002   2.5318966881296034E-002   2.9536673123433166E-002
  -8.6341712588430097E-002   2.4425257622694235E-002   2.8801384099624752E-002
  -8.3756895284341631E-002   2.3733500425071954E-002   2.8087835340977377E-002
  -5.5604316730036442E-002   1.5860369674262770E-002   5.2476945984873680E-002
  -5.4155192195648662E-002   1.5569096102731210E-002   5.3058148914663816E-002
  -5.2706067661260875E-002   1.5270110055538112E-002   5.4585404622011890E-002
  -5.1256943126873108E-002   1.4963411532683527E-002   5.7058713106917895E-002
  -4.9807818592485315E-002   1.4649000534167456E-002   6.0478074369381934E-002
  -6.2167106022438967E-002   1.7828652361965042E-002   4.6493429761436521E-002
  -5.9937764527321552E-002   1.7471672847723330E-002   4.6594315850268714E-002
  -5.7708423032204102E-002   1.7127250889115542E-002   4.7309583083002274E-002
  -5.5479081537086646E-002   1.6795386486141740E-002   4.8639231459637201E-002
  -5.3249740041969237E-002   1.6476079638801877E-002   5.0583260980173447E-002
  -6.9046798878957344E-002   1.9796935049667355E-002   4.0434072579641371E-002
  -6.6368912056766843E-002   1.9374249592715439E-002   4.0074911858811131E-002
  -6.3691025234576357E-002   1.8984391722692968E-002   3.9998460648225681E-002
  -6.1013138412385877E-002   1.8627361439599911E-002   4.0204718947884979E-002
  -5.8335251590195376E-002   1.8303158743436354E-002   4.0693686757788977E-002
  -7.6243395299591551E-002   2.1765217737369676E-002   3.4298874439488397E-002
  -7.3448634783984640E-002   2.1276826337707541E-002   3.3499936940291186E-002
  -7.0653874268377673E-002   2.0841532556270338E-002   3.2652037317682153E-002
  -6.7859113752770733E-002   2.0459336393058133E-002   3.1755175571661291E-002
  -6.5064353237163808E-002   2.0130237848070762E-002   3.0809351702228593E-002
  -8.3756895284341631E-002   2.3733500425071954E-002   2.8087835340977377E-002
  -8.1176932708974830E-002   2.3179403082699654E-002   2.6869391094708761E-002
  -7.8596970133608071E-002   2.2698673389847806E-002   2.5270313091371725E-002
  -7.6017007558241284E-002   2.2291311346516320E-002   2.3290601330966079E-002
  -7.3437044982874483E-002   2.1957316952705280E-002   2.0930255813492143E-002
  -4.9807818592485315E-002   1.4649000534167456E-002   6.0478074369381934E-002
  -4.8695414736294997E-002   1.4266026760884384E-002   6.4164740303075118E-002
  -4.7583010880104623E-002   1.3753639913728966E-002   6.7793804290943588E-002
  -4.6470607023914305E-002   1.3111839992701199E-002   7.1365266332987343E-002
  -4.5358203167723918E-002   1.2340626997801307E-002   7.4879126429206244E-002
  -5.3249740041969237E-002   1.6476079638801877E-002   5.0583260980173447E-002
  -5.2141798324221701E-002   1.6096691964112439E-002   5.2548410480403498E-002
  -5.1033856606474227E-002   1.5584585079089844E-002   5.4562237649572638E-002
  -4.9925914888726719E-002   1.4939758983734137E-002   5.6624742487680735E-002
  -4.8817973170979224E-002   1.4162213678045155E-002   5.8735924994727962E-002
  -5.8335251590195376E-002   1.8303158743436354E-002   4.0693686757788977E-002
  -5.7125492396126958E-002   1.7927357167340528E-002   4.0934013688095086E-002
  -5.5915733202058518E-002   1.7415530244450722E-002   4.1329297902104045E-002
  -5.4705974007990092E-002   1.6767677974766936E-002   4.1879539399815806E-002
  -5.3496214813921666E-002   1.5983800358289196E-002   4.2584738181230403E-002
  -6.5064353237163808E-002   2.0130237848070762E-002   3.0809351702228593E-002
  -6.3646496952010648E-002   1.9758022370568572E-002   2.9321549926149899E-002
  -6.2228640666857502E-002   1.9246475409811628E-002   2.8094985048537816E-002
  -6.0810784381704362E-002   1.8595596965799720E-002   2.7129657069392406E-002
  -5.9392928096551195E-002   1.7805387038533113E-002   2.6425565988713619E-002
  -7.3437044982874483E-002   2.1957316952705280E-002   2.0930255813492143E-002
  -7.1704811991872841E-002   2.1588687573796631E-002   1.7711019194567884E-002
  -6.9972579000871185E-002   2.1077420575172416E-002   1.4859299088874026E-002
  -6.8240346009869585E-002   2.0423515956832589E-002   1.2375095496410637E-002
  -6.6508113018867915E-002   1.9626973718777141E-002   1.0258408417177567E-002
  -4.5358203167723918E-002   1.2340626997801307E-002   7.4879126429206244E-002
  -4.3307148718583655E-002   1.1525529350843389E-002   7.7248296718764764E-002
  -4.1256094269443370E-002   1.0752075473642361E-002   7.9891843859967226E-002
  -3.9205039820303086E-002   1.0020265366198194E-002   8.2809767852813534E-002
  -3.7153985371162809E-002   9.3300990285109520E-003   8.6002068697303813E-002
  -4.8817973170979224E-002   1.4162213678045155E-002   5.8735924994727962E-002
  -4.6512195818905491E-002   1.3344315471649479E-002   5.9913798285227124E-002
  -4.4206418466831751E-002   1.2578430674173247E-002   6.1326740529949214E-002
  -4.1900641114757976E-002   1.1864559285616610E-002   6.2974751728894385E-002
  -3.9594863762684271E-002   1.1202701305979390E-002   6.4857831882062483E-002
  -5.3496214813921666E-002   1.5983800358289196E-002   4.2584738181230403E-002
  -5.0975022456335332E-002   1.5163101592455486E-002   4.2581684111832802E-002
  -4.8453830098749012E-002   1.4404785874704028E-002   4.2774391099237329E-002
  -4.5932637741162678E-002   1.3708853205034862E-002   4.3162859143443949E-002
  -4.3411445383576358E-002   1.3075303583447800E-002   4.3747088244452698E-002
  -5.9392928096551195E-002   1.7805387038533113E-002   2.6425565988713619E-002
  -5.6695628630873220E-002   1.6981887713261618E-002   2.5251954198581873E-002
  -5.3998329165195216E-002   1.6231141075234861E-002   2.4234795567831570E-002
  -5.1301029699517227E-002   1.5553147124453031E-002   2.3374090096462311E-002
  -4.8603730233839286E-002   1.4947905860916308E-002   2.2669837784474338E-002
  -6.6508113018867915E-002   1.9626973718777141E-002   1.0258408417177567E-002
  -6.3674014342519153E-002   1.8800673834067638E-002   7.9246085454744986E-003
  -6.0839915666170377E-002   1.8057496275765653E-002   5.7079539357318687E-003
  -5.8005816989821622E-002   1.7397441043871437E-002   3.6084445879495386E-003
  -5.5171718313472840E-002   1.6820508138384593E-002   1.6260805021275360E-003
  -3.7153985371162809E-002   9.3300990285109520E-003   8.6002068697303813E-002
  -3.5075277926034237E-002   8.5781506627497228E-003   8.9423547750317411E-002
  -3.2996570480905672E-002   7.6609944710834543E-003   9.4071428119546496E-002
  -3.0917863035777104E-002   6.5786304535123338E-003   9.9945709804990845E-002
  -2.8839155590648535E-002   5.3310586100359658E-003  0.10704639280665057     
  -3.9594863762684271E-002   1.1202701305979390E-002   6.4857831882062483E-002
  -3.6517142899895785E-002   1.0514630257891761E-002   6.6541396121287205E-002
  -3.3439422037107321E-002   9.7221196639835084E-003   6.8996585879616393E-002
  -3.0361701174318845E-002   8.8251695242548833E-003   7.2223401157049893E-002
  -2.7283980311530370E-002   7.8237798387054136E-003   7.6221841953587832E-002
  -4.3411445383576358E-002   1.3075303583447800E-002   4.3747088244452698E-002
  -3.9789486900238979E-002   1.2451109853033840E-002   4.3753505949972904E-002
  -3.6167528416901580E-002   1.1783244856883632E-002   4.4076773377486583E-002
  -3.2545569933564181E-002   1.1071708594997436E-002   4.4716890526993701E-002
  -2.8923611450226802E-002   1.0316501067374834E-002   4.5673857398494236E-002
  -4.8603730233839286E-002   1.4947905860916308E-002   2.2669837784474338E-002
  -4.4892309927063848E-002   1.4387589448175898E-002   2.1059877236374369E-002
  -4.1180889620288437E-002   1.3844370049783887E-002   1.9311990613156894E-002
  -3.7469469313513040E-002   1.3318247665739932E-002   1.7426177914821948E-002
  -3.3758049006737595E-002   1.2809222296044379E-002   1.5402439141369541E-002
  -5.5171718313472840E-002   1.6820508138384593E-002   1.6260805021275360E-003
  -5.1825611980370362E-002   1.6324069043317957E-002  -1.5394900195082051E-003
  -4.8479505647267926E-002   1.5905495242683865E-002  -5.2977624133723755E-003
  -4.5133399314165497E-002   1.5564786736482636E-002  -9.6487366794648505E-003
  -4.1787292981063012E-002   1.5301943524713646E-002  -1.4592412817785838E-002
  -2.8839155590648535E-002   5.3310586100359658E-003  0.10704639280665057     
  -2.4794363502689640E-002   3.0640235192173626E-003  0.11377682230601577     
  -2.0749571414730758E-002  -1.0767302403817819E-003  0.12326978603899943     
  -1.6704779326771876E-002  -7.0912026687610340E-003  0.13552528400560160     
  -1.2659987238812953E-002  -1.4979393765920390E-002  0.15054331620582206     
  -2.7283980311530370E-002   7.8237798387054136E-003   7.6221841953587832E-002
  -2.1157902403969940E-002   6.3409089345656811E-003   7.7710095841051374E-002
  -1.5031824496409468E-002   3.9995151390654765E-003   8.0598387134099558E-002
  -8.9057465888489132E-003   7.9959845220475487E-004   8.4886715832732315E-002
  -2.7796686812885107E-003  -3.2588411260163763E-003   9.0575081936950075E-002
  -2.8923611450226802E-002   1.0316501067374834E-002   4.5673857398494236E-002
  -2.2078744551098487E-002   9.6177943499140273E-003   4.2935131451475830E-002
  -1.5233877651970130E-002   9.0757605185125614E-003   4.0233946082008261E-002
  -8.3890107528417947E-003   8.6903995731705420E-003   3.7570301290091729E-002
  -1.5441438537134589E-003   8.4617115138877486E-003   3.4944197075726047E-002
  -3.3758049006737595E-002   1.2809222296044379E-002   1.5402439141369541E-002
  -2.7556889944075246E-002   1.2894679765262360E-002   9.4519291372891744E-003
  -2.1355730881412870E-002   1.4152005897959678E-002   2.1764628827258183E-003
  -1.5154571818750413E-002   1.6581200694136107E-002  -6.4239596223205284E-003
  -8.9534127560880958E-003   2.0182264153791873E-002  -1.6349338377849063E-002
  -4.1787292981063012E-002   1.5301943524713646E-002  -1.4592412817785838E-002
  -3.7592338582900287E-002   1.6171565180610747E-002  -2.2739511101508791E-002
  -3.3397384184737575E-002   1.9228251277406835E-002  -3.3574062463748167E-002
  -2.9202429786574870E-002   2.4472001815101962E-002  -4.7096066904504241E-002
  -2.5007475388412137E-002   3.1902816793695887E-002  -6.3305524423776793E-002
  -9.0384558547163596E-002   0.0000000000000000        4.9772642602183906E-002
  -9.3973979358643100E-002   5.4011781022182560E-003   5.3120590273127349E-002
  -9.7563400170122605E-002   1.0656383265223415E-002   5.4848078444451387E-002
 -0.10115282098160211        1.5765615489015495E-002   5.4955107116156005E-002
 -0.10474224179308161        2.0728874773594492E-002   5.3441676288241216E-002
 -0.10332429327655104        0.0000000000000000        5.8597777615017582E-002
 -0.10685522472409532        1.0877553067686393E-002   5.2040947000757398E-002
 -0.11038615617163960        1.9158001363060458E-002   4.7221554613987041E-002
 -0.11391708761918391        2.4841344886122205E-002   4.4139600454706544E-002
 -0.11744801906672821        2.7927583636871613E-002   4.2795084522915923E-002
 -0.12647621629893405        0.0000000000000000        7.4124853509869013E-002
 -0.12659076065543387        1.6353928033154531E-002   5.5212112777305943E-002
 -0.12670530501193367        2.7659619460897504E-002   4.1394707999341994E-002
 -0.12681984936843343        3.3917074283228911E-002   3.2672639175977132E-002
 -0.12693439372493331        3.5126292500148745E-002   2.9045906307211419E-002
 -0.15984032761431263        0.0000000000000000        9.6353870286738211E-002
 -0.15318058715265867        2.1830302998622680E-002   6.2634087602773017E-002
 -0.14652084669100476        3.6161237558734551E-002   3.7367538600516219E-002
 -0.13986110622935083        4.2992803680335603E-002   2.0554223279967782E-002
 -0.13320136576769687        4.2325001363425853E-002   1.2194141641127707E-002
 -0.20341662722268677        0.0000000000000000       0.12528482794562518     
 -0.18662470421576982        2.7306677964090809E-002   7.4306871477158615E-002
 -0.16983278120885287        4.4662855656571583E-002   3.5140046417509715E-002
 -0.15304085820193594        5.2068533077442324E-002   7.7843527666784651E-003
 -0.13624893519501899        4.9523710226703002E-002  -7.7602094753351988E-003
 -0.10474224179308161        2.0728874773594492E-002   5.3441676288241216E-002
 -0.10208072246998512        2.4833039810314060E-002   4.5390663050096078E-002
  -9.9419203146888596E-002   2.7364989290527865E-002   3.8978791250429738E-002
  -9.6757683823792073E-002   2.8324723214235910E-002   3.4206060889242128E-002
  -9.4096164500695550E-002   2.7712241581438188E-002   3.1072471966533330E-002
 -0.11744801906672821        2.7927583636871613E-002   4.2795084522915923E-002
 -0.11352391152721798        2.9384482082980612E-002   3.6470024981410054E-002
 -0.10959980398770780        3.0179804692121132E-002   3.1031000434252786E-002
 -0.10567569644819759        3.0313551464293147E-002   2.6478010881444122E-002
 -0.10175158890868742        2.9785722399496672E-002   2.2811056322984080E-002
 -0.12693439372493331        3.5126292500148745E-002   2.9045906307211419E-002
 -0.12250080441313958        3.3935924355647185E-002   2.5357440181882105E-002
 -0.11806721510134587        3.2994620093714386E-002   2.1801902606771190E-002
 -0.11363362578955215        3.2302379714350370E-002   1.8379293581878724E-002
 -0.10920003647775843        3.1859203217555122E-002   1.5089613107204681E-002
 -0.13320136576769687        4.2325001363425853E-002   1.2194141641127707E-002
 -0.12901140112774981        3.8487366628313702E-002   1.2052908651512189E-002
 -0.12482143648780278        3.5809435495307670E-002   1.1291497767984920E-002
 -0.12063147184785572        3.4291207964407613E-002   9.9099089905459476E-003
 -0.11644150720790870        3.3932684035613628E-002   7.9081423191951807E-003
 -0.13624893519501899        4.9523710226703002E-002  -7.7602094753351988E-003
 -0.13305570167104877        4.3038808900980302E-002  -3.4435696096996038E-003
 -0.12986246814707858        3.8624250896900934E-002  -5.0021408210600658E-004
 -0.12666923462310833        3.6280036214464864E-002   1.0698571074457077E-003
 -0.12347600109913814        3.6006164853672085E-002   1.2666439589555378E-003
  -9.4096164500695550E-002   2.7712241581438188E-002   3.1072471966533330E-002
  -9.1511347196607098E-002   2.6414628200877366E-002   3.0293702412402757E-002
  -8.8926529892518591E-002   2.5318966881296034E-002   2.9536673123433166E-002
  -8.6341712588430097E-002   2.4425257622694235E-002   2.8801384099624752E-002
  -8.3756895284341631E-002   2.3733500425071954E-002   2.8087835340977377E-002
 -0.10175158890868742        2.9785722399496672E-002   2.2811056322984080E-002
  -9.9153079741891192E-002   2.8940566318741909E-002   2.2345652138336704E-002
  -9.6554570575094950E-002   2.8122332043039128E-002   2.1885891413943814E-002
  -9.3956061408298722E-002   2.7331019572388329E-002   2.1431774149805335E-002
  -9.1357552241502507E-002   2.6566628906789430E-002   2.0983300345921163E-002
 -0.10920003647775843        3.1859203217555122E-002   1.5089613107204681E-002
 -0.10660393225316109        3.1466504436606466E-002   1.4762544036113032E-002
 -0.10400782802856379        3.0925697204782249E-002   1.4425021620369079E-002
 -0.10141172380396643        3.0236781522082354E-002   1.4077045859972999E-002
  -9.8815619579369102E-002   2.9399757388506927E-002   1.3718616754924671E-002
 -0.11644150720790870        3.3932684035613628E-002   7.9081423191951807E-003
 -0.11386390473041687        3.3992442554471085E-002   7.5443781057314956E-003
 -0.11128630225292505        3.3729062366525370E-002   7.1540637427091151E-003
 -0.10870869977543328        3.3142543471776469E-002   6.7371992301277729E-003
 -0.10613109729794140        3.2232885870224409E-002   6.2937845679877898E-003
 -0.12347600109913814        3.6006164853672085E-002   1.2666439589555378E-003
 -0.12093299717365846        3.6518380672335593E-002   6.9115434719238533E-004
 -0.11838999324817884        3.6532427528268421E-002   7.3017780964010348E-005
 -0.11584698932269916        3.6048305421470500E-002  -5.8776573973002080E-004
 -0.11330398539721953        3.5066014351941843E-002  -1.2911962148896561E-003
  -8.3756895284341631E-002   2.3733500425071954E-002   2.8087835340977377E-002
  -8.1176932708974830E-002   2.3179403082699654E-002   2.6869391094708761E-002
  -7.8596970133608071E-002   2.2698673389847806E-002   2.5270313091371725E-002
  -7.6017007558241284E-002   2.2291311346516320E-002   2.3290601330966079E-002
  -7.3437044982874483E-002   2.1957316952705280E-002   2.0930255813492143E-002
  -9.1357552241502507E-002   2.6566628906789430E-002   2.0983300345921163E-002
  -8.9054059573395461E-002   2.5872087673523052E-002   2.0104681923322203E-002
  -8.6750566905288429E-002   2.5290323499869746E-002   1.9053757443272160E-002
  -8.4447074237181438E-002   2.4821336385829302E-002   1.7830526905771100E-002
  -8.2143581569074406E-002   2.4465126331402048E-002   1.6434990310818839E-002
  -9.8815619579369102E-002   2.9399757388506927E-002   1.3718616754924671E-002
  -9.6580269118904438E-002   2.8564772264346470E-002   1.3219233566087840E-002
  -9.4344918658439830E-002   2.7881973609891662E-002   1.2755872019417512E-002
  -9.2109568197975153E-002   2.7351361425142450E-002   1.2328532114913436E-002
  -8.9874217737510559E-002   2.6972935710098803E-002   1.1937213852575602E-002
 -0.10613109729794140        3.2232885870224409E-002   6.2937845679877898E-003
 -0.10375556134550179        3.1257456855169966E-002   6.2130460230058956E-003
 -0.10138002539306215        3.0473623719913547E-002   6.3766568198076641E-003
  -9.9004489440622553E-002   2.9881386464455477E-002   6.7846169583931542E-003
  -9.6628953488182914E-002   2.9480745088795619E-002   7.4369264387624204E-003
 -0.11330398539721953        3.5066014351941843E-002  -1.2911962148896561E-003
 -0.11057993625318752        3.3950141445993315E-002  -9.1388070592385295E-004
 -0.10785588710915550        3.3065273829935557E-002  -8.3888155557529376E-005
 -0.10513183796512346        3.2411411503768542E-002   1.1987814362102341E-003
 -0.10240778882109147        3.1988554467492381E-002   2.9341280693790384E-003
  -7.3437044982874483E-002   2.1957316952705280E-002   2.0930255813492143E-002
  -7.1704811991872841E-002   2.1588687573796631E-002   1.7711019194567884E-002
  -6.9972579000871185E-002   2.1077420575172416E-002   1.4859299088874026E-002
  -6.8240346009869585E-002   2.0423515956832589E-002   1.2375095496410637E-002
  -6.6508113018867915E-002   1.9626973718777141E-002   1.0258408417177567E-002
  -8.2143581569074406E-002   2.4465126331402048E-002   1.6434990310818839E-002
  -8.0086769939745950E-002   2.4087161976089067E-002   1.3999254594204924E-002
  -7.8029958310417508E-002   2.3552911959392041E-002   1.1845159641014284E-002
  -7.5973146681089079E-002   2.2862376281310777E-002   9.9727054512467501E-003
  -7.3916335051760595E-002   2.2015554941845206E-002   8.3818920249024709E-003
  -8.9874217737510559E-002   2.6972935710098803E-002   1.1937213852575602E-002
  -8.7578703219662463E-002   2.6585636378381523E-002   1.0271330996603427E-002
  -8.5283188701814380E-002   2.6028403343611724E-002   8.8012131542472942E-003
  -8.2987674183966298E-002   2.5301236605788993E-002   7.5268603255072095E-003
  -8.0692159666118202E-002   2.4404136164913354E-002   6.4482725103830602E-003
  -9.6628953488182914E-002   2.9480745088795619E-002   7.4369264387624204E-003
  -9.4180611831622338E-002   2.9084110780674081E-002   6.5272484017633720E-003
  -9.1732270175061859E-002   2.8503894727831242E-002   5.7274596285732090E-003
  -8.9283928518501338E-002   2.7740096930267195E-002   5.0375601191919687E-003
  -8.6835586861940789E-002   2.6792717387981571E-002   4.4575498736195186E-003
 -0.10240778882109147        3.1988554467492381E-002   2.9341280693790384E-003
  -9.9892495775625645E-002   3.1582585182966361E-002   2.7670068096847522E-003
  -9.7377202730159818E-002   3.0979386112050922E-002   2.6238990639919357E-003
  -9.4861909684693962E-002   3.0178957254745328E-002   2.5048048323008873E-003
  -9.2346616639228163E-002   2.9181298611049677E-002   2.4097241146116555E-003
  -6.6508113018867915E-002   1.9626973718777141E-002   1.0258408417177567E-002
  -6.3674014342519153E-002   1.8800673834067638E-002   7.9246085454744986E-003
  -6.0839915666170377E-002   1.8057496275765653E-002   5.7079539357318687E-003
  -5.8005816989821622E-002   1.7397441043871437E-002   3.6084445879495386E-003
  -5.5171718313472840E-002   1.6820508138384593E-002   1.6260805021275360E-003
  -7.3916335051760595E-002   2.2015554941845206E-002   8.3818920249024709E-003
  -7.0977060407507814E-002   2.1124416611975338E-002   6.7439072811696366E-003
  -6.8037785763255032E-002   2.0300929962680681E-002   5.1991292112846532E-003
  -6.5098511119002195E-002   1.9545094993961135E-002   3.7475578152472641E-003
  -6.2159236474749413E-002   1.8856911705816770E-002   2.3891930930578231E-003
  -8.0692159666118202E-002   2.4404136164913354E-002   6.4482725103830602E-003
  -7.7671647642074015E-002   2.3448159389883122E-002   5.4906322487882353E-003
  -7.4651135618029760E-002   2.2544363649595424E-002   4.6022600729284172E-003
  -7.1630623593985532E-002   2.1692748944050995E-002   3.7831559828036786E-003
  -6.8610111569941318E-002   2.0893315273249197E-002   3.0333199784141757E-003
  -8.6835586861940789E-002   2.6792717387981571E-002   4.4575498736195186E-003
  -8.3757776046217661E-002   2.5771902167790531E-002   4.1647834483300381E-003
  -8.0679965230494602E-002   2.4787797336510365E-002   3.9173465206633271E-003
  -7.7602154414771474E-002   2.3840402894140775E-002   3.7152390906191124E-003
  -7.4524343599048387E-002   2.2929718840681554E-002   3.5584611581972493E-003
  -9.2346616639228163E-002   2.9181298611049677E-002   2.4097241146116555E-003
  -8.9235445619938902E-002   2.8095644945698606E-002   2.7663608797954264E-003
  -8.6124274600649475E-002   2.7031231023425334E-002   3.1443885544890776E-003
  -8.3013103581360131E-002   2.5988056844230507E-002   3.5438071386925708E-003
  -7.9901932562070788E-002   2.4966122408113689E-002   3.9646166324065479E-003
  -5.5171718313472840E-002   1.6820508138384593E-002   1.6260805021275360E-003
  -5.1825611980370362E-002   1.6324069043317957E-002  -1.5394900195082051E-003
  -4.8479505647267926E-002   1.5905495242683865E-002  -5.2977624133723755E-003
  -4.5133399314165497E-002   1.5564786736482636E-002  -9.6487366794648505E-003
  -4.1787292981063012E-002   1.5301943524713646E-002  -1.4592412817785838E-002
  -6.2159236474749413E-002   1.8856911705816770E-002   2.3891930930578231E-003
  -5.9258021579640441E-002   1.8267494085106750E-002   1.1948546104506574E-005
  -5.6356806684531482E-002   1.7807956118689752E-002  -2.6623770046073358E-003
  -5.3455591789422496E-002   1.7478297806565363E-002  -5.6337835590775723E-003
  -5.0554376894313552E-002   1.7278519148734239E-002  -8.9022711173064595E-003
  -6.8610111569941318E-002   2.0893315273249197E-002   3.0333199784141757E-003
  -6.5858167244355864E-002   2.0210919126895432E-002   1.4964157660039695E-003
  -6.3106222918770521E-002   1.9710416994695362E-002  -4.1948581695122611E-005
  -6.0354278593185151E-002   1.9391808876648091E-002  -1.5817730646828509E-003
  -5.7602334267599746E-002   1.9255094772754860E-002  -3.1230576829591739E-003
  -7.4524343599048387E-002   2.2929718840681554E-002   3.5584611581972493E-003
  -7.1626048974516743E-002   2.2154344168684392E-002   2.9139116401900138E-003
  -6.8727754349985098E-002   2.1612877870701055E-002   2.5635228553639675E-003
  -6.5829459725453468E-002   2.1305319946731318E-002   2.5072948037193118E-003
  -6.2931165100921824E-002   2.1231670396775357E-002   2.7452274852557031E-003
  -7.9901932562070788E-002   2.4966122408113689E-002   3.9646166324065479E-003
  -7.6561666770122994E-002   2.4097769210473019E-002   4.2644361686628440E-003
  -7.3221400978175200E-002   2.3515338746706749E-002   5.1540373065701861E-003
  -6.9881135186227433E-002   2.3218831016813851E-002   6.6334200461288864E-003
  -6.6540869394279611E-002   2.3208246020795853E-002   8.7025843873383968E-003
  -4.1787292981063012E-002   1.5301943524713646E-002  -1.4592412817785838E-002
  -3.7592338582900287E-002   1.6171565180610747E-002  -2.2739511101508791E-002
  -3.3397384184737575E-002   1.9228251277406835E-002  -3.3574062463748167E-002
  -2.9202429786574870E-002   2.4472001815101962E-002  -4.7096066904504241E-002
  -2.5007475388412137E-002   3.1902816793695887E-002  -6.3305524423776793E-002
  -5.0554376894313552E-002   1.7278519148734239E-002  -8.9022711173064595E-003
  -4.8143761732249921E-002   1.7419282700175481E-002  -1.3057994416072333E-002
  -4.5733146570186303E-002   1.8111251015868496E-002  -1.8094943108519917E-002
  -4.3322531408122769E-002   1.9354424095812971E-002  -2.4013117194649186E-002
  -4.0911916246059110E-002   2.1148801940009232E-002  -3.0812516674460166E-002
  -5.7602334267599746E-002   1.9255094772754860E-002  -3.1230576829591739E-003
  -5.5169830656800423E-002   1.8667000219740021E-002  -4.9232656734155000E-003
  -5.2737327046001189E-002   1.6994250754329775E-002  -5.7984713727183765E-003
  -5.0304823435201838E-002   1.4236846376524037E-002  -5.7486747808683583E-003
  -4.7872319824402626E-002   1.0394787086322577E-002  -4.7738758978648210E-003
  -6.2931165100921824E-002   2.1231670396775357E-002   2.7452274852557031E-003
  -5.8670545356551904E-002   1.9914717739304713E-002   1.6646751264621368E-003
  -5.4409925612181963E-002   1.5877250492791133E-002   3.3153527436566074E-003
  -5.0149305867812070E-002   9.1192686572351307E-003   7.6972603368388121E-003
  -4.5888686123442095E-002  -3.5922776736402318E-004   1.4810397906009520E-002
  -6.6540869394279611E-002   2.3208246020795853E-002   8.7025843873383968E-003
  -5.8645905831504197E-002   2.1162435258869072E-002   6.7058279835598422E-003
  -5.0750942268728838E-002   1.4760250231253103E-002   9.2465292406043453E-003
  -4.2855978705953479E-002   4.0016909379462645E-003   1.6324688158471330E-002
  -3.4961015143178065E-002  -1.1113242621050734E-002   2.7940304737161803E-002
 </DataArray>
 </PointData>
 </Piece>
 <Piece  NumberOfPoints="          1600 "  NumberOfCells="         1024 ">
 <Points>
 <DataArray  type="Float64" NumberOfComponents="3"  format="ascii" >
  0.50000000000000000        0.0000000000000000        0.0000000000000000     
  0.53125000000000000        0.0000000000000000        0.0000000000000000     
  0.56250000000000000        0.0000000000000000        0.0000000000000000     
  0.59375000000000000        0.0000000000000000        0.0000000000000000     
  0.62500000000000000        0.0000000000000000        0.0000000000000000     
  0.50000000000000000        3.1250000000000000E-002   0.0000000000000000     
  0.53125000000000000        3.1250000000000000E-002   0.0000000000000000     
  0.56250000000000000        3.1250000000000000E-002   0.0000000000000000     
  0.59375000000000000        3.1250000000000000E-002   0.0000000000000000     
  0.62500000000000000        3.1250000000000000E-002   0.0000000000000000     
  0.50000000000000000        6.2500000000000000E-002   0.0000000000000000     
  0.53125000000000000        6.2500000000000000E-002   0.0000000000000000     
  0.56250000000000000        6.2500000000000000E-002   0.0000000000000000     
  0.59375000000000000        6.2500000000000000E-002   0.0000000000000000     
  0.62500000000000000        6.2500000000000000E-002   0.0000000000000000     
  0.50000000000000000        9.3750000000000000E-002   0.0000000000000000     
  0.53125000000000000        9.3750000000000000E-002   0.0000000000000000     
  0.56250000000000000        9.3750000000000000E-002   0.0000000000000000     
  0.59375000000000000        9.3750000000000000E-002   0.0000000000000000     
  0.62500000000000000        9.3750000000000000E-002   0.0000000000000000     
  0.50000000000000000       0.12500000000000000        0.0000000000000000     
  0.53125000000000000       0.12500000000000000        0.0000000000000000     
  0.56250000000000000       0.12500000000000000        0.0000000000000000     
  0.59375000000000000       0.12500000000000000        0.0000000000000000     
  0.62500000000000000       0.12500000000000000        0.0000000000000000     
  0.62500000000000000        0.0000000000000000        0.0000000000000000     
  0.65625000000000000        0.0000000000000000        0.0000000000000000     
  0.68750000000000000        0.0000000000000000        0.0000000000000000     
  0.71875000000000000        0.0000000000000000        0.0000000000000000     
  0.75000000000000000        0.0000000000000000        0.0000000000000000     
  0.62500000000000000        3.1250000000000000E-002   0.0000000000000000     
  0.65625000000000000        3.1250000000000000E-002   0.0000000000000000     
  0.68750000000000000        3.1250000000000000E-002   0.0000000000000000     
  0.71875000000000000        3.1250000000000000E-002   0.0000000000000000     
  0.75000000000000000        3.1250000000000000E-002   0.0000000000000000     
  0.62500000000000000        6.2500000000000000E-002   0.0000000000000000     
  0.65625000000000000        6.2500000000000000E-002   0.0000000000000000     
  0.68750000000000000        6.2500000000000000E-002   0.0000000000000000     
  0.71875000000000000        6.2500000000000000E-002   0.0000000000000000     
  0.75000000000000000        6.2500000000000000E-002   0.0000000000000000     
  0.62500000000000000        9.3750000000000000E-002   0.0000000000000000     
  0.65625000000000000        9.3750000000000000E-002   0.0000000000000000     
  0.68750000000000000        9.3750000000000000E-002   0.0000000000000000     
  0.71875000000000000        9.3750000000000000E-002   0.0000000000000000     
  0.75000000000000000        9.3750000000000000E-002   0.0000000000000000     
  0.62500000000000000       0.12500000000000000        0.0000000000000000     
  0.65625000000000000       0.12500000000000000        0.0000000000000000     
  0.68750000000000000       0.12500000000000000        0.0000000000000000     
  0.71875000000000000       0.12500000000000000        0.0000000000000000     
  0.75000000000000000       0.12500000000000000        0.0000000000000000     
  0.75000000000000000        0.0000000000000000        0.0000000000000000     
  0.78125000000000000        0.0000000000000000        0.0000000000000000     
  0.81250000000000000        0.0000000000000000        0.0000000000000000     
  0.84375000000000000        0.0000000000000000        0.0000000000000000     
  0.87500000000000000        0.0000000000000000        0.0000000000000000     
  0.75000000000000000        3.1250000000000000E-002   0.0000000000000000     
  0.78125000000000000        3.1250000000000000E-002   0.0000000000000000     
  0.81250000000000000        3.1250000000000000E-002   0.0000000000000000     
  0.84375000000000000        3.1250000000000000E-002   0.0000000000000000     
  0.87500000000000000        3.1250000000000000E-002   0.0000000000000000     
  0.75000000000000000        6.2500000000000000E-002   0.0000000000000000     
  0.78125000000000000        6.2500000000000000E-002   0.0000000000000000     
  0.81250000000000000        6.2500000000000000E-002   0.0000000000000000     
  0.84375000000000000        6.2500000000000000E-002   0.0000000000000000     
  0.87500000000000000        6.2500000000000000E-002   0.0000000000000000     
  0.75000000000000000        9.3750000000000000E-002   0.0000000000000000     
  0.78125000000000000        9.3750000000000000E-002   0.0000000000000000     
  0.81250000000000000        9.3750000000000000E-002   0.0000000000000000     
  0.84375000000000000        9.3750000000000000E-002   0.0000000000000000     
  0.87500000000000000        9.3750000000000000E-002   0.0000000000000000     
  0.75000000000000000       0.12500000000000000        0.0000000000000000     
  0.78125000000000000       0.12500000000000000        0.0000000000000000     
  0.81250000000000000       0.12500000000000000        0.0000000000000000     
  0.84375000000000000       0.12500000000000000        0.0000000000000000     
  0.87500000000000000       0.12500000000000000        0.0000000000000000     
  0.87500000000000000        0.0000000000000000        0.0000000000000000     
  0.90625000000000000        0.0000000000000000        0.0000000000000000     
  0.93750000000000000        0.0000000000000000        0.0000000000000000     
  0.96875000000000000        0.0000000000000000        0.0000000000000000     
   1.0000000000000000        0.0000000000000000        0.0000000000000000     
  0.87500000000000000        3.1250000000000000E-002   0.0000000000000000     
  0.90625000000000000        3.1250000000000000E-002   0.0000000000000000     
  0.93750000000000000        3.1250000000000000E-002   0.0000000000000000     
  0.96875000000000000        3.1250000000000000E-002   0.0000000000000000     
   1.0000000000000000        3.1250000000000000E-002   0.0000000000000000     
  0.87500000000000000        6.2500000000000000E-002   0.0000000000000000     
  0.90625000000000000        6.2500000000000000E-002   0.0000000000000000     
  0.93750000000000000        6.2500000000000000E-002   0.0000000000000000     
  0.96875000000000000        6.2500000000000000E-002   0.0000000000000000     
   1.0000000000000000        6.2500000000000000E-002   0.0000000000000000     
  0.87500000000000000        9.3750000000000000E-002   0.0000000000000000     
  0.90625000000000000        9.3750000000000000E-002   0.0000000000000000     
  0.93750000000000000        9.3750000000000000E-002   0.0000000000000000     
  0.96875000000000000        9.3750000000000000E-002   0.0000000000000000     
   1.0000000000000000        9.3750000000000000E-002   0.0000000000000000     
  0.87500000000000000       0.12500000000000000        0.0000000000000000     
  0.90625000000000000       0.12500000000000000        0.0000000000000000     
  0.93750000000000000       0.12500000000000000        0.0000000000000000     
  0.96875000000000000       0.12500000000000000        0.0000000000000000     
   1.0000000000000000       0.12500000000000000        0.0000000000000000     
   1.0000000000000000        0.0000000000000000        0.0000000000000000     
   1.0312500000000000        0.0000000000000000        0.0000000000000000     
   1.0625000000000000        0.0000000000000000        0.0000000000000000     
   1.0937500000000000        0.0000000000000000        0.0000000000000000     
   1.1250000000000000        0.0000000000000000        0.0000000000000000     
   1.0000000000000000        3.1250000000000000E-002   0.0000000000000000     
   1.0312500000000000        3.1250000000000000E-002   0.0000000000000000     
   1.0625000000000000        3.1250000000000000E-002   0.0000000000000000     
   1.0937500000000000        3.1250000000000000E-002   0.0000000000000000     
   1.1250000000000000        3.1250000000000000E-002   0.0000000000000000     
   1.0000000000000000        6.2500000000000000E-002   0.0000000000000000     
   1.0312500000000000        6.2500000000000000E-002   0.0000000000000000     
   1.0625000000000000        6.2500000000000000E-002   0.0000000000000000     
   1.0937500000000000        6.2500000000000000E-002   0.0000000000000000     
   1.1250000000000000        6.2500000000000000E-002   0.0000000000000000     
   1.0000000000000000        9.3750000000000000E-002   0.0000000000000000     
   1.0312500000000000        9.3750000000000000E-002   0.0000000000000000     
   1.0625000000000000        9.3750000000000000E-002   0.0000000000000000     
   1.0937500000000000        9.3750000000000000E-002   0.0000000000000000     
   1.1250000000000000        9.3750000000000000E-002   0.0000000000000000     
   1.0000000000000000       0.12500000000000000        0.0000000000000000     
   1.0312500000000000       0.12500000000000000        0.0000000000000000     
   1.0625000000000000       0.12500000000000000        0.0000000000000000     
   1.0937500000000000       0.12500000000000000        0.0000000000000000     
   1.1250000000000000       0.12500000000000000        0.0000000000000000     
   1.1250000000000000        0.0000000000000000        0.0000000000000000     
   1.1562500000000000        0.0000000000000000        0.0000000000000000     
   1.1875000000000000        0.0000000000000000        0.0000000000000000     
   1.2187500000000000        0.0000000000000000        0.0000000000000000     
   1.2500000000000000        0.0000000000000000        0.0000000000000000     
   1.1250000000000000        3.1250000000000000E-002   0.0000000000000000     
   1.1562500000000000        3.1250000000000000E-002   0.0000000000000000     
   1.1875000000000000        3.1250000000000000E-002   0.0000000000000000     
   1.2187500000000000        3.1250000000000000E-002   0.0000000000000000     
   1.2500000000000000        3.1250000000000000E-002   0.0000000000000000     
   1.1250000000000000        6.2500000000000000E-002   0.0000000000000000     
   1.1562500000000000        6.2500000000000000E-002   0.0000000000000000     
   1.1875000000000000        6.2500000000000000E-002   0.0000000000000000     
   1.2187500000000000        6.2500000000000000E-002   0.0000000000000000     
   1.2500000000000000        6.2500000000000000E-002   0.0000000000000000     
   1.1250000000000000        9.3750000000000000E-002   0.0000000000000000     
   1.1562500000000000        9.3750000000000000E-002   0.0000000000000000     
   1.1875000000000000        9.3750000000000000E-002   0.0000000000000000     
   1.2187500000000000        9.3750000000000000E-002   0.0000000000000000     
   1.2500000000000000        9.3750000000000000E-002   0.0000000000000000     
   1.1250000000000000       0.12500000000000000        0.0000000000000000     
   1.1562500000000000       0.12500000000000000        0.0000000000000000     
   1.1875000000000000       0.12500000000000000        0.0000000000000000     
   1.2187500000000000       0.12500000000000000        0.0000000000000000     
   1.2500000000000000       0.12500000000000000        0.0000000000000000     
   1.2500000000000000        0.0000000000000000        0.0000000000000000     
   1.2812500000000000        0.0000000000000000        0.0000000000000000     
   1.3125000000000000        0.0000000000000000        0.0000000000000000     
   1.3437500000000000        0.0000000000000000        0.0000000000000000     
   1.3750000000000000        0.0000000000000000        0.0000000000000000     
   1.2500000000000000        3.1250000000000000E-002   0.0000000000000000     
   1.2812500000000000        3.1250000000000000E-002   0.0000000000000000     
   1.3125000000000000        3.1250000000000000E-002   0.0000000000000000     
   1.3437500000000000        3.1250000000000000E-002   0.0000000000000000     
   1.3750000000000000        3.1250000000000000E-002   0.0000000000000000     
   1.2500000000000000        6.2500000000000000E-002   0.0000000000000000     
   1.2812500000000000        6.2500000000000000E-002   0.0000000000000000     
   1.3125000000000000        6.2500000000000000E-002   0.0000000000000000     
   1.3437500000000000        6.2500000000000000E-002   0.0000000000000000     
   1.3750000000000000        6.2500000000000000E-002   0.0000000000000000     
   1.2500000000000000        9.3750000000000000E-002   0.0000000000000000     
   1.2812500000000000        9.3750000000000000E-002   0.0000000000000000     
   1.3125000000000000        9.3750000000000000E-002   0.0000000000000000     
   1.3437500000000000        9.3750000000000000E-002   0.0000000000000000     
   1.3750000000000000        9.3750000000000000E-002   0.0000000000000000     
   1.2500000000000000       0.12500000000000000        0.0000000000000000     
   1.2812500000000000       0.12500000000000000        0.0000000000000000     
   1.3125000000000000       0.12500000000000000        0.0000000000000000     
   1.3437500000000000       0.12500000000000000        0.0000000000000000     
   1.3750000000000000       0.12500000000000000        0.0000000000000000     
   1.3750000000000000        0.0000000000000000        0.0000000000000000     
   1.4062500000000000        0.0000000000000000        0.0000000000000000     
   1.4375000000000000        0.0000000000000000        0.0000000000000000     
   1.4687500000000000        0.0000000000000000        0.0000000000000000     
   1.5000000000000000        0.0000000000000000        0.0000000000000000     
   1.3750000000000000        3.1250000000000000E-002   0.0000000000000000     
   1.4062500000000000        3.1250000000000000E-002   0.0000000000000000     
   1.4375000000000000        3.1250000000000000E-002   0.0000000000000000     
   1.4687500000000000        3.1250000000000000E-002   0.0000000000000000     
   1.5000000000000000        3.1250000000000000E-002   0.0000000000000000     
   1.3750000000000000        6.2500000000000000E-002   0.0000000000000000     
   1.4062500000000000        6.2500000000000000E-002   0.0000000000000000     
   1.4375000000000000        6.2500000000000000E-002   0.0000000000000000     
   1.4687500000000000        6.2500000000000000E-002   0.0000000000000000     
   1.5000000000000000        6.2500000000000000E-002   0.0000000000000000     
   1.3750000000000000        9.3750000000000000E-002   0.0000000000000000     
   1.4062500000000000        9.3750000000000000E-002   0.0000000000000000     
   1.4375000000000000        9.3750000000000000E-002   0.0000000000000000     
   1.4687500000000000        9.3750000000000000E-002   0.0000000000000000     
   1.5000000000000000        9.3750000000000000E-002   0.0000000000000000     
   1.3750000000000000       0.12500000000000000        0.0000000000000000     
   1.4062500000000000       0.12500000000000000        0.0000000000000000     
   1.4375000000000000       0.12500000000000000        0.0000000000000000     
   1.4687500000000000       0.12500000000000000        0.0000000000000000     
   1.5000000000000000       0.12500000000000000        0.0000000000000000     
  0.50000000000000000       0.12500000000000000        0.0000000000000000     
  0.53125000000000000       0.12500000000000000        0.0000000000000000     
  0.56250000000000000       0.12500000000000000        0.0000000000000000     
  0.59375000000000000       0.12500000000000000        0.0000000000000000     
  0.62500000000000000       0.12500000000000000        0.0000000000000000     
  0.50000000000000000       0.15625000000000000        0.0000000000000000     
  0.53125000000000000       0.15625000000000000        0.0000000000000000     
  0.56250000000000000       0.15625000000000000        0.0000000000000000     
  0.59375000000000000       0.15625000000000000        0.0000000000000000     
  0.62500000000000000       0.15625000000000000        0.0000000000000000     
  0.50000000000000000       0.18750000000000000        0.0000000000000000     
  0.53125000000000000       0.18750000000000000        0.0000000000000000     
  0.56250000000000000       0.18750000000000000        0.0000000000000000     
  0.59375000000000000       0.18750000000000000        0.0000000000000000     
  0.62500000000000000       0.18750000000000000        0.0000000000000000     
  0.50000000000000000       0.21875000000000000        0.0000000000000000     
  0.53125000000000000       0.21875000000000000        0.0000000000000000     
  0.56250000000000000       0.21875000000000000        0.0000000000000000     
  0.59375000000000000       0.21875000000000000        0.0000000000000000     
  0.62500000000000000       0.21875000000000000        0.0000000000000000     
  0.50000000000000000       0.25000000000000000        0.0000000000000000     
  0.53125000000000000       0.25000000000000000        0.0000000000000000     
  0.56250000000000000       0.25000000000000000        0.0000000000000000     
  0.59375000000000000       0.25000000000000000        0.0000000000000000     
  0.62500000000000000       0.25000000000000000        0.0000000000000000     
  0.62500000000000000       0.12500000000000000        0.0000000000000000     
  0.65625000000000000       0.12500000000000000        0.0000000000000000     
  0.68750000000000000       0.12500000000000000        0.0000000000000000     
  0.71875000000000000       0.12500000000000000        0.0000000000000000     
  0.75000000000000000       0.12500000000000000        0.0000000000000000     
  0.62500000000000000       0.15625000000000000        0.0000000000000000     
  0.65625000000000000       0.15625000000000000        0.0000000000000000     
  0.68750000000000000       0.15625000000000000        0.0000000000000000     
  0.71875000000000000       0.15625000000000000        0.0000000000000000     
  0.75000000000000000       0.15625000000000000        0.0000000000000000     
  0.62500000000000000       0.18750000000000000        0.0000000000000000     
  0.65625000000000000       0.18750000000000000        0.0000000000000000     
  0.68750000000000000       0.18750000000000000        0.0000000000000000     
  0.71875000000000000       0.18750000000000000        0.0000000000000000     
  0.75000000000000000       0.18750000000000000        0.0000000000000000     
  0.62500000000000000       0.21875000000000000        0.0000000000000000     
  0.65625000000000000       0.21875000000000000        0.0000000000000000     
  0.68750000000000000       0.21875000000000000        0.0000000000000000     
  0.71875000000000000       0.21875000000000000        0.0000000000000000     
  0.75000000000000000       0.21875000000000000        0.0000000000000000     
  0.62500000000000000       0.25000000000000000        0.0000000000000000     
  0.65625000000000000       0.25000000000000000        0.0000000000000000     
  0.68750000000000000       0.25000000000000000        0.0000000000000000     
  0.71875000000000000       0.25000000000000000        0.0000000000000000     
  0.75000000000000000       0.25000000000000000        0.0000000000000000     
  0.75000000000000000       0.12500000000000000        0.0000000000000000     
  0.78125000000000000       0.12500000000000000        0.0000000000000000     
  0.81250000000000000       0.12500000000000000        0.0000000000000000     
  0.84375000000000000       0.12500000000000000        0.0000000000000000     
  0.87500000000000000       0.12500000000000000        0.0000000000000000     
  0.75000000000000000       0.15625000000000000        0.0000000000000000     
  0.78125000000000000       0.15625000000000000        0.0000000000000000     
  0.81250000000000000       0.15625000000000000        0.0000000000000000     
  0.84375000000000000       0.15625000000000000        0.0000000000000000     
  0.87500000000000000       0.15625000000000000        0.0000000000000000     
  0.75000000000000000       0.18750000000000000        0.0000000000000000     
  0.78125000000000000       0.18750000000000000        0.0000000000000000     
  0.81250000000000000       0.18750000000000000        0.0000000000000000     
  0.84375000000000000       0.18750000000000000        0.0000000000000000     
  0.87500000000000000       0.18750000000000000        0.0000000000000000     
  0.75000000000000000       0.21875000000000000        0.0000000000000000     
  0.78125000000000000       0.21875000000000000        0.0000000000000000     
  0.81250000000000000       0.21875000000000000        0.0000000000000000     
  0.84375000000000000       0.21875000000000000        0.0000000000000000     
  0.87500000000000000       0.21875000000000000        0.0000000000000000     
  0.75000000000000000       0.25000000000000000        0.0000000000000000     
  0.78125000000000000       0.25000000000000000        0.0000000000000000     
  0.81250000000000000       0.25000000000000000        0.0000000000000000     
  0.84375000000000000       0.25000000000000000        0.0000000000000000     
  0.87500000000000000       0.25000000000000000        0.0000000000000000     
  0.87500000000000000       0.12500000000000000        0.0000000000000000     
  0.90625000000000000       0.12500000000000000        0.0000000000000000     
  0.93750000000000000       0.12500000000000000        0.0000000000000000     
  0.96875000000000000       0.12500000000000000        0.0000000000000000     
   1.0000000000000000       0.12500000000000000        0.0000000000000000     
  0.87500000000000000       0.15625000000000000        0.0000000000000000     
  0.90625000000000000       0.15625000000000000        0.0000000000000000     
  0.93750000000000000       0.15625000000000000        0.0000000000000000     
  0.96875000000000000       0.15625000000000000        0.0000000000000000     
   1.0000000000000000       0.15625000000000000        0.0000000000000000     
  0.87500000000000000       0.18750000000000000        0.0000000000000000     
  0.90625000000000000       0.18750000000000000        0.0000000000000000     
  0.93750000000000000       0.18750000000000000        0.0000000000000000     
  0.96875000000000000       0.18750000000000000        0.0000000000000000     
   1.0000000000000000       0.18750000000000000        0.0000000000000000     
  0.87500000000000000       0.21875000000000000        0.0000000000000000     
  0.90625000000000000       0.21875000000000000        0.0000000000000000     
  0.93750000000000000       0.21875000000000000        0.0000000000000000     
  0.96875000000000000       0.21875000000000000        0.0000000000000000     
   1.0000000000000000       0.21875000000000000        0.0000000000000000     
  0.87500000000000000       0.25000000000000000        0.0000000000000000     
  0.90625000000000000       0.25000000000000000        0.0000000000000000     
  0.93750000000000000       0.25000000000000000        0.0000000000000000     
  0.96875000000000000       0.25000000000000000        0.0000000000000000     
   1.0000000000000000       0.25000000000000000        0.0000000000000000     
   1.0000000000000000       0.12500000000000000        0.0000000000000000     
   1.0312500000000000       0.12500000000000000        0.0000000000000000     
   1.0625000000000000       0.12500000000000000        0.0000000000000000     
   1.0937500000000000       0.12500000000000000        0.0000000000000000     
   1.1250000000000000       0.12500000000000000        0.0000000000000000     
   1.0000000000000000       0.15625000000000000        0.0000000000000000     
   1.0312500000000000       0.15625000000000000        0.0000000000000000     
   1.0625000000000000       0.15625000000000000        0.0000000000000000     
   1.0937500000000000       0.15625000000000000        0.0000000000000000     
   1.1250000000000000       0.15625000000000000        0.0000000000000000     
   1.0000000000000000       0.18750000000000000        0.0000000000000000     
   1.0312500000000000       0.18750000000000000        0.0000000000000000     
   1.0625000000000000       0.18750000000000000        0.0000000000000000     
   1.0937500000000000       0.18750000000000000        0.0000000000000000     
   1.1250000000000000       0.18750000000000000        0.0000000000000000     
   1.0000000000000000       0.21875000000000000        0.0000000000000000     
   1.0312500000000000       0.21875000000000000        0.0000000000000000     
   1.0625000000000000       0.21875000000000000        0.0000000000000000     
   1.0937500000000000       0.21875000000000000        0.0000000000000000     
   1.1250000000000000       0.21875000000000000        0.0000000000000000     
   1.0000000000000000       0.25000000000000000        0.0000000000000000     
   1.0312500000000000       0.25000000000000000        0.0000000000000000     
   1.0625000000000000       0.25000000000000000        0.0000000000000000     
   1.0937500000000000       0.25000000000000000        0.0000000000000000     
   1.1250000000000000       0.25000000000000000        0.0000000000000000     
   1.1250000000000000       0.12500000000000000        0.0000000000000000     
   1.1562500000000000       0.12500000000000000        0.0000000000000000     
   1.1875000000000000       0.12500000000000000        0.0000000000000000     
   1.2187500000000000       0.12500000000000000        0.0000000000000000     
   1.2500000000000000       0.12500000000000000        0.0000000000000000     
   1.1250000000000000       0.15625000000000000        0.0000000000000000     
   1.1562500000000000       0.15625000000000000        0.0000000000000000     
   1.1875000000000000       0.15625000000000000        0.0000000000000000     
   1.2187500000000000       0.15625000000000000        0.0000000000000000     
   1.2500000000000000       0.15625000000000000        0.0000000000000000     
   1.1250000000000000       0.18750000000000000        0.0000000000000000     
   1.1562500000000000       0.18750000000000000        0.0000000000000000     
   1.1875000000000000       0.18750000000000000        0.0000000000000000     
   1.2187500000000000       0.18750000000000000        0.0000000000000000     
   1.2500000000000000       0.18750000000000000        0.0000000000000000     
   1.1250000000000000       0.21875000000000000        0.0000000000000000     
   1.1562500000000000       0.21875000000000000        0.0000000000000000     
   1.1875000000000000       0.21875000000000000        0.0000000000000000     
   1.2187500000000000       0.21875000000000000        0.0000000000000000     
   1.2500000000000000       0.21875000000000000        0.0000000000000000     
   1.1250000000000000       0.25000000000000000        0.0000000000000000     
   1.1562500000000000       0.25000000000000000        0.0000000000000000     
   1.1875000000000000       0.25000000000000000        0.0000000000000000     
   1.2187500000000000       0.25000000000000000        0.0000000000000000     
   1.2500000000000000       0.25000000000000000        0.0000000000000000     
   1.2500000000000000       0.12500000000000000        0.0000000000000000     
   1.2812500000000000       0.12500000000000000        0.0000000000000000     
   1.3125000000000000       0.12500000000000000        0.0000000000000000     
   1.3437500000000000       0.12500000000000000        0.0000000000000000     
   1.3750000000000000       0.12500000000000000        0.0000000000000000     
   1.2500000000000000       0.15625000000000000        0.0000000000000000     
   1.2812500000000000       0.15625000000000000        0.0000000000000000     
   1.3125000000000000       0.15625000000000000        0.0000000000000000     
   1.3437500000000000       0.15625000000000000        0.0000000000000000     
   1.3750000000000000       0.15625000000000000        0.0000000000000000     
   1.2500000000000000       0.18750000000000000        0.0000000000000000     
   1.2812500000000000       0.18750000000000000        0.0000000000000000     
   1.3125000000000000       0.18750000000000000        0.0000000000000000     
   1.3437500000000000       0.18750000000000000        0.0000000000000000     
   1.3750000000000000       0.18750000000000000        0.0000000000000000     
   1.2500000000000000       0.21875000000000000        0.0000000000000000     
   1.2812500000000000       0.21875000000000000        0.0000000000000000     
   1.3125000000000000       0.21875000000000000        0.0000000000000000     
   1.3437500000000000       0.21875000000000000        0.0000000000000000     
   1.3750000000000000       0.21875000000000000        0.0000000000000000     
   1.2500000000000000       0.25000000000000000        0.0000000000000000     
   1.2812500000000000       0.25000000000000000        0.0000000000000000     
   1.3125000000000000       0.25000000000000000        0.0000000000000000     
   1.3437500000000000       0.25000000000000000        0.0000000000000000     
   1.3750000000000000       0.25000000000000000        0.0000000000000000     
   1.3750000000000000       0.12500000000000000        0.0000000000000000     
   1.4062500000000000       0.12500000000000000        0.0000000000000000     
   1.4375000000000000       0.12500000000000000        0.0000000000000000     
   1.4687500000000000       0.12500000000000000        0.0000000000000000     
   1.5000000000000000       0.12500000000000000        0.0000000000000000     
   1.3750000000000000       0.15625000000000000        0.0000000000000000     
   1.4062500000000000       0.15625000000000000        0.0000000000000000     
   1.4375000000000000       0.15625000000000000        0.0000000000000000     
   1.4687500000000000       0.15625000000000000        0.0000000000000000     
   1.5000000000000000       0.15625000000000000        0.0000000000000000     
   1.3750000000000000       0.18750000000000000        0.0000000000000000     
   1.4062500000000000       0.18750000000000000        0.0000000000000000     
   1.4375000000000000       0.18750000000000000        0.0000000000000000     
   1.4687500000000000       0.18750000000000000        0.0000000000000000     
   1.5000000000000000       0.18750000000000000        0.0000000000000000     
   1.3750000000000000       0.21875000000000000        0.0000000000000000     
   1.4062500000000000       0.21875000000000000        0.0000000000000000     
   1.4375000000000000       0.21875000000000000        0.0000000000000000     
   1.4687500000000000       0.21875000000000000        0.0000000000000000     
   1.5000000000000000       0.21875000000000000        0.0000000000000000     
   1.3750000000000000       0.25000000000000000        0.0000000000000000     
   1.4062500000000000       0.25000000000000000        0.0000000000000000     
   1.4375000000000000       0.25000000000000000        0.0000000000000000     
   1.4687500000000000       0.25000000000000000        0.0000000000000000     
   1.5000000000000000       0.25000000000000000        0.0000000000000000     
  0.50000000000000000       0.25000000000000000        0.0000000000000000     
  0.53125000000000000       0.25000000000000000        0.0000000000000000     
  0.56250000000000000       0.25000000000000000        0.0000000000000000     
  0.59375000000000000       0.25000000000000000        0.0000000000000000     
  0.62500000000000000       0.25000000000000000        0.0000000000000000     
  0.50000000000000000       0.28125000000000000        0.0000000000000000     
  0.53125000000000000       0.28125000000000000        0.0000000000000000     
  0.56250000000000000       0.28125000000000000        0.0000000000000000     
  0.59375000000000000       0.28125000000000000        0.0000000000000000     
  0.62500000000000000       0.28125000000000000        0.0000000000000000     
  0.50000000000000000       0.31250000000000000        0.0000000000000000     
  0.53125000000000000       0.31250000000000000        0.0000000000000000     
  0.56250000000000000       0.31250000000000000        0.0000000000000000     
  0.59375000000000000       0.31250000000000000        0.0000000000000000     
  0.62500000000000000       0.31250000000000000        0.0000000000000000     
  0.50000000000000000       0.34375000000000000        0.0000000000000000     
  0.53125000000000000       0.34375000000000000        0.0000000000000000     
  0.56250000000000000       0.34375000000000000        0.0000000000000000     
  0.59375000000000000       0.34375000000000000        0.0000000000000000     
  0.62500000000000000       0.34375000000000000        0.0000000000000000     
  0.50000000000000000       0.37500000000000000        0.0000000000000000     
  0.53125000000000000       0.37500000000000000        0.0000000000000000     
  0.56250000000000000       0.37500000000000000        0.0000000000000000     
  0.59375000000000000       0.37500000000000000        0.0000000000000000     
  0.62500000000000000       0.37500000000000000        0.0000000000000000     
  0.62500000000000000       0.25000000000000000        0.0000000000000000     
  0.65625000000000000       0.25000000000000000        0.0000000000000000     
  0.68750000000000000       0.25000000000000000        0.0000000000000000     
  0.71875000000000000       0.25000000000000000        0.0000000000000000     
  0.75000000000000000       0.25000000000000000        0.0000000000000000     
  0.62500000000000000       0.28125000000000000        0.0000000000000000     
  0.65625000000000000       0.28125000000000000        0.0000000000000000     
  0.68750000000000000       0.28125000000000000        0.0000000000000000     
  0.71875000000000000       0.28125000000000000        0.0000000000000000     
  0.75000000000000000       0.28125000000000000        0.0000000000000000     
  0.62500000000000000       0.31250000000000000        0.0000000000000000     
  0.65625000000000000       0.31250000000000000        0.0000000000000000     
  0.68750000000000000       0.31250000000000000        0.0000000000000000     
  0.71875000000000000       0.31250000000000000        0.0000000000000000     
  0.75000000000000000       0.31250000000000000        0.0000000000000000     
  0.62500000000000000       0.34375000000000000        0.0000000000000000     
  0.65625000000000000       0.34375000000000000        0.0000000000000000     
  0.68750000000000000       0.34375000000000000        0.0000000000000000     
  0.71875000000000000       0.34375000000000000        0.0000000000000000     
  0.75000000000000000       0.34375000000000000        0.0000000000000000     
  0.62500000000000000       0.37500000000000000        0.0000000000000000     
  0.65625000000000000       0.37500000000000000        0.0000000000000000     
  0.68750000000000000       0.37500000000000000        0.0000000000000000     
  0.71875000000000000       0.37500000000000000        0.0000000000000000     
  0.75000000000000000       0.37500000000000000        0.0000000000000000     
  0.75000000000000000       0.25000000000000000        0.0000000000000000     
  0.78125000000000000       0.25000000000000000        0.0000000000000000     
  0.81250000000000000       0.25000000000000000        0.0000000000000000     
  0.84375000000000000       0.25000000000000000        0.0000000000000000     
  0.87500000000000000       0.25000000000000000        0.0000000000000000     
  0.75000000000000000       0.28125000000000000        0.0000000000000000     
  0.78125000000000000       0.28125000000000000        0.0000000000000000     
  0.81250000000000000       0.28125000000000000        0.0000000000000000     
  0.84375000000000000       0.28125000000000000        0.0000000000000000     
  0.87500000000000000       0.28125000000000000        0.0000000000000000     
  0.75000000000000000       0.31250000000000000        0.0000000000000000     
  0.78125000000000000       0.31250000000000000        0.0000000000000000     
  0.81250000000000000       0.31250000000000000        0.0000000000000000     
  0.84375000000000000       0.31250000000000000        0.0000000000000000     
  0.87500000000000000       0.31250000000000000        0.0000000000000000     
  0.75000000000000000       0.34375000000000000        0.0000000000000000     
  0.78125000000000000       0.34375000000000000        0.0000000000000000     
  0.81250000000000000       0.34375000000000000        0.0000000000000000     
  0.84375000000000000       0.34375000000000000        0.0000000000000000     
  0.87500000000000000       0.34375000000000000        0.0000000000000000     
  0.75000000000000000       0.37500000000000000        0.0000000000000000     
  0.78125000000000000       0.37500000000000000        0.0000000000000000     
  0.81250000000000000       0.37500000000000000        0.0000000000000000     
  0.84375000000000000       0.37500000000000000        0.0000000000000000     
  0.87500000000000000       0.37500000000000000        0.0000000000000000     
  0.87500000000000000       0.25000000000000000        0.0000000000000000     
  0.90625000000000000       0.25000000000000000        0.0000000000000000     
  0.93750000000000000       0.25000000000000000        0.0000000000000000     
  0.96875000000000000       0.25000000000000000        0.0000000000000000     
   1.0000000000000000       0.25000000000000000        0.0000000000000000     
  0.87500000000000000       0.28125000000000000        0.0000000000000000     
  0.90625000000000000       0.28125000000000000        0.0000000000000000     
  0.93750000000000000       0.28125000000000000        0.0000000000000000     
  0.96875000000000000       0.28125000000000000        0.0000000000000000     
   1.0000000000000000       0.28125000000000000        0.0000000000000000     
  0.87500000000000000       0.31250000000000000        0.0000000000000000     
  0.90625000000000000       0.31250000000000000        0.0000000000000000     
  0.93750000000000000       0.31250000000000000        0.0000000000000000     
  0.96875000000000000       0.31250000000000000        0.0000000000000000     
   1.0000000000000000       0.31250000000000000        0.0000000000000000     
  0.87500000000000000       0.34375000000000000        0.0000000000000000     
  0.90625000000000000       0.34375000000000000        0.0000000000000000     
  0.93750000000000000       0.34375000000000000        0.0000000000000000     
  0.96875000000000000       0.34375000000000000        0.0000000000000000     
   1.0000000000000000       0.34375000000000000        0.0000000000000000     
  0.87500000000000000       0.37500000000000000        0.0000000000000000     
  0.90625000000000000       0.37500000000000000        0.0000000000000000     
  0.93750000000000000       0.37500000000000000        0.0000000000000000     
  0.96875000000000000       0.37500000000000000        0.0000000000000000     
   1.0000000000000000       0.37500000000000000        0.0000000000000000     
   1.0000000000000000       0.25000000000000000        0.0000000000000000     
   1.0312500000000000       0.25000000000000000        0.0000000000000000     
   1.0625000000000000       0.25000000000000000        0.0000000000000000     
   1.0937500000000000       0.25000000000000000        0.0000000000000000     
   1.1250000000000000       0.25000000000000000        0.0000000000000000     
   1.0000000000000000       0.28125000000000000        0.0000000000000000     
   1.0312500000000000       0.28125000000000000        0.0000000000000000     
   1.0625000000000000       0.28125000000000000        0.0000000000000000     
   1.0937500000000000       0.28125000000000000        0.0000000000000000     
   1.1250000000000000       0.28125000000000000        0.0000000000000000     
   1.0000000000000000       0.31250000000000000        0.0000000000000000     
   1.0312500000000000       0.31250000000000000        0.0000000000000000     
   1.0625000000000000       0.31250000000000000        0.0000000000000000     
   1.0937500000000000       0.31250000000000000        0.0000000000000000     
   1.1250000000000000       0.31250000000000000        0.0000000000000000     
   1.0000000000000000       0.34375000000000000        0.0000000000000000     
   1.0312500000000000       0.34375000000000000        0.0000000000000000     
   1.0625000000000000       0.34375000000000000        0.0000000000000000     
   1.0937500000000000       0.34375000000000000        0.0000000000000000     
   1.1250000000000000       0.34375000000000000        0.0000000000000000     
   1.0000000000000000       0.37500000000000000        0.0000000000000000     
   1.0312500000000000       0.37500000000000000        0.0000000000000000     
   1.0625000000000000       0.37500000000000000        0.0000000000000000     
   1.0937500000000000       0.37500000000000000        0.0000000000000000     
   1.1250000000000000       0.37500000000000000        0.0000000000000000     
   1.1250000000000000       0.25000000000000000        0.0000000000000000     
   1.1562500000000000       0.25000000000000000        0.0000000000000000     
   1.1875000000000000       0.25000000000000000        0.0000000000000000     
   1.2187500000000000       0.25000000000000000        0.0000000000000000     
   1.2500000000000000       0.25000000000000000        0.0000000000000000     
   1.1250000000000000       0.28125000000000000        0.0000000000000000     
   1.1562500000000000       0.28125000000000000        0.0000000000000000     
   1.1875000000000000       0.28125000000000000        0.0000000000000000     
   1.2187500000000000       0.28125000000000000        0.0000000000000000     
   1.2500000000000000       0.28125000000000000        0.0000000000000000     
   1.1250000000000000       0.31250000000000000        0.0000000000000000     
   1.1562500000000000       0.31250000000000000        0.0000000000000000     
   1.1875000000000000       0.31250000000000000        0.0000000000000000     
   1.2187500000000000       0.31250000000000000        0.0000000000000000     
   1.2500000000000000       0.31250000000000000        0.0000000000000000     
   1.1250000000000000       0.34375000000000000        0.0000000000000000     
   1.1562500000000000       0.34375000000000000        0.0000000000000000     
   1.1875000000000000       0.34375000000000000        0.0000000000000000     
   1.2187500000000000       0.34375000000000000        0.0000000000000000     
   1.2500000000000000       0.34375000000000000        0.0000000000000000     
   1.1250000000000000       0.37500000000000000        0.0000000000000000     
   1.1562500000000000       0.37500000000000000        0.0000000000000000     
   1.1875000000000000       0.37500000000000000        0.0000000000000000     
   1.2187500000000000       0.37500000000000000        0.0000000000000000     
   1.2500000000000000       0.37500000000000000        0.0000000000000000     
   1.2500000000000000       0.25000000000000000        0.0000000000000000     
   1.2812500000000000       0.25000000000000000        0.0000000000000000     
   1.3125000000000000       0.25000000000000000        0.0000000000000000     
   1.3437500000000000       0.25000000000000000        0.0000000000000000     
   1.3750000000000000       0.25000000000000000        0.0000000000000000     
   1.2500000000000000       0.28125000000000000        0.0000000000000000     
   1.2812500000000000       0.28125000000000000        0.0000000000000000     
   1.3125000000000000       0.28125000000000000        0.0000000000000000     
   1.3437500000000000       0.28125000000000000        0.0000000000000000     
   1.3750000000000000       0.28125000000000000        0.0000000000000000     
   1.2500000000000000       0.31250000000000000        0.0000000000000000     
   1.2812500000000000       0.31250000000000000        0.0000000000000000     
   1.3125000000000000       0.31250000000000000        0.0000000000000000     
   1.3437500000000000       0.31250000000000000        0.0000000000000000     
   1.3750000000000000       0.31250000000000000        0.0000000000000000     
   1.2500000000000000       0.34375000000000000        0.0000000000000000     
   1.2812500000000000       0.34375000000000000        0.0000000000000000     
   1.3125000000000000       0.34375000000000000        0.0000000000000000     
   1.3437500000000000       0.34375000000000000        0.0000000000000000     
   1.3750000000000000       0.34375000000000000        0.0000000000000000     
   1.2500000000000000       0.37500000000000000        0.0000000000000000     
   1.2812500000000000       0.37500000000000000        0.0000000000000000     
   1.3125000000000000       0.37500000000000000        0.0000000000000000     
   1.3437500000000000       0.37500000000000000        0.0000000000000000     
   1.3750000000000000       0.37500000000000000        0.0000000000000000     
   1.3750000000000000       0.25000000000000000        0.0000000000000000     
   1.4062500000000000       0.25000000000000000        0.0000000000000000     
   1.4375000000000000       0.25000000000000000        0.0000000000000000     
   1.4687500000000000       0.25000000000000000        0.0000000000000000     
   1.5000000000000000       0.25000000000000000        0.0000000000000000     
   1.3750000000000000       0.28125000000000000        0.0000000000000000     
   1.4062500000000000       0.28125000000000000        0.0000000000000000     
   1.4375000000000000       0.28125000000000000        0.0000000000000000     
   1.4687500000000000       0.28125000000000000        0.0000000000000000     
   1.5000000000000000       0.28125000000000000        0.0000000000000000     
   1.3750000000000000       0.31250000000000000        0.0000000000000000     
   1.4062500000000000       0.31250000000000000        0.0000000000000000     
   1.4375000000000000       0.31250000000000000        0.0000000000000000     
   1.4687500000000000       0.31250000000000000        0.0000000000000000     
   1.5000000000000000       0.31250000000000000        0.0000000000000000     
   1.3750000000000000       0.34375000000000000        0.0000000000000000     
   1.4062500000000000       0.34375000000000000        0.0000000000000000     
   1.4375000000000000       0.34375000000000000        0.0000000000000000     
   1.4687500000000000       0.34375000000000000        0.0000000000000000     
   1.5000000000000000       0.34375000000000000        0.0000000000000000     
   1.3750000000000000       0.37500000000000000        0.0000000000000000     
   1.4062500000000000       0.37500000000000000        0.0000000000000000     
   1.4375000000000000       0.37500000000000000        0.0000000000000000     
   1.4687500000000000       0.37500000000000000        0.0000000000000000     
   1.5000000000000000       0.37500000000000000        0.0000000000000000     
  0.50000000000000000       0.37500000000000000        0.0000000000000000     
  0.53125000000000000       0.37500000000000000        0.0000000000000000     
  0.56250000000000000       0.37500000000000000        0.0000000000000000     
  0.59375000000000000       0.37500000000000000        0.0000000000000000     
  0.62500000000000000       0.37500000000000000        0.0000000000000000     
  0.50000000000000000       0.40625000000000000        0.0000000000000000     
  0.53125000000000000       0.40625000000000000        0.0000000000000000     
  0.56250000000000000       0.40625000000000000        0.0000000000000000     
  0.59375000000000000       0.40625000000000000        0.0000000000000000     
  0.62500000000000000       0.40625000000000000        0.0000000000000000     
  0.50000000000000000       0.43750000000000000        0.0000000000000000     
  0.53125000000000000       0.43750000000000000        0.0000000000000000     
  0.56250000000000000       0.43750000000000000        0.0000000000000000     
  0.59375000000000000       0.43750000000000000        0.0000000000000000     
  0.62500000000000000       0.43750000000000000        0.0000000000000000     
  0.50000000000000000       0.46875000000000000        0.0000000000000000     
  0.53125000000000000       0.46875000000000000        0.0000000000000000     
  0.56250000000000000       0.46875000000000000        0.0000000000000000     
  0.59375000000000000       0.46875000000000000        0.0000000000000000     
  0.62500000000000000       0.46875000000000000        0.0000000000000000     
  0.50000000000000000       0.50000000000000000        0.0000000000000000     
  0.53125000000000000       0.50000000000000000        0.0000000000000000     
  0.56250000000000000       0.50000000000000000        0.0000000000000000     
  0.59375000000000000       0.50000000000000000        0.0000000000000000     
  0.62500000000000000       0.50000000000000000        0.0000000000000000     
  0.62500000000000000       0.37500000000000000        0.0000000000000000     
  0.65625000000000000       0.37500000000000000        0.0000000000000000     
  0.68750000000000000       0.37500000000000000        0.0000000000000000     
  0.71875000000000000       0.37500000000000000        0.0000000000000000     
  0.75000000000000000       0.37500000000000000        0.0000000000000000     
  0.62500000000000000       0.40625000000000000        0.0000000000000000     
  0.65625000000000000       0.40625000000000000        0.0000000000000000     
  0.68750000000000000       0.40625000000000000        0.0000000000000000     
  0.71875000000000000       0.40625000000000000        0.0000000000000000     
  0.75000000000000000       0.40625000000000000        0.0000000000000000     
  0.62500000000000000       0.43750000000000000        0.0000000000000000     
  0.65625000000000000       0.43750000000000000        0.0000000000000000     
  0.68750000000000000       0.43750000000000000        0.0000000000000000     
  0.71875000000000000       0.43750000000000000        0.0000000000000000     
  0.75000000000000000       0.43750000000000000        0.0000000000000000     
  0.62500000000000000       0.46875000000000000        0.0000000000000000     
  0.65625000000000000       0.46875000000000000        0.0000000000000000     
  0.68750000000000000       0.46875000000000000        0.0000000000000000     
  0.71875000000000000       0.46875000000000000        0.0000000000000000     
  0.75000000000000000       0.46875000000000000        0.0000000000000000     
  0.62500000000000000       0.50000000000000000        0.0000000000000000     
  0.65625000000000000       0.50000000000000000        0.0000000000000000     
  0.68750000000000000       0.50000000000000000        0.0000000000000000     
  0.71875000000000000       0.50000000000000000        0.0000000000000000     
  0.75000000000000000       0.50000000000000000        0.0000000000000000     
  0.75000000000000000       0.37500000000000000        0.0000000000000000     
  0.78125000000000000       0.37500000000000000        0.0000000000000000     
  0.81250000000000000       0.37500000000000000        0.0000000000000000     
  0.84375000000000000       0.37500000000000000        0.0000000000000000     
  0.87500000000000000       0.37500000000000000        0.0000000000000000     
  0.75000000000000000       0.40625000000000000        0.0000000000000000     
  0.78125000000000000       0.40625000000000000        0.0000000000000000     
  0.81250000000000000       0.40625000000000000        0.0000000000000000     
  0.84375000000000000       0.40625000000000000        0.0000000000000000     
  0.87500000000000000       0.40625000000000000        0.0000000000000000     
  0.75000000000000000       0.43750000000000000        0.0000000000000000     
  0.78125000000000000       0.43750000000000000        0.0000000000000000     
  0.81250000000000000       0.43750000000000000        0.0000000000000000     
  0.84375000000000000       0.43750000000000000        0.0000000000000000     
  0.87500000000000000       0.43750000000000000        0.0000000000000000     
  0.75000000000000000       0.46875000000000000        0.0000000000000000     
  0.78125000000000000       0.46875000000000000        0.0000000000000000     
  0.81250000000000000       0.46875000000000000        0.0000000000000000     
  0.84375000000000000       0.46875000000000000        0.0000000000000000     
  0.87500000000000000       0.46875000000000000        0.0000000000000000     
  0.75000000000000000       0.50000000000000000        0.0000000000000000     
  0.78125000000000000       0.50000000000000000        0.0000000000000000     
  0.81250000000000000       0.50000000000000000        0.0000000000000000     
  0.84375000000000000       0.50000000000000000        0.0000000000000000     
  0.87500000000000000       0.50000000000000000        0.0000000000000000     
  0.87500000000000000       0.37500000000000000        0.0000000000000000     
  0.90625000000000000       0.37500000000000000        0.0000000000000000     
  0.93750000000000000       0.37500000000000000        0.0000000000000000     
  0.96875000000000000       0.37500000000000000        0.0000000000000000     
   1.0000000000000000       0.37500000000000000        0.0000000000000000     
  0.87500000000000000       0.40625000000000000        0.0000000000000000     
  0.90625000000000000       0.40625000000000000        0.0000000000000000     
  0.93750000000000000       0.40625000000000000        0.0000000000000000     
  0.96875000000000000       0.40625000000000000        0.0000000000000000     
   1.0000000000000000       0.40625000000000000        0.0000000000000000     
  0.87500000000000000       0.43750000000000000        0.0000000000000000     
  0.90625000000000000       0.43750000000000000        0.0000000000000000     
  0.93750000000000000       0.43750000000000000        0.0000000000000000     
  0.96875000000000000       0.43750000000000000        0.0000000000000000     
   1.0000000000000000       0.43750000000000000        0.0000000000000000     
  0.87500000000000000       0.46875000000000000        0.0000000000000000     
  0.90625000000000000       0.46875000000000000        0.0000000000000000     
  0.93750000000000000       0.46875000000000000        0.0000000000000000     
  0.96875000000000000       0.46875000000000000        0.0000000000000000     
   1.0000000000000000       0.46875000000000000        0.0000000000000000     
  0.87500000000000000       0.50000000000000000        0.0000000000000000     
  0.90625000000000000       0.50000000000000000        0.0000000000000000     
  0.93750000000000000       0.50000000000000000        0.0000000000000000     
  0.96875000000000000       0.50000000000000000        0.0000000000000000     
   1.0000000000000000       0.50000000000000000        0.0000000000000000     
   1.0000000000000000       0.37500000000000000        0.0000000000000000     
   1.0312500000000000       0.37500000000000000        0.0000000000000000     
   1.0625000000000000       0.37500000000000000        0.0000000000000000     
   1.0937500000000000       0.37500000000000000        0.0000000000000000     
   1.1250000000000000       0.37500000000000000        0.0000000000000000     
   1.0000000000000000       0.40625000000000000        0.0000000000000000     
   1.0312500000000000       0.40625000000000000        0.0000000000000000     
   1.0625000000000000       0.40625000000000000        0.0000000000000000     
   1.0937500000000000       0.40625000000000000        0.0000000000000000     
   1.1250000000000000       0.40625000000000000        0.0000000000000000     
   1.0000000000000000       0.43750000000000000        0.0000000000000000     
   1.0312500000000000       0.43750000000000000        0.0000000000000000     
   1.0625000000000000       0.43750000000000000        0.0000000000000000     
   1.0937500000000000       0.43750000000000000        0.0000000000000000     
   1.1250000000000000       0.43750000000000000        0.0000000000000000     
   1.0000000000000000       0.46875000000000000        0.0000000000000000     
   1.0312500000000000       0.46875000000000000        0.0000000000000000     
   1.0625000000000000       0.46875000000000000        0.0000000000000000     
   1.0937500000000000       0.46875000000000000        0.0000000000000000     
   1.1250000000000000       0.46875000000000000        0.0000000000000000     
   1.0000000000000000       0.50000000000000000        0.0000000000000000     
   1.0312500000000000       0.50000000000000000        0.0000000000000000     
   1.0625000000000000       0.50000000000000000        0.0000000000000000     
   1.0937500000000000       0.50000000000000000        0.0000000000000000     
   1.1250000000000000       0.50000000000000000        0.0000000000000000     
   1.1250000000000000       0.37500000000000000        0.0000000000000000     
   1.1562500000000000       0.37500000000000000        0.0000000000000000     
   1.1875000000000000       0.37500000000000000        0.0000000000000000     
   1.2187500000000000       0.37500000000000000        0.0000000000000000     
   1.2500000000000000       0.37500000000000000        0.0000000000000000     
   1.1250000000000000       0.40625000000000000        0.0000000000000000     
   1.1562500000000000       0.40625000000000000        0.0000000000000000     
   1.1875000000000000       0.40625000000000000        0.0000000000000000     
   1.2187500000000000       0.40625000000000000        0.0000000000000000     
   1.2500000000000000       0.40625000000000000        0.0000000000000000     
   1.1250000000000000       0.43750000000000000        0.0000000000000000     
   1.1562500000000000       0.43750000000000000        0.0000000000000000     
   1.1875000000000000       0.43750000000000000        0.0000000000000000     
   1.2187500000000000       0.43750000000000000        0.0000000000000000     
   1.2500000000000000       0.43750000000000000        0.0000000000000000     
   1.1250000000000000       0.46875000000000000        0.0000000000000000     
   1.1562500000000000       0.46875000000000000        0.0000000000000000     
   1.1875000000000000       0.46875000000000000        0.0000000000000000     
   1.2187500000000000       0.46875000000000000        0.0000000000000000     
   1.2500000000000000       0.46875000000000000        0.0000000000000000     
   1.1250000000000000       0.50000000000000000        0.0000000000000000     
   1.1562500000000000       0.50000000000000000        0.0000000000000000     
   1.1875000000000000       0.50000000000000000        0.0000000000000000     
   1.2187500000000000       0.50000000000000000        0.0000000000000000     
   1.2500000000000000       0.50000000000000000        0.0000000000000000     
   1.2500000000000000       0.37500000000000000        0.0000000000000000     
   1.2812500000000000       0.37500000000000000        0.0000000000000000     
   1.3125000000000000       0.37500000000000000        0.0000000000000000     
   1.3437500000000000       0.37500000000000000        0.0000000000000000     
   1.3750000000000000       0.37500000000000000        0.0000000000000000     
   1.2500000000000000       0.40625000000000000        0.0000000000000000     
   1.2812500000000000       0.40625000000000000        0.0000000000000000     
   1.3125000000000000       0.40625000000000000        0.0000000000000000     
   1.3437500000000000       0.40625000000000000        0.0000000000000000     
   1.3750000000000000       0.40625000000000000        0.0000000000000000     
   1.2500000000000000       0.43750000000000000        0.0000000000000000     
   1.2812500000000000       0.43750000000000000        0.0000000000000000     
   1.3125000000000000       0.43750000000000000        0.0000000000000000     
   1.3437500000000000       0.43750000000000000        0.0000000000000000     
   1.3750000000000000       0.43750000000000000        0.0000000000000000     
   1.2500000000000000       0.46875000000000000        0.0000000000000000     
   1.2812500000000000       0.46875000000000000        0.0000000000000000     
   1.3125000000000000       0.46875000000000000        0.0000000000000000     
   1.3437500000000000       0.46875000000000000        0.0000000000000000     
   1.3750000000000000       0.46875000000000000        0.0000000000000000     
   1.2500000000000000       0.50000000000000000        0.0000000000000000     
   1.2812500000000000       0.50000000000000000        0.0000000000000000     
   1.3125000000000000       0.50000000000000000        0.0000000000000000     
   1.3437500000000000       0.50000000000000000        0.0000000000000000     
   1.3750000000000000       0.50000000000000000        0.0000000000000000     
   1.3750000000000000       0.37500000000000000        0.0000000000000000     
   1.4062500000000000       0.37500000000000000        0.0000000000000000     
   1.4375000000000000       0.37500000000000000        0.0000000000000000     
   1.4687500000000000       0.37500000000000000        0.0000000000000000     
   1.5000000000000000       0.37500000000000000        0.0000000000000000     
   1.3750000000000000       0.40625000000000000        0.0000000000000000     
   1.4062500000000000       0.40625000000000000        0.0000000000000000     
   1.4375000000000000       0.40625000000000000        0.0000000000000000     
   1.4687500000000000       0.40625000000000000        0.0000000000000000     
   1.5000000000000000       0.40625000000000000        0.0000000000000000     
   1.3750000000000000       0.43750000000000000        0.0000000000000000     
   1.4062500000000000       0.43750000000000000        0.0000000000000000     
   1.4375000000000000       0.43750000000000000        0.0000000000000000     
   1.4687500000000000       0.43750000000000000        0.0000000000000000     
   1.5000000000000000       0.43750000000000000        0.0000000000000000     
   1.3750000000000000       0.46875000000000000        0.0000000000000000     
   1.4062500000000000       0.46875000000000000        0.0000000000000000     
   1.4375000000000000       0.46875000000000000        0.0000000000000000     
   1.4687500000000000       0.46875000000000000        0.0000000000000000     
   1.5000000000000000       0.46875000000000000        0.0000000000000000     
   1.3750000000000000       0.50000000000000000        0.0000000000000000     
   1.4062500000000000       0.50000000000000000        0.0000000000000000     
   1.4375000000000000       0.50000000000000000        0.0000000000000000     
   1.4687500000000000       0.50000000000000000        0.0000000000000000     
   1.5000000000000000       0.50000000000000000        0.0000000000000000     
  0.50000000000000000       0.50000000000000000        0.0000000000000000     
  0.53125000000000000       0.50000000000000000        0.0000000000000000     
  0.56250000000000000       0.50000000000000000        0.0000000000000000     
  0.59375000000000000       0.50000000000000000        0.0000000000000000     
  0.62500000000000000       0.50000000000000000        0.0000000000000000     
  0.50000000000000000       0.53125000000000000        0.0000000000000000     
  0.53125000000000000       0.53125000000000000        0.0000000000000000     
  0.56250000000000000       0.53125000000000000        0.0000000000000000     
  0.59375000000000000       0.53125000000000000        0.0000000000000000     
  0.62500000000000000       0.53125000000000000        0.0000000000000000     
  0.50000000000000000       0.56250000000000000        0.0000000000000000     
  0.53125000000000000       0.56250000000000000        0.0000000000000000     
  0.56250000000000000       0.56250000000000000        0.0000000000000000     
  0.59375000000000000       0.56250000000000000        0.0000000000000000     
  0.62500000000000000       0.56250000000000000        0.0000000000000000     
  0.50000000000000000       0.59375000000000000        0.0000000000000000     
  0.53125000000000000       0.59375000000000000        0.0000000000000000     
  0.56250000000000000       0.59375000000000000        0.0000000000000000     
  0.59375000000000000       0.59375000000000000        0.0000000000000000     
  0.62500000000000000       0.59375000000000000        0.0000000000000000     
  0.50000000000000000       0.62500000000000000        0.0000000000000000     
  0.53125000000000000       0.62500000000000000        0.0000000000000000     
  0.56250000000000000       0.62500000000000000        0.0000000000000000     
  0.59375000000000000       0.62500000000000000        0.0000000000000000     
  0.62500000000000000       0.62500000000000000        0.0000000000000000     
  0.62500000000000000       0.50000000000000000        0.0000000000000000     
  0.65625000000000000       0.50000000000000000        0.0000000000000000     
  0.68750000000000000       0.50000000000000000        0.0000000000000000     
  0.71875000000000000       0.50000000000000000        0.0000000000000000     
  0.75000000000000000       0.50000000000000000        0.0000000000000000     
  0.62500000000000000       0.53125000000000000        0.0000000000000000     
  0.65625000000000000       0.53125000000000000        0.0000000000000000     
  0.68750000000000000       0.53125000000000000        0.0000000000000000     
  0.71875000000000000       0.53125000000000000        0.0000000000000000     
  0.75000000000000000       0.53125000000000000        0.0000000000000000     
  0.62500000000000000       0.56250000000000000        0.0000000000000000     
  0.65625000000000000       0.56250000000000000        0.0000000000000000     
  0.68750000000000000       0.56250000000000000        0.0000000000000000     
  0.71875000000000000       0.56250000000000000        0.0000000000000000     
  0.75000000000000000       0.56250000000000000        0.0000000000000000     
  0.62500000000000000       0.59375000000000000        0.0000000000000000     
  0.65625000000000000       0.59375000000000000        0.0000000000000000     
  0.68750000000000000       0.59375000000000000        0.0000000000000000     
  0.71875000000000000       0.59375000000000000        0.0000000000000000     
  0.75000000000000000       0.59375000000000000        0.0000000000000000     
  0.62500000000000000       0.62500000000000000        0.0000000000000000     
  0.65625000000000000       0.62500000000000000        0.0000000000000000     
  0.68750000000000000       0.62500000000000000        0.0000000000000000     
  0.71875000000000000       0.62500000000000000        0.0000000000000000     
  0.75000000000000000       0.62500000000000000        0.0000000000000000     
  0.75000000000000000       0.50000000000000000        0.0000000000000000     
  0.78125000000000000       0.50000000000000000        0.0000000000000000     
  0.81250000000000000       0.50000000000000000        0.0000000000000000     
  0.84375000000000000       0.50000000000000000        0.0000000000000000     
  0.87500000000000000       0.50000000000000000        0.0000000000000000     
  0.75000000000000000       0.53125000000000000        0.0000000000000000     
  0.78125000000000000       0.53125000000000000        0.0000000000000000     
  0.81250000000000000       0.53125000000000000        0.0000000000000000     
  0.84375000000000000       0.53125000000000000        0.0000000000000000     
  0.87500000000000000       0.53125000000000000        0.0000000000000000     
  0.75000000000000000       0.56250000000000000        0.0000000000000000     
  0.78125000000000000       0.56250000000000000        0.0000000000000000     
  0.81250000000000000       0.56250000000000000        0.0000000000000000     
  0.84375000000000000       0.56250000000000000        0.0000000000000000     
  0.87500000000000000       0.56250000000000000        0.0000000000000000     
  0.75000000000000000       0.59375000000000000        0.0000000000000000     
  0.78125000000000000       0.59375000000000000        0.0000000000000000     
  0.81250000000000000       0.59375000000000000        0.0000000000000000     
  0.84375000000000000       0.59375000000000000        0.0000000000000000     
  0.87500000000000000       0.59375000000000000        0.0000000000000000     
  0.75000000000000000       0.62500000000000000        0.0000000000000000     
  0.78125000000000000       0.62500000000000000        0.0000000000000000     
  0.81250000000000000       0.62500000000000000        0.0000000000000000     
  0.84375000000000000       0.62500000000000000        0.0000000000000000     
  0.87500000000000000       0.62500000000000000        0.0000000000000000     
  0.87500000000000000       0.50000000000000000        0.0000000000000000     
  0.90625000000000000       0.50000000000000000        0.0000000000000000     
  0.93750000000000000       0.50000000000000000        0.0000000000000000     
  0.96875000000000000       0.50000000000000000        0.0000000000000000     
   1.0000000000000000       0.50000000000000000        0.0000000000000000     
  0.87500000000000000       0.53125000000000000        0.0000000000000000     
  0.90625000000000000       0.53125000000000000        0.0000000000000000     
  0.93750000000000000       0.53125000000000000        0.0000000000000000     
  0.96875000000000000       0.53125000000000000        0.0000000000000000     
   1.0000000000000000       0.53125000000000000        0.0000000000000000     
  0.87500000000000000       0.56250000000000000        0.0000000000000000     
  0.90625000000000000       0.56250000000000000        0.0000000000000000     
  0.93750000000000000       0.56250000000000000        0.0000000000000000     
  0.96875000000000000       0.56250000000000000        0.0000000000000000     
   1.0000000000000000       0.56250000000000000        0.0000000000000000     
  0.87500000000000000       0.59375000000000000        0.0000000000000000     
  0.90625000000000000       0.59375000000000000        0.0000000000000000     
  0.93750000000000000       0.59375000000000000        0.0000000000000000     
  0.96875000000000000       0.59375000000000000        0.0000000000000000     
   1.0000000000000000       0.59375000000000000        0.0000000000000000     
  0.87500000000000000       0.62500000000000000        0.0000000000000000     
  0.90625000000000000       0.62500000000000000        0.0000000000000000     
  0.93750000000000000       0.62500000000000000        0.0000000000000000     
  0.96875000000000000       0.62500000000000000        0.0000000000000000     
   1.0000000000000000       0.62500000000000000        0.0000000000000000     
   1.0000000000000000       0.50000000000000000        0.0000000000000000     
   1.0312500000000000       0.50000000000000000        0.0000000000000000     
   1.0625000000000000       0.50000000000000000        0.0000000000000000     
   1.0937500000000000       0.50000000000000000        0.0000000000000000     
   1.1250000000000000       0.50000000000000000        0.0000000000000000     
   1.0000000000000000       0.53125000000000000        0.0000000000000000     
   1.0312500000000000       0.53125000000000000        0.0000000000000000     
   1.0625000000000000       0.53125000000000000        0.0000000000000000     
   1.0937500000000000       0.53125000000000000        0.0000000000000000     
   1.1250000000000000       0.53125000000000000        0.0000000000000000     
   1.0000000000000000       0.56250000000000000        0.0000000000000000     
   1.0312500000000000       0.56250000000000000        0.0000000000000000     
   1.0625000000000000       0.56250000000000000        0.0000000000000000     
   1.0937500000000000       0.56250000000000000        0.0000000000000000     
   1.1250000000000000       0.56250000000000000        0.0000000000000000     
   1.0000000000000000       0.59375000000000000        0.0000000000000000     
   1.0312500000000000       0.59375000000000000        0.0000000000000000     
   1.0625000000000000       0.59375000000000000        0.0000000000000000     
   1.0937500000000000       0.59375000000000000        0.0000000000000000     
   1.1250000000000000       0.59375000000000000        0.0000000000000000     
   1.0000000000000000       0.62500000000000000        0.0000000000000000     
   1.0312500000000000       0.62500000000000000        0.0000000000000000     
   1.0625000000000000       0.62500000000000000        0.0000000000000000     
   1.0937500000000000       0.62500000000000000        0.0000000000000000     
   1.1250000000000000       0.62500000000000000        0.0000000000000000     
   1.1250000000000000       0.50000000000000000        0.0000000000000000     
   1.1562500000000000       0.50000000000000000        0.0000000000000000     
   1.1875000000000000       0.50000000000000000        0.0000000000000000     
   1.2187500000000000       0.50000000000000000        0.0000000000000000     
   1.2500000000000000       0.50000000000000000        0.0000000000000000     
   1.1250000000000000       0.53125000000000000        0.0000000000000000     
   1.1562500000000000       0.53125000000000000        0.0000000000000000     
   1.1875000000000000       0.53125000000000000        0.0000000000000000     
   1.2187500000000000       0.53125000000000000        0.0000000000000000     
   1.2500000000000000       0.53125000000000000        0.0000000000000000     
   1.1250000000000000       0.56250000000000000        0.0000000000000000     
   1.1562500000000000       0.56250000000000000        0.0000000000000000     
   1.1875000000000000       0.56250000000000000        0.0000000000000000     
   1.2187500000000000       0.56250000000000000        0.0000000000000000     
   1.2500000000000000       0.56250000000000000        0.0000000000000000     
   1.1250000000000000       0.59375000000000000        0.0000000000000000     
   1.1562500000000000       0.59375000000000000        0.0000000000000000     
   1.1875000000000000       0.59375000000000000        0.0000000000000000     
   1.2187500000000000       0.59375000000000000        0.0000000000000000     
   1.2500000000000000       0.59375000000000000        0.0000000000000000     
   1.1250000000000000       0.62500000000000000        0.0000000000000000     
   1.1562500000000000       0.62500000000000000        0.0000000000000000     
   1.1875000000000000       0.62500000000000000        0.0000000000000000     
   1.2187500000000000       0.62500000000000000        0.0000000000000000     
   1.2500000000000000       0.62500000000000000        0.0000000000000000     
   1.2500000000000000       0.50000000000000000        0.0000000000000000     
   1.2812500000000000       0.50000000000000000        0.0000000000000000     
   1.3125000000000000       0.50000000000000000        0.0000000000000000     
   1.3437500000000000       0.50000000000000000        0.0000000000000000     
   1.3750000000000000       0.50000000000000000        0.0000000000000000     
   1.2500000000000000       0.53125000000000000        0.0000000000000000     
   1.2812500000000000       0.53125000000000000        0.0000000000000000     
   1.3125000000000000       0.53125000000000000        0.0000000000000000     
   1.3437500000000000       0.53125000000000000        0.0000000000000000     
   1.3750000000000000       0.53125000000000000        0.0000000000000000     
   1.2500000000000000       0.56250000000000000        0.0000000000000000     
   1.2812500000000000       0.56250000000000000        0.0000000000000000     
   1.3125000000000000       0.56250000000000000        0.0000000000000000     
   1.3437500000000000       0.56250000000000000        0.0000000000000000     
   1.3750000000000000       0.56250000000000000        0.0000000000000000     
   1.2500000000000000       0.59375000000000000        0.0000000000000000     
   1.2812500000000000       0.59375000000000000        0.0000000000000000     
   1.3125000000000000       0.59375000000000000        0.0000000000000000     
   1.3437500000000000       0.59375000000000000        0.0000000000000000     
   1.3750000000000000       0.59375000000000000        0.0000000000000000     
   1.2500000000000000       0.62500000000000000        0.0000000000000000     
   1.2812500000000000       0.62500000000000000        0.0000000000000000     
   1.3125000000000000       0.62500000000000000        0.0000000000000000     
   1.3437500000000000       0.62500000000000000        0.0000000000000000     
   1.3750000000000000       0.62500000000000000        0.0000000000000000     
   1.3750000000000000       0.50000000000000000        0.0000000000000000     
   1.4062500000000000       0.50000000000000000        0.0000000000000000     
   1.4375000000000000       0.50000000000000000        0.0000000000000000     
   1.4687500000000000       0.50000000000000000        0.0000000000000000     
   1.5000000000000000       0.50000000000000000        0.0000000000000000     
   1.3750000000000000       0.53125000000000000        0.0000000000000000     
   1.4062500000000000       0.53125000000000000        0.0000000000000000     
   1.4375000000000000       0.53125000000000000        0.0000000000000000     
   1.4687500000000000       0.53125000000000000        0.0000000000000000     
   1.5000000000000000       0.53125000000000000        0.0000000000000000     
   1.3750000000000000       0.56250000000000000        0.0000000000000000     
   1.4062500000000000       0.56250000000000000        0.0000000000000000     
   1.4375000000000000       0.56250000000000000        0.0000000000000000     
   1.4687500000000000       0.56250000000000000        0.0000000000000000     
   1.5000000000000000       0.56250000000000000        0.0000000000000000     
   1.3750000000000000       0.59375000000000000        0.0000000000000000     
   1.4062500000000000       0.59375000000000000        0.0000000000000000     
   1.4375000000000000       0.59375000000000000        0.0000000000000000     
   1.4687500000000000       0.59375000000000000        0.0000000000000000     
   1.5000000000000000       0.59375000000000000        0.0000000000000000     
   1.3750000000000000       0.62500000000000000        0.0000000000000000     
   1.4062500000000000       0.62500000000000000        0.0000000000000000     
   1.4375000000000000       0.62500000000000000        0.0000000000000000     
   1.4687500000000000       0.62500000000000000        0.0000000000000000     
   1.5000000000000000       0.62500000000000000        0.0000000000000000     
  0.50000000000000000       0.62500000000000000        0.0000000000000000     
  0.53125000000000000       0.62500000000000000        0.0000000000000000     
  0.56250000000000000       0.62500000000000000        0.0000000000000000     
  0.59375000000000000       0.62500000000000000        0.0000000000000000     
  0.62500000000000000       0.62500000000000000        0.0000000000000000     
  0.50000000000000000       0.65625000000000000        0.0000000000000000     
  0.53125000000000000       0.65625000000000000        0.0000000000000000     
  0.56250000000000000       0.65625000000000000        0.0000000000000000     
  0.59375000000000000       0.65625000000000000        0.0000000000000000     
  0.62500000000000000       0.65625000000000000        0.0000000000000000     
  0.50000000000000000       0.68750000000000000        0.0000000000000000     
  0.53125000000000000       0.68750000000000000        0.0000000000000000     
  0.56250000000000000       0.68750000000000000        0.0000000000000000     
  0.59375000000000000       0.68750000000000000        0.0000000000000000     
  0.62500000000000000       0.68750000000000000        0.0000000000000000     
  0.50000000000000000       0.71875000000000000        0.0000000000000000     
  0.53125000000000000       0.71875000000000000        0.0000000000000000     
  0.56250000000000000       0.71875000000000000        0.0000000000000000     
  0.59375000000000000       0.71875000000000000        0.0000000000000000     
  0.62500000000000000       0.71875000000000000        0.0000000000000000     
  0.50000000000000000       0.75000000000000000        0.0000000000000000     
  0.53125000000000000       0.75000000000000000        0.0000000000000000     
  0.56250000000000000       0.75000000000000000        0.0000000000000000     
  0.59375000000000000       0.75000000000000000        0.0000000000000000     
  0.62500000000000000       0.75000000000000000        0.0000000000000000     
  0.62500000000000000       0.62500000000000000        0.0000000000000000     
  0.65625000000000000       0.62500000000000000        0.0000000000000000     
  0.68750000000000000       0.62500000000000000        0.0000000000000000     
  0.71875000000000000       0.62500000000000000        0.0000000000000000     
  0.75000000000000000       0.62500000000000000        0.0000000000000000     
  0.62500000000000000       0.65625000000000000        0.0000000000000000     
  0.65625000000000000       0.65625000000000000        0.0000000000000000     
  0.68750000000000000       0.65625000000000000        0.0000000000000000     
  0.71875000000000000       0.65625000000000000        0.0000000000000000     
  0.75000000000000000       0.65625000000000000        0.0000000000000000     
  0.62500000000000000       0.68750000000000000        0.0000000000000000     
  0.65625000000000000       0.68750000000000000        0.0000000000000000     
  0.68750000000000000       0.68750000000000000        0.0000000000000000     
  0.71875000000000000       0.68750000000000000        0.0000000000000000     
  0.75000000000000000       0.68750000000000000        0.0000000000000000     
  0.62500000000000000       0.71875000000000000        0.0000000000000000     
  0.65625000000000000       0.71875000000000000        0.0000000000000000     
  0.68750000000000000       0.71875000000000000        0.0000000000000000     
  0.71875000000000000       0.71875000000000000        0.0000000000000000     
  0.75000000000000000       0.71875000000000000        0.0000000000000000     
  0.62500000000000000       0.75000000000000000        0.0000000000000000     
  0.65625000000000000       0.75000000000000000        0.0000000000000000     
  0.68750000000000000       0.75000000000000000        0.0000000000000000     
  0.71875000000000000       0.75000000000000000        0.0000000000000000     
  0.75000000000000000       0.75000000000000000        0.0000000000000000     
  0.75000000000000000       0.62500000000000000        0.0000000000000000     
  0.78125000000000000       0.62500000000000000        0.0000000000000000     
  0.81250000000000000       0.62500000000000000        0.0000000000000000     
  0.84375000000000000       0.62500000000000000        0.0000000000000000     
  0.87500000000000000       0.62500000000000000        0.0000000000000000     
  0.75000000000000000       0.65625000000000000        0.0000000000000000     
  0.78125000000000000       0.65625000000000000        0.0000000000000000     
  0.81250000000000000       0.65625000000000000        0.0000000000000000     
  0.84375000000000000       0.65625000000000000        0.0000000000000000     
  0.87500000000000000       0.65625000000000000        0.0000000000000000     
  0.75000000000000000       0.68750000000000000        0.0000000000000000     
  0.78125000000000000       0.68750000000000000        0.0000000000000000     
  0.81250000000000000       0.68750000000000000        0.0000000000000000     
  0.84375000000000000       0.68750000000000000        0.0000000000000000     
  0.87500000000000000       0.68750000000000000        0.0000000000000000     
  0.75000000000000000       0.71875000000000000        0.0000000000000000     
  0.78125000000000000       0.71875000000000000        0.0000000000000000     
  0.81250000000000000       0.71875000000000000        0.0000000000000000     
  0.84375000000000000       0.71875000000000000        0.0000000000000000     
  0.87500000000000000       0.71875000000000000        0.0000000000000000     
  0.75000000000000000       0.75000000000000000        0.0000000000000000     
  0.78125000000000000       0.75000000000000000        0.0000000000000000     
  0.81250000000000000       0.75000000000000000        0.0000000000000000     
  0.84375000000000000       0.75000000000000000        0.0000000000000000     
  0.87500000000000000       0.75000000000000000        0.0000000000000000     
  0.87500000000000000       0.62500000000000000        0.0000000000000000     
  0.90625000000000000       0.62500000000000000        0.0000000000000000     
  0.93750000000000000       0.62500000000000000        0.0000000000000000     
  0.96875000000000000       0.62500000000000000        0.0000000000000000     
   1.0000000000000000       0.62500000000000000        0.0000000000000000     
  0.87500000000000000       0.65625000000000000        0.0000000000000000     
  0.90625000000000000       0.65625000000000000        0.0000000000000000     
  0.93750000000000000       0.65625000000000000        0.0000000000000000     
  0.96875000000000000       0.65625000000000000        0.0000000000000000     
   1.0000000000000000       0.65625000000000000        0.0000000000000000     
  0.87500000000000000       0.68750000000000000        0.0000000000000000     
  0.90625000000000000       0.68750000000000000        0.0000000000000000     
  0.93750000000000000       0.68750000000000000        0.0000000000000000     
  0.96875000000000000       0.68750000000000000        0.0000000000000000     
   1.0000000000000000       0.68750000000000000        0.0000000000000000     
  0.87500000000000000       0.71875000000000000        0.0000000000000000     
  0.90625000000000000       0.71875000000000000        0.0000000000000000     
  0.93750000000000000       0.71875000000000000        0.0000000000000000     
  0.96875000000000000       0.71875000000000000        0.0000000000000000     
   1.0000000000000000       0.71875000000000000        0.0000000000000000     
  0.87500000000000000       0.75000000000000000        0.0000000000000000     
  0.90625000000000000       0.75000000000000000        0.0000000000000000     
  0.93750000000000000       0.75000000000000000        0.0000000000000000     
  0.96875000000000000       0.75000000000000000        0.0000000000000000     
   1.0000000000000000       0.75000000000000000        0.0000000000000000     
   1.0000000000000000       0.62500000000000000        0.0000000000000000     
   1.0312500000000000       0.62500000000000000        0.0000000000000000     
   1.0625000000000000       0.62500000000000000        0.0000000000000000     
   1.0937500000000000       0.62500000000000000        0.0000000000000000     
   1.1250000000000000       0.62500000000000000        0.0000000000000000     
   1.0000000000000000       0.65625000000000000        0.0000000000000000     
   1.0312500000000000       0.65625000000000000        0.0000000000000000     
   1.0625000000000000       0.65625000000000000        0.0000000000000000     
   1.0937500000000000       0.65625000000000000        0.0000000000000000     
   1.1250000000000000       0.65625000000000000        0.0000000000000000     
   1.0000000000000000       0.68750000000000000        0.0000000000000000     
   1.0312500000000000       0.68750000000000000        0.0000000000000000     
   1.0625000000000000       0.68750000000000000        0.0000000000000000     
   1.0937500000000000       0.68750000000000000        0.0000000000000000     
   1.1250000000000000       0.68750000000000000        0.0000000000000000     
   1.0000000000000000       0.71875000000000000        0.0000000000000000     
   1.0312500000000000       0.71875000000000000        0.0000000000000000     
   1.0625000000000000       0.71875000000000000        0.0000000000000000     
   1.0937500000000000       0.71875000000000000        0.0000000000000000     
   1.1250000000000000       0.71875000000000000        0.0000000000000000     
   1.0000000000000000       0.75000000000000000        0.0000000000000000     
   1.0312500000000000       0.75000000000000000        0.0000000000000000     
   1.0625000000000000       0.75000000000000000        0.0000000000000000     
   1.0937500000000000       0.75000000000000000        0.0000000000000000     
   1.1250000000000000       0.75000000000000000        0.0000000000000000     
   1.1250000000000000       0.62500000000000000        0.0000000000000000     
   1.1562500000000000       0.62500000000000000        0.0000000000000000     
   1.1875000000000000       0.62500000000000000        0.0000000000000000     
   1.2187500000000000       0.62500000000000000        0.0000000000000000     
   1.2500000000000000       0.62500000000000000        0.0000000000000000     
   1.1250000000000000       0.65625000000000000        0.0000000000000000     
   1.1562500000000000       0.65625000000000000        0.0000000000000000     
   1.1875000000000000       0.65625000000000000        0.0000000000000000     
   1.2187500000000000       0.65625000000000000        0.0000000000000000     
   1.2500000000000000       0.65625000000000000        0.0000000000000000     
   1.1250000000000000       0.68750000000000000        0.0000000000000000     
   1.1562500000000000       0.68750000000000000        0.0000000000000000     
   1.1875000000000000       0.68750000000000000        0.0000000000000000     
   1.2187500000000000       0.68750000000000000        0.0000000000000000     
   1.2500000000000000       0.68750000000000000        0.0000000000000000     
   1.1250000000000000       0.71875000000000000        0.0000000000000000     
   1.1562500000000000       0.71875000000000000        0.0000000000000000     
   1.1875000000000000       0.71875000000000000        0.0000000000000000     
   1.2187500000000000       0.71875000000000000        0.0000000000000000     
   1.2500000000000000       0.71875000000000000        0.0000000000000000     
   1.1250000000000000       0.75000000000000000        0.0000000000000000     
   1.1562500000000000       0.75000000000000000        0.0000000000000000     
   1.1875000000000000       0.75000000000000000        0.0000000000000000     
   1.2187500000000000       0.75000000000000000        0.0000000000000000     
   1.2500000000000000       0.75000000000000000        0.0000000000000000     
   1.2500000000000000       0.62500000000000000        0.0000000000000000     
   1.2812500000000000       0.62500000000000000        0.0000000000000000     
   1.3125000000000000       0.62500000000000000        0.0000000000000000     
   1.3437500000000000       0.62500000000000000        0.0000000000000000     
   1.3750000000000000       0.62500000000000000        0.0000000000000000     
   1.2500000000000000       0.65625000000000000        0.0000000000000000     
   1.2812500000000000       0.65625000000000000        0.0000000000000000     
   1.3125000000000000       0.65625000000000000        0.0000000000000000     
   1.3437500000000000       0.65625000000000000        0.0000000000000000     
   1.3750000000000000       0.65625000000000000        0.0000000000000000     
   1.2500000000000000       0.68750000000000000        0.0000000000000000     
   1.2812500000000000       0.68750000000000000        0.0000000000000000     
   1.3125000000000000       0.68750000000000000        0.0000000000000000     
   1.3437500000000000       0.68750000000000000        0.0000000000000000     
   1.3750000000000000       0.68750000000000000        0.0000000000000000     
   1.2500000000000000       0.71875000000000000        0.0000000000000000     
   1.2812500000000000       0.71875000000000000        0.0000000000000000     
   1.3125000000000000       0.71875000000000000        0.0000000000000000     
   1.3437500000000000       0.71875000000000000        0.0000000000000000     
   1.3750000000000000       0.71875000000000000        0.0000000000000000     
   1.2500000000000000       0.75000000000000000        0.0000000000000000     
   1.2812500000000000       0.75000000000000000        0.0000000000000000     
   1.3125000000000000       0.75000000000000000        0.0000000000000000     
   1.3437500000000000       0.75000000000000000        0.0000000000000000     
   1.3750000000000000       0.75000000000000000        0.0000000000000000     
   1.3750000000000000       0.62500000000000000        0.0000000000000000     
   1.4062500000000000       0.62500000000000000        0.0000000000000000     
   1.4375000000000000       0.62500000000000000        0.0000000000000000     
   1.4687500000000000       0.62500000000000000        0.0000000000000000     
   1.5000000000000000       0.62500000000000000        0.0000000000000000     
   1.3750000000000000       0.65625000000000000        0.0000000000000000     
   1.4062500000000000       0.65625000000000000        0.0000000000000000     
   1.4375000000000000       0.65625000000000000        0.0000000000000000     
   1.4687500000000000       0.65625000000000000        0.0000000000000000     
   1.5000000000000000       0.65625000000000000        0.0000000000000000     
   1.3750000000000000       0.68750000000000000        0.0000000000000000     
   1.4062500000000000       0.68750000000000000        0.0000000000000000     
   1.4375000000000000       0.68750000000000000        0.0000000000000000     
   1.4687500000000000       0.68750000000000000        0.0000000000000000     
   1.5000000000000000       0.68750000000000000        0.0000000000000000     
   1.3750000000000000       0.71875000000000000        0.0000000000000000     
   1.4062500000000000       0.71875000000000000        0.0000000000000000     
   1.4375000000000000       0.71875000000000000        0.0000000000000000     
   1.4687500000000000       0.71875000000000000        0.0000000000000000     
   1.5000000000000000       0.71875000000000000        0.0000000000000000     
   1.3750000000000000       0.75000000000000000        0.0000000000000000     
   1.4062500000000000       0.75000000000000000        0.0000000000000000     
   1.4375000000000000       0.75000000000000000        0.0000000000000000     
   1.4687500000000000       0.75000000000000000        0.0000000000000000     
   1.5000000000000000       0.75000000000000000        0.0000000000000000     
  0.50000000000000000       0.75000000000000000        0.0000000000000000     
  0.53125000000000000       0.75000000000000000        0.0000000000000000     
  0.56250000000000000       0.75000000000000000        0.0000000000000000     
  0.59375000000000000       0.75000000000000000        0.0000000000000000     
  0.62500000000000000       0.75000000000000000        0.0000000000000000     
  0.50000000000000000       0.78125000000000000        0.0000000000000000     
  0.53125000000000000       0.78125000000000000        0.0000000000000000     
  0.56250000000000000       0.78125000000000000        0.0000000000000000     
  0.59375000000000000       0.78125000000000000        0.0000000000000000     
  0.62500000000000000       0.78125000000000000        0.0000000000000000     
  0.50000000000000000       0.81250000000000000        0.0000000000000000     
  0.53125000000000000       0.81250000000000000        0.0000000000000000     
  0.56250000000000000       0.81250000000000000        0.0000000000000000     
  0.59375000000000000       0.81250000000000000        0.0000000000000000     
  0.62500000000000000       0.81250000000000000        0.0000000000000000     
  0.50000000000000000       0.84375000000000000        0.0000000000000000     
  0.53125000000000000       0.84375000000000000        0.0000000000000000     
  0.56250000000000000       0.84375000000000000        0.0000000000000000     
  0.59375000000000000       0.84375000000000000        0.0000000000000000     
  0.62500000000000000       0.84375000000000000        0.0000000000000000     
  0.50000000000000000       0.87500000000000000        0.0000000000000000     
  0.53125000000000000       0.87500000000000000        0.0000000000000000     
  0.56250000000000000       0.87500000000000000        0.0000000000000000     
  0.59375000000000000       0.87500000000000000        0.0000000000000000     
  0.62500000000000000       0.87500000000000000        0.0000000000000000     
  0.62500000000000000       0.75000000000000000        0.0000000000000000     
  0.65625000000000000       0.75000000000000000        0.0000000000000000     
  0.68750000000000000       0.75000000000000000        0.0000000000000000     
  0.71875000000000000       0.75000000000000000        0.0000000000000000     
  0.75000000000000000       0.75000000000000000        0.0000000000000000     
  0.62500000000000000       0.78125000000000000        0.0000000000000000     
  0.65625000000000000       0.78125000000000000        0.0000000000000000     
  0.68750000000000000       0.78125000000000000        0.0000000000000000     
  0.71875000000000000       0.78125000000000000        0.0000000000000000     
  0.75000000000000000       0.78125000000000000        0.0000000000000000     
  0.62500000000000000       0.81250000000000000        0.0000000000000000     
  0.65625000000000000       0.81250000000000000        0.0000000000000000     
  0.68750000000000000       0.81250000000000000        0.0000000000000000     
  0.71875000000000000       0.81250000000000000        0.0000000000000000     
  0.75000000000000000       0.81250000000000000        0.0000000000000000     
  0.62500000000000000       0.84375000000000000        0.0000000000000000     
  0.65625000000000000       0.84375000000000000        0.0000000000000000     
  0.68750000000000000       0.84375000000000000        0.0000000000000000     
  0.71875000000000000       0.84375000000000000        0.0000000000000000     
  0.75000000000000000       0.84375000000000000        0.0000000000000000     
  0.62500000000000000       0.87500000000000000        0.0000000000000000     
  0.65625000000000000       0.87500000000000000        0.0000000000000000     
  0.68750000000000000       0.87500000000000000        0.0000000000000000     
  0.71875000000000000       0.87500000000000000        0.0000000000000000     
  0.75000000000000000       0.87500000000000000        0.0000000000000000     
  0.75000000000000000       0.75000000000000000        0.0000000000000000     
  0.78125000000000000       0.75000000000000000        0.0000000000000000     
  0.81250000000000000       0.75000000000000000        0.0000000000000000     
  0.84375000000000000       0.75000000000000000        0.0000000000000000     
  0.87500000000000000       0.75000000000000000        0.0000000000000000     
  0.75000000000000000       0.78125000000000000        0.0000000000000000     
  0.78125000000000000       0.78125000000000000        0.0000000000000000     
  0.81250000000000000       0.78125000000000000        0.0000000000000000     
  0.84375000000000000       0.78125000000000000        0.0000000000000000     
  0.87500000000000000       0.78125000000000000        0.0000000000000000     
  0.75000000000000000       0.81250000000000000        0.0000000000000000     
  0.78125000000000000       0.81250000000000000        0.0000000000000000     
  0.81250000000000000       0.81250000000000000        0.0000000000000000     
  0.84375000000000000       0.81250000000000000        0.0000000000000000     
  0.87500000000000000       0.81250000000000000        0.0000000000000000     
  0.75000000000000000       0.84375000000000000        0.0000000000000000     
  0.78125000000000000       0.84375000000000000        0.0000000000000000     
  0.81250000000000000       0.84375000000000000        0.0000000000000000     
  0.84375000000000000       0.84375000000000000        0.0000000000000000     
  0.87500000000000000       0.84375000000000000        0.0000000000000000     
  0.75000000000000000       0.87500000000000000        0.0000000000000000     
  0.78125000000000000       0.87500000000000000        0.0000000000000000     
  0.81250000000000000       0.87500000000000000        0.0000000000000000     
  0.84375000000000000       0.87500000000000000        0.0000000000000000     
  0.87500000000000000       0.87500000000000000        0.0000000000000000     
  0.87500000000000000       0.75000000000000000        0.0000000000000000     
  0.90625000000000000       0.75000000000000000        0.0000000000000000     
  0.93750000000000000       0.75000000000000000        0.0000000000000000     
  0.96875000000000000       0.75000000000000000        0.0000000000000000     
   1.0000000000000000       0.75000000000000000        0.0000000000000000     
  0.87500000000000000       0.78125000000000000        0.0000000000000000     
  0.90625000000000000       0.78125000000000000        0.0000000000000000     
  0.93750000000000000       0.78125000000000000        0.0000000000000000     
  0.96875000000000000       0.78125000000000000        0.0000000000000000     
   1.0000000000000000       0.78125000000000000        0.0000000000000000     
  0.87500000000000000       0.81250000000000000        0.0000000000000000     
  0.90625000000000000       0.81250000000000000        0.0000000000000000     
  0.93750000000000000       0.81250000000000000        0.0000000000000000     
  0.96875000000000000       0.81250000000000000        0.0000000000000000     
   1.0000000000000000       0.81250000000000000        0.0000000000000000     
  0.87500000000000000       0.84375000000000000        0.0000000000000000     
  0.90625000000000000       0.84375000000000000        0.0000000000000000     
  0.93750000000000000       0.84375000000000000        0.0000000000000000     
  0.96875000000000000       0.84375000000000000        0.0000000000000000     
   1.0000000000000000       0.84375000000000000        0.0000000000000000     
  0.87500000000000000       0.87500000000000000        0.0000000000000000     
  0.90625000000000000       0.87500000000000000        0.0000000000000000     
  0.93750000000000000       0.87500000000000000        0.0000000000000000     
  0.96875000000000000       0.87500000000000000        0.0000000000000000     
   1.0000000000000000       0.87500000000000000        0.0000000000000000     
   1.0000000000000000       0.75000000000000000        0.0000000000000000     
   1.0312500000000000       0.75000000000000000        0.0000000000000000     
   1.0625000000000000       0.75000000000000000        0.0000000000000000     
   1.0937500000000000       0.75000000000000000        0.0000000000000000     
   1.1250000000000000       0.75000000000000000        0.0000000000000000     
   1.0000000000000000       0.78125000000000000        0.0000000000000000     
   1.0312500000000000       0.78125000000000000        0.0000000000000000     
   1.0625000000000000       0.78125000000000000        0.0000000000000000     
   1.0937500000000000       0.78125000000000000        0.0000000000000000     
   1.1250000000000000       0.78125000000000000        0.0000000000000000     
   1.0000000000000000       0.81250000000000000        0.0000000000000000     
   1.0312500000000000       0.81250000000000000        0.0000000000000000     
   1.0625000000000000       0.81250000000000000        0.0000000000000000     
   1.0937500000000000       0.81250000000000000        0.0000000000000000     
   1.1250000000000000       0.81250000000000000        0.0000000000000000     
   1.0000000000000000       0.84375000000000000        0.0000000000000000     
   1.0312500000000000       0.84375000000000000        0.0000000000000000     
   1.0625000000000000       0.84375000000000000        0.0000000000000000     
   1.0937500000000000       0.84375000000000000        0.0000000000000000     
   1.1250000000000000       0.84375000000000000        0.0000000000000000     
   1.0000000000000000       0.87500000000000000        0.0000000000000000     
   1.0312500000000000       0.87500000000000000        0.0000000000000000     
   1.0625000000000000       0.87500000000000000        0.0000000000000000     
   1.0937500000000000       0.87500000000000000        0.0000000000000000     
   1.1250000000000000       0.87500000000000000        0.0000000000000000     
   1.1250000000000000       0.75000000000000000        0.0000000000000000     
   1.1562500000000000       0.75000000000000000        0.0000000000000000     
   1.1875000000000000       0.75000000000000000        0.0000000000000000     
   1.2187500000000000       0.75000000000000000        0.0000000000000000     
   1.2500000000000000       0.75000000000000000        0.0000000000000000     
   1.1250000000000000       0.78125000000000000        0.0000000000000000     
   1.1562500000000000       0.78125000000000000        0.0000000000000000     
   1.1875000000000000       0.78125000000000000        0.0000000000000000     
   1.2187500000000000       0.78125000000000000        0.0000000000000000     
   1.2500000000000000       0.78125000000000000        0.0000000000000000     
   1.1250000000000000       0.81250000000000000        0.0000000000000000     
   1.1562500000000000       0.81250000000000000        0.0000000000000000     
   1.1875000000000000       0.81250000000000000        0.0000000000000000     
   1.2187500000000000       0.81250000000000000        0.0000000000000000     
   1.2500000000000000       0.81250000000000000        0.0000000000000000     
   1.1250000000000000       0.84375000000000000        0.0000000000000000     
   1.1562500000000000       0.84375000000000000        0.0000000000000000     
   1.1875000000000000       0.84375000000000000        0.0000000000000000     
   1.2187500000000000       0.84375000000000000        0.0000000000000000     
   1.2500000000000000       0.84375000000000000        0.0000000000000000     
   1.1250000000000000       0.87500000000000000        0.0000000000000000     
   1.1562500000000000       0.87500000000000000        0.0000000000000000     
   1.1875000000000000       0.87500000000000000        0.0000000000000000     
   1.2187500000000000       0.87500000000000000        0.0000000000000000     
   1.2500000000000000       0.87500000000000000        0.0000000000000000     
   1.2500000000000000       0.75000000000000000        0.0000000000000000     
   1.2812500000000000       0.75000000000000000        0.0000000000000000     
   1.3125000000000000       0.75000000000000000        0.0000000000000000     
   1.3437500000000000       0.75000000000000000        0.0000000000000000     
   1.3750000000000000       0.75000000000000000        0.0000000000000000     
   1.2500000000000000       0.78125000000000000        0.0000000000000000     
   1.2812500000000000       0.78125000000000000        0.0000000000000000     
   1.3125000000000000       0.78125000000000000        0.0000000000000000     
   1.3437500000000000       0.78125000000000000        0.0000000000000000     
   1.3750000000000000       0.78125000000000000        0.0000000000000000     
   1.2500000000000000       0.81250000000000000        0.0000000000000000     
   1.2812500000000000       0.81250000000000000        0.0000000000000000     
   1.3125000000000000       0.81250000000000000        0.0000000000000000     
   1.3437500000000000       0.81250000000000000        0.0000000000000000     
   1.3750000000000000       0.81250000000000000        0.0000000000000000     
   1.2500000000000000       0.84375000000000000        0.0000000000000000     
   1.2812500000000000       0.84375000000000000        0.0000000000000000     
   1.3125000000000000       0.84375000000000000        0.0000000000000000     
   1.3437500000000000       0.84375000000000000        0.0000000000000000     
   1.3750000000000000       0.84375000000000000        0.0000000000000000     
   1.2500000000000000       0.87500000000000000        0.0000000000000000     
   1.2812500000000000       0.87500000000000000        0.0000000000000000     
   1.3125000000000000       0.87500000000000000        0.0000000000000000     
   1.3437500000000000       0.87500000000000000        0.0000000000000000     
   1.3750000000000000       0.87500000000000000        0.0000000000000000     
   1.3750000000000000       0.75000000000000000        0.0000000000000000     
   1.4062500000000000       0.75000000000000000        0.0000000000000000     
   1.4375000000000000       0.75000000000000000        0.0000000000000000     
   1.4687500000000000       0.75000000000000000        0.0000000000000000     
   1.5000000000000000       0.75000000000000000        0.0000000000000000     
   1.3750000000000000       0.78125000000000000        0.0000000000000000     
   1.4062500000000000       0.78125000000000000        0.0000000000000000     
   1.4375000000000000       0.78125000000000000        0.0000000000000000     
   1.4687500000000000       0.78125000000000000        0.0000000000000000     
   1.5000000000000000       0.78125000000000000        0.0000000000000000     
   1.3750000000000000       0.81250000000000000        0.0000000000000000     
   1.4062500000000000       0.81250000000000000        0.0000000000000000     
   1.4375000000000000       0.81250000000000000        0.0000000000000000     
   1.4687500000000000       0.81250000000000000        0.0000000000000000     
   1.5000000000000000       0.81250000000000000        0.0000000000000000     
   1.3750000000000000       0.84375000000000000        0.0000000000000000     
   1.4062500000000000       0.84375000000000000        0.0000000000000000     
   1.4375000000000000       0.84375000000000000        0.0000000000000000     
   1.4687500000000000       0.84375000000000000        0.0000000000000000     
   1.5000000000000000       0.84375000000000000        0.0000000000000000     
   1.3750000000000000       0.87500000000000000        0.0000000000000000     
   1.4062500000000000       0.87500000000000000        0.0000000000000000     
   1.4375000000000000       0.87500000000000000        0.0000000000000000     
   1.4687500000000000       0.87500000000000000        0.0000000000000000     
   1.5000000000000000       0.87500000000000000        0.0000000000000000     
  0.50000000000000000       0.87500000000000000        0.0000000000000000     
  0.53125000000000000       0.87500000000000000        0.0000000000000000     
  0.56250000000000000       0.87500000000000000        0.0000000000000000     
  0.59375000000000000       0.87500000000000000        0.0000000000000000     
  0.62500000000000000       0.87500000000000000        0.0000000000000000     
  0.50000000000000000       0.90625000000000000        0.0000000000000000     
  0.53125000000000000       0.90625000000000000        0.0000000000000000     
  0.56250000000000000       0.90625000000000000        0.0000000000000000     
  0.59375000000000000       0.90625000000000000        0.0000000000000000     
  0.62500000000000000       0.90625000000000000        0.0000000000000000     
  0.50000000000000000       0.93750000000000000        0.0000000000000000     
  0.53125000000000000       0.93750000000000000        0.0000000000000000     
  0.56250000000000000       0.93750000000000000        0.0000000000000000     
  0.59375000000000000       0.93750000000000000        0.0000000000000000     
  0.62500000000000000       0.93750000000000000        0.0000000000000000     
  0.50000000000000000       0.96875000000000000        0.0000000000000000     
  0.53125000000000000       0.96875000000000000        0.0000000000000000     
  0.56250000000000000       0.96875000000000000        0.0000000000000000     
  0.59375000000000000       0.96875000000000000        0.0000000000000000     
  0.62500000000000000       0.96875000000000000        0.0000000000000000     
  0.50000000000000000        1.0000000000000000        0.0000000000000000     
  0.53125000000000000        1.0000000000000000        0.0000000000000000     
  0.56250000000000000        1.0000000000000000        0.0000000000000000     
  0.59375000000000000        1.0000000000000000        0.0000000000000000     
  0.62500000000000000        1.0000000000000000        0.0000000000000000     
  0.62500000000000000       0.87500000000000000        0.0000000000000000     
  0.65625000000000000       0.87500000000000000        0.0000000000000000     
  0.68750000000000000       0.87500000000000000        0.0000000000000000     
  0.71875000000000000       0.87500000000000000        0.0000000000000000     
  0.75000000000000000       0.87500000000000000        0.0000000000000000     
  0.62500000000000000       0.90625000000000000        0.0000000000000000     
  0.65625000000000000       0.90625000000000000        0.0000000000000000     
  0.68750000000000000       0.90625000000000000        0.0000000000000000     
  0.71875000000000000       0.90625000000000000        0.0000000000000000     
  0.75000000000000000       0.90625000000000000        0.0000000000000000     
  0.62500000000000000       0.93750000000000000        0.0000000000000000     
  0.65625000000000000       0.93750000000000000        0.0000000000000000     
  0.68750000000000000       0.93750000000000000        0.0000000000000000     
  0.71875000000000000       0.93750000000000000        0.0000000000000000     
  0.75000000000000000       0.93750000000000000        0.0000000000000000     
  0.62500000000000000       0.96875000000000000        0.0000000000000000     
  0.65625000000000000       0.96875000000000000        0.0000000000000000     
  0.68750000000000000       0.96875000000000000        0.0000000000000000     
  0.71875000000000000       0.96875000000000000        0.0000000000000000     
  0.75000000000000000       0.96875000000000000        0.0000000000000000     
  0.62500000000000000        1.0000000000000000        0.0000000000000000     
  0.65625000000000000        1.0000000000000000        0.0000000000000000     
  0.68750000000000000        1.0000000000000000        0.0000000000000000     
  0.71875000000000000        1.0000000000000000        0.0000000000000000     
  0.75000000000000000        1.0000000000000000        0.0000000000000000     
  0.75000000000000000       0.87500000000000000        0.0000000000000000     
  0.78125000000000000       0.87500000000000000        0.0000000000000000     
  0.81250000000000000       0.87500000000000000        0.0000000000000000     
  0.84375000000000000       0.87500000000000000        0.0000000000000000     
  0.87500000000000000       0.87500000000000000        0.0000000000000000     
  0.75000000000000000       0.90625000000000000        0.0000000000000000     
  0.78125000000000000       0.90625000000000000        0.0000000000000000     
  0.81250000000000000       0.90625000000000000        0.0000000000000000     
  0.84375000000000000       0.90625000000000000        0.0000000000000000     
  0.87500000000000000       0.90625000000000000        0.0000000000000000     
  0.75000000000000000       0.93750000000000000        0.0000000000000000     
  0.78125000000000000       0.93750000000000000        0.0000000000000000     
  0.81250000000000000       0.93750000000000000        0.0000000000000000     
  0.84375000000000000       0.93750000000000000        0.0000000000000000     
  0.87500000000000000       0.93750000000000000        0.0000000000000000     
  0.75000000000000000       0.96875000000000000        0.0000000000000000     
  0.78125000000000000       0.96875000000000000        0.0000000000000000     
  0.81250000000000000       0.96875000000000000        0.0000000000000000     
  0.84375000000000000       0.96875000000000000        0.0000000000000000     
  0.87500000000000000       0.96875000000000000        0.0000000000000000     
  0.75000000000000000        1.0000000000000000        0.0000000000000000     
  0.78125000000000000        1.0000000000000000        0.0000000000000000     
  0.81250000000000000        1.0000000000000000        0.0000000000000000     
  0.84375000000000000        1.0000000000000000        0.0000000000000000     
  0.87500000000000000        1.0000000000000000        0.0000000000000000     
  0.87500000000000000       0.87500000000000000        0.0000000000000000     
  0.90625000000000000       0.87500000000000000        0.0000000000000000     
  0.93750000000000000       0.87500000000000000        0.0000000000000000     
  0.96875000000000000       0.87500000000000000        0.0000000000000000     
   1.0000000000000000       0.87500000000000000        0.0000000000000000     
  0.87500000000000000       0.90625000000000000        0.0000000000000000     
  0.90625000000000000       0.90625000000000000        0.0000000000000000     
  0.93750000000000000       0.90625000000000000        0.0000000000000000     
  0.96875000000000000       0.90625000000000000        0.0000000000000000     
   1.0000000000000000       0.90625000000000000        0.0000000000000000     
  0.87500000000000000       0.93750000000000000        0.0000000000000000     
  0.90625000000000000       0.93750000000000000        0.0000000000000000     
  0.93750000000000000       0.93750000000000000        0.0000000000000000     
  0.96875000000000000       0.93750000000000000        0.0000000000000000     
   1.0000000000000000       0.93750000000000000        0.0000000000000000     
  0.87500000000000000       0.96875000000000000        0.0000000000000000     
  0.90625000000000000       0.96875000000000000        0.0000000000000000     
  0.93750000000000000       0.96875000000000000        0.0000000000000000     
  0.96875000000000000       0.96875000000000000        0.0000000000000000     
   1.0000000000000000       0.96875000000000000        0.0000000000000000     
  0.87500000000000000        1.0000000000000000        0.0000000000000000     
  0.90625000000000000        1.0000000000000000        0.0000000000000000     
  0.93750000000000000        1.0000000000000000        0.0000000000000000     
  0.96875000000000000        1.0000000000000000        0.0000000000000000     
   1.0000000000000000        1.0000000000000000        0.0000000000000000     
   1.0000000000000000       0.87500000000000000        0.0000000000000000     
   1.0312500000000000       0.87500000000000000        0.0000000000000000     
   1.0625000000000000       0.87500000000000000        0.0000000000000000     
   1.0937500000000000       0.87500000000000000        0.0000000000000000     
   1.1250000000000000       0.87500000000000000        0.0000000000000000     
   1.0000000000000000       0.90625000000000000        0.0000000000000000     
   1.0312500000000000       0.90625000000000000        0.0000000000000000     
   1.0625000000000000       0.90625000000000000        0.0000000000000000     
   1.0937500000000000       0.90625000000000000        0.0000000000000000     
   1.1250000000000000       0.90625000000000000        0.0000000000000000     
   1.0000000000000000       0.93750000000000000        0.0000000000000000     
   1.0312500000000000       0.93750000000000000        0.0000000000000000     
   1.0625000000000000       0.93750000000000000        0.0000000000000000     
   1.0937500000000000       0.93750000000000000        0.0000000000000000     
   1.1250000000000000       0.93750000000000000        0.0000000000000000     
   1.0000000000000000       0.96875000000000000        0.0000000000000000     
   1.0312500000000000       0.96875000000000000        0.0000000000000000     
   1.0625000000000000       0.96875000000000000        0.0000000000000000     
   1.0937500000000000       0.96875000000000000        0.0000000000000000     
   1.1250000000000000       0.96875000000000000        0.0000000000000000     
   1.0000000000000000        1.0000000000000000        0.0000000000000000     
   1.0312500000000000        1.0000000000000000        0.0000000000000000     
   1.0625000000000000        1.0000000000000000        0.0000000000000000     
   1.0937500000000000        1.0000000000000000        0.0000000000000000     
   1.1250000000000000        1.0000000000000000        0.0000000000000000     
   1.1250000000000000       0.87500000000000000        0.0000000000000000     
   1.1562500000000000       0.87500000000000000        0.0000000000000000     
   1.1875000000000000       0.87500000000000000        0.0000000000000000     
   1.2187500000000000       0.87500000000000000        0.0000000000000000     
   1.2500000000000000       0.87500000000000000        0.0000000000000000     
   1.1250000000000000       0.90625000000000000        0.0000000000000000     
   1.1562500000000000       0.90625000000000000        0.0000000000000000     
   1.1875000000000000       0.90625000000000000        0.0000000000000000     
   1.2187500000000000       0.90625000000000000        0.0000000000000000     
   1.2500000000000000       0.90625000000000000        0.0000000000000000     
   1.1250000000000000       0.93750000000000000        0.0000000000000000     
   1.1562500000000000       0.93750000000000000        0.0000000000000000     
   1.1875000000000000       0.93750000000000000        0.0000000000000000     
   1.2187500000000000       0.93750000000000000        0.0000000000000000     
   1.2500000000000000       0.93750000000000000        0.0000000000000000     
   1.1250000000000000       0.96875000000000000        0.0000000000000000     
   1.1562500000000000       0.96875000000000000        0.0000000000000000     
   1.1875000000000000       0.96875000000000000        0.0000000000000000     
   1.2187500000000000       0.96875000000000000        0.0000000000000000     
   1.2500000000000000       0.96875000000000000        0.0000000000000000     
   1.1250000000000000        1.0000000000000000        0.0000000000000000     
   1.1562500000000000        1.0000000000000000        0.0000000000000000     
   1.1875000000000000        1.0000000000000000        0.0000000000000000     
   1.2187500000000000        1.0000000000000000        0.0000000000000000     
   1.2500000000000000        1.0000000000000000        0.0000000000000000     
   1.2500000000000000       0.87500000000000000        0.0000000000000000     
   1.2812500000000000       0.87500000000000000        0.0000000000000000     
   1.3125000000000000       0.87500000000000000        0.0000000000000000     
   1.3437500000000000       0.87500000000000000        0.0000000000000000     
   1.3750000000000000       0.87500000000000000        0.0000000000000000     
   1.2500000000000000       0.90625000000000000        0.0000000000000000     
   1.2812500000000000       0.90625000000000000        0.0000000000000000     
   1.3125000000000000       0.90625000000000000        0.0000000000000000     
   1.3437500000000000       0.90625000000000000        0.0000000000000000     
   1.3750000000000000       0.90625000000000000        0.0000000000000000     
   1.2500000000000000       0.93750000000000000        0.0000000000000000     
   1.2812500000000000       0.93750000000000000        0.0000000000000000     
   1.3125000000000000       0.93750000000000000        0.0000000000000000     
   1.3437500000000000       0.93750000000000000        0.0000000000000000     
   1.3750000000000000       0.93750000000000000        0.0000000000000000     
   1.2500000000000000       0.96875000000000000        0.0000000000000000     
   1.2812500000000000       0.96875000000000000        0.0000000000000000     
   1.3125000000000000       0.96875000000000000        0.0000000000000000     
   1.3437500000000000       0.96875000000000000        0.0000000000000000     
   1.3750000000000000       0.96875000000000000        0.0000000000000000     
   1.2500000000000000        1.0000000000000000        0.0000000000000000     
   1.2812500000000000        1.0000000000000000        0.0000000000000000     
   1.3125000000000000        1.0000000000000000        0.0000000000000000     
   1.3437500000000000        1.0000000000000000        0.0000000000000000     
   1.3750000000000000        1.0000000000000000        0.0000000000000000     
   1.3750000000000000       0.87500000000000000        0.0000000000000000     
   1.4062500000000000       0.87500000000000000        0.0000000000000000     
   1.4375000000000000       0.87500000000000000        0.0000000000000000     
   1.4687500000000000       0.87500000000000000        0.0000000000000000     
   1.5000000000000000       0.87500000000000000        0.0000000000000000     
   1.3750000000000000       0.90625000000000000        0.0000000000000000     
   1.4062500000000000       0.90625000000000000        0.0000000000000000     
   1.4375000000000000       0.90625000000000000        0.0000000000000000     
   1.4687500000000000       0.90625000000000000        0.0000000000000000     
   1.5000000000000000       0.90625000000000000        0.0000000000000000     
   1.3750000000000000       0.93750000000000000        0.0000000000000000     
   1.4062500000000000       0.93750000000000000        0.0000000000000000     
   1.4375000000000000       0.93750000000000000        0.0000000000000000     
   1.4687500000000000       0.93750000000000000        0.0000000000000000     
   1.5000000000000000       0.93750000000000000        0.0000000000000000     
   1.3750000000000000       0.96875000000000000        0.0000000000000000     
   1.4062500000000000       0.96875000000000000        0.0000000000000000     
   1.4375000000000000       0.96875000000000000        0.0000000000000000     
   1.4687500000000000       0.96875000000000000        0.0000000000000000     
   1.5000000000000000       0.96875000000000000        0.0000000000000000     
   1.3750000000000000        1.0000000000000000        0.0000000000000000     
   1.4062500000000000        1.0000000000000000        0.0000000000000000     
   1.4375000000000000        1.0000000000000000        0.0000000000000000     
   1.4687500000000000        1.0000000000000000        0.0000000000000000     
   1.5000000000000000        1.0000000000000000        0.0000000000000000     
 </DataArray>
 </Points>
 <Cells>
 <DataArray  type="Int32"  Name="connectivity"  format="ascii">
           0           1           6           5
           1           2           7           6
           2           3           8           7
           3           4           9           8
           5           6          11          10
           6           7          12          11
           7           8          13          12
           8           9          14          13
          10          11          16          15
          11          12          17          16
          12          13          18          17
          13          14          19          18
          15          16          21          20
          16          17          22          21
          17          18          23          22
          18          19          24          23
          25          26          31          30
          26          27          32          31
          27          28          33          32
          28          29          34          33
          30          31          36          35
          31          32          37          36
          32          33          38          37
          33          34          39          38
          35          36          41          40
          36          37          42          41
          37          38          43          42
          38          39          44          43
          40          41          46          45
          41          42          47          46
          42          43          48          47
          43          44          49          48
          50          51          56          55
          51          52          57          56
          52          53          58          57
          53          54          59          58
          55          56          61          60
          56          57          62          61
          57          58          63          62
          58          59          64          63
          60          61          66          65
          61          62          67          66
          62          63          68          67
          63          64          69          68
          65          66          71          70
          66          67          72          71
          67          68          73          72
          68          69          74          73
          75          76          81          80
          76          77          82          81
          77          78          83          82
          78          79          84          83
          80          81          86          85
          81          82          87          86
          82          83          88          87
          83          84          89          88
          85          86          91          90
          86          87          92          91
          87          88          93          92
          88          89          94          93
          90          91          96          95
          91          92          97          96
          92          93          98          97
          93          94          99          98
         100         101         106         105
         101         102         107         106
         102         103         108         107
         103         104         109         108
         105         106         111         110
         106         107         112         111
         107         108         113         112
         108         109         114         113
         110         111         116         115
         111         112         117         116
         112         113         118         117
         113         114         119         118
         115         116         121         120
         116         117         122         121
         117         118         123         122
         118         119         124         123
         125         126         131         130
         126         127         132         131
         127         128         133         132
         128         129         134         133
         130         131         136         135
         131         132         137         136
         132         133         138         137
         133         134         139         138
         135         136         141         140
         136         137         142         141
         137         138         143         142
         138         139         144         143
         140         141         146         145
         141         142         147         146
         142         143         148         147
         143         144         149         148
         150         151         156         155
         151         152         157         156
         152         153         158         157
         153         154         159         158
         155         156         161         160
         156         157         162         161
         157         158         163         162
         158         159         164         163
         160         161         166         165
         161         162         167         166
         162         163         168         167
         163         164         169         168
         165         166         171         170
         166         167         172         171
         167         168         173         172
         168         169         174         173
         175         176         181         180
         176         177         182         181
         177         178         183         182
         178         179         184         183
         180         181         186         185
         181         182         187         186
         182         183         188         187
         183         184         189         188
         185         186         191         190
         186         187         192         191
         187         188         193         192
         188         189         194         193
         190         191         196         195
         191         192         197         196
         192         193         198         197
         193         194         199         198
         200         201         206         205
         201         202         207         206
         202         203         208         207
         203         204         209         208
         205         206         211         210
         206         207         212         211
         207         208         213         212
         208         209         214         213
         210         211         216         215
         211         212         217         216
         212         213         218         217
         213         214         219         218
         215         216         221         220
         216         217         222         221
         217         218         223         222
         218         219         224         223
         225         226         231         230
         226         227         232         231
         227         228         233         232
         228         229         234         233
         230         231         236         235
         231         232         237         236
         232         233         238         237
         233         234         239         238
         235         236         241         240
         236         237         242         241
         237         238         243         242
         238         239         244         243
         240         241         246         245
         241         242         247         246
         242         243         248         247
         243         244         249         248
         250         251         256         255
         251         252         257         256
         252         253         258         257
         253         254         259         258
         255         256         261         260
         256         257         262         261
         257         258         263         262
         258         259         264         263
         260         261         266         265
         261         262         267         266
         262         263         268         267
         263         264         269         268
         265         266         271         270
         266         267         272         271
         267         268         273         272
         268         269         274         273
         275         276         281         280
         276         277         282         281
         277         278         283         282
         278         279         284         283
         280         281         286         285
         281         282         287         286
         282         283         288         287
         283         284         289         288
         285         286         291         290
         286         287         292         291
         287         288         293         292
         288         289         294         293
         290         291         296         295
         291         292         297         296
         292         293         298         297
         293         294         299         298
         300         301         306         305
         301         302         307         306
         302         303         308         307
         303         304         309         308
         305         306         311         310
         306         307         312         311
         307         308         313         312
         308         309         314         313
         310         311         316         315
         311         312         317         316
         312         313         318         317
         313         314         319         318
         315         316         321         320
         316         317         322         321
         317         318         323         322
         318         319         324         323
         325         326         331         330
         326         327         332         331
         327         328         333         332
         328         329         334         333
         330         331         336         335
         331         332         337         336
         332         333         338         337
         333         334         339         338
         335         336         341         340
         336         337         342         341
         337         338         343         342
         338         339         344         343
         340         341         346         345
         341         342         347         346
         342         343         348         347
         343         344         349         348
         350         351         356         355
         351         352         357         356
         352         353         358         357
         353         354         359         358
         355         356         361         360
         356         357         362         361
         357         358         363         362
         358         359         364         363
         360         361         366         365
         361         362         367         366
         362         363         368         367
         363         364         369         368
         365         366         371         370
         366         367         372         371
         367         368         373         372
         368         369         374         373
         375         376         381         380
         376         377         382         381
         377         378         383         382
         378         379         384         383
         380         381         386         385
         381         382         387         386
         382         383         388         387
         383         384         389         388
         385         386         391         390
         386         387         392         391
         387         388         393         392
         388         389         394         393
         390         391         396         395
         391         392         397         396
         392         393         398         397
         393         394         399         398
         400         401         406         405
         401         402         407         406
         402         403         408         407
         403         404         409         408
         405         406         411         410
         406         407         412         411
         407         408         413         412
         408         409         414         413
         410         411         416         415
         411         412         417         416
         412         413         418         417
         413         414         419         418
         415         416         421         420
         416         417         422         421
         417         418         423         422
         418         419         424         423
         425         426         431         430
         426         427         432         431
         427         428         433         432
         428         429         434         433
         430         431         436         435
         431         432         437         436
         432         433         438         437
         433         434         439         438
         435         436         441         440
         436         437         442         441
         437         438         443         442
         438         439         444         443
         440         441         446         445
         441         442         447         446
         442         443         448         447
         443         444         449         448
         450         451         456         455
         451         452         457         456
         452         453         458         457
         453         454         459         458
         455         456         461         460
         456         457         462         461
         457         458         463         462
         458         459         464         463
         460         461         466         465
         461         462         467         466
         462         463         468         467
         463         464         469         468
         465         466         471         470
         466         467         472         471
         467         468         473         472
         468         469         474         473
         475         476         481         480
         476         477         482         481
         477         478         483         482
         478         479         484         483
         480         481         486         485
         481         482         487         486
         482         483         488         487
         483         484         489         488
         485         486         491         490
         486         487         492         491
         487         488         493         492
         488         489         494         493
         490         491         496         495
         491         492         497         496
         492         493         498         497
         493         494         499         498
         500         501         506         505
         501         502         507         506
         502         503         508         507
         503         504         509         508
         505         506         511         510
         506         507         512         511
         507         508         513         512
         508         509         514         513
         510         511         516         515
         511         512         517         516
         512         513         518         517
         513         514         519         518
         515         516         521         520
         516         517         522         521
         517         518         523         522
         518         519         524         523
         525         526         531         530
         526         527         532         531
         527         528         533         532
         528         529         534         533
         530         531         536         535
         531         532         537         536
         532         533         538         537
         533         534         539         538
         535         536         541         540
         536         537         542         541
         537         538         543         542
         538         539         544         543
         540         541         546         545
         541         542         547         546
         542         543         548         547
         543         544         549         548
         550         551         556         555
         551         552         557         556
         552         553         558         557
         553         554         559         558
         555         556         561         560
         556         557         562         561
         557         558         563         562
         558         559         564         563
         560         561         566         565
         561         562         567         566
         562         563         568         567
         563         564         569         568
         565         566         571         570
         566         567         572         571
         567         568         573         572
         568         569         574         573
         575         576         581         580
         576         577         582         581
         577         578         583         582
         578         579         584         583
         580         581         586         585
         581         582         587         586
         582         583         588         587
         583         584         589         588
         585         586         591         590
         586         587         592         591
         587         588         593         592
         588         589         594         593
         590         591         596         595
         591         592         597         596
         592         593         598         597
         593         594         599         598
         600         601         606         605
         601         602         607         606
         602         603         608         607
         603         604         609         608
         605         606         611         610
         606         607         612         611
         607         608         613         612
         608         609         614         613
         610         611         616         615
         611         612         617         616
         612         613         618         617
         613         614         619         618
         615         616         621         620
         616         617         622         621
         617         618         623         622
         618         619         624         623
         625         626         631         630
         626         627         632         631
         627         628         633         632
         628         629         634         633
         630         631         636         635
         631         632         637         636
         632         633         638         637
         633         634         639         638
         635         636         641         640
         636         637         642         641
         637         638         643         642
         638         639         644         643
         640         641         646         645
         641         642         647         646
         642         643         648         647
         643         644         649         648
         650         651         656         655
         651         652         657         656
         652         653         658         657
         653         654         659         658
         655         656         661         660
         656         657         662         661
         657         658         663         662
         658         659         664         663
         660         661         666         665
         661         662         667         666
         662         663         668         667
         663         664         669         668
         665         666         671         670
         666         667         672         671
         667         668         673         672
         668         669         674         673
         675         676         681         680
         676         677         682         681
         677         678         683         682
         678         679         684         683
         680         681         686         685
         681         682         687         686
         682         683         688         687
         683         684         689         688
         685         686         691         690
         686         687         692         691
         687         688         693         692
         688         689         694         693
         690         691         696         695
         691         692         697         696
         692         693         698         697
         693         694         699         698
         700         701         706         705
         701         702         707         706
         702         703         708         707
         703         704         709         708
         705         706         711         710
         706         707         712         711
         707         708         713         712
         708         709         714         713
         710         711         716         715
         711         712         717         716
         712         713         718         717
         713         714         719         718
         715         716         721         720
         716         717         722         721
         717         718         723         722
         718         719         724         723
         725         726         731         730
         726         727         732         731
         727         728         733         732
         728         729         734         733
         730         731         736         735
         731         732         737         736
         732         733         738         737
         733         734         739         738
         735         736         741         740
         736         737         742         741
         737         738         743         742
         738         739         744         743
         740         741         746         745
         741         742         747         746
         742         743         748         747
         743         744         749         748
         750         751         756         755
         751         752         757         756
         752         753         758         757
         753         754         759         758
         755         756         761         760
         756         757         762         761
         757         758         763         762
         758         759         764         763
         760         761         766         765
         761         762         767         766
         762         763         768         767
         763         764         769         768
         765         766         771         770
         766         767         772         771
         767         768         773         772
         768         769         774         773
         775         776         781         780
         776         777         782         781
         777         778         783         782
         778         779         784         783
         780         781         786         785
         781         782         787         786
         782         783         788         787
         783         784         789         788
         785         786         791         790
         786         787         792         791
         787         788         793         792
         788         789         794         793
         790         791         796         795
         791         792         797         796
         792         793         798         797
         793         794         799         798
         800         801         806         805
         801         802         807         806
         802         803         808         807
         803         804         809         808
         805         806         811         810
         806         807         812         811
         807         808         813         812
         808         809         814         813
         810         811         816         815
         811         812         817         816
         812         813         818         817
         813         814         819         818
         815         816         821         820
         816         817         822         821
         817         818         823         822
         818         819         824         823
         825         826         831         830
         826         827         832         831
         827         828         833         832
         828         829         834         833
         830         831         836         835
         831         832         837         836
         832         833         838         837
         833         834         839         838
         835         836         841         840
         836         837         842         841
         837         838         843         842
         838         839         844         843
         840         841         846         845
         841         842         847         846
         842         843         848         847
         843         844         849         848
         850         851         856         855
         851         852         857         856
         852         853         858         857
         853         854         859         858
         855         856         861         860
         856         857         862         861
         857         858         863         862
         858         859         864         863
         860         861         866         865
         861         862         867         866
         862         863         868         867
         863         864         869         868
         865         866         871         870
         866         867         872         871
         867         868         873         872
         868         869         874         873
         875         876         881         880
         876         877         882         881
         877         878         883         882
         878         879         884         883
         880         881         886         885
         881         882         887         886
         882         883         888         887
         883         884         889         888
         885         886         891         890
         886         887         892         891
         887         888         893         892
         888         889         894         893
         890         891         896         895
         891         892         897         896
         892         893         898         897
         893         894         899         898
         900         901         906         905
         901         902         907         906
         902         903         908         907
         903         904         909         908
         905         906         911         910
         906         907         912         911
         907         908         913         912
         908         909         914         913
         910         911         916         915
         911         912         917         916
         912         913         918         917
         913         914         919         918
         915         916         921         920
         916         917         922         921
         917         918         923         922
         918         919         924         923
         925         926         931         930
         926         927         932         931
         927         928         933         932
         928         929         934         933
         930         931         936         935
         931         932         937         936
         932         933         938         937
         933         934         939         938
         935         936         941         940
         936         937         942         941
         937         938         943         942
         938         939         944         943
         940         941         946         945
         941         942         947         946
         942         943         948         947
         943         944         949         948
         950         951         956         955
         951         952         957         956
         952         953         958         957
         953         954         959         958
         955         956         961         960
         956         957         962         961
         957         958         963         962
         958         959         964         963
         960         961         966         965
         961         962         967         966
         962         963         968         967
         963         964         969         968
         965         966         971         970
         966         967         972         971
         967         968         973         972
         968         969         974         973
         975         976         981         980
         976         977         982         981
         977         978         983         982
         978         979         984         983
         980         981         986         985
         981         982         987         986
         982         983         988         987
         983         984         989         988
         985         986         991         990
         986         987         992         991
         987         988         993         992
         988         989         994         993
         990         991         996         995
         991         992         997         996
         992         993         998         997
         993         994         999         998
        1000        1001        1006        1005
        1001        1002        1007        1006
        1002        1003        1008        1007
        1003        1004        1009        1008
        1005        1006        1011        1010
        1006        1007        1012        1011
        1007        1008        1013        1012
        1008        1009        1014        1013
        1010        1011        1016        1015
        1011        1012        1017        1016
        1012        1013        1018        1017
        1013        1014        1019        1018
        1015        1016        1021        1020
        1016        1017        1022        1021
        1017        1018        1023        1022
        1018        1019        1024        1023
        1025        1026        1031        1030
        1026        1027        1032        1031
        1027        1028        1033        1032
        1028        1029        1034        1033
        1030        1031        1036        1035
        1031        1032        1037        1036
        1032        1033        1038        1037
        1033        1034        1039        1038
        1035        1036        1041        1040
        1036        1037        1042        1041
        1037        1038        1043        1042
        1038        1039        1044        1043
        1040        1041        1046        1045
        1041        1042        1047        1046
        1042        1043        1048        1047
        1043        1044        1049        1048
        1050        1051        1056        1055
        1051        1052        1057        1056
        1052        1053        1058        1057
        1053        1054        1059        1058
        1055        1056        1061        1060
        1056        1057        1062        1061
        1057        1058        1063        1062
        1058        1059        1064        1063
        1060        1061        1066        1065
        1061        1062        1067        1066
        1062        1063        1068        1067
        1063        1064        1069        1068
        1065        1066        1071        1070
        1066        1067        1072        1071
        1067        1068        1073        1072
        1068        1069        1074        1073
        1075        1076        1081        1080
        1076        1077        1082        1081
        1077        1078        1083        1082
        1078        1079        1084        1083
        1080        1081        1086        1085
        1081        1082        1087        1086
        1082        1083        1088        1087
        1083        1084        1089        1088
        1085        1086        1091        1090
        1086        1087        1092        1091
        1087        1088        1093        1092
        1088        1089        1094        1093
        1090        1091        1096        1095
        1091        1092        1097        1096
        1092        1093        1098        1097
        1093        1094        1099        1098
        1100        1101        1106        1105
        1101        1102        1107        1106
        1102        1103        1108        1107
        1103        1104        1109        1108
        1105        1106        1111        1110
        1106        1107        1112        1111
        1107        1108        1113        1112
        1108        1109        1114        1113
        1110        1111        1116        1115
        1111        1112        1117        1116
        1112        1113        1118        1117
        1113        1114        1119        1118
        1115        1116        1121        1120
        1116        1117        1122        1121
        1117        1118        1123        1122
        1118        1119        1124        1123
        1125        1126        1131        1130
        1126        1127        1132        1131
        1127        1128        1133        1132
        1128        1129        1134        1133
        1130        1131        1136        1135
        1131        1132        1137        1136
        1132        1133        1138        1137
        1133        1134        1139        1138
        1135        1136        1141        1140
        1136        1137        1142        1141
        1137        1138        1143        1142
        1138        1139        1144        1143
        1140        1141        1146        1145
        1141        1142        1147        1146
        1142        1143        1148        1147
        1143        1144        1149        1148
        1150        1151        1156        1155
        1151        1152        1157        1156
        1152        1153        1158        1157
        1153        1154        1159        1158
        1155        1156        1161        1160
        1156        1157        1162        1161
        1157        1158        1163        1162
        1158        1159        1164        1163
        1160        1161        1166        1165
        1161        1162        1167        1166
        1162        1163        1168        1167
        1163        1164        1169        1168
        1165        1166        1171        1170
        1166        1167        1172        1171
        1167        1168        1173        1172
        1168        1169        1174        1173
        1175        1176        1181        1180
        1176        1177        1182        1181
        1177        1178        1183        1182
        1178        1179        1184        1183
        1180        1181        1186        1185
        1181        1182        1187        1186
        1182        1183        1188        1187
        1183        1184        1189        1188
        1185        1186        1191        1190
        1186        1187        1192        1191
        1187        1188        1193        1192
        1188        1189        1194        1193
        1190        1191        1196        1195
        1191        1192        1197        1196
        1192        1193        1198        1197
        1193        1194        1199        1198
        1200        1201        1206        1205
        1201        1202        1207        1206
        1202        1203        1208        1207
        1203        1204        1209        1208
        1205        1206        1211        1210
        1206        1207        1212        1211
        1207        1208        1213        1212
        1208        1209        1214        1213
        1210        1211        1216        1215
        1211        1212        1217        1216
        1212        1213        1218        1217
        1213        1214        1219        1218
        1215        1216        1221        1220
        1216        1217        1222        1221
        1217        1218        1223        1222
        1218        1219        1224        1223
        1225        1226        1231        1230
        1226        1227        1232        1231
        1227        1228        1233        1232
        1228        1229        1234        1233
        1230        1231        1236        1235
        1231        1232        1237        1236
        1232        1233        1238        1237
        1233        1234        1239        1238
        1235        1236        1241        1240
        1236        1237        1242        1241
        1237        1238        1243        1242
        1238        1239        1244        1243
        1240        1241        1246        1245
        1241        1242        1247        1246
        1242        1243        1248        1247
        1243        1244        1249        1248
        1250        1251        1256        1255
        1251        1252        1257        1256
        1252        1253        1258        1257
        1253        1254        1259        1258
        1255        1256        1261        1260
        1256        1257        1262        1261
        1257        1258        1263        1262
        1258        1259        1264        1263
        1260        1261        1266        1265
        1261        1262        1267        1266
        1262        1263        1268        1267
        1263        1264        1269        1268
        1265        1266        1271        1270
        1266        1267        1272        1271
        1267        1268        1273        1272
        1268        1269        1274        1273
        1275        1276        1281        1280
        1276        1277        1282        1281
        1277        1278        1283        1282
        1278        1279        1284        1283
        1280        1281        1286        1285
        1281        1282        1287        1286
        1282        1283        1288        1287
        1283        1284        1289        1288
        1285        1286        1291        1290
        1286        1287        1292        1291
        1287        1288        1293        1292
        1288        1289        1294        1293
        1290        1291        1296        1295
        1291        1292        1297        1296
        1292        1293        1298        1297
        1293        1294        1299        1298
        1300        1301        1306        1305
        1301        1302        1307        1306
        1302        1303        1308        1307
        1303        1304        1309        1308
        1305        1306        1311        1310
        1306        1307        1312        1311
        1307        1308        1313        1312
        1308        1309        1314        1313
        1310        1311        1316        1315
        1311        1312        1317        1316
        1312        1313        1318        1317
        1313        1314        1319        1318
        1315        1316        1321        1320
        1316        1317        1322        1321
        1317        1318        1323        1322
        1318        1319        1324        1323
        1325        1326        1331        1330
        1326        1327        1332        1331
        1327        1328        1333        1332
        1328        1329        1334        1333
        1330        1331        1336        1335
        1331        1332        1337        1336
        1332        1333        1338        1337
        1333        1334        1339        1338
        1335        1336        1341        1340
        1336        1337        1342        1341
        1337        1338        1343        1342
        1338        1339        1344        1343
        1340        1341        1346        1345
        1341        1342        1347        1346
        1342        1343        1348        1347
        1343        1344        1349        1348
        1350        1351        1356        1355
        1351        1352        1357        1356
        1352        1353        1358        1357
        1353        1354        1359        1358
        1355        1356        1361        1360
        1356        1357        1362        1361
        1357        1358        1363        1362
        1358        1359        1364        1363
        1360        1361        1366        1365
        1361        1362        1367        1366
        1362        1363        1368        1367
        1363        1364        1369        1368
        1365        1366        1371        1370
        1366        1367        1372        1371
        1367        1368        1373        1372
        1368        1369        1374        1373
        1375        1376        1381        1380
        1376        1377        1382        1381
        1377        1378        1383        1382
        1378        1379        1384        1383
        1380        1381        1386        1385
        1381        1382        1387        1386
        1382        1383        1388        1387
        1383        1384        1389        1388
        1385        1386        1391        1390
        1386        1387        1392        1391
        1387        1388        1393        1392
        1388        1389        1394        1393
        1390        1391        1396        1395
        1391        1392        1397        1396
        1392        1393        1398        1397
        1393        1394        1399        1398
        1400        1401        1406        1405
        1401        1402        1407        1406
        1402        1403        1408        1407
        1403        1404        1409        1408
        1405        1406        1411        1410
        1406        1407        1412        1411
        1407        1408        1413        1412
        1408        1409        1414        1413
        1410        1411        1416        1415
        1411        1412        1417        1416
        1412        1413        1418        1417
        1413        1414        1419        1418
        1415        1416        1421        1420
        1416        1417        1422        1421
        1417        1418        1423        1422
        1418        1419        1424        1423
        1425        1426        1431        1430
        1426        1427        1432        1431
        1427        1428        1433        1432
        1428        1429        1434        1433
        1430        1431        1436        1435
        1431        1432        1437        1436
        1432        1433        1438        1437
        1433        1434        1439        1438
        1435        1436        1441        1440
        1436        1437        1442        1441
        1437        1438        1443        1442
        1438        1439        1444        1443
        1440        1441        1446        1445
        1441        1442        1447        1446
        1442        1443        1448        1447
        1443        1444        1449        1448
        1450        1451        1456        1455
        1451        1452        1457        1456
        1452        1453        1458        1457
        1453        1454        1459        1458
        1455        1456        1461        1460
        1456        1457        1462        1461
        1457        1458        1463        1462
        1458        1459        1464        1463
        1460        1461        1466        1465
        1461        1462        1467        1466
        1462        1463        1468        1467
        1463        1464        1469        1468
        1465        1466        1471        1470
        1466        1467        1472        1471
        1467        1468        1473        1472
        1468        1469        1474        1473
        1475        1476        1481        1480
        1476        1477        1482        1481
        1477        1478        1483        1482
        1478        1479        1484        1483
        1480        1481        1486        1485
        1481        1482        1487        1486
        1482        1483        1488        1487
        1483        1484        1489        1488
        1485        1486        1491        1490
        1486        1487        1492        1491
        1487        1488        1493        1492
        1488        1489        1494        1493
        1490        1491        1496        1495
        1491        1492        1497        1496
        1492        1493        1498        1497
        1493        1494        1499        1498
        1500        1501        1506        1505
        1501        1502        1507        1506
        1502        1503        1508        1507
        1503        1504        1509        1508
        1505        1506        1511        1510
        1506        1507        1512        1511
        1507        1508        1513        1512
        1508        1509        1514        1513
        1510        1511        1516        1515
        1511        1512        1517        1516
        1512        1513        1518        1517
        1513        1514        1519        1518
        1515        1516        1521        1520
        1516        1517        1522        1521
        1517        1518        1523        1522
        1518        1519        1524        1523
        1525        1526        1531        1530
        1526        1527        1532        1531
        1527        1528        1533        1532
        1528        1529        1534        1533
        1530        1531        1536        1535
        1531        1532        1537        1536
        1532        1533        1538        1537
        1533        1534        1539        1538
        1535        1536        1541        1540
        1536        1537        1542        1541
        1537        1538        1543        1542
        1538        1539        1544        1543
        1540        1541        1546        1545
        1541        1542        1547        1546
        1542        1543        1548        1547
        1543        1544        1549        1548
        1550        1551        1556        1555
        1551        1552        1557        1556
        1552        1553        1558        1557
        1553        1554        1559        1558
        1555        1556        1561        1560
        1556        1557        1562        1561
        1557        1558        1563        1562
        1558        1559        1564        1563
        1560        1561        1566        1565
        1561        1562        1567        1566
        1562        1563        1568        1567
        1563        1564        1569        1568
        1565        1566        1571        1570
        1566        1567        1572        1571
        1567        1568        1573        1572
        1568        1569        1574        1573
        1575        1576        1581        1580
        1576        1577        1582        1581
        1577        1578        1583        1582
        1578        1579        1584        1583
        1580        1581        1586        1585
        1581        1582        1587        1586
        1582        1583        1588        1587
        1583        1584        1589        1588
        1585        1586        1591        1590
        1586        1587        1592        1591
        1587        1588        1593        1592
        1588        1589        1594        1593
        1590        1591        1596        1595
        1591        1592        1597        1596
        1592        1593        1598        1597
        1593        1594        1599        1598
 </DataArray>
 <DataArray  type="Int32"  Name="offsets"  format="ascii"> 
           4
           8
          12
          16
          20
          24
          28
          32
          36
          40
          44
          48
          52
          56
          60
          64
          68
          72
          76
          80
          84
          88
          92
          96
         100
         104
         108
         112
         116
         120
         124
         128
         132
         136
         140
         144
         148
         152
         156
         160
         164
         168
         172
         176
         180
         184
         188
         192
         196
         200
         204
         208
         212
         216
         220
         224
         228
         232
         236
         240
         244
         248
         252
         256
         260
         264
         268
         272
         276
         280
         284
         288
         292
         296
         300
         304
         308
         312
         316
         320
         324
         328
         332
         336
         340
         344
         348
         352
         356
         360
         364
         368
         372
         376
         380
         384
         388
         392
         396
         400
         404
         408
         412
         416
         420
         424
         428
         432
         436
         440
         444
         448
         452
         456
         460
         464
         468
         472
         476
         480
         484
         488
         492
         496
         500
         504
         508
         512
         516
         520
         524
         528
         532
         536
         540
         544
         548
         552
         556
         560
         564
         568
         572
         576
         580
         584
         588
         592
         596
         600
         604
         608
         612
         616
         620
         624
         628
         632
         636
         640
         644
         648
         652
         656
         660
         664
         668
         672
         676
         680
         684
         688
         692
         696
         700
         704
         708
         712
         716
         720
         724
         728
         732
         736
         740
         744
         748
         752
         756
         760
         764
         768
         772
         776
         780
         784
         788
         792
         796
         800
         804
         808
         812
         816
         820
         824
         828
         832
         836
         840
         844
         848
         852
         856
         860
         864
         868
         872
         876
         880
         884
         888
         892
         896
         900
         904
         908
         912
         916
         920
         924
         928
         932
         936
         940
         944
         948
         952
         956
         960
         964
         968
         972
         976
         980
         984
         988
         992
         996
        1000
        1004
        1008
        1012
        1016
        1020
        1024
        1028
        1032
        1036
        1040
        1044
        1048
        1052
        1056
        1060
        1064
        1068
        1072
        1076
        1080
        1084
        1088
        1092
        1096
        1100
        1104
        1108
        1112
        1116
        1120
        1124
        1128
        1132
        1136
        1140
        1144
        1148
        1152
        1156
        1160
        1164
        1168
        1172
        1176
        1180
        1184
        1188
        1192
        1196
        1200
        1204
        1208
        1212
        1216
        1220
        1224
        1228
        1232
        1236
        1240
        1244
        1248
        1252
        1256
        1260
        1264
        1268
        1272
        1276
        1280
        1284
        1288
        1292
        1296
        1300
        1304
        1308
        1312
        1316
        1320
        1324
        1328
        1332
        1336
        1340
        1344
        1348
        1352
        1356
        1360
        1364
        1368
        1372
        1376
        1380
        1384
        1388
        1392
        1396
        1400
        1404
        1408
        1412
        1416
        1420
        1424
        1428
        1432
        1436
        1440
        1444
        1448
        1452
        1456
        1460
        1464
        1468
        1472
        1476
        1480
        1484
        1488
        1492
        1496
        1500
        1504
        1508
        1512
        1516
        1520
        1524
        1528
        1532
        1536
        1540
        1544
        1548
        1552
        1556
        1560
        1564
        1568
        1572
        1576
        1580
        1584
        1588
        1592
        1596
        1600
        1604
        1608
        1612
        1616
        1620
        1624
        1628
        1632
        1636
        1640
        1644
        1648
        1652
        1656
        1660
        1664
        1668
        1672
        1676
        1680
        1684
        1688
        1692
        1696
        1700
        1704
        1708
        1712
        1716
        1720
        1724
        1728
        1732
        1736
        1740
        1744
        1748
        1752
        1756
        1760
        1764
        1768
        1772
        1776
        1780
        1784
        1788
        1792
        1796
        1800
        1804
        1808
        1812
        1816
        1820
        1824
        1828
        1832
        1836
        1840
        1844
        1848
        1852
        1856
        1860
        1864
        1868
        1872
        1876
        1880
        1884
        1888
        1892
        1896
        1900
        1904
        1908
        1912
        1916
        1920
        1924
        1928
        1932
        1936
        1940
        1944
        1948
        1952
        1956
        1960
        1964
        1968
        1972
        1976
        1980
        1984
        1988
        1992
        1996
        2000
        2004
        2008
        2012
        2016
        2020
        2024
        2028
        2032
        2036
        2040
        2044
        2048
        2052
        2056
        2060
        2064
        2068
        2072
        2076
        2080
        2084
        2088
        2092
        2096
        2100
        2104
        2108
        2112
        2116
        2120
        2124
        2128
        2132
        2136
        2140
        2144
        2148
        2152
        2156
        2160
        2164
        2168
        2172
        2176
        2180
        2184
        2188
        2192
        2196
        2200
        2204
        2208
        2212
        2216
        2220
        2224
        2228
        2232
        2236
        2240
        2244
        2248
        2252
        2256
        2260
        2264
        2268
        2272
        2276
        2280
        2284
        2288
        2292
        2296
        2300
        2304
        2308
        2312
        2316
        2320
        2324
        2328
        2332
        2336
        2340
        2344
        2348
        2352
        2356
        2360
        2364
        2368
        2372
        2376
        2380
        2384
        2388
        2392
        2396
        2400
        2404
        2408
        2412
        2416
        2420
        2424
        2428
        2432
        2436
        2440
        2444
        2448
        2452
        2456
        2460
        2464
        2468
        2472
        2476
        2480
        2484
        2488
        2492
        2496
        2500
        2504
        2508
        2512
        2516
        2520
        2524
        2528
        2532
        2536
        2540
        2544
        2548
        2552
        2556
        2560
        2564
        2568
        2572
        2576
        2580
        2584
        2588
        2592
        2596
        2600
        2604
        2608
        2612
        2616
        2620
        2624
        2628
        2632
        2636
        2640
        2644
        2648
        2652
        2656
        2660
        2664
        2668
        2672
        2676
        2680
        2684
        2688
        2692
        2696
        2700
        2704
        2708
        2712
        2716
        2720
        2724
        2728
        2732
        2736
        2740
        2744
        2748
        2752
        2756
        2760
        2764
        2768
        2772
        2776
        2780
        2784
        2788
        2792
        2796
        2800
        2804
        2808
        2812
        2816
        2820
        2824
        2828
        2832
        2836
        2840
        2844
        2848
        2852
        2856
        2860
        2864
        2868
        2872
        2876
        2880
        2884
        2888
        2892
        2896
        2900
        2904
        2908
        2912
        2916
        2920
        2924
        2928
        2932
        2936
        2940
        2944
        2948
        2952
        2956
        2960
        2964
        2968
        2972
        2976
        2980
        2984
        2988
        2992
        2996
        3000
        3004
        3008
        3012
        3016
        3020
        3024
        3028
        3032
        3036
        3040
        3044
        3048
        3052
        3056
        3060
        3064
        3068
        3072
        3076
        3080
        3084
        3088
        3092
        3096
        3100
        3104
        3108
        3112
        3116
        3120
        3124
        3128
        3132
        3136
        3140
        3144
        3148
        3152
        3156
        3160
        3164
        3168
        3172
        3176
        3180
        3184
        3188
        3192
        3196
        3200
        3204
        3208
        3212
        3216
        3220
        3224
        3228
        3232
        3236
        3240
        3244
        3248
        3252
        3256
        3260
        3264
        3268
        3272
        3276
        3280
        3284
        3288
        3292
        3296
        3300
        3304
        3308
        3312
        3316
        3320
        3324
        3328
        3332
        3336
        3340
        3344
        3348
        3352
        3356
        3360
        3364
        3368
        3372
        3376
        3380
        3384
        3388
        3392
        3396
        3400
        3404
        3408
        3412
        3416
        3420
        3424
        3428
        3432
        3436
        3440
        3444
        3448
        3452
        3456
        3460
        3464
        3468
        3472
        3476
        3480
        3484
        3488
        3492
        3496
        3500
        3504
        3508
        3512
        3516
        3520
        3524
        3528
        3532
        3536
        3540
        3544
        3548
        3552
        3556
        3560
        3564
        3568
        3572
        3576
        3580
        3584
        3588
        3592
        3596
        3600
        3604
        3608
        3612
        3616
        3620
        3624
        3628
        3632
        3636
        3640
        3644
        3648
        3652
        3656
        3660
        3664
        3668
        3672
        3676
        3680
        3684
        3688
        3692
        3696
        3700
        3704
        3708
        3712
        3716
        3720
        3724
        3728
        3732
        3736
        3740
        3744
        3748
        3752
        3756
        3760
        3764
        3768
        3772
        3776
        3780
        3784
        3788
        3792
        3796
        3800
        3804
        3808
        3812
        3816
        3820
        3824
        3828
        3832
        3836
        3840
        3844
        3848
        3852
        3856
        3860
        3864
        3868
        3872
        3876
        3880
        3884
        3888
        3892
        3896
        3900
        3904
        3908
        3912
        3916
        3920
        3924
        3928
        3932
        3936
        3940
        3944
        3948
        3952
        3956
        3960
        3964
        3968
        3972
        3976
        3980
        3984
        3988
        3992
        3996
        4000
        4004
        4008
        4012
        4016
        4020
        4024
        4028
        4032
        4036
        4040
        4044
        4048
        4052
        4056
        4060
        4064
        4068
        4072
        4076
        4080
        4084
        4088
        4092
        4096
 </DataArray>
 <DataArray  type="UInt8"  Name="types"  format="ascii">
 9
 9
 9
 9
 9
 9
 9
 9
 9
 9
 9
 9
 9
 9
 9
 9
 9
 9
 9
 9
 9
 9
 9
 9
 9
 9
 9
 9
 9
 9
 9
 9
 9
 9
 9
 9
 9
 9
 9
 9
 9
 9
 9
 9
 9
 9
 9
 9
 9
 9
 9
 9
 9
 9
 9
 9
 9
 9
 9
 9
 9
 9
 9
 9
 9
 9
 9
 9
 9
 9
 9
 9
 9
 9
 9
 9
 9
 9
 9
 9
 9
 9
 9
 9
 9
 9
 9
 9
 9
 9
 9
 9
 9
 9
 9
 9
 9
 9
 9
 9
 9
 9
 9
 9
 9
 9
 9
 9
 9
 9
 9
 9
 9
 9
 9
 9
 9
 9
 9
 9
 9
 9
 9
 9
 9
 9
 9
 9
 9
 9
 9
 9
 9
 9
 9
 9
 9
 9
 9
 9
 9
 9
 9
 9
 9
 9
 9
 9
 9
 9
 9
 9
 9
 9
 9
 9
 9
 9
 9
 9
 9
 9
 9
 9
 9
 9
 9
 9
 9
 9
 9
 9
 9
 9
 9
 9
 9
 9
 9
 9
 9
 9
 9
 9
 9
 9
 9
 9
 9
 9
 9
 9
 9
 9
 9
 9
 9
 9
 9
 9
 9
 9
 9
 9
 9
 9
 9
 9
 9
 9
 9
 9
 9
 9
 9
 9
 9
 9
 9
 9
 9
 9
 9
 9
 9
 9
 9
 9
 9
 9
 9
 9
 9
 9
 9
 9
 9
 9
 9
 9
 9
 9
 9
 9
 9
 9
 9
 9
 9
 9
 9
 9
 9
 9
 9
 9
 9
 9
 9
 9
 9
 9
 9
 9
 9
 9
 9
 9
 9
 9
 9
 9
 9
 9
 9
 9
 9
 9
 9
 9
 9
 9
 9
 9
 9
 9
 9
 9
 9
 9
 9
 9
 9
 9
 9
 9
 9
 9
 9
 9
 9
 9
 9
 9
 9
 9
 9
 9
 9
 9
 9
 9
 9
 9
 9
 9
 9
 9
 9
 9
 9
 9
 9
 9
 9
 9
 9
 9
 9
 9
 9
 9
 9
 9
 9
 9
 9
 9
 9
 9
 9
 9
 9
 9
 9
 9
 9
 9
 9
 9
 9
 9
 9
 9
 9
 9
 9
 9
 9
 9
 9
 9
 9
 9
 9
 9
 9
 9
 9
 9
 9
 9
 9
 9
 9
 9
 9
 9
 9
 9
 9
 9
 9
 9
 9
 9
 9
 9
 9
 9
 9
 9
 9
 9
 9
 9
 9
 9
 9
 9
 9
 9
 9
 9
 9
 9
 9
 9
 9
 9
 9
 9
 9
 9
 9
 9
 9
 9
 9
 9
 9
 9
 9
 9
 9
 9
 9
 9
 9
 9
 9
 9
 9
 9
 9
 9
 9
 9
 9
 9
 9
 9
 9
 9
 9
 9
 9
 9
 9
 9
 9
 9
 9
 9
 9
 9
 9
 9
 9
 9
 9
 9
 9
 9
 9
 9
 9
 9
 9
 9
 9
 9
 9
 9
 9
 9
 9
 9
 9
 9
 9
 9
 9
 9
 9
 9
 9
 9
 9
 9
 9
 9
 9
 9
 9
 9
 9
 9
 9
 9
 9
 9
 9
 9
 9
 9
 9
 9
 9
 9
 9
 9
 9
 9
 9
 9
 9
 9
 9
 9
 9
 9
 9
 9
 9
 9
 9
 9
 9
 9
 9
 9
 9
 9
 9
 9
 9
 9
 9
 9
 9
 9
 9
 9
 9
 9
 9
 9
 9
 9
 9
 9
 9
 9
 9
 9
 9
 9
 9
 9
 9
 9
 9
 9
 9
 9
 9
 9
 9
 9
 9
 9
 9
 9
 9
 9
 9
 9
 9
 9
 9
 9
 9
 9
 9
 9
 9
 9
 9
 9
 9
 9
 9
 9
 9
 9
 9
 9
 9
 9
 9
 9
 9
 9
 9
 9
 9
 9
 9
 9
 9
 9
 9
 9
 9
 9
 9
 9
 9
 9
 9
 9
 9
 9
 9
 9
 9
 9
 9
 9
 9
 9
 9
 9
 9
 9
 9
 9
 9
 9
 9
 9
 9
 9
 9
 9
 9
 9
 9
 9
 9
 9
 9
 9
 9
 9
 9
 9
 9
 9
 9
 9
 9
 9
 9
 9
 9
 9
 9
 9
 9
 9
 9
 9
 9
 9
 9
 9
 9
 9
 9
 9
 9
 9
 9
 9
 9
 9
 9
 9
 9
 9
 9
 9
 9
 9
 9
 9
 9
 9
 9
 9
 9
 9
 9
 9
 9
 9
 9
 9
 9
 9
 9
 9
 9
 9
 9
 9
 9
 9
 9
 9
 9
 9
 9
 9
 9
 9
 9
 9
 9
 9
 9
 9
 9
 9
 9
 9
 9
 9
 9
 9
 9
 9
 9
 9
 9
 9
 9
 9
 9
 9
 9
 9
 9
 9
 9
 9
 9
 9
 9
 9
 9
 9
 9
 9
 9
 9
 9
 9
 9
 9
 9
 9
 9
 9
 9
 9
 9
 9
 9
 9
 9
 9
 9
 9
 9
 9
 9
 9
 9
 9
 9
 9
 9
 9
 9
 9
 9
 9
 9
 9
 9
 9
 9
 9
 9
 9
 9
 9
 9
 9
 9
 9
 9
 9
 9
 9
 9
 9
 9
 9
 9
 9
 9
 9
 9
 9
 9
 9
 9
 9
 9
 9
 9
 9
 9
 9
 9
 9
 9
 9
 9
 9
 9
 9
 9
 9
 9
 9
 9
 9
 9
 9
 9
 9
 9
 9
 9
 9
 9
 9
 9
 9
 9
 9
 9
 9
 9
 9
 9
 9
 9
 9
 9
 9
 9
 9
 9
 9
 9
 9
 9
 9
 9
 9
 9
 9
 9
 9
 9
 9
 9
 9
 9
 9
 9
 9
 9
 9
 9
 9
 9
 9
 9
 9
 9
 9
 9
 9
 9
 9
 9
 9
 9
 9
 9
 9
 9
 9
 9
 9
 9
 9
 9
 9
 9
 9
 9
 9
 9
 9
 9
 9
 9
 9
 9
 9
 9
 9
 9
 9
 9
 9
 9
 9
 9
 9
 9
 9
 9
 9
 9
 9
 9
 9
 9
 9
 9
 9
 9
 9
 9
 9
 9
 9
 9
 9
 9
 9
 9
 9
 9
 9
 9
 9
 9
 9
 9
 9
 9
 9
 9
 9
 9
 9
 9
 9
 9
 9
 9
 9
 9
 9
 9
 9
 9
 9
 9
 9
 9
 9
 9
 9
 9
 9
 9
 9
 9
 9
 9
 9
 9
 9
 9
 9
 9
 9
 9
 9
 9
 9
 9
 9
 </DataArray>
 </Cells> 
 <PointData>
 <DataArray  type="Float64" Name="disp" NumberOfComponents="3" format="ascii">
   6.7874727148530711E-002   5.9882270285178743E-002   0.0000000000000000     
   7.0040779164500758E-002   6.6746488762858519E-002   0.0000000000000000     
   7.2399312022135093E-002   7.3358718030795772E-002   0.0000000000000000     
   7.4950325721433730E-002   7.9718958088990488E-002   0.0000000000000000     
   7.7693820262396657E-002   8.5827208937442695E-002   0.0000000000000000     
   6.0725968684209916E-002   6.1054687551682779E-002   0.0000000000000000     
   6.3467113516435997E-002   6.6956441446461845E-002   0.0000000000000000     
   6.6204613864963291E-002   7.2902987054433280E-002   0.0000000000000000     
   6.8938469729791813E-002   7.8894324375597083E-002   0.0000000000000000     
   7.1668681110921562E-002   8.4930453409953227E-002   0.0000000000000000     
   5.5639252604329212E-002   6.1574291447613186E-002   0.0000000000000000     
   5.8468742252901232E-002   6.6864289552603803E-002   0.0000000000000000     
   6.1204093442559164E-002   7.2389666650640505E-002   0.0000000000000000     
   6.3845306173302974E-002   7.8150422741723291E-002   0.0000000000000000     
   6.6392380445132695E-002   8.4146557825852120E-002   0.0000000000000000     
   5.2614578908888592E-002   6.1441081972969956E-002   0.0000000000000000     
   5.5045665373896477E-002   6.6470033081284408E-002   0.0000000000000000     
   5.7397750754922691E-002   7.1818756819417434E-002   0.0000000000000000     
   5.9670835051967235E-002   7.7487253187369098E-002   0.0000000000000000     
   6.1864918265030065E-002   8.3475522185139331E-002   0.0000000000000000     
   5.1651947597888062E-002   6.0655059127753097E-002   0.0000000000000000     
   5.3197882879421732E-002   6.5773672032503616E-002   0.0000000000000000     
   5.4785585802053886E-002   7.1190257560764081E-002   0.0000000000000000     
   5.6415056365784540E-002   7.6904815712534505E-002   0.0000000000000000     
   5.8086294570613685E-002   8.2917346487814889E-002   0.0000000000000000     
   7.7693820262396657E-002   8.5827208937442695E-002   0.0000000000000000     
   8.0491113961337277E-002   9.1904905166011713E-002   0.0000000000000000     
   8.3203525134569023E-002   9.8173481364556808E-002   0.0000000000000000     
   8.5831053782091882E-002  0.10463293753307805        0.0000000000000000     
   8.8373699903905853E-002  0.11128327367157539        0.0000000000000000     
   7.1668681110921562E-002   8.4930453409953227E-002   0.0000000000000000     
   7.4347607950953701E-002   9.1076907696761203E-002   0.0000000000000000     
   7.6927610192489435E-002   9.7399220775280418E-002   0.0000000000000000     
   7.9408687835528735E-002  0.10389739264551086        0.0000000000000000     
   8.1790840880071630E-002  0.11057142330745255        0.0000000000000000     
   6.6392380445132695E-002   8.4146557825852120E-002   0.0000000000000000     
   6.8846286215276442E-002   9.0343694799760718E-002   0.0000000000000000     
   7.1207993440962333E-002   9.6707456560182758E-002   0.0000000000000000     
   7.3477502122190355E-002  0.10323784310711825        0.0000000000000000     
   7.5654812258960549E-002  0.10993485444056716        0.0000000000000000     
   6.1864918265030065E-002   8.3475522185139331E-002   0.0000000000000000     
   6.3987148754305487E-002   8.9705266475010245E-002   0.0000000000000000     
   6.6044674879987705E-002   9.6098188719263858E-002   0.0000000000000000     
   6.8037496642076742E-002  0.10265428891790020        0.0000000000000000     
   6.9965614040572610E-002  0.10937356707091922        0.0000000000000000     
   5.8086294570613685E-002   8.2917346487814889E-002   0.0000000000000000     
   5.9770195568040856E-002   8.9161622722509770E-002   0.0000000000000000     
   6.1437654509565599E-002   9.5571417252523716E-002   0.0000000000000000     
   6.3088671395187937E-002  0.10214673007785671        0.0000000000000000     
   6.4723246224907841E-002  0.10888756119850876        0.0000000000000000     
   8.8373699903905853E-002  0.11128327367157539        0.0000000000000000     
   9.0823367067332350E-002  0.11810101538745529        0.0000000000000000     
   9.3171958839692828E-002  0.12506268828812417        0.0000000000000000     
   9.5419475220987218E-002  0.13216829237358196        0.0000000000000000     
   9.7565916211215575E-002  0.13941782764382876        0.0000000000000000     
   8.1790840880071630E-002  0.11057142330745255        0.0000000000000000     
   8.4077790142286113E-002  0.11740741023911874        0.0000000000000000     
   8.6273256438340176E-002  0.12439145091852266        0.0000000000000000     
   8.8377239768233820E-002  0.13152354534566427        0.0000000000000000     
   9.0389740131967072E-002  0.13880369352054367        0.0000000000000000     
   7.5654812258960549E-002  0.10993485444056716        0.0000000000000000     
   7.7746320130429522E-002  0.11679014155623091        0.0000000000000000     
   7.9758422015753949E-002  0.12379535544981088        0.0000000000000000     
   8.1691117914933817E-002  0.13095049612130705        0.0000000000000000     
   8.3544407827969111E-002  0.13825556357071941        0.0000000000000000     
   6.9965614040572610E-002  0.10937356707091922        0.0000000000000000     
   7.1828957031762633E-002  0.11624920933879183        0.0000000000000000     
   7.3627455571934161E-002  0.12327440188198883        0.0000000000000000     
   7.5361109661087167E-002  0.13044914470051019        0.0000000000000000     
   7.7029919299221677E-002  0.13777343779435602        0.0000000000000000     
   6.4723246224907841E-002  0.10888756119850876        0.0000000000000000     
   6.6325700846285418E-002  0.11578461358680148        0.0000000000000000     
   6.7880357106880770E-002  0.12282859021505652        0.0000000000000000     
   6.9387215006693911E-002  0.13001949108327387        0.0000000000000000     
   7.0846274545724813E-002  0.13735731619145353        0.0000000000000000     
   9.7565916211215575E-002  0.13941782764382876        0.0000000000000000     
   9.9607313111941154E-002  0.14679134572560029        0.0000000000000000     
  0.10153969722472725       0.15426889824563228        0.0000000000000000     
  0.10336306854957387       0.16185048520392475        0.0000000000000000     
  0.10507742708648099       0.16953610660047774        0.0000000000000000     
   9.0389740131967072E-002  0.13880369352054367        0.0000000000000000     
   9.2306214181479940E-002  0.14620904785985386        0.0000000000000000     
   9.4122118568712471E-002  0.15371676078028793        0.0000000000000000     
   9.5837453293664665E-002  0.16132683228184594        0.0000000000000000     
   9.7452218356336551E-002  0.16903926236452779        0.0000000000000000     
   8.3544407827969111E-002  0.13825556357071941        0.0000000000000000     
   8.5311993333599637E-002  0.14568681828738081        0.0000000000000000     
   8.6987576010565185E-002  0.15322052076062387        0.0000000000000000     
   8.8571155858865769E-002  0.16085667099044870        0.0000000000000000     
   9.0062732878501348E-002  0.16859526897685526        0.0000000000000000     
   7.7029919299221677E-002  0.13777343779435602        0.0000000000000000     
   7.8624650568300244E-002  0.14522465700818107        0.0000000000000000     
   8.0136069550285391E-002  0.15278017818664008        0.0000000000000000     
   8.1564176245177117E-002  0.16044000132973307        0.0000000000000000     
   8.2908970652975394E-002  0.16820412643746008        0.0000000000000000     
   7.0846274545724813E-002  0.13735731619145353        0.0000000000000000     
   7.2244185885581791E-002  0.14482256402225469        0.0000000000000000     
   7.3567599187873089E-002  0.15239573305833654        0.0000000000000000     
   7.4816514452598723E-002  0.16007682329969902        0.0000000000000000     
   7.5990931679758719E-002  0.16786583474634226        0.0000000000000000     
  0.10507742708648099       0.16953610660047774        0.0000000000000000     
  0.10669017672290701       0.17732304059083501        0.0000000000000000     
  0.10820872134631031       0.18520856533054048        0.0000000000000000     
  0.10963306095669084       0.19319268081959406        0.0000000000000000     
  0.11096319555404867       0.20127538705799583        0.0000000000000000     
   9.7452218356336551E-002  0.16903926236452779        0.0000000000000000     
   9.8968380530816497E-002  0.17685335434151261        0.0000000000000000     
  0.10038790659119293       0.18476841152597939        0.0000000000000000     
  0.10171079653746586       0.19278443391792813        0.0000000000000000     
  0.10293705036963527       0.20090142151735879        0.0000000000000000     
   9.0062732878501348E-002  0.16859526897685526        0.0000000000000000     
   9.1461694794036097E-002  0.17643599256401540        0.0000000000000000     
   9.2767429330034068E-002  0.18437851959610085        0.0000000000000000     
   9.3979936486495330E-002  0.19242285007311175        0.0000000000000000     
   9.5099216263419842E-002  0.20056898399504799        0.0000000000000000     
   8.2908970652975394E-002  0.16820412643746008        0.0000000000000000     
   8.4170119512565783E-002  0.17607095525834329        0.0000000000000000     
   8.5347289562833731E-002  0.18403888954090492        0.0000000000000000     
   8.6440480803779265E-002  0.19210792928514492        0.0000000000000000     
   8.7449693235402373E-002  0.20027807449106333        0.0000000000000000     
   7.5990931679758719E-002  0.16786583474634226        0.0000000000000000     
   7.7093654686405597E-002  0.17575824242449636        0.0000000000000000     
   7.8127487289591901E-002  0.18374952136039152        0.0000000000000000     
   7.9092429489317675E-002  0.19183967155402770        0.0000000000000000     
   7.9988481285582863E-002  0.20002869300540488        0.0000000000000000     
  0.11096319555404867       0.20127538705799583        0.0000000000000000     
  0.11220452790691604       0.20945019168311302        0.0000000000000000     
  0.11336246078382527       0.21771060233231299        0.0000000000000000     
  0.11443699418477633       0.22605661900559565        0.0000000000000000     
  0.11542812810976924       0.23448824170296106        0.0000000000000000     
  0.10293705036963527       0.20090142151735879        0.0000000000000000     
  0.10407609981253470       0.20910850997204178        0.0000000000000000     
  0.10513737659099764       0.21739483492974745        0.0000000000000000     
  0.10612088070502411       0.22576039639047574        0.0000000000000000     
  0.10702661215461411       0.23420519435422671        0.0000000000000000     
   9.5099216263419842E-002  0.20056898399504799        0.0000000000000000     
   9.6135059116518512E-002  0.20880381113407839        0.0000000000000000     
   9.7097255501502208E-002  0.21711422126237168        0.0000000000000000     
   9.7985805418370930E-002  0.22550021437992801        0.0000000000000000     
   9.8800708867124692E-002  0.23396179048674726        0.0000000000000000     
   8.7449693235402373E-002  0.20027807449106333        0.0000000000000000     
   8.8381405818867470E-002  0.20853609516922278        0.0000000000000000     
   8.9242097515338931E-002  0.21686876133018579        0.0000000000000000     
   9.0031768324816797E-002  0.22527607297395241        0.0000000000000000     
   9.0750418247300998E-002  0.23375803010052268        0.0000000000000000     
   7.9988481285582863E-002  0.20002869300540488        0.0000000000000000     
   8.0815139919581572E-002  0.20830536207747491        0.0000000000000000     
   8.1571902632507826E-002  0.21665845513318960        0.0000000000000000     
   8.2258769424361666E-002  0.22508797217254894        0.0000000000000000     
   8.2875740295143038E-002  0.23359391319555295        0.0000000000000000     
  0.11542812810976924       0.23448824170296106        0.0000000000000000     
  0.11636752815831790       0.24301903247406076        0.0000000000000000     
  0.11728685992993620       0.25166255336854637        0.0000000000000000     
  0.11818612342462413       0.26041880438641790        0.0000000000000000     
  0.11906531864238173       0.26928778552767535        0.0000000000000000     
  0.10702661215461411       0.23420519435422671        0.0000000000000000     
  0.10786128891614208       0.24275106031543833        0.0000000000000000     
  0.10863162896598250       0.25141982576854871        0.0000000000000000     
  0.10933763230413536       0.26021149071355787        0.0000000000000000     
  0.10997929893060067       0.26912605515046578        0.0000000000000000     
   9.8800708867124692E-002  0.23396179048674726        0.0000000000000000     
   9.9533069608930547E-002  0.24252457544281580        0.0000000000000000     
  0.10017399140495556       0.25121419510811988        0.0000000000000000     
  0.10072347425519970       0.26003064948265964        0.0000000000000000     
  0.10118151815966299       0.26897393856643509        0.0000000000000000     
   9.0750418247300998E-002  0.23375803010052268        0.0000000000000000     
   9.1382870236683303E-002  0.24233957785619301        0.0000000000000000     
   9.1913947246855338E-002  0.25104566138725987        0.0000000000000000     
   9.2343649277817130E-002  0.25987628069372332        0.0000000000000000     
   9.2671976329568695E-002  0.26883143577558327        0.0000000000000000     
   8.2875740295143038E-002  0.23359391319555295        0.0000000000000000     
   8.3410690799400333E-002  0.24219606755557002        0.0000000000000000     
   8.3851496491681887E-002  0.25091422460596863        0.0000000000000000     
   8.4198157371987700E-002  0.25974838434674880        0.0000000000000000     
   8.4450673440317772E-002  0.26869854677791050        0.0000000000000000     
  0.11906531864238173       0.26928778552767535        0.0000000000000000     
  0.11986513647229448       0.27843529172293663        0.0000000000000000     
  0.12052626780344795       0.28802711790281976        0.0000000000000000     
  0.12104871263584213       0.29806326406732475        0.0000000000000000     
  0.12143247096947701       0.30854373021645154        0.0000000000000000     
  0.10997929893060067       0.26912605515046578        0.0000000000000000     
  0.11053808608897271       0.27829627959359288        0.0000000000000000     
  0.11099545102284579       0.28785492455725975        0.0000000000000000     
  0.11135139373221994       0.29780199004146640        0.0000000000000000     
  0.11160591421709512       0.30813747604621278        0.0000000000000000     
  0.10118151815966299       0.26897393856643509        0.0000000000000000     
  0.10155952431405417       0.27814255513110464        0.0000000000000000     
  0.10186889391408203       0.28763499194832703        0.0000000000000000     
  0.10210962695974651       0.29745124901810222        0.0000000000000000     
  0.10228172345104766       0.30759132634043013        0.0000000000000000     
   9.2671976329568695E-002  0.26883143577558327        0.0000000000000000     
   9.2929451147538880E-002  0.27797411833547203        0.0000000000000000     
   9.3146596477156618E-002  0.28736732007602162        0.0000000000000000     
   9.3323412318421867E-002  0.29701104099723213        0.0000000000000000     
   9.3459898671334668E-002  0.30690528109910342        0.0000000000000000     
   8.4450673440317772E-002  0.26869854677791050        0.0000000000000000     
   8.4647866589426829E-002  0.27779096920669494        0.0000000000000000     
   8.4828558712069554E-002  0.28705190894034355        0.0000000000000000     
   8.4992749808246004E-002  0.29648136597885616        0.0000000000000000     
   8.5140439877956123E-002  0.30607934032223294        0.0000000000000000     
   5.1651947597888062E-002   6.0655059127753097E-002   0.0000000000000000     
   5.3197882879421732E-002   6.5773672032503616E-002   0.0000000000000000     
   5.4785585802053886E-002   7.1190257560764081E-002   0.0000000000000000     
   5.6415056365784540E-002   7.6904815712534505E-002   0.0000000000000000     
   5.8086294570613685E-002   8.2917346487814889E-002   0.0000000000000000     
   5.0521842074797541E-002   5.9611919216020159E-002   0.0000000000000000     
   5.1184773134409729E-002   6.4960853564621140E-002   0.0000000000000000     
   5.2020760190446463E-002   7.0543958079027469E-002   0.0000000000000000     
   5.3029803242907743E-002   7.6361232759239159E-002   0.0000000000000000     
   5.4211902291793561E-002   8.2412677605256224E-002   0.0000000000000000     
   4.6994745743086951E-002   5.8707358541828680E-002   0.0000000000000000     
   4.7265714503793223E-002   6.4217224835996636E-002   0.0000000000000000     
   4.7756435526594108E-002   6.9919647578554622E-002   0.0000000000000000     
   4.8466908811489622E-002   7.5814626769502666E-002   0.0000000000000000     
   4.9397134358479748E-002   8.1902162408840753E-002   0.0000000000000000     
   4.1070658602756306E-002   5.7941377105178681E-002   0.0000000000000000     
   4.1440706987572219E-002   6.3542785846630118E-002   0.0000000000000000     
   4.1992611810496849E-002   6.9317326059345555E-002   0.0000000000000000     
   4.2726373071530196E-002   7.5264997743325027E-002   0.0000000000000000     
   4.3641990770672240E-002   8.1385800898568478E-002   0.0000000000000000     
   3.2749580653805579E-002   5.7313974906070146E-002   0.0000000000000000     
   3.3709750585746719E-002   6.2937536596521571E-002   0.0000000000000000     
   3.4729289042154672E-002   6.8736993521400253E-002   0.0000000000000000     
   3.5808196023029447E-002   7.4712345680706199E-002   0.0000000000000000     
   3.6946471528371050E-002   8.0863593074439410E-002   0.0000000000000000     
   5.8086294570613685E-002   8.2917346487814889E-002   0.0000000000000000     
   5.9770195568040856E-002   8.9161622722509770E-002   0.0000000000000000     
   6.1437654509565599E-002   9.5571417252523716E-002   0.0000000000000000     
   6.3088671395187937E-002  0.10214673007785671        0.0000000000000000     
   6.4723246224907841E-002  0.10888756119850876        0.0000000000000000     
   5.4211902291793561E-002   8.2412677605256224E-002   0.0000000000000000     
   5.5494433239846576E-002   8.8666068634851922E-002   0.0000000000000000     
   5.6804771989809440E-002   9.5089181865799566E-002   0.0000000000000000     
   5.8142918541682152E-002  0.10168201729809916        0.0000000000000000     
   5.9508872895464693E-002  0.10844457493175066        0.0000000000000000     
   4.9397134358479748E-002   8.1902162408840753E-002   0.0000000000000000     
   5.0458868353086696E-002   8.8171909304629259E-002   0.0000000000000000     
   5.1563866980832665E-002   9.4613522264928612E-002   0.0000000000000000     
   5.2712130241717663E-002  0.10122700128973884        0.0000000000000000     
   5.3903658135741675E-002  0.10801234637905988        0.0000000000000000     
   4.3641990770672240E-002   8.1385800898568478E-002   0.0000000000000000     
   4.4663500907761215E-002   8.7679144731841838E-002   0.0000000000000000     
   4.5714939482635282E-002   9.4144438449910925E-002   0.0000000000000000     
   4.6796306495294475E-002  0.10078168205277580        0.0000000000000000     
   4.7907601945738773E-002  0.10759087554043639        0.0000000000000000     
   3.6946471528371050E-002   8.0863593074439410E-002   0.0000000000000000     
   3.8108330903870107E-002   8.7187774916489602E-002   0.0000000000000000     
   3.9257989495217291E-002   9.3681930420746462E-002   0.0000000000000000     
   4.0395447302412575E-002  0.10034605958721000        0.0000000000000000     
   4.1520704325455994E-002  0.10718016241588021        0.0000000000000000     
   6.4723246224907841E-002  0.10888756119850876        0.0000000000000000     
   6.6325700846285418E-002  0.11578461358680148        0.0000000000000000     
   6.7880357106880770E-002  0.12282859021505652        0.0000000000000000     
   6.9387215006693911E-002  0.13001949108327387        0.0000000000000000     
   7.0846274545724813E-002  0.13735731619145353        0.0000000000000000     
   5.9508872895464693E-002  0.10844457493175066        0.0000000000000000     
   6.0871964924739327E-002  0.11536373913906281        0.0000000000000000     
   6.2201524503088280E-002  0.12242639429234418        0.0000000000000000     
   6.3497551630511545E-002  0.12963254039159489        0.0000000000000000     
   6.4760046307009128E-002  0.13698217743681484        0.0000000000000000     
   5.3903658135741675E-002  0.10801234637905988        0.0000000000000000     
   5.5103162617865797E-002  0.11495397083437865        0.0000000000000000     
   5.6275355643051105E-002  0.12203628795718212        0.0000000000000000     
   5.7420237211297617E-002  0.12925929774747025        0.0000000000000000     
   5.8537807322605301E-002  0.13662300020524304        0.0000000000000000     
   4.7907601945738773E-002  0.10759087554043639        0.0000000000000000     
   4.9019293925664828E-002  0.11455530867274911        0.0000000000000000     
   5.0101850526769263E-002  0.12165827120957028        0.0000000000000000     
   5.1155271749052093E-002  0.12889976315089993        0.0000000000000000     
   5.2179557592513318E-002  0.13627978449673808        0.0000000000000000     
   4.1520704325455994E-002  0.10718016241588021        0.0000000000000000     
   4.2620358848136426E-002  0.11416775265417412        0.0000000000000000     
   4.3681009154242764E-002  0.12129234404950873        0.0000000000000000     
   4.4702655243775015E-002  0.12855393660188399        0.0000000000000000     
   4.5685297116733185E-002  0.13595253031130000        0.0000000000000000     
   7.0846274545724813E-002  0.13735731619145353        0.0000000000000000     
   7.2244185885581791E-002  0.14482256402225469        0.0000000000000000     
   7.3567599187873089E-002  0.15239573305833654        0.0000000000000000     
   7.4816514452598723E-002  0.16007682329969902        0.0000000000000000     
   7.5990931679758719E-002  0.16786583474634226        0.0000000000000000     
   6.4760046307009128E-002  0.13698217743681484        0.0000000000000000     
   6.5972433930832464E-002  0.14445966709661753        0.0000000000000000     
   6.7118139900233020E-002  0.15204937103961647        0.0000000000000000     
   6.8197164215210770E-002  0.15975128926581156        0.0000000000000000     
   6.9209506875765714E-002  0.16756542177520284        0.0000000000000000     
   5.8537807322605301E-002  0.13662300020524304        0.0000000000000000     
   5.9611229349440603E-002  0.14411509399828562        0.0000000000000000     
   6.0623666664269972E-002  0.15172327779438308        0.0000000000000000     
   6.1575119267093387E-002  0.15944755159353546        0.0000000000000000     
   6.2465587157910861E-002  0.16728791539574275        0.0000000000000000     
   5.2179557592513318E-002  0.13627978449673808        0.0000000000000000     
   5.3160572141406182E-002  0.14378884472725886        0.0000000000000000     
   5.4084179479983931E-002  0.15141745332263645        0.0000000000000000     
   5.4950379608246586E-002  0.15916561028287080        0.0000000000000000     
   5.5759172526194133E-002  0.16703331560796195        0.0000000000000000     
   4.5685297116733185E-002  0.13595253031130000        0.0000000000000000     
   4.6620462306729171E-002  0.14348091928353729        0.0000000000000000     
   4.7499678347374896E-002  0.15113189762437645        0.0000000000000000     
   4.8322945238670360E-002  0.15890546533381752        0.0000000000000000     
   4.9090262980615557E-002  0.16680162241186050        0.0000000000000000     
   7.5990931679758719E-002  0.16786583474634226        0.0000000000000000     
   7.7093654686405597E-002  0.17575824242449636        0.0000000000000000     
   7.8127487289591901E-002  0.18374952136039152        0.0000000000000000     
   7.9092429489317675E-002  0.19183967155402770        0.0000000000000000     
   7.9988481285582863E-002  0.20002869300540488        0.0000000000000000     
   6.9209506875765714E-002  0.16756542177520284        0.0000000000000000     
   7.0161217044539884E-002  0.17548360465143800        0.0000000000000000     
   7.1058343884175257E-002  0.18349767397816474        0.0000000000000000     
   7.1900887394671875E-002  0.19160762975538309        0.0000000000000000     
   7.2688847576029711E-002  0.19981347198309293        0.0000000000000000     
   6.2465587157910861E-002  0.16728791539574275        0.0000000000000000     
   6.3301723315953004E-002  0.17523279252813159        0.0000000000000000     
   6.4090180720450460E-002  0.18327060631782874        0.0000000000000000     
   6.4830959371403207E-002  0.19140135676483414        0.0000000000000000     
   6.5524059268811261E-002  0.19962504386914787        0.0000000000000000     
   5.5759172526194133E-002  0.16703331560796195        0.0000000000000000     
   5.6515173500644979E-002  0.17500580605457711        0.0000000000000000     
   5.7222997798417490E-002  0.18306831837938342        0.0000000000000000     
   5.7882645419511686E-002  0.19122085258238095        0.0000000000000000     
   5.8494116363927554E-002  0.19946340866356960        0.0000000000000000     
   4.9090262980615557E-002  0.16680162241186050        0.0000000000000000     
   4.9801567598615787E-002  0.17480264523077454        0.0000000000000000     
   5.0456795118076367E-002  0.18289081016282885        0.0000000000000000     
   5.1055945538997283E-002  0.19106611720802341        0.0000000000000000     
   5.1599018861378548E-002  0.19932856636635823        0.0000000000000000     
   7.9988481285582863E-002  0.20002869300540488        0.0000000000000000     
   8.0815139919581572E-002  0.20830536207747491        0.0000000000000000     
   8.1571902632507826E-002  0.21665845513318960        0.0000000000000000     
   8.2258769424361666E-002  0.22508797217254894        0.0000000000000000     
   8.2875740295143038E-002  0.23359391319555295        0.0000000000000000     
   7.2688847576029711E-002  0.19981347198309293        0.0000000000000000     
   7.3415093238468898E-002  0.20810659473491921        0.0000000000000000     
   7.4072493192209529E-002  0.21647839208448674        0.0000000000000000     
   7.4661047437251646E-002  0.22492886403179549        0.0000000000000000     
   7.5180755973595220E-002  0.23345801057684548        0.0000000000000000     
   6.5524059268811261E-002  0.19962504386914787        0.0000000000000000     
   6.6160097595337475E-002  0.20793477601763996        0.0000000000000000     
   6.6729691533644636E-002  0.21632366159718061        0.0000000000000000     
   6.7232841083732800E-002  0.22479170060776990        0.0000000000000000     
   6.7669546245601939E-002  0.23333889304940772        0.0000000000000000     
   5.8494116363927554E-002  0.19946340866356960        0.0000000000000000     
   5.9050152990187309E-002  0.20778990592563717        0.0000000000000000     
   5.9543497656813160E-002  0.21619426367127134        0.0000000000000000     
   5.9974150363805136E-002  0.22467648190047210        0.0000000000000000     
   6.0342111111163187E-002  0.23323656061323950        0.0000000000000000     
   5.1599018861378548E-002  0.19932856636635823        0.0000000000000000     
   5.2085259423018400E-002  0.20767198445891086        0.0000000000000000     
   5.2513911561715095E-002  0.21609019830675885        0.0000000000000000     
   5.2884975277468618E-002  0.22458320790990222        0.0000000000000000     
   5.3198450570278971E-002  0.23315101326834098        0.0000000000000000     
   8.2875740295143038E-002  0.23359391319555295        0.0000000000000000     
   8.3410690799400333E-002  0.24219606755557002        0.0000000000000000     
   8.3851496491681887E-002  0.25091422460596863        0.0000000000000000     
   8.4198157371987700E-002  0.25974838434674880        0.0000000000000000     
   8.4450673440317772E-002  0.26869854677791050        0.0000000000000000     
   7.5180755973595220E-002  0.23345801057684548        0.0000000000000000     
   7.5626481908083770E-002  0.24207823287529912        0.0000000000000000     
   7.5993088347560814E-002  0.25080193208281859        0.0000000000000000     
   7.6280575292026337E-002  0.25962910819940399        0.0000000000000000     
   7.6488942741480340E-002  0.26855976122505532        0.0000000000000000     
   6.7669546245601939E-002  0.23333889304940772        0.0000000000000000     
   6.8040194173735691E-002  0.24197026214973233        0.0000000000000000     
   6.8345172022617681E-002  0.25069083113638202        0.0000000000000000     
   6.8584479792247965E-002  0.25950060000935682        0.0000000000000000     
   6.8758117482626474E-002  0.26839956876865673        0.0000000000000000     
   6.0342111111163187E-002  0.23323656061323950        0.0000000000000000     
   6.0651827596356081E-002  0.24187215537886969        0.0000000000000000     
   6.0907747516852552E-002  0.25058092176665897        0.0000000000000000     
   6.1109870872652593E-002  0.25936285977660722        0.0000000000000000     
   6.1258197663756189E-002  0.26821796940871456        0.0000000000000000     
   5.3198450570278971E-002  0.23315101326834098        0.0000000000000000     
   5.3461382175944955E-002  0.24178391256271128        0.0000000000000000     
   5.3680814830265378E-002  0.25047220397364939        0.0000000000000000     
   5.3856748533240219E-002  0.25921588750115526        0.0000000000000000     
   5.3989183284869499E-002  0.26801496314522899        0.0000000000000000     
   8.4450673440317772E-002  0.26869854677791050        0.0000000000000000     
   8.4647866589426829E-002  0.27779096920669494        0.0000000000000000     
   8.4828558712069554E-002  0.28705190894034355        0.0000000000000000     
   8.4992749808246004E-002  0.29648136597885616        0.0000000000000000     
   8.5140439877956123E-002  0.30607934032223294        0.0000000000000000     
   7.6488942741480340E-002  0.26855976122505532        0.0000000000000000     
   7.6658660975862020E-002  0.27758740150233951        0.0000000000000000     
   7.6830200275110588E-002  0.28670553937382354        0.0000000000000000     
   7.7003560639226018E-002  0.29591417483950744        0.0000000000000000     
   7.7178742068208323E-002  0.30521330789939105        0.0000000000000000     
   6.8758117482626474E-002  0.26839956876865673        0.0000000000000000     
   6.8905724642988525E-002  0.27735770897997186        0.0000000000000000     
   6.9066940822569409E-002  0.28634499220899257        0.0000000000000000     
   6.9241766021369083E-002  0.29536141845571884        0.0000000000000000     
   6.9430200239387577E-002  0.30440698772015062        0.0000000000000000     
   6.1258197663756189E-002  0.26821796940871456        0.0000000000000000     
   6.1389057590806352E-002  0.27710189163959204        0.0000000000000000     
   6.1538780354446009E-002  0.28597026744585069        0.0000000000000000     
   6.1707365954675179E-002  0.29482309682749058        0.0000000000000000     
   6.1894814391493871E-002  0.30366037978451166        0.0000000000000000     
   5.3989183284869499E-002  0.26801496314522899        0.0000000000000000     
   5.4108659819315466E-002  0.27681994948119998        0.0000000000000000     
   5.4245718870740409E-002  0.28558136508439791        0.0000000000000000     
   5.4400360439144327E-002  0.29429920995482256        0.0000000000000000     
   5.4572584524527214E-002  0.30297348409247415        0.0000000000000000     
   3.2749580653805579E-002   5.7313974906070146E-002   0.0000000000000000     
   3.3709750585746719E-002   6.2937536596521571E-002   0.0000000000000000     
   3.4729289042154672E-002   6.8736993521400253E-002   0.0000000000000000     
   3.5808196023029447E-002   7.4712345680706199E-002   0.0000000000000000     
   3.6946471528371050E-002   8.0863593074439410E-002   0.0000000000000000     
   2.4451550464136895E-002   5.6799871186620811E-002   0.0000000000000000     
   2.6022361605556411E-002   6.2413773000238655E-002   0.0000000000000000     
   2.7525557726414622E-002   6.8215254828188313E-002   0.0000000000000000     
   2.8961138826711530E-002   7.4204316670469839E-002   0.0000000000000000     
   3.0329104906447135E-002   8.0380958527083157E-002   0.0000000000000000     
   1.8596606601652327E-002   5.6373785188948408E-002   0.0000000000000000     
   2.0328056354240995E-002   6.1983790972348983E-002   0.0000000000000000     
   2.1940508368123744E-002   6.7788714843179332E-002   0.0000000000000000     
   2.3433962643300579E-002   7.3788556801439448E-002   0.0000000000000000     
   2.4808419179771488E-002   7.9983316847129338E-002   0.0000000000000000     
   1.5184749066351881E-002   5.6035716913052938E-002   0.0000000000000000     
   1.6626834831800465E-002   6.1647590512852582E-002   0.0000000000000000     
   1.7974140967282035E-002   6.7457373566373297E-002   0.0000000000000000     
   1.9226667472796583E-002   7.3465066073615082E-002   0.0000000000000000     
   2.0384414348344107E-002   7.9670668034577938E-002   0.0000000000000000     
   1.4215977858235553E-002   5.5785666358934380E-002   0.0000000000000000     
   1.4918697038234830E-002   6.1405171621749445E-002   0.0000000000000000     
   1.5626455523889495E-002   6.7221230997770220E-002   0.0000000000000000     
   1.6339253315199549E-002   7.3233844486996727E-002   0.0000000000000000     
   1.7057090412164990E-002   7.9443012089428958E-002   0.0000000000000000     
   3.6946471528371050E-002   8.0863593074439410E-002   0.0000000000000000     
   3.8108330903870107E-002   8.7187774916489602E-002   0.0000000000000000     
   3.9257989495217291E-002   9.3681930420746462E-002   0.0000000000000000     
   4.0395447302412575E-002  0.10034605958721000        0.0000000000000000     
   4.1520704325455994E-002  0.10718016241588021        0.0000000000000000     
   3.0329104906447135E-002   8.0380958527083157E-002   0.0000000000000000     
   3.1635694670957344E-002   8.6735193333198110E-002   0.0000000000000000     
   3.2887146825578063E-002   9.3257034023984484E-002   0.0000000000000000     
   3.4083461370309306E-002   9.9946480599442208E-002   0.0000000000000000     
   3.5224638305151060E-002  0.10680353305957137        0.0000000000000000     
   2.4808419179771488E-002   7.9983316847129338E-002   0.0000000000000000     
   2.6087928538566844E-002   8.6358793456592947E-002   0.0000000000000000     
   2.7296541280716995E-002   9.2900785106174236E-002   0.0000000000000000     
   2.8434257406221942E-002   9.9609291795873203E-002   0.0000000000000000     
   2.9501076915081696E-002  0.10648431352568988        0.0000000000000000     
   2.0384414348344107E-002   7.9670668034577938E-002   0.0000000000000000     
   2.1465032506698602E-002   8.6058575286674086E-002   0.0000000000000000     
   2.2486172860634073E-002   9.2613183667315760E-002   0.0000000000000000     
   2.3447835410150501E-002   9.9334493176502961E-002   0.0000000000000000     
   2.4350020155247894E-002  0.10622250381423573        0.0000000000000000     
   1.7057090412164990E-002   7.9443012089428958E-002   0.0000000000000000     
   1.7767006575352635E-002   8.5834538823441511E-002   0.0000000000000000     
   1.8456041565329293E-002   9.2394229707409029E-002   0.0000000000000000     
   1.9124195382094970E-002   9.9122084741331482E-002   0.0000000000000000     
   1.9771468025649663E-002  0.10601810392520891        0.0000000000000000     
   4.1520704325455994E-002  0.10718016241588021        0.0000000000000000     
   4.2620358848136426E-002  0.11416775265417412        0.0000000000000000     
   4.3681009154242764E-002  0.12129234404950873        0.0000000000000000     
   4.4702655243775015E-002  0.12855393660188399        0.0000000000000000     
   4.5685297116733185E-002  0.13595253031130000        0.0000000000000000     
   3.5224638305151060E-002  0.10680353305957137        0.0000000000000000     
   3.6313860623734373E-002  0.11381245948031336        0.0000000000000000     
   3.7354311319690289E-002  0.12095752793760964        0.0000000000000000     
   3.8345990393018815E-002  0.12823873843146025        0.0000000000000000     
   3.9288897843719930E-002  0.13565609096186509        0.0000000000000000     
   2.9501076915081696E-002  0.10648431352568988        0.0000000000000000     
   3.0507302490912491E-002  0.11351058585282646        0.0000000000000000     
   3.1463236817330570E-002  0.12067284433448533        0.0000000000000000     
   3.2368879894335928E-002  0.12797108897066642        0.0000000000000000     
   3.3224231721928579E-002  0.13540531976136971        0.0000000000000000     
   2.4350020155247894E-002  0.10622250381423573        0.0000000000000000     
   2.5200684449670756E-002  0.11326213177171349        0.0000000000000000     
   2.6007785647163585E-002  0.12043829324013575        0.0000000000000000     
   2.6771323747726374E-002  0.12775098821950254        0.0000000000000000     
   2.7491298751359125E-002  0.13520021670981383        0.0000000000000000     
   1.9771468025649663E-002  0.10601810392520891        0.0000000000000000     
   2.0394006500009186E-002  0.11306709723697438        0.0000000000000000     
   2.0987957809189349E-002  0.12025387465456094        0.0000000000000000     
   2.1553321953190145E-002  0.12757843617796863        0.0000000000000000     
   2.2090098932011581E-002  0.13504078180719742        0.0000000000000000     
   4.5685297116733185E-002  0.13595253031130000        0.0000000000000000     
   4.6620462306729171E-002  0.14348091928353729        0.0000000000000000     
   4.7499678347374896E-002  0.15113189762437645        0.0000000000000000     
   4.8322945238670360E-002  0.15890546533381752        0.0000000000000000     
   4.9090262980615557E-002  0.16680162241186050        0.0000000000000000     
   3.9288897843719930E-002  0.13565609096186509        0.0000000000000000     
   4.0180323498329236E-002  0.14320391612275069        0.0000000000000000     
   4.1017557183382299E-002  0.15087654450804333        0.0000000000000000     
   4.1800598898879125E-002  0.15867397611774314        0.0000000000000000     
   4.2529448644819716E-002  0.16659621095185001        0.0000000000000000     
   3.3224231721928579E-002  0.13540531976136971        0.0000000000000000     
   3.4029579369125963E-002  0.14297043370052881        0.0000000000000000     
   3.4785209904945533E-002  0.15066132778207722        0.0000000000000000     
   3.5491123329387295E-002  0.15847800200601500        0.0000000000000000     
   3.6147319642451242E-002  0.16642045637234204        0.0000000000000000     
   2.7491298751359125E-002  0.13520021670981383        0.0000000000000000     
   2.8168229919119370E-002  0.14278047201687169        0.0000000000000000     
   2.8802636512064612E-002  0.15048624744647807        0.0000000000000000     
   2.9394518530194865E-002  0.15831754299863310        0.0000000000000000     
   2.9943875973510115E-002  0.16627435867333668        0.0000000000000000     
   2.2090098932011581E-002  0.13504078180719742        0.0000000000000000     
   2.2596275148309447E-002  0.14263403107177922        0.0000000000000000     
   2.3069837004739534E-002  0.15035130350124593        0.0000000000000000     
   2.3510784501301830E-002  0.15819259909559744        0.0000000000000000     
   2.3919117637996354E-002  0.16615791785483383        0.0000000000000000     
   4.9090262980615557E-002  0.16680162241186050        0.0000000000000000     
   4.9801567598615787E-002  0.17480264523077454        0.0000000000000000     
   5.0456795118076367E-002  0.18289081016282885        0.0000000000000000     
   5.1055945538997283E-002  0.19106611720802341        0.0000000000000000     
   5.1599018861378548E-002  0.19932856636635823        0.0000000000000000     
   4.2529448644819716E-002  0.16659621095185001        0.0000000000000000     
   4.3199461905933191E-002  0.17462329174290120        0.0000000000000000     
   4.3805994166948664E-002  0.18273526122343400        0.0000000000000000     
   4.4349045427866135E-002  0.19093211939344837        0.0000000000000000     
   4.4828615688685597E-002  0.19921386625294432        0.0000000000000000     
   3.6147319642451242E-002  0.16642045637234204        0.0000000000000000     
   3.6747412718664947E-002  0.17446772727713436        0.0000000000000000     
   3.7285016432555967E-002  0.18259885111646790        0.0000000000000000     
   3.7760130784124331E-002  0.19081382789034260        0.0000000000000000     
   3.8172755773370010E-002  0.19911265759875854        0.0000000000000000     
   2.9943875973510115E-002  0.16627435867333668        0.0000000000000000     
   3.0445420036811048E-002  0.17433595183347411        0.0000000000000000     
   3.0893861914898298E-002  0.18248157984193056        0.0000000000000000     
   3.1289201607771877E-002  0.19071124269870618        0.0000000000000000     
   3.1631439115431786E-002  0.19902494040380081        0.0000000000000000     
   2.3919117637996354E-002  0.16615791785483383        0.0000000000000000     
   2.4293483860371487E-002  0.17422796541192034        0.0000000000000000     
   2.4632530613975627E-002  0.18238344739982204        0.0000000000000000     
   2.4936257898808777E-002  0.19062436381853901        0.0000000000000000     
   2.5204665714870931E-002  0.19895071466807124        0.0000000000000000     
   5.1599018861378548E-002  0.19932856636635823        0.0000000000000000     
   5.2085259423018400E-002  0.20767198445891086        0.0000000000000000     
   5.2513911561715095E-002  0.21609019830675885        0.0000000000000000     
   5.2884975277468618E-002  0.22458320790990222        0.0000000000000000     
   5.3198450570278971E-002  0.23315101326834098        0.0000000000000000     
   4.4828615688685597E-002  0.19921386625294432        0.0000000000000000     
   4.5250657765919855E-002  0.20757345146392323        0.0000000000000000     
   4.5621124476081687E-002  0.21600382468838647        0.0000000000000000     
   4.5940015819171093E-002  0.22450498592633408        0.0000000000000000     
   4.6207331795188086E-002  0.23307693517776606        0.0000000000000000     
   3.8172755773370010E-002  0.19911265759875854        0.0000000000000000     
   3.8531588890980725E-002  0.20748674678713652        0.0000000000000000     
   3.8845327627644179E-002  0.21592750200089755        0.0000000000000000     
   3.9113971983360370E-002  0.22443492324004169        0.0000000000000000     
   3.9337521958129298E-002  0.23300901050456882        0.0000000000000000     
   3.1631439115431786E-002  0.19902494040380081        0.0000000000000000     
   3.1928052798201025E-002  0.20741187042855075        0.0000000000000000     
   3.2186521016402576E-002  0.21586123024429216        0.0000000000000000     
   3.2406843770036435E-002  0.22437301985102495        0.0000000000000000     
   3.2589021059102628E-002  0.23294723924874927        0.0000000000000000     
   2.5204665714870931E-002  0.19895071466807124        0.0000000000000000     
   2.5440049487580746E-002  0.20734882238816588        0.0000000000000000     
   2.5644704642356873E-002  0.21580500941857014        0.0000000000000000     
   2.5818631179199313E-002  0.22431927575928393        0.0000000000000000     
   2.5961829098108062E-002  0.23289162141030734        0.0000000000000000     
   5.3198450570278971E-002  0.23315101326834098        0.0000000000000000     
   5.3461382175944955E-002  0.24178391256271128        0.0000000000000000     
   5.3680814830265378E-002  0.25047220397364939        0.0000000000000000     
   5.3856748533240219E-002  0.25921588750115526        0.0000000000000000     
   5.3989183284869499E-002  0.26801496314522899        0.0000000000000000     
   4.6207331795188086E-002  0.23307693517776606        0.0000000000000000     
   4.6431528444260559E-002  0.24170335073580104        0.0000000000000000     
   4.6621061806516401E-002  0.25036791089355781        0.0000000000000000     
   4.6775931881955626E-002  0.25907061565103628        0.0000000000000000     
   4.6896138670578222E-002  0.26781146500823649        0.0000000000000000     
   3.9337521958129298E-002  0.23300901050456882        0.0000000000000000     
   3.9524936933061090E-002  0.24162828693268315        0.0000000000000000     
   3.9685176289265836E-002  0.25027127566258872        0.0000000000000000     
   3.9818240026743543E-002  0.25893797669428559        0.0000000000000000     
   3.9924128145494217E-002  0.26762839002777372        0.0000000000000000     
   3.2589021059102628E-002  0.23294723924874927        0.0000000000000000     
   3.2741607642346571E-002  0.24155872115335744        0.0000000000000000     
   3.2873158278513698E-002  0.25018229828074218        0.0000000000000000     
   3.2983672967603996E-002  0.25881797063090323        0.0000000000000000     
   3.3073151709617485E-002  0.26746573820384079        0.0000000000000000     
   2.5961829098108062E-002  0.23289162141030734        0.0000000000000000     
   2.6081540572116996E-002  0.24149465339782414        0.0000000000000000     
   2.6185007774259965E-002  0.25010097874801807        0.0000000000000000     
   2.6272230704536978E-002  0.25871059746088920        0.0000000000000000     
   2.6343209362948032E-002  0.26732350953643752        0.0000000000000000     
   5.3989183284869499E-002  0.26801496314522899        0.0000000000000000     
   5.4108659819315466E-002  0.27681994948119998        0.0000000000000000     
   5.4245718870740409E-002  0.28558136508439791        0.0000000000000000     
   5.4400360439144327E-002  0.29429920995482256        0.0000000000000000     
   5.4572584524527214E-002  0.30297348409247415        0.0000000000000000     
   4.6896138670578222E-002  0.26781146500823649        0.0000000000000000     
   4.7005795671719891E-002  0.27654022891679958        0.0000000000000000     
   4.7129016384716331E-002  0.28520667732836658        0.0000000000000000     
   4.7265800809567542E-002  0.29381081024293754        0.0000000000000000     
   4.7416148946273537E-002  0.30235262766051246        0.0000000000000000     
   3.9924128145494217E-002  0.26762839002777372        0.0000000000000000     
   4.0021729491223609E-002  0.27629107635839462        0.0000000000000000     
   4.0129932909637511E-002  0.28487459638148943        0.0000000000000000     
   4.0248738400735888E-002  0.29337895009705833        0.0000000000000000     
   4.0378145964518761E-002  0.30180413750510121        0.0000000000000000     
   3.3073151709617485E-002  0.26746573820384079        0.0000000000000000     
   3.3156461277826635E-002  0.27607249180598503        0.0000000000000000     
   3.3248468445503922E-002  0.28458512224376642        0.0000000000000000     
   3.3349173212649345E-002  0.29300362951718478        0.0000000000000000     
   3.3458575579262899E-002  0.30132801362624029        0.0000000000000000     
   2.6343209362948032E-002  0.26732350953643752        0.0000000000000000     
   2.6409991031528961E-002  0.27588447525957094        0.0000000000000000     
   2.6484622992315587E-002  0.28433825491519749        0.0000000000000000     
   2.6567105245307917E-002  0.29268484850331711        0.0000000000000000     
   2.6657437790505951E-002  0.30092425602392986        0.0000000000000000     
   1.4215977858235553E-002   5.5785666358934380E-002   0.0000000000000000     
   1.4918697038234830E-002   6.1405171621749445E-002   0.0000000000000000     
   1.5626455523889495E-002   6.7221230997770220E-002   0.0000000000000000     
   1.6339253315199549E-002   7.3233844486996727E-002   0.0000000000000000     
   1.7057090412164990E-002   7.9443012089428958E-002   0.0000000000000000     
   1.3517058208415769E-002   5.5605379877354040E-002   0.0000000000000000     
   1.3452581526242442E-002   6.1234084528198993E-002   0.0000000000000000     
   1.3496043704919639E-002   6.7056255685071259E-002   0.0000000000000000     
   1.3647444744447361E-002   7.3071893347970804E-002   0.0000000000000000     
   1.3906784644825608E-002   7.9280997516897642E-002   0.0000000000000000     
   1.0914755348004946E-002   5.5476603819073197E-002   0.0000000000000000     
   1.0477426848521654E-002   6.1111879461360714E-002   0.0000000000000000     
   1.0181497177345971E-002   6.6938416175977580E-002   0.0000000000000000     
   1.0026966334477893E-002   7.2956213962923747E-002   0.0000000000000000     
   1.0013834319917425E-002   7.9165272822199262E-002   0.0000000000000000     
   6.4090692770030835E-003   5.5399338184091824E-002   0.0000000000000000     
   5.9932330050724699E-003   6.1038556421234590E-002   0.0000000000000000     
   5.6828159411684911E-003   6.6867712470489157E-002   0.0000000000000000     
   5.4778180852911489E-003   7.2886806331855569E-002   0.0000000000000000     
   5.3782394374404440E-003   7.9095838005333777E-002   0.0000000000000000     
  -4.5898163741897591E-012   5.5373582972409949E-002   0.0000000000000000     
  -4.1051112162349135E-012   6.1014115407820618E-002   0.0000000000000000     
  -3.6127964769122611E-012   6.6844144568606059E-002   0.0000000000000000     
  -3.1128723188521279E-012   7.2863670454766258E-002   0.0000000000000000     
  -2.6053360857591912E-012   7.9072693066301242E-002   0.0000000000000000     
   1.7057090412164990E-002   7.9443012089428958E-002   0.0000000000000000     
   1.7767006575352635E-002   8.5834538823441511E-002   0.0000000000000000     
   1.8456041565329293E-002   9.2394229707409029E-002   0.0000000000000000     
   1.9124195382094970E-002   9.9122084741331482E-002   0.0000000000000000     
   1.9771468025649663E-002  0.10601810392520891        0.0000000000000000     
   1.3906784644825608E-002   7.9280997516897642E-002   0.0000000000000000     
   1.4229875503447509E-002   8.5671836414772509E-002   0.0000000000000000     
   1.4572529417706192E-002   9.2232678264516157E-002   0.0000000000000000     
   1.4934746387601660E-002   9.8963523066128614E-002   0.0000000000000000     
   1.5316526413133908E-002  0.10586437081960982        0.0000000000000000     
   1.0013834319917425E-002   7.9165272822199262E-002   0.0000000000000000     
   1.0089664049901808E-002   8.5555620408544336E-002   0.0000000000000000     
   1.0202018440668287E-002   9.2117284376699304E-002   0.0000000000000000     
   1.0350897492216864E-002   9.8850264726664125E-002   0.0000000000000000     
   1.0536301204547537E-002  0.10575456145843884        0.0000000000000000     
   5.3782394374404440E-003   7.9095838005333777E-002   0.0000000000000000     
   5.3463722147155356E-003   8.5485890804757006E-002   0.0000000000000000     
   5.3445086342155815E-003   9.2048048043958428E-002   0.0000000000000000     
   5.3726486959405854E-003   9.8782309722938083E-002   0.0000000000000000     
   5.4307923998905445E-003  0.10568867584169594        0.0000000000000000     
  -2.6053360857591912E-012   7.9072693066301242E-002   0.0000000000000000     
  -2.1113137280148742E-012   8.5462647603410491E-002   0.0000000000000000     
  -1.6519266423514756E-012   9.2024969266293555E-002   0.0000000000000000     
  -1.2271775934845353E-012   9.8759658054950447E-002   0.0000000000000000     
  -8.3706392511873062E-013  0.10566671396938115        0.0000000000000000     
   1.9771468025649663E-002  0.10601810392520891        0.0000000000000000     
   2.0394006500009186E-002  0.11306709723697438        0.0000000000000000     
   2.0987957809189349E-002  0.12025387465456094        0.0000000000000000     
   2.1553321953190145E-002  0.12757843617796863        0.0000000000000000     
   2.2090098932011581E-002  0.13504078180719742        0.0000000000000000     
   1.5316526413133908E-002  0.10586437081960982        0.0000000000000000     
   1.5701850165823601E-002  0.11291981307060660        0.0000000000000000     
   1.6074698317191403E-002  0.12011444136476571        0.0000000000000000     
   1.6435070867237316E-002  0.12744825570208718        0.0000000000000000     
   1.6782967815961336E-002  0.13492125608257097        0.0000000000000000     
   1.0536301204547537E-002  0.10575456145843884        0.0000000000000000     
   1.0738796971009840E-002  0.11281461009460768        0.0000000000000000     
   1.0938952184953315E-002  0.12001484615775496        0.0000000000000000     
   1.1136766846377960E-002  0.12735526964788063        0.0000000000000000     
   1.1332240955283776E-002  0.13483588056498477        0.0000000000000000     
   5.4307923998905445E-003  0.10568867584169594        0.0000000000000000     
   5.5048469155678957E-003  0.11275148830897762        0.0000000000000000     
   5.5807194124750728E-003  0.11995508903352864        0.0000000000000000     
   5.6584098906120768E-003  0.12729947801534908        0.0000000000000000     
   5.7379183499789085E-003  0.13478465525443886        0.0000000000000000     
  -8.3706392511873062E-013  0.10566671396938115        0.0000000000000000     
  -5.0222976819003229E-013  0.11273044771371636        0.0000000000000000     
  -2.4331903679397637E-013  0.11993516999208678        0.0000000000000000     
  -6.0332760922626738E-014  0.12728088080449246        0.0000000000000000     
   4.6729113634125241E-014  0.13476758015093332        0.0000000000000000     
   2.2090098932011581E-002  0.13504078180719742        0.0000000000000000     
   2.2596275148309447E-002  0.14263403107177922        0.0000000000000000     
   2.3069837004739534E-002  0.15035130350124593        0.0000000000000000     
   2.3510784501301830E-002  0.15819259909559744        0.0000000000000000     
   2.3919117637996354E-002  0.16615791785483383        0.0000000000000000     
   1.6782967815961336E-002  0.13492125608257097        0.0000000000000000     
   1.7113564878137137E-002  0.14252493556795118        0.0000000000000000     
   1.7422037768538401E-002  0.15025078721996199        0.0000000000000000     
   1.7708386487165127E-002  0.15809881103860329        0.0000000000000000     
   1.7972611034017309E-002  0.16606900702387520        0.0000000000000000     
   1.1332240955283776E-002  0.13483588056498477        0.0000000000000000     
   1.1519948930043364E-002  0.14244701020808709        0.0000000000000000     
   1.1694465189029323E-002  0.15017898987620748        0.0000000000000000     
   1.1855789732241651E-002  0.15803181956934581        0.0000000000000000     
   1.2003922559680351E-002  0.16600549928750222        0.0000000000000000     
   5.7379183499789085E-003  0.13478465525443886        0.0000000000000000     
   5.8154273040281271E-003  0.14240025499218703        0.0000000000000000     
   5.8871192662122932E-003  0.15013591146998240        0.0000000000000000     
   5.9529942365314104E-003  0.15799162468782510        0.0000000000000000     
   6.0130522149854752E-003  0.16596739464571500        0.0000000000000000     
   4.6729113634125241E-014  0.13476758015093332        0.0000000000000000     
   9.1427299758750635E-014  0.14238466992025089        0.0000000000000000     
   8.7318173525030574E-014  0.15012155200128680        0.0000000000000000     
   3.4402602294703044E-014  0.15797822639404102        0.0000000000000000     
  -6.7318112889624970E-014  0.16595469309851346        0.0000000000000000     
   2.3919117637996354E-002  0.16615791785483383        0.0000000000000000     
   2.4293483860371487E-002  0.17422796541192034        0.0000000000000000     
   2.4632530613975627E-002  0.18238344739982204        0.0000000000000000     
   2.4936257898808777E-002  0.19062436381853901        0.0000000000000000     
   2.5204665714870931E-002  0.19895071466807124        0.0000000000000000     
   1.7972611034017309E-002  0.16606900702387520        0.0000000000000000     
   1.8217460176287670E-002  0.17414388499024380        0.0000000000000000     
   1.8445682681168911E-002  0.18230595475217526        0.0000000000000000     
   1.8657278548661036E-002  0.19055521630966962        0.0000000000000000     
   1.8852247778764042E-002  0.19889166966272692        0.0000000000000000     
   1.2003922559680351E-002  0.16600549928750222        0.0000000000000000     
   1.2143204971500978E-002  0.17408382754621518        0.0000000000000000     
   1.2277978267859081E-002  0.18225060286102329        0.0000000000000000     
   1.2408242448754662E-002  0.19050582523192652        0.0000000000000000     
   1.2533997514187723E-002  0.19884949465892493        0.0000000000000000     
   6.0130522149854752E-003  0.16596739464571500        0.0000000000000000     
   6.0707182460114110E-003  0.17404779307983451        0.0000000000000000     
   6.1294173740461394E-003  0.18221739172636611        0.0000000000000000     
   6.1891495990896604E-003  0.19047619058530968        0.0000000000000000     
   6.2499149211419740E-003  0.19882418965666532        0.0000000000000000     
  -6.7318112889624970E-014  0.16595469309851346        0.0000000000000000     
  -1.8102945358033917E-013  0.17403578159110183        0.0000000000000000     
  -2.6991364872330781E-013  0.18220632134820375        0.0000000000000000     
  -3.3397270409254998E-013  0.19046631236981917        0.0000000000000000     
  -3.7320407181296034E-013  0.19881575465594808        0.0000000000000000     
   2.5204665714870931E-002  0.19895071466807124        0.0000000000000000     
   2.5440049487580746E-002  0.20734882238816588        0.0000000000000000     
   2.5644704642356873E-002  0.21580500941857014        0.0000000000000000     
   2.5818631179199313E-002  0.22431927575928393        0.0000000000000000     
   2.5961829098108062E-002  0.23289162141030734        0.0000000000000000     
   1.8852247778764042E-002  0.19889166966272692        0.0000000000000000     
   1.9027368704926745E-002  0.20729883024204634        0.0000000000000000     
   1.9179419660597958E-002  0.21576021347832730        0.0000000000000000     
   1.9308400645777681E-002  0.22427581937156976        0.0000000000000000     
   1.9414311660465918E-002  0.23284564792177370        0.0000000000000000     
   1.2533997514187723E-002  0.19884949465892493        0.0000000000000000     
   1.2649800196045870E-002  0.20726312156625654        0.0000000000000000     
   1.2750207226216713E-002  0.21572821637815939        0.0000000000000000     
   1.2835218604700259E-002  0.22424477909463353        0.0000000000000000     
   1.2904834331496499E-002  0.23281280971567891        0.0000000000000000     
   6.2499149211419740E-003  0.19882418965666532        0.0000000000000000     
   6.3073439609381216E-003  0.20724169636079640        0.0000000000000000     
   6.3570673392131438E-003  0.21570901811806634        0.0000000000000000     
   6.3990850559670406E-003  0.22422615492847520        0.0000000000000000     
   6.4333971111998137E-003  0.23279310679202297        0.0000000000000000     
  -3.7320407181296034E-013  0.19881575465594808        0.0000000000000000     
  -3.9650227545706684E-013  0.20723455462566598        0.0000000000000000     
  -4.1275739336849027E-013  0.21570261869804819        0.0000000000000000     
  -4.2196994054326253E-013  0.22421994687309482        0.0000000000000000     
  -4.2414075723806732E-013  0.23278653915080583        0.0000000000000000     
   2.5961829098108062E-002  0.23289162141030734        0.0000000000000000     
   2.6081540572116996E-002  0.24149465339782414        0.0000000000000000     
   2.6185007774259965E-002  0.25010097874801807        0.0000000000000000     
   2.6272230704536978E-002  0.25871059746088920        0.0000000000000000     
   2.6343209362948032E-002  0.26732350953643752        0.0000000000000000     
   1.9414311660465918E-002  0.23284564792177370        0.0000000000000000     
   1.9502617316342962E-002  0.24144099949714135        0.0000000000000000     
   1.9578782225089117E-002  0.25003317446587492        0.0000000000000000     
   1.9642806386704383E-002  0.25862217282797428        0.0000000000000000     
   1.9694689801188759E-002  0.26720799458343958        0.0000000000000000     
   1.2904834331496499E-002  0.23281280971567891        0.0000000000000000     
   1.2962719468995071E-002  0.24140267528236739        0.0000000000000000     
   1.3012539079585606E-002  0.24998474283577091        0.0000000000000000     
   1.3054293163268109E-002  0.25855901237588924        0.0000000000000000     
   1.3087981720042573E-002  0.26712548390272262        0.0000000000000000     
   6.4333971111998137E-003  0.23279310679202297        0.0000000000000000     
   6.4618470300733246E-003  0.24137968075350230        0.0000000000000000     
   6.4862783377494385E-003  0.24995568385770603        0.0000000000000000     
   6.5066910342281578E-003  0.25852111610463413        0.0000000000000000     
   6.5230851195094801E-003  0.26707597749428647        0.0000000000000000     
  -4.2414075723806732E-013  0.23278653915080583        0.0000000000000000     
  -4.2227701370356474E-013  0.24137201591054608        0.0000000000000000     
  -4.1938750649367362E-013  0.24994599753168042        0.0000000000000000     
  -4.1546841379573596E-013  0.25850848401420878        0.0000000000000000     
  -4.1052447899425637E-013  0.26705947535813135        0.0000000000000000     
   2.6343209362948032E-002  0.26732350953643752        0.0000000000000000     
   2.6409991031528961E-002  0.27588447525957094        0.0000000000000000     
   2.6484622992315587E-002  0.28433825491519749        0.0000000000000000     
   2.6567105245307917E-002  0.29268484850331711        0.0000000000000000     
   2.6657437790505951E-002  0.30092425602392986        0.0000000000000000     
   1.9694689801188759E-002  0.26720799458343958        0.0000000000000000     
   1.9744063144972093E-002  0.27573333428407926        0.0000000000000000     
   1.9800557094484226E-002  0.28414088648170166        0.0000000000000000     
   1.9864171649725169E-002  0.29243065117630684        0.0000000000000000     
   1.9934906810694909E-002  0.30060262836789498        0.0000000000000000     
   1.3087981720042573E-002  0.26712548390272262        0.0000000000000000     
   1.3120422010797548E-002  0.27562537644443685        0.0000000000000000     
   1.3158431296421573E-002  0.28399990902919797        0.0000000000000000     
   1.3202009576914649E-002  0.29224908165700603        0.0000000000000000     
   1.3251156852276777E-002  0.30037289432786091        0.0000000000000000     
   6.5230851195094801E-003  0.26707597749428647        0.0000000000000000     
   6.5390676290053270E-003  0.27556060174064378        0.0000000000000000     
   6.5582455981276202E-003  0.28391532255768637        0.0000000000000000     
   6.5806190268763616E-003  0.29214013994541432        0.0000000000000000     
   6.6061879152515476E-003  0.30023505390382771        0.0000000000000000     
  -4.1052447899425637E-013  0.26705947535813135        0.0000000000000000     
  -4.0457285958861444E-013  0.27553901017269999        0.0000000000000000     
  -3.9762886993449653E-013  0.28388712706716690        0.0000000000000000     
  -3.8969432607054155E-013  0.29210382604153196        0.0000000000000000     
  -3.8077093561517117E-013  0.30018910709579527        0.0000000000000000     
  -4.5898163741897591E-012   5.5373582972409949E-002   0.0000000000000000     
  -4.1051112162349135E-012   6.1014115407820618E-002   0.0000000000000000     
  -3.6127964769122611E-012   6.6844144568606059E-002   0.0000000000000000     
  -3.1128723188521279E-012   7.2863670454766258E-002   0.0000000000000000     
  -2.6053360857591912E-012   7.9072693066301242E-002   0.0000000000000000     
  -6.4090692861214224E-003   5.5399338184115840E-002   0.0000000000000000     
  -5.9932330132420573E-003   6.1038556421183263E-002   0.0000000000000000     
  -5.6828159483727726E-003   6.6867712470374985E-002   0.0000000000000000     
  -5.4778180915135647E-003   7.2886806331690951E-002   0.0000000000000000     
  -5.3782394426644328E-003   7.9095838005131230E-002   0.0000000000000000     
  -1.0914755356939402E-002   5.5476603819297768E-002   0.0000000000000000     
  -1.0477426856569343E-002   6.1111879461386971E-002   0.0000000000000000     
  -1.0181497184486318E-002   6.6938416175842647E-002   0.0000000000000000     
  -1.0026966340690323E-002   7.2956213962664787E-002   0.0000000000000000     
  -1.0013834325181364E-002   7.9165272821853372E-002   0.0000000000000000     
  -1.3517058217043755E-002   5.5605379877955753E-002   0.0000000000000000     
  -1.3452581534086966E-002   6.1234084528431758E-002   0.0000000000000000     
  -1.3496043711953431E-002   6.7056255685009100E-002   0.0000000000000000     
  -1.3647444750643155E-002   7.3071893347687725E-002   0.0000000000000000     
  -1.3906784650156127E-002   7.9280997516467708E-002   0.0000000000000000     
  -1.4215977866434477E-002   5.5785666360089782E-002   0.0000000000000000     
  -1.4918697045794925E-002   6.1405171622317616E-002   0.0000000000000000     
  -1.5626455530774113E-002   6.7221230997874290E-002   0.0000000000000000     
  -1.6339253321372045E-002   7.3233844486759819E-002   0.0000000000000000     
  -1.7057090417588724E-002   7.9443012088974183E-002   0.0000000000000000     
  -2.6053360857591912E-012   7.9072693066301242E-002   0.0000000000000000     
  -2.1113137280148742E-012   8.5462647603410491E-002   0.0000000000000000     
  -1.6519266423514756E-012   9.2024969266293555E-002   0.0000000000000000     
  -1.2271775934845353E-012   9.8759658054950447E-002   0.0000000000000000     
  -8.3706392511873062E-013  0.10566671396938115        0.0000000000000000     
  -5.3782394426644328E-003   7.9095838005131230E-002   0.0000000000000000     
  -5.3463722189672803E-003   8.5485890804532255E-002   0.0000000000000000     
  -5.3445086375640168E-003   9.2048048043730568E-002   0.0000000000000000     
  -5.3726486984546377E-003   9.8782309722726114E-002   0.0000000000000000     
  -5.4307924016391441E-003  0.10568867584151892        0.0000000000000000     
  -1.0013834325181364E-002   7.9165272821853372E-002   0.0000000000000000     
  -1.0089664054240912E-002   8.5555620408149791E-002   0.0000000000000000     
  -1.0202018444150461E-002   9.2117284376295308E-002   0.0000000000000000     
  -1.0350897494910007E-002   9.8850264726289980E-002   0.0000000000000000     
  -1.0536301206519548E-002  0.10575456145813375        0.0000000000000000     
  -1.3906784650156127E-002   7.9280997516467708E-002   0.0000000000000000     
  -1.4229875507932213E-002   8.5671836414263056E-002   0.0000000000000000     
  -1.4572529421411264E-002   9.2232678263987816E-002   0.0000000000000000     
  -1.4934746390593286E-002   9.8963523065642003E-002   0.0000000000000000     
  -1.5316526415478279E-002  0.10586437081922566        0.0000000000000000     
  -1.7057090417588724E-002   7.9443012088974183E-002   0.0000000000000000     
  -1.7767006580041173E-002   8.5834538822872036E-002   0.0000000000000000     
  -1.8456041569346424E-002   9.2394229706808065E-002   0.0000000000000000     
  -1.9124195385504479E-002   9.9122084740782254E-002   0.0000000000000000     
  -1.9771468028515333E-002  0.10601810392479460        0.0000000000000000     
  -8.3706392511873062E-013  0.10566671396938115        0.0000000000000000     
  -5.0222976819003229E-013  0.11273044771371636        0.0000000000000000     
  -2.4331903679397637E-013  0.11993516999208678        0.0000000000000000     
  -6.0332760922626738E-014  0.12728088080449246        0.0000000000000000     
   4.6729113634125241E-014  0.13476758015093332        0.0000000000000000     
  -5.4307924016391441E-003  0.10568867584151892        0.0000000000000000     
  -5.5048469166592328E-003  0.11275148830884750        0.0000000000000000     
  -5.5807194130566068E-003  0.11995508903345042        0.0000000000000000     
  -5.6584098908312661E-003  0.12729947801532762        0.0000000000000000     
  -5.7379183499832107E-003  0.13478465525447911        0.0000000000000000     
  -1.0536301206519548E-002  0.10575456145813375        0.0000000000000000     
  -1.0738796972361813E-002  0.11281461009439464        0.0000000000000000     
  -1.0938952185819539E-002  0.12001484615764053        0.0000000000000000     
  -1.1136766846892718E-002  0.12735526964787144        0.0000000000000000     
  -1.1332240955581357E-002  0.13483588056508738        0.0000000000000000     
  -1.5316526415478279E-002  0.10586437081922566        0.0000000000000000     
  -1.5701850167609971E-002  0.11291981307035771        0.0000000000000000     
  -1.6074698318532112E-002  0.12011444136465714        0.0000000000000000     
  -1.6435070868244691E-002  0.12744825570212398        0.0000000000000000     
  -1.6782967816747717E-002  0.13492125608275818        0.0000000000000000     
  -1.9771468028515333E-002  0.10601810392479460        0.0000000000000000     
  -2.0394006502403708E-002  0.11306709723673672        0.0000000000000000     
  -2.0987957811194322E-002  0.12025387465450024        0.0000000000000000     
  -2.1553321954887183E-002  0.12757843617808515        0.0000000000000000     
  -2.2090098933482287E-002  0.13504078180749146        0.0000000000000000     
   4.6729113634125241E-014  0.13476758015093332        0.0000000000000000     
   9.1427299758750635E-014  0.14238466992025089        0.0000000000000000     
   8.7318173525030574E-014  0.15012155200128680        0.0000000000000000     
   3.4402602294703044E-014  0.15797822639404102        0.0000000000000000     
  -6.7318112889624970E-014  0.16595469309851346        0.0000000000000000     
  -5.7379183499832107E-003  0.13478465525447911        0.0000000000000000     
  -5.8154273039382363E-003  0.14240025499228343        0.0000000000000000     
  -5.8871192661221544E-003  0.15013591147011907        0.0000000000000000     
  -5.9529942365349614E-003  0.15799162468798605        0.0000000000000000     
  -6.0130522151766539E-003  0.16596739464588439        0.0000000000000000     
  -1.1332240955581357E-002  0.13483588056508738        0.0000000000000000     
  -1.1519948930232371E-002  0.14244701020828920        0.0000000000000000     
  -1.1694465189192675E-002  0.15017898987647760        0.0000000000000000     
  -1.1855789732462272E-002  0.15803181956965273        0.0000000000000000     
  -1.2003922560041159E-002  0.16600549928781444        0.0000000000000000     
  -1.6782967816747717E-002  0.13492125608275818        0.0000000000000000     
  -1.7113564878790972E-002  0.14252493556826820        0.0000000000000000     
  -1.7422037769124238E-002  0.15025078722036245        0.0000000000000000     
  -1.7708386487747533E-002  0.15809881103904092        0.0000000000000000     
  -1.7972611034660836E-002  0.16606900702430363        0.0000000000000000     
  -2.2090098933482287E-002  0.13504078180749146        0.0000000000000000     
  -2.2596275149614042E-002  0.14263403107222047        0.0000000000000000     
  -2.3069837005916853E-002  0.15035130350177356        0.0000000000000000     
  -2.3510784502390740E-002  0.15819259909615072        0.0000000000000000     
  -2.3919117639035679E-002  0.16615791785535197        0.0000000000000000     
  -6.7318112889624970E-014  0.16595469309851346        0.0000000000000000     
  -1.8102945358033917E-013  0.17403578159110183        0.0000000000000000     
  -2.6991364872330781E-013  0.18220632134820375        0.0000000000000000     
  -3.3397270409254998E-013  0.19046631236981917        0.0000000000000000     
  -3.7320407181296034E-013  0.19881575465594808        0.0000000000000000     
  -6.0130522151766539E-003  0.16596739464588439        0.0000000000000000     
  -6.0707182464139120E-003  0.17404779307999954        0.0000000000000000     
  -6.1294173746134122E-003  0.18221739172651716        0.0000000000000000     
  -6.1891495997751485E-003  0.19047619058543702        0.0000000000000000     
  -6.2499149218991313E-003  0.19882418965675935        0.0000000000000000     
  -1.2003922560041159E-002  0.16600549928781444        0.0000000000000000     
  -1.2143204972024807E-002  0.17408382754651017        0.0000000000000000     
  -1.2277978268508688E-002  0.18225060286128722        0.0000000000000000     
  -1.2408242449492788E-002  0.19050582523214557        0.0000000000000000     
  -1.2533997514977122E-002  0.19884949465908530        0.0000000000000000     
  -1.7972611034660836E-002  0.16606900702430363        0.0000000000000000     
  -1.8217460177013711E-002  0.17414388499063363        0.0000000000000000     
  -1.8445682681955736E-002  0.18230595475251402        0.0000000000000000     
  -1.8657278549486889E-002  0.19055521630994476        0.0000000000000000     
  -1.8852247779607176E-002  0.19889166966292590        0.0000000000000000     
  -2.3919117639035679E-002  0.16615791785535197        0.0000000000000000     
  -2.4293483861380631E-002  0.17422796541236998        0.0000000000000000     
  -2.4632530614954563E-002  0.18238344740019752        0.0000000000000000     
  -2.4936257899757439E-002  0.19062436381883455        0.0000000000000000     
  -2.5204665715789297E-002  0.19895071466828118        0.0000000000000000     
  -3.7320407181296034E-013  0.19881575465594808        0.0000000000000000     
  -3.9650227545706684E-013  0.20723455462566598        0.0000000000000000     
  -4.1275739336849027E-013  0.21570261869804819        0.0000000000000000     
  -4.2196994054326253E-013  0.22421994687309482        0.0000000000000000     
  -4.2414075723806732E-013  0.23278653915080583        0.0000000000000000     
  -6.2499149218991313E-003  0.19882418965675935        0.0000000000000000     
  -6.3073439617371422E-003  0.20724169636085607        0.0000000000000000     
  -6.3570673400409790E-003  0.21570901811809928        0.0000000000000000     
  -6.3990850568106435E-003  0.22422615492848885        0.0000000000000000     
  -6.4333971120461341E-003  0.23279310679202497        0.0000000000000000     
  -1.2533997514977122E-002  0.19884949465908530        0.0000000000000000     
  -1.2649800196862945E-002  0.20726312156635762        0.0000000000000000     
  -1.2750207227051519E-002  0.21572821637821382        0.0000000000000000     
  -1.2835218605542851E-002  0.22424477909465385        0.0000000000000000     
  -1.2904834332336934E-002  0.23281280971567780        0.0000000000000000     
  -1.8852247779607176E-002  0.19889166966292590        0.0000000000000000     
  -1.9027368705773911E-002  0.20729883024217052        0.0000000000000000     
  -1.9179419661444375E-002  0.21576021347839183        0.0000000000000000     
  -1.9308400646618588E-002  0.22427581937158972        0.0000000000000000     
  -1.9414311661296538E-002  0.23284564792176426        0.0000000000000000     
  -2.5204665715789297E-002  0.19895071466828118        0.0000000000000000     
  -2.5440049488470031E-002  0.20734882238829488        0.0000000000000000     
  -2.5644704643219548E-002  0.21580500941863331        0.0000000000000000     
  -2.5818631180037858E-002  0.22431927575929647        0.0000000000000000     
  -2.5961829098924957E-002  0.23289162141028441        0.0000000000000000     
  -4.2414075723806732E-013  0.23278653915080583        0.0000000000000000     
  -4.2227701370356474E-013  0.24137201591054608        0.0000000000000000     
  -4.1938750649367362E-013  0.24994599753168042        0.0000000000000000     
  -4.1546841379573596E-013  0.25850848401420878        0.0000000000000000     
  -4.1052447899425637E-013  0.26705947535813135        0.0000000000000000     
  -6.4333971120461341E-003  0.23279310679202497        0.0000000000000000     
  -6.4618470309149162E-003  0.24137968075349645        0.0000000000000000     
  -6.4862783385844615E-003  0.24995568385769215        0.0000000000000000     
  -6.5066910350547657E-003  0.25852111610461215        0.0000000000000000     
  -6.5230851203258357E-003  0.26707597749425649        0.0000000000000000     
  -1.2904834332336934E-002  0.23281280971567780        0.0000000000000000     
  -1.2962719469827775E-002  0.24140267528235113        0.0000000000000000     
  -1.3012539080409372E-002  0.24998474283573952        0.0000000000000000     
  -1.3054293164081727E-002  0.25855901237584289        0.0000000000000000     
  -1.3087981720844844E-002  0.26712548390266122        0.0000000000000000     
  -1.9414311661296538E-002  0.23284564792176426        0.0000000000000000     
  -1.9502617317160850E-002  0.24144099949711023        0.0000000000000000     
  -1.9578782225894119E-002  0.25003317446582252        0.0000000000000000     
  -1.9642806387496350E-002  0.25862217282790101        0.0000000000000000     
  -1.9694689801967546E-002  0.26720799458334565        0.0000000000000000     
  -2.5961829098924957E-002  0.23289162141028441        0.0000000000000000     
  -2.6081540572914140E-002  0.24149465339777371        0.0000000000000000     
  -2.6185007775038700E-002  0.25010097874794107        0.0000000000000000     
  -2.6272230705298636E-002  0.25871059746078640        0.0000000000000000     
  -2.6343209363693956E-002  0.26732350953630984        0.0000000000000000     
  -4.1052447899425637E-013  0.26705947535813135        0.0000000000000000     
  -4.0457285958861444E-013  0.27553901017269999        0.0000000000000000     
  -3.9762886993449653E-013  0.28388712706716690        0.0000000000000000     
  -3.8969432607054155E-013  0.29210382604153196        0.0000000000000000     
  -3.8077093561517117E-013  0.30018910709579527        0.0000000000000000     
  -6.5230851203258357E-003  0.26707597749425649        0.0000000000000000     
  -6.5390676298095708E-003  0.27556060174060548        0.0000000000000000     
  -6.5582455989178761E-003  0.28391532255763974        0.0000000000000000     
  -6.5806190276507595E-003  0.29214013994535926        0.0000000000000000     
  -6.6061879160082149E-003  0.30023505390376398        0.0000000000000000     
  -1.3087981720844844E-002  0.26712548390266122        0.0000000000000000     
  -1.3120422011587087E-002  0.27562537644436019        0.0000000000000000     
  -1.3158431297196830E-002  0.28399990902910544        0.0000000000000000     
  -1.3202009577674074E-002  0.29224908165689656        0.0000000000000000     
  -1.3251156853018815E-002  0.30037289432773412        0.0000000000000000     
  -1.9694689801967546E-002  0.26720799458334565        0.0000000000000000     
  -1.9744063145737126E-002  0.27573333428396413        0.0000000000000000     
  -1.9800557095234483E-002  0.28414088648156360        0.0000000000000000     
  -1.9864171650459634E-002  0.29243065117614414        0.0000000000000000     
  -1.9934906811412568E-002  0.30060262836770563        0.0000000000000000     
  -2.6343209363693956E-002  0.26732350953630984        0.0000000000000000     
  -2.6409991032259685E-002  0.27588447525941723        0.0000000000000000     
  -2.6484622993030844E-002  0.28433825491501452        0.0000000000000000     
  -2.6567105246007444E-002  0.29268484850310161        0.0000000000000000     
  -2.6657437791189481E-002  0.30092425602367856        0.0000000000000000     
  -1.4215977866434477E-002   5.5785666360089782E-002   0.0000000000000000     
  -1.4918697045794925E-002   6.1405171622317616E-002   0.0000000000000000     
  -1.5626455530774113E-002   6.7221230997874290E-002   0.0000000000000000     
  -1.6339253321372045E-002   7.3233844486759819E-002   0.0000000000000000     
  -1.7057090417588724E-002   7.9443012088974183E-002   0.0000000000000000     
  -1.5184749074026744E-002   5.6035716914786801E-002   0.0000000000000000     
  -1.6626834838961473E-002   6.1647590513764811E-002   0.0000000000000000     
  -1.7974140973891568E-002   6.7457373566645176E-002   0.0000000000000000     
  -1.9226667478817041E-002   7.3465066073427940E-002   0.0000000000000000     
  -2.0384414353737876E-002   7.9670668034113046E-002   0.0000000000000000     
  -1.8596606608735720E-002   5.6373785191133764E-002   0.0000000000000000     
  -2.0328056360854867E-002   6.1983790973493588E-002   0.0000000000000000     
  -2.1940508374249008E-002   6.7788714843528664E-002   0.0000000000000000     
  -2.3433962648918158E-002   7.3788556801238983E-002   0.0000000000000000     
  -2.4808419184862294E-002   7.9983316846624575E-002   0.0000000000000000     
  -2.4451550470561405E-002   5.6799871189130650E-002   0.0000000000000000     
  -2.6022361611475107E-002   6.2413773001503949E-002   0.0000000000000000     
  -2.7525557731846437E-002   6.8215254828524724E-002   0.0000000000000000     
  -2.8961138831675400E-002   7.4204316670192977E-002   0.0000000000000000     
  -3.0329104910961989E-002   8.0380958526508714E-002   0.0000000000000000     
  -3.2749580659503799E-002   5.7313974908777487E-002   0.0000000000000000     
  -3.3709750590822193E-002   6.2937536597795912E-002   0.0000000000000000     
  -3.4729289046683848E-002   6.8736993521633385E-002   0.0000000000000000     
  -3.5808196027088776E-002   7.4712345680289921E-002   0.0000000000000000     
  -3.6946471532036951E-002   8.0863593073765505E-002   0.0000000000000000     
  -1.7057090417588724E-002   7.9443012088974183E-002   0.0000000000000000     
  -1.7767006580041173E-002   8.5834538822872036E-002   0.0000000000000000     
  -1.8456041569346424E-002   9.2394229706808065E-002   0.0000000000000000     
  -1.9124195385504479E-002   9.9122084740782254E-002   0.0000000000000000     
  -1.9771468028515333E-002  0.10601810392479460        0.0000000000000000     
  -2.0384414353737876E-002   7.9670668034113046E-002   0.0000000000000000     
  -2.1465032511477401E-002   8.6058575286072470E-002   0.0000000000000000     
  -2.2486172864858944E-002   9.2613183666678048E-002   0.0000000000000000     
  -2.3447835413882505E-002   9.9334493175929822E-002   0.0000000000000000     
  -2.4350020158548088E-002  0.10622250381382775        0.0000000000000000     
  -2.4808419184862294E-002   7.9983316846624575E-002   0.0000000000000000     
  -2.6087928543150500E-002   8.6358793455959967E-002   0.0000000000000000     
  -2.7296541284851841E-002   9.2900785105519704E-002   0.0000000000000000     
  -2.8434257409966315E-002   9.9609291795303825E-002   0.0000000000000000     
  -2.9501076918493914E-002  0.10648431352531226        0.0000000000000000     
  -3.0329104910961989E-002   8.0380958526508714E-002   0.0000000000000000     
  -3.1635694675060465E-002   8.6735193332534544E-002   0.0000000000000000     
  -3.2887146829325094E-002   9.3257034023333074E-002   0.0000000000000000     
  -3.4083461373755883E-002   9.9946480598904264E-002   0.0000000000000000     
  -3.5224638308352818E-002  0.10680353305924815        0.0000000000000000     
  -3.6946471532036951E-002   8.0863593073765505E-002   0.0000000000000000     
  -3.8108330907207298E-002   8.7187774915796212E-002   0.0000000000000000     
  -3.9257989498278717E-002   9.3681930420118104E-002   0.0000000000000000     
  -4.0395447305251228E-002  0.10034605958673115        0.0000000000000000     
  -4.1520704328124804E-002  0.10718016241563538        0.0000000000000000     
  -1.9771468028515333E-002  0.10601810392479460        0.0000000000000000     
  -2.0394006502403708E-002  0.11306709723673672        0.0000000000000000     
  -2.0987957811194322E-002  0.12025387465450024        0.0000000000000000     
  -2.1553321954887183E-002  0.12757843617808515        0.0000000000000000     
  -2.2090098933482287E-002  0.13504078180749146        0.0000000000000000     
  -2.4350020158548088E-002  0.10622250381382775        0.0000000000000000     
  -2.5200684452594720E-002  0.11326213177151753        0.0000000000000000     
  -2.6007785649761452E-002  0.12043829324014478        0.0000000000000000     
  -2.6771323750048280E-002  0.12775098821970954        0.0000000000000000     
  -2.7491298753455205E-002  0.13520021671021173        0.0000000000000000     
  -2.9501076918493914E-002  0.10648431352531226        0.0000000000000000     
  -3.0507302494034716E-002  0.11351058585268596        0.0000000000000000     
  -3.1463236820188763E-002  0.12067284433456575        0.0000000000000000     
  -3.2368879896956061E-002  0.12797108897095166        0.0000000000000000     
  -3.3224231724336604E-002  0.13540531976184361        0.0000000000000000     
  -3.5224638308352818E-002  0.10680353305924815        0.0000000000000000     
  -3.6313860626723690E-002  0.11381245948024200        0.0000000000000000     
  -3.7354311322476255E-002  0.12095752793776310        0.0000000000000000     
  -3.8345990395610534E-002  0.12823873843181147        0.0000000000000000     
  -3.9288897846126512E-002  0.13565609096238704        0.0000000000000000     
  -4.1520704328124804E-002  0.10718016241563538        0.0000000000000000     
  -4.2620358850661642E-002  0.11416775265418566        0.0000000000000000     
  -4.3681009156623936E-002  0.12129234404973685        0.0000000000000000     
  -4.4702655246011691E-002  0.12855393660228900        0.0000000000000000     
  -4.5685297118824901E-002  0.13595253031184207        0.0000000000000000     
  -2.2090098933482287E-002  0.13504078180749146        0.0000000000000000     
  -2.2596275149614042E-002  0.14263403107222047        0.0000000000000000     
  -2.3069837005916853E-002  0.15035130350177356        0.0000000000000000     
  -2.3510784502390740E-002  0.15819259909615072        0.0000000000000000     
  -2.3919117639035679E-002  0.16615791785535197        0.0000000000000000     
  -2.7491298753455205E-002  0.13520021671021173        0.0000000000000000     
  -2.8168229921021408E-002  0.14278047201742111        0.0000000000000000     
  -2.8802636513786072E-002  0.15048624744710731        0.0000000000000000     
  -2.9394518531749198E-002  0.15831754299927031        0.0000000000000000     
  -2.9943875974910789E-002  0.16627435867391016        0.0000000000000000     
  -3.3224231724336604E-002  0.13540531976184361        0.0000000000000000     
  -3.4029579371332913E-002  0.14297043370114523        0.0000000000000000     
  -3.4785209906947459E-002  0.15066132778275995        0.0000000000000000     
  -3.5491123331180242E-002  0.15847800200668788        0.0000000000000000     
  -3.6147319644031256E-002  0.16642045637292893        0.0000000000000000     
  -3.9288897846126512E-002  0.13565609096238704        0.0000000000000000     
  -4.0180323500548544E-002  0.14320391612339275        0.0000000000000000     
  -4.1017557185400989E-002  0.15087654450873161        0.0000000000000000     
  -4.1800598900683841E-002  0.15867397611840342        0.0000000000000000     
  -4.2529448646397107E-002  0.16659621095240831        0.0000000000000000     
  -4.5685297118824901E-002  0.13595253031184207        0.0000000000000000     
  -4.6620462308668321E-002  0.14348091928416384        0.0000000000000000     
  -4.7499678349146680E-002  0.15113189762502213        0.0000000000000000     
  -4.8322945240260026E-002  0.15890546533441696        0.0000000000000000     
  -4.9090262982008311E-002  0.16680162241234830        0.0000000000000000     
  -2.3919117639035679E-002  0.16615791785535197        0.0000000000000000     
  -2.4293483861380631E-002  0.17422796541236998        0.0000000000000000     
  -2.4632530614954563E-002  0.18238344740019752        0.0000000000000000     
  -2.4936257899757439E-002  0.19062436381883455        0.0000000000000000     
  -2.5204665715789297E-002  0.19895071466828118        0.0000000000000000     
  -2.9943875974910789E-002  0.16627435867391016        0.0000000000000000     
  -3.0445420038074999E-002  0.17433595183394945        0.0000000000000000     
  -3.0893861916045980E-002  0.18248157984231075        0.0000000000000000     
  -3.1289201608823730E-002  0.19071124269899423        0.0000000000000000     
  -3.1631439116408269E-002  0.19902494040399968        0.0000000000000000     
  -3.6147319644031256E-002  0.16642045637292893        0.0000000000000000     
  -3.6747412720046231E-002  0.17446772727760226        0.0000000000000000     
  -3.7285016433770815E-002  0.18259885111682686        0.0000000000000000     
  -3.7760130785205036E-002  0.19081382789060283        0.0000000000000000     
  -3.8172755774348886E-002  0.19911265759893013        0.0000000000000000     
  -4.2529448646397107E-002  0.16659621095240831        0.0000000000000000     
  -4.3199461907294325E-002  0.17462329174332838        0.0000000000000000     
  -4.3805994168129074E-002  0.18273526122374578        0.0000000000000000     
  -4.4349045428901342E-002  0.19093211939366048        0.0000000000000000     
  -4.4828615689611134E-002  0.19921386625307250        0.0000000000000000     
  -4.9090262982008311E-002  0.16680162241234830        0.0000000000000000     
  -4.9801567599819303E-002  0.17480264523112790        0.0000000000000000     
  -5.0456795119120747E-002  0.18289081016306752        0.0000000000000000     
  -5.1055945539912655E-002  0.19106611720816710        0.0000000000000000     
  -5.1599018862195006E-002  0.19932856636642668        0.0000000000000000     
  -2.5204665715789297E-002  0.19895071466828118        0.0000000000000000     
  -2.5440049488470031E-002  0.20734882238829488        0.0000000000000000     
  -2.5644704643219548E-002  0.21580500941863331        0.0000000000000000     
  -2.5818631180037858E-002  0.22431927575929647        0.0000000000000000     
  -2.5961829098924957E-002  0.23289162141028441        0.0000000000000000     
  -3.1631439116408269E-002  0.19902494040399968        0.0000000000000000     
  -3.1928052799117042E-002  0.20741187042866885        0.0000000000000000     
  -3.2186521017267496E-002  0.21586123024434314        0.0000000000000000     
  -3.2406843770859638E-002  0.22437301985102276        0.0000000000000000     
  -3.2589021059893482E-002  0.23294723924870755        0.0000000000000000     
  -3.8172755774348886E-002  0.19911265759893013        0.0000000000000000     
  -3.8531588891880658E-002  0.20748674678723064        0.0000000000000000     
  -3.8845327628478678E-002  0.21592750200092631        0.0000000000000000     
  -3.9113971984142910E-002  0.22443492324001710        0.0000000000000000     
  -3.9337521958873398E-002  0.23300901050450298        0.0000000000000000     
  -4.4828615689611134E-002  0.19921386625307250        0.0000000000000000     
  -4.5250657766760891E-002  0.20757345146398032        0.0000000000000000     
  -4.5621124476853077E-002  0.21600382468838267        0.0000000000000000     
  -4.5940015819887665E-002  0.22450498592627946        0.0000000000000000     
  -4.6207331795864705E-002  0.23307693517767078        0.0000000000000000     
  -5.1599018862195006E-002  0.19932856636642668        0.0000000000000000     
  -5.2085259423757725E-002  0.20767198445891791        0.0000000000000000     
  -5.2513911562390700E-002  0.21609019830671233        0.0000000000000000     
  -5.2884975278093917E-002  0.22458320790980993        0.0000000000000000     
  -5.3198450570867410E-002  0.23315101326821078        0.0000000000000000     
  -2.5961829098924957E-002  0.23289162141028441        0.0000000000000000     
  -2.6081540572914140E-002  0.24149465339777371        0.0000000000000000     
  -2.6185007775038700E-002  0.25010097874794107        0.0000000000000000     
  -2.6272230705298636E-002  0.25871059746078640        0.0000000000000000     
  -2.6343209363693956E-002  0.26732350953630984        0.0000000000000000     
  -3.2589021059893482E-002  0.23294723924870755        0.0000000000000000     
  -3.2741607643111140E-002  0.24155872115328381        0.0000000000000000     
  -3.2873158279254772E-002  0.25018229828063782        0.0000000000000000     
  -3.2983672968324371E-002  0.25881797063076961        0.0000000000000000     
  -3.3073151710319951E-002  0.26746573820367908        0.0000000000000000     
  -3.9337521958873398E-002  0.23300901050450298        0.0000000000000000     
  -3.9524936933775331E-002  0.24162828693258281        0.0000000000000000     
  -3.9685176289953994E-002  0.25027127566245538        0.0000000000000000     
  -3.9818240027409343E-002  0.25893797669412072        0.0000000000000000     
  -3.9924128146141401E-002  0.26762839002757877        0.0000000000000000     
  -4.6207331795864705E-002  0.23307693517767078        0.0000000000000000     
  -4.6431528444906736E-002  0.24170335073567073        0.0000000000000000     
  -4.6621061807136349E-002  0.25036791089339377        0.0000000000000000     
  -4.6775931882553544E-002  0.25907061565083989        0.0000000000000000     
  -4.6896138671158327E-002  0.26781146500800901        0.0000000000000000     
  -5.3198450570867410E-002  0.23315101326821078        0.0000000000000000     
  -5.3461382176505333E-002  0.24178391256254758        0.0000000000000000     
  -5.3680814830801851E-002  0.25047220397345293        0.0000000000000000     
  -5.3856748533756979E-002  0.25921588750092700        0.0000000000000000     
  -5.3989183285370695E-002  0.26801496314496964        0.0000000000000000     
  -2.6343209363693956E-002  0.26732350953630984        0.0000000000000000     
  -2.6409991032259685E-002  0.27588447525941723        0.0000000000000000     
  -2.6484622993030844E-002  0.28433825491501452        0.0000000000000000     
  -2.6567105246007444E-002  0.29268484850310161        0.0000000000000000     
  -2.6657437791189481E-002  0.30092425602367856        0.0000000000000000     
  -3.3073151710319951E-002  0.26746573820367908        0.0000000000000000     
  -3.3156461278512787E-002  0.27607249180579357        0.0000000000000000     
  -3.3248468446174212E-002  0.28458512224354016        0.0000000000000000     
  -3.3349173213304203E-002  0.29300362951691900        0.0000000000000000     
  -3.3458575579902776E-002  0.30132801362592998        0.0000000000000000     
  -3.9924128146141401E-002  0.26762839002757877        0.0000000000000000     
  -4.0021729491854473E-002  0.27629107635816696        0.0000000000000000     
  -4.0129932910252880E-002  0.28487459638122270        0.0000000000000000     
  -4.0248738401336616E-002  0.29337895009674603        0.0000000000000000     
  -4.0378145965105673E-002  0.30180413750473684        0.0000000000000000     
  -4.6896138671158327E-002  0.26781146500800901        0.0000000000000000     
  -4.7005795672284731E-002  0.27654022891653757        0.0000000000000000     
  -4.7129016385266849E-002  0.28520667732806221        0.0000000000000000     
  -4.7265800810104668E-002  0.29381081024258265        0.0000000000000000     
  -4.7416148946798180E-002  0.30235262766009907        0.0000000000000000     
  -5.3989183285370695E-002  0.26801496314496964        0.0000000000000000     
  -5.4108659819803569E-002  0.27681994948090533        0.0000000000000000     
  -5.4245718871216132E-002  0.28558136508405846        0.0000000000000000     
  -5.4400360439608372E-002  0.29429920995442888        0.0000000000000000     
  -5.4572584524980289E-002  0.30297348409201674        0.0000000000000000     
  -3.2749580659503799E-002   5.7313974908777487E-002   0.0000000000000000     
  -3.3709750590822193E-002   6.2937536597795912E-002   0.0000000000000000     
  -3.4729289046683848E-002   6.8736993521633385E-002   0.0000000000000000     
  -3.5808196027088776E-002   7.4712345680289921E-002   0.0000000000000000     
  -3.6946471532036951E-002   8.0863593073765505E-002   0.0000000000000000     
  -4.1070658607556335E-002   5.7941377107497583E-002   0.0000000000000000     
  -4.1440706991640645E-002   6.3542785847515715E-002   0.0000000000000000     
  -4.1992611813964568E-002   6.9317326059224055E-002   0.0000000000000000     
  -4.2726373074528062E-002   7.5264997742622616E-002   0.0000000000000000     
  -4.3641990773331162E-002   8.1385800897711386E-002   0.0000000000000000     
  -4.6994745746712446E-002   5.8707358542714284E-002   0.0000000000000000     
  -4.7265714506675008E-002   6.4217224835809633E-002   0.0000000000000000     
  -4.7756435528891888E-002   6.9919647577666166E-002   0.0000000000000000     
  -4.8466908813363088E-002   7.5814626768283905E-002   0.0000000000000000     
  -4.9397134360088593E-002   8.1902162407662807E-002   0.0000000000000000     
  -5.0521842076972134E-002   5.9611919214427593E-002   0.0000000000000000     
  -5.1184773135925274E-002   6.4960853562677667E-002   0.0000000000000000     
  -5.2020760191465829E-002   7.0543958076959706E-002   0.0000000000000000     
  -5.3029803243593833E-002   7.6361232757273745E-002   0.0000000000000000     
  -5.4211902292309259E-002   8.2412677603619741E-002   0.0000000000000000     
  -5.1651947598335399E-002   6.0655059122637502E-002   0.0000000000000000     
  -5.3197882879391423E-002   6.5773672028119803E-002   0.0000000000000000     
  -5.4785585801686389E-002   7.1190257557104702E-002   0.0000000000000000     
  -5.6415056365220304E-002   7.6904815709592178E-002   0.0000000000000000     
  -5.8086294569993153E-002   8.2917346485582244E-002   0.0000000000000000     
  -3.6946471532036951E-002   8.0863593073765505E-002   0.0000000000000000     
  -3.8108330907207298E-002   8.7187774915796212E-002   0.0000000000000000     
  -3.9257989498278717E-002   9.3681930420118104E-002   0.0000000000000000     
  -4.0395447305251228E-002  0.10034605958673115        0.0000000000000000     
  -4.1520704328124804E-002  0.10718016241563538        0.0000000000000000     
  -4.3641990773331162E-002   8.1385800897711386E-002   0.0000000000000000     
  -4.4663500910170496E-002   8.7679144731072078E-002   0.0000000000000000     
  -4.5714939484842738E-002   9.4144438449286411E-002   0.0000000000000000     
  -4.6796306497347860E-002  0.10078168205235437        0.0000000000000000     
  -4.7907601947685875E-002  0.10759087554027597        0.0000000000000000     
  -4.9397134360088593E-002   8.1902162407662807E-002   0.0000000000000000     
  -5.0458868354529569E-002   8.8171909303689233E-002   0.0000000000000000     
  -5.1563866982147134E-002   9.4613522264249558E-002   0.0000000000000000     
  -5.2712130242941316E-002  0.10122700128934378        0.0000000000000000     
  -5.3903658136912072E-002  0.10801234637897188        0.0000000000000000     
  -5.4211902292309259E-002   8.2412677603619741E-002   0.0000000000000000     
  -5.5494433240284510E-002   8.8666068633647718E-002   0.0000000000000000     
  -5.6804771990191953E-002   9.5089181865007588E-002   0.0000000000000000     
  -5.8142918542031574E-002  0.10168201729769939        0.0000000000000000     
  -5.9508872895803394E-002  0.10844457493172310        0.0000000000000000     
  -5.8086294569993153E-002   8.2917346485582244E-002   0.0000000000000000     
  -5.9770195567435312E-002   8.9161622720947492E-002   0.0000000000000000     
  -6.1437654508977153E-002   9.5571417251560473E-002   0.0000000000000000     
  -6.3088671394618656E-002  0.10214673007742120        0.0000000000000000     
  -6.4723246224359848E-002  0.10888756119852966        0.0000000000000000     
  -4.1520704328124804E-002  0.10718016241563538        0.0000000000000000     
  -4.2620358850661642E-002  0.11416775265418566        0.0000000000000000     
  -4.3681009156623936E-002  0.12129234404973685        0.0000000000000000     
  -4.4702655246011691E-002  0.12855393660228900        0.0000000000000000     
  -4.5685297118824901E-002  0.13595253031184207        0.0000000000000000     
  -4.7907601947685875E-002  0.10759087554027597        0.0000000000000000     
  -4.9019293927527394E-002  0.11455530867285170        0.0000000000000000     
  -5.0101850528543053E-002  0.12165827120988207        0.0000000000000000     
  -5.1155271750732798E-002  0.12889976315136709        0.0000000000000000     
  -5.2179557594096690E-002  0.13627978449730677        0.0000000000000000     
  -5.3903658136912072E-002  0.10801234637897188        0.0000000000000000     
  -5.5103162618999793E-002  0.11495397083457486        0.0000000000000000     
  -5.6275355644144813E-002  0.12203628795759373        0.0000000000000000     
  -5.7420237212347146E-002  0.12925929774802855        0.0000000000000000     
  -5.8537807323606771E-002  0.13662300020587928        0.0000000000000000     
  -5.9508872895803394E-002  0.10844457493172310        0.0000000000000000     
  -6.0871964925078820E-002  0.11536373913935513        0.0000000000000000     
  -6.2201524503429251E-002  0.12242639429287192        0.0000000000000000     
  -6.3497551630854701E-002  0.12963254039227340        0.0000000000000000     
  -6.4760046307355171E-002  0.13698217743755961        0.0000000000000000     
  -6.4723246224359848E-002  0.10888756119852966        0.0000000000000000     
  -6.6325700845764474E-002  0.11578461358719257        0.0000000000000000     
  -6.7880357106396352E-002  0.12282859021571654        0.0000000000000000     
  -6.9387215006255484E-002  0.13001949108410160        0.0000000000000000     
  -7.0846274545341856E-002  0.13735731619234776        0.0000000000000000     
  -4.5685297118824901E-002  0.13595253031184207        0.0000000000000000     
  -4.6620462308668321E-002  0.14348091928416384        0.0000000000000000     
  -4.7499678349146680E-002  0.15113189762502213        0.0000000000000000     
  -4.8322945240260026E-002  0.15890546533441696        0.0000000000000000     
  -4.9090262982008311E-002  0.16680162241234830        0.0000000000000000     
  -5.2179557594096690E-002  0.13627978449730677        0.0000000000000000     
  -5.3160572142884228E-002  0.14378884472787412        0.0000000000000000     
  -5.4084179481344960E-002  0.15141745332324227        0.0000000000000000     
  -5.4950379609478905E-002  0.15916561028341125        0.0000000000000000     
  -5.5759172527286051E-002  0.16703331560838100        0.0000000000000000     
  -5.8537807323606771E-002  0.13662300020587928        0.0000000000000000     
  -5.9611229350388283E-002  0.14411509399893949        0.0000000000000000     
  -6.0623666665156228E-002  0.15172327779500275        0.0000000000000000     
  -6.1575119267910636E-002  0.15944755159406906        0.0000000000000000     
  -6.2465587158651484E-002  0.16728791539613849        0.0000000000000000     
  -6.4760046307355171E-002  0.13698217743755961        0.0000000000000000     
  -6.5972433931180477E-002  0.14445966709735986        0.0000000000000000     
  -6.7118139900580492E-002  0.15204937104030344        0.0000000000000000     
  -6.8197164215555203E-002  0.15975128926639046        0.0000000000000000     
  -6.9209506876104623E-002  0.16756542177562078        0.0000000000000000     
  -7.0846274545341856E-002  0.13735731619234776        0.0000000000000000     
  -7.2244185885260825E-002  0.14482256402313529        0.0000000000000000     
  -7.3567599187617752E-002  0.15239573305914450        0.0000000000000000     
  -7.4816514452412622E-002  0.16007682330037537        0.0000000000000000     
  -7.5990931679645449E-002  0.16786583474682787        0.0000000000000000     
  -4.9090262982008311E-002  0.16680162241234830        0.0000000000000000     
  -4.9801567599819303E-002  0.17480264523112790        0.0000000000000000     
  -5.0456795119120747E-002  0.18289081016306752        0.0000000000000000     
  -5.1055945539912655E-002  0.19106611720816710        0.0000000000000000     
  -5.1599018862195006E-002  0.19932856636642668        0.0000000000000000     
  -5.5759172527286051E-002  0.16703331560838100        0.0000000000000000     
  -5.6515173501600617E-002  0.17500580605485846        0.0000000000000000     
  -5.7222997799256811E-002  0.18306831837955059        0.0000000000000000     
  -5.7882645420254661E-002  0.19122085258245736        0.0000000000000000     
  -5.8494116364594159E-002  0.19946340866357881        0.0000000000000000     
  -6.2465587158651484E-002  0.16728791539613849        0.0000000000000000     
  -6.3301723316617695E-002  0.17523279252837773        0.0000000000000000     
  -6.4090180721048232E-002  0.18327060631795347        0.0000000000000000     
  -6.4830959371943053E-002  0.19140135676486580        0.0000000000000000     
  -6.5524059269302187E-002  0.19962504386911467        0.0000000000000000     
  -6.9209506876104623E-002  0.16756542177562078        0.0000000000000000     
  -7.0161217044870605E-002  0.17548360465168567        0.0000000000000000     
  -7.1058343884495015E-002  0.18349767397827618        0.0000000000000000     
  -7.1900887394977839E-002  0.19160762975539247        0.0000000000000000     
  -7.2688847576319091E-002  0.19981347198303437        0.0000000000000000     
  -7.5990931679645449E-002  0.16786583474682787        0.0000000000000000     
  -7.7093654686359273E-002  0.17575824242478227        0.0000000000000000     
  -7.8127487289597106E-002  0.18374952136051875        0.0000000000000000     
  -7.9092429489358976E-002  0.19183967155403731        0.0000000000000000     
  -7.9988481285644869E-002  0.20002869300533788        0.0000000000000000     
  -5.1599018862195006E-002  0.19932856636642668        0.0000000000000000     
  -5.2085259423757725E-002  0.20767198445891791        0.0000000000000000     
  -5.2513911562390700E-002  0.21609019830671233        0.0000000000000000     
  -5.2884975278093917E-002  0.22458320790980993        0.0000000000000000     
  -5.3198450570867410E-002  0.23315101326821078        0.0000000000000000     
  -5.8494116364594159E-002  0.19946340866357881        0.0000000000000000     
  -5.9050152990792755E-002  0.20778990592559388        0.0000000000000000     
  -5.9543497657367918E-002  0.21619426367118164        0.0000000000000000     
  -5.9974150364319669E-002  0.22467648190034209        0.0000000000000000     
  -6.0342111111647979E-002  0.23323656061307521        0.0000000000000000     
  -6.5524059269302187E-002  0.19962504386911467        0.0000000000000000     
  -6.6160097595787559E-002  0.20793477601755883        0.0000000000000000     
  -6.6729691534061136E-002  0.21632366159705715        0.0000000000000000     
  -6.7232841084122905E-002  0.22479170060760950        0.0000000000000000     
  -6.7669546245972864E-002  0.23333889304921601        0.0000000000000000     
  -7.2688847576319091E-002  0.19981347198303437        0.0000000000000000     
  -7.3415093238742124E-002  0.20810659473481288        0.0000000000000000     
  -7.4072493192470307E-002  0.21647839208433883        0.0000000000000000     
  -7.4661047437503625E-002  0.22492886403161233        0.0000000000000000     
  -7.5180755973842092E-002  0.23345801057663329        0.0000000000000000     
  -7.9988481285644869E-002  0.20002869300533788        0.0000000000000000     
  -8.0815139919656484E-002  0.20830536207735589        0.0000000000000000     
  -8.1571902632595464E-002  0.21665845513302676        0.0000000000000000     
  -8.2258769424461850E-002  0.22508797217235046        0.0000000000000000     
  -8.2875740295255629E-002  0.23359391319532696        0.0000000000000000     
  -5.3198450570867410E-002  0.23315101326821078        0.0000000000000000     
  -5.3461382176505333E-002  0.24178391256254758        0.0000000000000000     
  -5.3680814830801851E-002  0.25047220397345293        0.0000000000000000     
  -5.3856748533756979E-002  0.25921588750092700        0.0000000000000000     
  -5.3989183285370695E-002  0.26801496314496964        0.0000000000000000     
  -6.0342111111647979E-002  0.23323656061307521        0.0000000000000000     
  -6.0651827596818142E-002  0.24187215537867424        0.0000000000000000     
  -6.0907747517295441E-002  0.25058092176643249        0.0000000000000000     
  -6.1109870873079876E-002  0.25936285977634993        0.0000000000000000     
  -6.1258197664171440E-002  0.26821796940842657        0.0000000000000000     
  -6.7669546245972864E-002  0.23333889304921601        0.0000000000000000     
  -6.8040194174092197E-002  0.24197026214951176        0.0000000000000000     
  -6.8345172022962072E-002  0.25069083113613194        0.0000000000000000     
  -6.8584479792582489E-002  0.25950060000907660        0.0000000000000000     
  -6.8758117482953421E-002  0.26839956876834559        0.0000000000000000     
  -7.5180755973842092E-002  0.23345801057663329        0.0000000000000000     
  -7.5626481908327520E-002  0.24207823287506014        0.0000000000000000     
  -7.5993088347801732E-002  0.25080193208255130        0.0000000000000000     
  -7.6280575292264771E-002  0.25962910819910684        0.0000000000000000     
  -7.6488942741716651E-002  0.26855976122472663        0.0000000000000000     
  -8.2875740295255629E-002  0.23359391319532696        0.0000000000000000     
  -8.3410690799524054E-002  0.24219606755531936        0.0000000000000000     
  -8.3851496491814462E-002  0.25091422460569057        0.0000000000000000     
  -8.4198157372126797E-002  0.25974838434644076        0.0000000000000000     
  -8.4450673440461102E-002  0.26869854677756977        0.0000000000000000     
  -5.3989183285370695E-002  0.26801496314496964        0.0000000000000000     
  -5.4108659819803569E-002  0.27681994948090533        0.0000000000000000     
  -5.4245718871216132E-002  0.28558136508405846        0.0000000000000000     
  -5.4400360439608372E-002  0.29429920995442888        0.0000000000000000     
  -5.4572584524980289E-002  0.30297348409201674        0.0000000000000000     
  -6.1258197664171440E-002  0.26821796940842657        0.0000000000000000     
  -6.1389057591211479E-002  0.27710189163926813        0.0000000000000000     
  -6.1538780354841283E-002  0.28597026744548043        0.0000000000000000     
  -6.1707365955060878E-002  0.29482309682706348        0.0000000000000000     
  -6.1894814391870265E-002  0.30366037978401711        0.0000000000000000     
  -6.8758117482953421E-002  0.26839956876834559        0.0000000000000000     
  -6.8905724643308880E-002  0.27735770897962408        0.0000000000000000     
  -6.9066940822882880E-002  0.28634499220859727        0.0000000000000000     
  -6.9241766021675366E-002  0.29536141845526492        0.0000000000000000     
  -6.9430200239686365E-002  0.30440698771962721        0.0000000000000000     
  -7.6488942741716651E-002  0.26855976122472663        0.0000000000000000     
  -7.6658660976095819E-002  0.27758740150197314        0.0000000000000000     
  -7.6830200275340876E-002  0.28670553937340876        0.0000000000000000     
  -7.7003560639451810E-002  0.29591417483903343        0.0000000000000000     
  -7.7178742068428605E-002  0.30521330789884715        0.0000000000000000     
  -8.4450673440461102E-002  0.26869854677756977        0.0000000000000000     
  -8.4647866589572296E-002  0.27779096920631519        0.0000000000000000     
  -8.4828558712215341E-002  0.28705190893991489        0.0000000000000000     
  -8.4992749808390222E-002  0.29648136597836877        0.0000000000000000     
  -8.5140439878096955E-002  0.30607934032167683        0.0000000000000000     
  -5.1651947598335399E-002   6.0655059122637502E-002   0.0000000000000000     
  -5.3197882879391423E-002   6.5773672028119803E-002   0.0000000000000000     
  -5.4785585801686389E-002   7.1190257557104702E-002   0.0000000000000000     
  -5.6415056365220304E-002   7.6904815709592178E-002   0.0000000000000000     
  -5.8086294569993153E-002   8.2917346485582244E-002   0.0000000000000000     
  -5.2614578908082577E-002   6.1441081964232494E-002   0.0000000000000000     
  -5.5045665372779988E-002   6.6470033074413154E-002   0.0000000000000000     
  -5.7397750753601678E-002   7.1818756814153284E-002   0.0000000000000000     
  -5.9670835050547683E-002   7.7487253183452870E-002   0.0000000000000000     
  -6.1864918263617973E-002   8.3475522182311912E-002   0.0000000000000000     
  -5.5639252603494060E-002   6.1574291436101020E-002   0.0000000000000000     
  -5.8468742251797476E-002   6.6864289543834776E-002   0.0000000000000000     
  -6.1204093441259849E-002   7.2389666644157580E-002   0.0000000000000000     
  -6.3845306171881167E-002   7.8150422737069444E-002   0.0000000000000000     
  -6.6392380443661428E-002   8.4146557822570356E-002   0.0000000000000000     
  -6.0725968684569823E-002   6.1054687538243092E-002   0.0000000000000000     
  -6.3467113516443907E-002   6.6956441436384670E-002   0.0000000000000000     
  -6.6204613864660866E-002   7.2902987047117604E-002   0.0000000000000000     
  -6.8938469729220755E-002   7.8894324370441901E-002   0.0000000000000000     
  -7.1668681110123533E-002   8.4930453406357548E-002   0.0000000000000000     
  -6.7874727151309877E-002   5.9882270270658726E-002   0.0000000000000000     
  -7.0040779166719247E-002   6.6746488752062849E-002   0.0000000000000000     
  -7.2399312023804771E-002   7.3358718023033356E-002   0.0000000000000000     
  -7.4950325722566449E-002   7.9718958083570254E-002   0.0000000000000000     
  -7.7693820263004282E-002   8.5827208933673529E-002   0.0000000000000000     
  -5.8086294569993153E-002   8.2917346485582244E-002   0.0000000000000000     
  -5.9770195567435312E-002   8.9161622720947492E-002   0.0000000000000000     
  -6.1437654508977153E-002   9.5571417251560473E-002   0.0000000000000000     
  -6.3088671394618656E-002  0.10214673007742120        0.0000000000000000     
  -6.4723246224359848E-002  0.10888756119852966        0.0000000000000000     
  -6.1864918263617973E-002   8.3475522182311912E-002   0.0000000000000000     
  -6.3987148752948322E-002   8.9705266473082135E-002   0.0000000000000000     
  -6.6044674878674520E-002   9.6098188718115277E-002   0.0000000000000000     
  -6.8037496640796502E-002  0.10265428891741138        0.0000000000000000     
  -6.9965614039314339E-002  0.10937356707097036        0.0000000000000000     
  -6.6392380443661428E-002   8.4146557822570356E-002   0.0000000000000000     
  -6.8846286213789909E-002   9.0343694797545268E-002   0.0000000000000000     
  -7.1207993439455788E-002   9.6707456558879176E-002   0.0000000000000000     
  -7.3477502120659094E-002  0.10323784310657209        0.0000000000000000     
  -7.5654812257399853E-002  0.10993485444062399        0.0000000000000000     
  -7.1668681110123533E-002   8.4930453406357548E-002   0.0000000000000000     
  -7.4347607949960023E-002   9.1076907694336864E-002   0.0000000000000000     
  -7.6927610191320980E-002   9.7399220773852116E-002   0.0000000000000000     
  -7.9408687834206432E-002  0.10389739264490333        0.0000000000000000     
  -8.1790840878616364E-002  0.11057142330749055        0.0000000000000000     
  -7.7693820263004282E-002   8.5827208933673529E-002   0.0000000000000000     
  -8.0491113961458693E-002   9.1904905163456924E-002   0.0000000000000000     
  -8.3203525134270095E-002   9.8173481363034110E-002   0.0000000000000000     
  -8.5831053781438488E-002  0.10463293753240514        0.0000000000000000     
  -8.8373699902963884E-002  0.11128327367156998        0.0000000000000000     
  -6.4723246224359848E-002  0.10888756119852966        0.0000000000000000     
  -6.6325700845764474E-002  0.11578461358719257        0.0000000000000000     
  -6.7880357106396352E-002  0.12282859021571654        0.0000000000000000     
  -6.9387215006255484E-002  0.13001949108410160        0.0000000000000000     
  -7.0846274545341856E-002  0.13735731619234776        0.0000000000000000     
  -6.9965614039314339E-002  0.10937356707097036        0.0000000000000000     
  -7.1828957030530674E-002  0.11624920933926511        0.0000000000000000     
  -7.3627455570748207E-002  0.12327440188276843        0.0000000000000000     
  -7.5361109659966910E-002  0.13044914470148034        0.0000000000000000     
  -7.7029919298186811E-002  0.13777343779540083        0.0000000000000000     
  -7.5654812257399853E-002  0.10993485444062399        0.0000000000000000     
  -7.7746320128851326E-002  0.11679014155675077        0.0000000000000000     
  -7.9758422014186828E-002  0.12379535545066836        0.0000000000000000     
  -8.1691117913406372E-002  0.13095049612237675        0.0000000000000000     
  -8.3544407826509973E-002  0.13825556357187596        0.0000000000000000     
  -8.1790840878616364E-002  0.11057142330749055        0.0000000000000000     
  -8.4077790140726430E-002  0.11740741023964957        0.0000000000000000     
  -8.6273256436712284E-002  0.12439145091941634        0.0000000000000000     
  -8.8377239766573926E-002  0.13152354534679087        0.0000000000000000     
  -9.0389740130311355E-002  0.13880369352177310        0.0000000000000000     
  -8.8373699902963884E-002  0.11128327367156998        0.0000000000000000     
  -9.0823367066155999E-002  0.11810101538796146        0.0000000000000000     
  -9.3171958838324548E-002  0.12506268828901232        0.0000000000000000     
  -9.5419475219469529E-002  0.13216829237472261        0.0000000000000000     
  -9.7565916209590958E-002  0.13941782764509228        0.0000000000000000     
  -7.0846274545341856E-002  0.13735731619234776        0.0000000000000000     
  -7.2244185885260825E-002  0.14482256402313529        0.0000000000000000     
  -7.3567599187617752E-002  0.15239573305914450        0.0000000000000000     
  -7.4816514452412622E-002  0.16007682330037537        0.0000000000000000     
  -7.5990931679645449E-002  0.16786583474682787        0.0000000000000000     
  -7.7029919298186811E-002  0.13777343779540083        0.0000000000000000     
  -7.8624650567366935E-002  0.14522465700920895        0.0000000000000000     
  -8.0136069549466296E-002  0.15278017818758380        0.0000000000000000     
  -8.1564176244484962E-002  0.16044000133052530        0.0000000000000000     
  -8.2908970652422850E-002  0.16820412643803348        0.0000000000000000     
  -8.3544407826509973E-002  0.13825556357187596        0.0000000000000000     
  -8.5311993332236394E-002  0.14568681828852412        0.0000000000000000     
  -8.6987576009324497E-002  0.15322052076167939        0.0000000000000000     
  -8.8571155857774253E-002  0.16085667099134179        0.0000000000000000     
  -9.0062732877585677E-002  0.16859526897751131        0.0000000000000000     
  -9.0389740130311355E-002  0.13880369352177310        0.0000000000000000     
  -9.2306214179869256E-002  0.14620904786108072        0.0000000000000000     
  -9.4122118567192312E-002  0.15371676078143132        0.0000000000000000     
  -9.5837453292280536E-002  0.16132683228282485        0.0000000000000000     
  -9.7452218355133929E-002  0.16903926236526134        0.0000000000000000     
  -9.7565916209590958E-002  0.13941782764509228        0.0000000000000000     
  -9.9607313110265466E-002  0.14679134572687880        0.0000000000000000     
 -0.10153969722306974       0.15426889824683948        0.0000000000000000     
 -0.10336306854800380       0.16185048520497441        0.0000000000000000     
 -0.10507742708506762       0.16953610660128354        0.0000000000000000     
  -7.5990931679645449E-002  0.16786583474682787        0.0000000000000000     
  -7.7093654686359273E-002  0.17575824242478227        0.0000000000000000     
  -7.8127487289597106E-002  0.18374952136051875        0.0000000000000000     
  -7.9092429489358976E-002  0.19183967155403731        0.0000000000000000     
  -7.9988481285644869E-002  0.20002869300533788        0.0000000000000000     
  -8.2908970652422850E-002  0.16820412643803348        0.0000000000000000     
  -8.4170119512146868E-002  0.17607095525868774        0.0000000000000000     
  -8.5347289562523881E-002  0.18403888954106742        0.0000000000000000     
  -8.6440480803553862E-002  0.19210792928517251        0.0000000000000000     
  -8.7449693235236839E-002  0.20027807449100296        0.0000000000000000     
  -9.0062732877585677E-002  0.16859526897751131        0.0000000000000000     
  -9.1461694793296536E-002  0.17643599256442213        0.0000000000000000     
  -9.2767429329444567E-002  0.18437851959630844        0.0000000000000000     
  -9.3979936486029841E-002  0.19242285007317025        0.0000000000000000     
  -9.5099216263052316E-002  0.20056898399500750        0.0000000000000000     
  -9.7452218355133929E-002  0.16903926236526134        0.0000000000000000     
  -9.8968380529808248E-002  0.17685335434198546        0.0000000000000000     
 -0.10038790659035923       0.18476841152624179        0.0000000000000000     
 -0.10171079653678688       0.19278443391803049        0.0000000000000000     
 -0.10293705036909125       0.20090142151735146        0.0000000000000000     
 -0.10507742708506762       0.16953610660128354        0.0000000000000000     
 -0.10669017672168203       0.17732304059137771        0.0000000000000000     
 -0.10820872134526784       0.18520856533086763        0.0000000000000000     
 -0.10963306095582503       0.19319268081975333        0.0000000000000000     
 -0.11096319555335366       0.20127538705803483        0.0000000000000000     
  -7.9988481285644869E-002  0.20002869300533788        0.0000000000000000     
  -8.0815139919656484E-002  0.20830536207735589        0.0000000000000000     
  -8.1571902632595464E-002  0.21665845513302676        0.0000000000000000     
  -8.2258769424461850E-002  0.22508797217235046        0.0000000000000000     
  -8.2875740295255629E-002  0.23359391319532696        0.0000000000000000     
  -8.7449693235236839E-002  0.20027807449100296        0.0000000000000000     
  -8.8381405818747025E-002  0.20853609516910326        0.0000000000000000     
  -8.9242097515258592E-002  0.21686876133001795        0.0000000000000000     
  -9.0031768324771555E-002  0.22527607297374694        0.0000000000000000     
  -9.0750418247285941E-002  0.23375803010029017        0.0000000000000000     
  -9.5099216263052316E-002  0.20056898399500750        0.0000000000000000     
  -9.6135059116230173E-002  0.20880381113397053        0.0000000000000000     
  -9.7097255501281676E-002  0.21711422126220958        0.0000000000000000     
  -9.7985805418206812E-002  0.22550021437972476        0.0000000000000000     
  -9.8800708867005552E-002  0.23396179048651591        0.0000000000000000     
 -0.10293705036909125       0.20090142151735146        0.0000000000000000     
 -0.10407609981210593       0.20910850997195760        0.0000000000000000     
 -0.10513737659066472       0.21739483492960174        0.0000000000000000     
 -0.10612088070476751       0.22576039639028392        0.0000000000000000     
 -0.10702661215441439       0.23420519435400416        0.0000000000000000     
 -0.11096319555335366       0.20127538705803483        0.0000000000000000     
 -0.11220452790637431       0.20945019168306439        0.0000000000000000     
 -0.11336246078340768       0.21771060233219430        0.0000000000000000     
 -0.11443699418445374       0.22605661900542448        0.0000000000000000     
 -0.11542812810951250       0.23448824170275506        0.0000000000000000     
  -8.2875740295255629E-002  0.23359391319532696        0.0000000000000000     
  -8.3410690799524054E-002  0.24219606755531936        0.0000000000000000     
  -8.3851496491814462E-002  0.25091422460569057        0.0000000000000000     
  -8.4198157372126797E-002  0.25974838434644076        0.0000000000000000     
  -8.4450673440461102E-002  0.26869854677756977        0.0000000000000000     
  -9.0750418247285941E-002  0.23375803010029017        0.0000000000000000     
  -9.1382870236693364E-002  0.24233957785593702        0.0000000000000000     
  -9.1913947246885466E-002  0.25104566138697681        0.0000000000000000     
  -9.2343649277862261E-002  0.25987628069340957        0.0000000000000000     
  -9.2671976329623748E-002  0.26883143577523522        0.0000000000000000     
  -9.8800708867005552E-002  0.23396179048651591        0.0000000000000000     
  -9.9533069608846947E-002  0.24252457544256073        0.0000000000000000     
 -0.10017399140490009       0.25121419510783694        0.0000000000000000     
 -0.10072347425516498       0.26003064948234450        0.0000000000000000     
 -0.10118151815964155       0.26897393856608337        0.0000000000000000     
 -0.10702661215441439       0.23420519435400416        0.0000000000000000     
 -0.10786128891598482       0.24275106031519050        0.0000000000000000     
 -0.10863162896585833       0.25141982576827104        0.0000000000000000     
 -0.10933763230403488       0.26021149071324562        0.0000000000000000     
 -0.10997929893051449       0.26912605515011434        0.0000000000000000     
 -0.11542812810951250       0.23448824170275506        0.0000000000000000     
 -0.11636752815810697       0.24301903247382636        0.0000000000000000     
 -0.11728685992976012       0.25166255336827897        0.0000000000000000     
 -0.11818612342447202       0.26041880438611281        0.0000000000000000     
 -0.11906531864224258       0.26928778552732791        0.0000000000000000     
  -8.4450673440461102E-002  0.26869854677756977        0.0000000000000000     
  -8.4647866589572296E-002  0.27779096920631519        0.0000000000000000     
  -8.4828558712215341E-002  0.28705190893991489        0.0000000000000000     
  -8.4992749808390222E-002  0.29648136597836877        0.0000000000000000     
  -8.5140439878096955E-002  0.30607934032167683        0.0000000000000000     
  -9.2671976329623748E-002  0.26883143577523522        0.0000000000000000     
  -9.2929451147600040E-002  0.27797411833508340        0.0000000000000000     
  -9.3146596477221302E-002  0.28736732007558385        0.0000000000000000     
  -9.3323412318487509E-002  0.29701104099673631        0.0000000000000000     
  -9.3459898671398658E-002  0.30690528109854109        0.0000000000000000     
 -0.10118151815964155       0.26897393856608337        0.0000000000000000     
 -0.10155952431404085       0.27814255513071068        0.0000000000000000     
 -0.10186889391407385       0.28763499194788333        0.0000000000000000     
 -0.10210962695974052       0.29745124901760128        0.0000000000000000     
 -0.10228172345104090       0.30759132633986475        0.0000000000000000     
 -0.10997929893051449       0.26912605515011434        0.0000000000000000     
 -0.11053808608889468       0.27829627959319697        0.0000000000000000     
 -0.11099545102277296       0.28785492455681339        0.0000000000000000     
 -0.11135139373214929       0.29780199004096369        0.0000000000000000     
 -0.11160591421702372       0.30813747604564767        0.0000000000000000     
 -0.11906531864224258       0.26928778552732791        0.0000000000000000     
 -0.11986513647216156       0.27843529172254233        0.0000000000000000     
 -0.12052626780331863       0.28802711790237417        0.0000000000000000     
 -0.12104871263571379       0.29806326406682349        0.0000000000000000     
 -0.12143247096934706       0.30854373021589010        0.0000000000000000     
 </DataArray>
 <DataArray  type="Float64" Name="stress" NumberOfComponents="3" format="ascii">
   5315781163.6223097        4472476336.5251265       -878449162.33092642     
   5001692684.3127546        2193637352.1751390       -460127237.55416000     
   4909065282.8250380        653001960.56461406       -225638666.94619635     
   5037898959.1591606       -149429838.30643559       -174983450.50706491     
   5388193713.3151245       -213658044.43801355       -308161588.23675412     
   6322855908.7978249        3521197088.5764060       -176033895.81626669     
   5816951649.4174595        1858174252.9807205        102004649.04036374     
   5465291392.6778851        709298092.85431588        274214529.06804615     
   5267875138.5790882        74568608.197193861        340595744.26678383     
   5224702887.1210871       -46014200.990619421        301148294.63657606     
   6191510592.4687281        2228391822.1763086        824576286.13434732     
   5716661093.9886236        1248046297.6262338        883911530.02626944     
   5328838522.9682503        557790531.27526498        915422798.42911828     
   5028042879.4076166        157624523.12341118        919110091.34289837     
   4814274163.3067131        47548273.170666933        894973408.76760972     
   4921745214.6350012        594060537.32481658        2123381383.5209091     
   4700821018.0262432        363253486.11168361        1885593405.4035611     
   4499706673.6961527        198479275.82747936        1697986141.1370146     
   4318402181.6447449        99737906.472211123        1560559590.7212794     
   4156907541.8720188        67029378.045863867        1473313754.1563430     
   2513559775.2966785       -1381796765.9780502        3720381396.3434229     
   2769431421.5303206       -796204181.56292307        3107050275.1722374     
   2977895844.8615823       -368635673.48904991        2621904557.1917367     
   3138953045.2904758       -99091241.756416917        2264944242.4019132     
   3252603022.8169956        12429113.634965539        2036169330.8027694     
   5388193713.3151245       -213658044.43801355       -308161588.23675412     
   5258343052.9551516       -103245414.43441272       -215233428.31729674     
   5117152937.0744305       -30630969.499955416       -140343030.51520193     
   4964623365.6729527        4185290.3652968407       -83490394.830455676     
   4800754338.7507248        1203365.1613943577       -44675521.263054088     
   5224702887.1210871       -46014200.990619421        301148294.63657606     
   5053783882.2251310        17373213.066603899        304223859.42141354     
   4875188511.5739584        55172741.273091555        304598124.97586548     
   4688916775.1675730        67384383.628865242        302271091.29992414     
   4494968673.0059586        54008140.133873224        297242758.39359719     
   4814274163.3067131        47548273.170666933        894973408.76760972     
   4646105279.2661123        77056010.898904324        812469983.14428246     
   4473923119.2358265        93186161.994860411        742601721.17753327     
   4297727683.2158451        95938726.458509207        685368622.86735761     
   4117518971.2061815        85313704.289865971        640770688.21376240     
   4156907541.8720188        67029378.045863867        1473313754.1563430     
   4035307244.0780935        75802979.062519789        1309504942.8513069     
   3913356760.0600152        83409292.665312052        1173667758.0898116     
   3791056089.8177819        89848318.854256153        1065802199.8718560     
   3668405233.3513870        95120057.629334927        985908268.19744468     
   3252603022.8169956        12429113.634965539        2036169330.8027694     
   3221389776.6610799        13614117.557430029        1795328738.5424783     
   3193489434.0465379        25842133.284474015        1597796235.7126949     
   3168901994.9733763        49113160.816114187        1443571822.3134134     
   3147627459.4415827        83427200.152314186        1332655498.3446422     
   4800754338.7507248        1203365.1613943577       -44675521.263054088     
   4598711110.8399887       -25391558.384980679       -46466269.563120253     
   4399989269.4087410       -40915193.666420698       -42090755.204321913     
   4204588814.4569860       -45367540.682864189       -31548978.186668675     
   4012509745.9847064       -38748599.434403419       -14840938.510154786     
   4494968673.0059586        54008140.133873224        297242758.39359719     
   4313832167.6320677        35710772.314200878        274331325.84637326     
   4134593168.6544929        23738425.815593243        259420904.34708628     
   3957251676.0732355        18091100.638035297        252511493.89572948     
   3781807689.8882866        18768796.781505108        253603094.49231023     
   4117518971.2061815        85313704.289865971        640770688.21376240     
   3962531326.6236410        76886533.673258781        595077377.98900831     
   3808017308.3542552        70038117.433809757        559219827.20126450     
   3653976916.3980117        64768455.571519136        533198035.85055065     
   3500410150.7549081        61077548.086355925        517012003.93682975     
   3668405233.3513870        95120057.629334927        985908268.19744468     
   3544808587.8147216        98135725.692161202        915771886.86479795     
   3420261688.5080209        97983881.188214302        857306013.35823739     
   3294764535.4312997        94664524.117536783        810510647.67777705     
   3168317128.5845532        88177654.480092287        775385789.82340932     
   3147627459.4415827        83427200.152314186        1332655498.3446422     
   3060663951.2052889        99458348.370898247        1236414852.4737287     
   2971326309.1158028        107575717.07884789        1153679462.8179839     
   2879614533.1731148        107779306.27613199        1084449329.3774238     
   2785528623.3772316        100069115.96274209        1028724452.1520244     
   4012509745.9847064       -38748599.434403419       -14840938.510154786     
   3804534652.5698357       -34317068.004590988       -21417356.935326237     
   3594940193.1133561       -35283423.380154371       -21804528.580638286     
   3383726367.6152554       -41647665.561127424       -16002453.446104387     
   3170893176.0755372       -53409794.547467470       -4011131.5317123630     
   3781807689.8882866        18768796.781505108        253603094.49231023     
   3587889447.3278885        16020493.507653236        228091377.74870872     
   3393469046.1702495        11598328.242999792        208860261.35261181     
   3198546486.4153829        5502300.9875817299        195909745.30403739     
   3003121768.0632901       -2267588.2585804462        189239829.60295984     
   3500410150.7549081        61077548.086355925        517012003.93682975     
   3320809769.2422786        51227713.166799068        473868397.55990845     
   3141824436.5768037        43428041.071086168        437096745.09815258     
   2963454152.7584724        37678531.799186110        406697046.55156106     
   2785698917.7872996        33979185.351163626        382669301.92014360     
   3168317128.5845532        88177654.480092287        775385789.82340932     
   3003295618.3130031        71304590.972831726        715913702.49827731     
   2840006364.3329945        60205715.104033232        662904922.65596652     
   2678449366.6445251        54881026.873702645        616359450.29649055     
   2518624625.2475963        55330526.281830192        576277285.41983891     
   2785528623.3772316        100069115.96274209        1028724452.1520244     
   2635346994.5400786        76251126.925789595        954227292.56380200     
   2488014829.4388428        61931350.341893554        886284794.02606392     
   2343532128.0735373        57109786.211087704        824896956.53881168     
   2201898890.4441466        61786434.533353090        770063780.10203803     
   3170893176.0755372       -53409794.547467470       -4011131.5317123630     
   2989487650.4843721       -55182796.505864859        5079098.0572060859     
   2810071267.1392393       -50325324.310810447        10217805.993532144     
   2632644026.0401940       -38837377.962136149        11404992.277261969     
   2457205927.1871638       -20718957.460078478        8640656.9084070884     
   3003121768.0632901       -2267588.2585804462        189239829.60295984     
   2816253707.4044747       -6689993.5255101919        184861747.41439474     
   2630402411.9393082       -7723181.4802560806        180844637.58988696     
   2445567881.6678391       -5367152.1226979494        177188500.12944674     
   2261750116.5900269        378094.54707252979        173893335.03305104     
   2785698917.7872996        33979185.351163626        382669301.92014360     
   2605689733.5369735        30603800.218539953        363688468.05965793     
   2425724937.4279370        27376375.556879640        349381100.57987297     
   2245804529.4601955        24296911.366207004        339747199.48080653     
   2065928509.6337342        21365407.646463275        334786764.76244330     
   2518624625.2475963        55330526.281830192        576277285.41983891     
   2357795728.8818965        56698584.726342320        541559259.99298632     
   2196038843.6051111        54973346.800565720        515827194.96349382     
   2033353969.4172351        50154812.504477024        499081090.33135730     
   1869741106.3182724        42242981.838110089        491320946.09658730     
   2201898890.4441466        61786434.533353090        770063780.10203803     
   2072571693.4392240        71594359.997852683        718474123.21438110     
   1941344130.4708369        75067732.250815511        680182920.74073720     
   1808216201.5389678        72206551.292171001        655190172.68109334     
   1673187906.6436462        63010817.122007489        643495879.03545976     
   2457205927.1871638       -20718957.460078478        8640656.9084070884     
   2303115261.0477486       -597865.12593019009       -3333530.8839515648     
   2144133326.5203099        3218999.2481077909       -10598461.478698114     
   1980260123.6048300       -9268364.3379806280       -13154134.875844091     
   1811495652.3012958       -38059955.884240508       -11000551.075375402     
   2261750116.5900269        378094.54707252979        173893335.03305104     
   2116654477.3471315        14471016.130859256        156533398.88902411     
   1968386712.7986226        17990186.695946097        142774573.33325160     
   1816946822.9445233        10935606.242404222        132616858.36572202     
   1662334807.7848299       -6692725.2298066616        126060253.98645458     
   2065928509.6337342        21365407.646463275        334786764.76244330     
   1926661764.1177697        28480318.529031873        314046747.19624960     
   1785942036.3786356        30751955.334362864        295799693.60895276     
   1643769326.4163342        28180318.062478304        280045604.00055176     
   1500143634.2308660        20765406.713371158        266784478.37106737     
   1869741106.3182724        42242981.838110089        491320946.09658730     
   1733137121.3596582        41430042.068563044        469206514.03772146     
   1596799297.2603166        41504305.163259268        448476899.34841514     
   1460727634.0202472        42465771.122182786        429132102.02866161     
   1324922131.6394434        44314439.945327938        411172122.07844341     
   1673187906.6436462        63010817.122007489        643495879.03545976     
   1536080549.0728085        53320186.749492586        622012699.41345787     
   1400958495.4436774        50247236.182649493        600806190.55164015     
   1267821745.7562544        53791965.421502948        579876352.45002055     
   1136670300.0105281        63954374.466023684        559223185.10860300     
   1811495652.3012958       -38059955.884240508       -11000551.075375402     
   1778112357.8305728       -20900631.765687346       -5976647.5313010728     
   1753138944.4610188        24291629.356760740       -39981569.899198815     
   1736575412.1926429        97516827.483125508       -113015318.17910323     
   1728421761.0254614        198774962.61349440       -225077892.37098226     
   1662334807.7848299       -6692725.2298066616        126060253.98645458     
   1536717048.2583501       -13663635.517691493        140371519.36049631     
   1415563157.6601334       -5754982.7113892436        128330537.77435325     
   1298873135.9901855        17033233.189143538        89937309.228024781     
   1186646983.2484982        54701012.183899283        25191833.721512817     
   1500143634.2308660        20765406.713371158        266784478.37106737     
   1318510206.6537945        529901.12058120966        285779424.70666522     
   1137394635.8320713       -17979415.287703812        291098703.03388679     
   956796921.76570749       -34762542.511470795        282742313.35272199     
   776717064.45469546       -49819480.550720930        260710255.66319051     
   1324922131.6394434        44314439.945327938        411172122.07844341     
   1123491833.0169222        21679978.149197042        430247068.50720638     
   918633378.97685146       -12381668.372133255        448322925.87938362     
   710346769.51921928       -57870499.618661761        465399694.19499445     
   498632004.64401454       -114786515.59043124        481477373.45403290     
   1136670300.0105281        63954374.466023684        559223185.10860300     
   951661927.34772229        49786595.568091452        573774450.76212287     
   759279387.09444618        11038258.035251677        600003206.31086993     
   559522679.25070000       -52290638.132492900        637909451.75484526     
   352391803.81647223       -140200092.93516001        687493187.09405279     
   1728421761.0254614        198774962.61349440       -225077892.37098226     
   1457887208.8650029        184586714.13810897       -97202584.579322204     
   1154723799.7961743        61635609.301457703        59844594.958322272     
   818931533.81889367       -170078351.89669573        246063646.24196655     
   450510410.93319297       -510555169.45622671        461454569.27157480     
   1186646983.2484982        54701012.183899283        25191833.721512817     
   979338318.79970312        12774367.481235802        156279599.46598986     
   733893475.41035557       -156272873.68992555        313231960.06434184     
   450312453.08049369       -452440711.32948995        496048915.51657897     
   128595251.81008554       -875729145.43753040        704730465.82271159     
   776717064.45469546       -49819480.550720930        260710255.66319051     
   623184925.16864145       -122319330.24543920        388585270.32301891     
   426009284.90996635       -340297516.51560330        539017602.94461918     
   185190143.67860988       -703754039.36133695        712007253.52799129     
  -99272498.525372207       -1212688898.7825394        907554222.07316089     
   498632004.64401454       -114786515.59043124        481477373.45403290     
   389427027.97187340       -220694379.04178950        599714427.99174070     
   231071228.29496288       -490438319.17570359        737201523.59911048     
   23564605.613272667       -924018335.99221611        893938660.27617896     
  -233092840.07317996       -1521434429.4912798        1069925838.0229291     
   352391803.81647223       -140200092.93516001        687493187.09405279     
   278064627.20934665       -282350778.90788072        789667072.47217166     
   149079305.56534550       -606695281.67021477        907783722.02786791     
  -34564161.115539968       -1113233601.2221379        1041843135.7611336     
  -272865772.83331090       -1801965737.5636909        1191845313.6719763     
   2513559775.2966785       -1381796765.9780502        3720381396.3434229     
   2769431421.5303206       -796204181.56292307        3107050275.1722374     
   2977895844.8615823       -368635673.48904991        2621904557.1917367     
   3138953045.2904758       -99091241.756416917        2264944242.4019132     
   3252603022.8169956        12429113.634965539        2036169330.8027694     
   599731988.06770098       -1689872966.0671265        2143937234.4352589     
   1088686371.8999467       -1167583397.0767200        1846106026.1090994     
   1544278273.9360075       -756502100.74027467        1613992216.3045843     
   1966507694.1758718       -456629077.05781472        1447595805.0217221     
   2355374632.6195498       -267964326.02931476        1346916792.2605062     
  -188811295.57927251       -1660363815.0815983        508058831.22632122     
   354745812.51149571       -1254921265.5179331        542113067.03573060     
   878985179.91225576       -913871184.92095840        579416696.69775701     
   1383906806.6230054       -637213573.29068613        619969720.21239567     
   1869510692.6437488       -424948430.62710297        663772137.57964981     
   147929924.35576260       -1293269313.0214689       -1187253813.2833872     
   567609743.36496043       -1058217786.8865700       -804928602.04786301     
   982016562.79032421       -840742926.03109646       -481822001.62875348     
   1391150382.6318662       -640844730.45503545       -217934012.02606249     
   1795011202.8895764       -458523200.15840220       -13264633.239789622     
   1609955647.8728113       -588589459.88673556       -2942000699.0938745     
   1727278164.4603369       -577472961.18263996       -2195018981.1416807     
   1853372422.5702181       -537117324.07068205       -1569723878.6749442     
   1988238422.2024546       -467522548.55087769       -1066115391.6936529     
   2131876163.3570507       -368688634.62320733       -684193520.19781268     
   3252603022.8169956        12429113.634965539        2036169330.8027694     
   3221389776.6610799        13614117.557430029        1795328738.5424783     
   3193489434.0465379        25842133.284474015        1597796235.7126949     
   3168901994.9733763        49113160.816114187        1443571822.3134134     
   3147627459.4415827        83427200.152314186        1332655498.3446422     
   2355374632.6195498       -267964326.02931476        1346916792.2605062     
   2422107083.2369852       -223492756.19419420        1242526909.1406202     
   2490848498.1700635       -172324638.64026797        1160182572.7437351     
   2561598877.4187870       -114459973.36752462        1099883783.0698414     
   2634358220.9831529       -49898760.375981688        1061630540.1189452     
   1869510692.6437488       -424948430.62710297        663772137.57964981     
   1973438718.0130730       -355415331.48576546        694311701.17015886     
   2078071768.4723055       -283532148.71139526        725634268.77614796     
   2183409844.0214481       -209298882.30398834        757739840.39762366     
   2289452944.6605043       -132715532.26354647        790628416.03458476     
   1795011202.8895764       -458523200.15840220       -13264633.239789622     
   1875384680.9893322       -382153608.31728101        150683114.63108718     
   1955159244.9532645       -307780396.92890072        294151323.80993652     
   2034334894.7813706       -235403565.99326861        417139994.29675740     
   2112911630.4736586       -165023115.51036727        519649126.09154785     
   2131876163.3570507       -368688634.62320733       -684193520.19781268     
   2127944972.1657677       -303707586.68875206       -388358850.47658807     
   2122110927.6129341       -245069383.29280794       -134266262.15490353     
   2114374029.6985426       -192774024.43538284        78084244.767245412     
   2104734278.4226022       -146821510.11645448        248692670.28985175     
   3147627459.4415827        83427200.152314186        1332655498.3446422     
   3060663951.2052889        99458348.370898247        1236414852.4737287     
   2971326309.1158028        107575717.07884789        1153679462.8179839     
   2879614533.1731148        107779306.27613199        1084449329.3774238     
   2785528623.3772316        100069115.96274209        1028724452.1520244     
   2634358220.9831529       -49898760.375981688        1061630540.1189452     
   2577714758.9240274       -24102614.648697019        1018811494.9565191     
   2519099106.8939605       -4880435.4912348986        983556845.05935633     
   2458511264.8929467        7767777.0964198112        955866590.42745781     
   2395951232.9209890        13842023.114242196        935740731.06081259     
   2289452944.6605043       -132715532.26354647        790628416.03458476     
   2246155640.3502350       -102246555.55606234        801699906.10994136     
   2201288089.9512706       -77011732.477558613        814394930.50064456     
   2154850293.4636078       -57011063.028043866        828713489.20669651     
   2106842250.8872561       -42244547.207506895        844655582.22810018     
   2112911630.4736586       -165023115.51036727        519649126.09154785     
   2065986595.4839196       -134973474.35118592        585080085.93398213     
   2017893258.2877390       -108818173.88014328        646193719.14184797     
   1968631618.8851104       -86557214.097244859        702990025.71514833     
   1918201677.2760437       -68190595.002492189        755469005.65389550     
   2104734278.4226022       -146821510.11645448        248692670.28985175     
   2037207624.3250780       -122283371.03405392        368952034.42864943     
   1968914611.9033582       -100299759.69897592        478953210.98297012     
   1899855241.1574442       -80870676.111204028        578696199.95281804     
   1830029512.0873384       -63996120.270738602        668181001.33818698     
   2785528623.3772316        100069115.96274209        1028724452.1520244     
   2635346994.5400786        76251126.925789595        954227292.56380200     
   2488014829.4388428        61931350.341893554        886284794.02606392     
   2343532128.0735373        57109786.211087704        824896956.53881168     
   2201898890.4441466        61786434.533353090        770063780.10203803     
   2395951232.9209890        13842023.114242196        935740731.06081259     
   2263756574.2767577       -44250.727262973785        898795224.61308360     
   2134147205.4775543       -5312891.7520257235        866839253.75663877     
   2007123126.5233719       -1963899.9600378275        839872818.49147022     
   1882684337.4142153        10002724.648694277        817895918.81757259     
   2106842250.8872561       -42244547.207506895        844655582.22810018     
   1988162775.4096563       -47540641.961443067        844953526.04815269     
   1871804415.8861794       -45099683.534970522        848675880.00027931     
   1757767172.3168256       -34921671.928080797        855822644.08447933     
   1646051044.7015963       -17006607.140781045        866393818.30074871     
   1918201677.2760437       -68190595.002492189        755469005.65389550     
   1808565597.9387631       -66238046.776767373        792702196.86900699     
   1700986460.6647112       -57429025.006940126        831794672.75699484     
   1595464265.4538784       -41763529.693052530        872746433.31784558     
   1491999012.3062768       -19241560.835061193        915557478.55155778     
   1830029512.0873384       -63996120.270738602        668181001.33818698     
   1724965041.8640838       -56136465.173217535        742041237.07564855     
   1621693339.8131547       -42300916.167944551        816195632.02678084     
   1520214405.9345496       -22489473.254925847        890644186.19156647     
   1420528240.2282662        3297863.5658444762        965386899.57001388     
   2201898890.4441466        61786434.533353090        770063780.10203803     
   2072571693.4392240        71594359.997852683        718474123.21438110     
   1941344130.4708369        75067732.250815511        680182920.74073720     
   1808216201.5389678        72206551.292171001        655190172.68109334     
   1673187906.6436462        63010817.122007489        643495879.03545976     
   1882684337.4142153        10002724.648694277        817895918.81757259     
   1784125228.4836297        30805668.034895062        790272307.38806033     
   1683687916.3391535        45347934.041469336        770480689.77363122     
   1581372400.9808011        53629522.668451548        758521065.97429347     
   1477178682.4085660        55650433.915825307        754393435.99003959     
   1646051044.7015963       -17006607.140781045        866393818.30074871     
   1562641564.9912841        10105816.510892212        862762108.87055326     
   1477376044.8166716        31031438.614924431        861495932.65653503     
   1390254484.1777551        45770259.171268582        862595289.65867639     
   1301276883.0745509        54322278.179976046        866060179.87698972     
   1491999012.3062768       -19241560.835061193        915557478.55155778     
   1408120702.9621797        9494805.4258716106        935943527.66188061     
   1322408515.9033730        32118245.971120834        953228649.38943958     
   1234862451.1298449        48628760.800629616        967412843.73424947     
   1145482508.6416130        59026349.914449930        978496110.69630051     
   1420528240.2282662        3297863.5658444762        965386899.57001388     
   1320562642.3963239        28972634.779825747        1009816563.7620226     
   1218785329.5992568        48608356.110063553        1045678839.9723475     
   1115196301.8370566        62205027.556525052        1072973728.2010109     
   1009795559.1097326        69762649.119234234        1091701228.4479892     
   1673187906.6436462        63010817.122007489        643495879.03545976     
   1536080549.0728085        53320186.749492586        622012699.41345787     
   1400958495.4436774        50247236.182649493        600806190.55164015     
   1267821745.7562544        53791965.421502948        579876352.45002055     
   1136670300.0105281        63954374.466023684        559223185.10860300     
   1477178682.4085660        55650433.915825307        754393435.99003959     
   1342385721.2089736        46953098.921138048        742108717.71680808     
   1208456585.1218328        41135180.967958868        731098411.57406592     
   1075391274.1471300        38196680.056234598        721362517.56181896     
   943189788.28487718        38137596.186016202        712901035.68005502     
   1301276883.0745509        54322278.179976046        866060179.87698972     
   1171649007.8756201        47473445.451937973        861665530.98506224     
   1041763478.9598768        39765767.001199782        859543035.59392691     
   911620296.32732749        31199242.827768981        859692693.70357835     
   781219459.97796535        21773872.931630462        862114505.31402457     
   1145482508.6416130        59026349.914449930        978496110.69630051     
   1023870409.0727531        54881226.341872036        980683139.21822393     
   900879176.95783448        46138994.282428980        986140062.61122525     
   776508812.29684591        32799653.736086488        994866880.87531698     
   650759315.08979797        14863204.702881366        1006863594.0104842     
   1009795559.1097326        69762649.119234234        1091701228.4479892     
   899049924.80037045        69176441.590964884        1099161542.4162827     
   785803679.11569357        60254862.811635226        1110889492.6259584     
   670056822.05569506        42997912.781236559        1126885079.0770228     
   551809353.62036681        17405591.499733210        1147148301.7694595     
   1136670300.0105281        63954374.466023684        559223185.10860300     
   951661927.34772229        49786595.568091452        573774450.76212287     
   759279387.09444618        11038258.035251677        600003206.31086993     
   559522679.25070000       -52290638.132492900        637909451.75484526     
   352391803.81647223       -140200092.93516001        687493187.09405279     
   943189788.28487718        38137596.186016202        712901035.68005502     
   785502332.00626969        18877509.997682899        728649186.57542610     
   619332230.04825211       -28658061.788681358        754911084.93810678     
   444679482.41084266       -104469119.17302120        791686730.76811850     
   261544089.09401649       -208555662.15541399        838976124.06544578     
   781219459.97796535        21773872.931630462        862114505.31402457     
   647527941.71809614       -3576014.0567835271        877766317.01414919     
   504245299.68989867       -60896313.606280565        902768133.75368798     
   351371533.89337486       -150187025.71687213        937119955.53264689     
   188906644.32852155       -271448150.38855970        980821782.35101914     
   650759315.08979797        14863204.702881366        1006863594.0104842     
   537738756.48322105       -17573976.595236242        1021125842.0783049     
   414018596.01938528       -85676497.417538553        1043574352.7576246     
   279598833.69830495       -189444357.76398396        1074209126.0484512     
   134479469.51997465       -328877557.63461769        1113030161.9507916     
   551809353.62036681        17405591.499733210        1147148301.7694595     
   456134776.30163300       -23116377.617712855        1158727761.7678773     
   348652119.03672653       -102998613.22241186        1177329741.9498978     
   229361381.82563907       -222241115.31438082        1202954242.3155184     
   98262564.668371528       -380843883.89360589        1235601262.8647528     
   352391803.81647223       -140200092.93516001        687493187.09405279     
   278064627.20934665       -282350778.90788072        789667072.47217166     
   149079305.56534550       -606695281.67021477        907783722.02786791     
  -34564161.115539968       -1113233601.2221379        1041843135.7611336     
  -272865772.83331090       -1801965737.5636909        1191845313.6719763     
   261544089.09401649       -208555662.15541399        838976124.06544578     
   222888227.46022013       -349063349.41605657        887496443.93719900     
   140122701.31909761       -636603251.70113313        947134319.13884473     
   13247510.670653164       -1071175369.0106025        1017889749.6703831     
  -157737344.48511213       -1652779701.3444774        1099762735.5318115     
   188906644.32852155       -271448150.38855970        980821782.35101914     
   172135786.67465213       -414448732.23517811        987995097.33423710     
   121803745.04302245       -669319927.34101307        1001460758.7996618     
   37910519.433635831       -1036061735.7060368        1021218766.7472818     
  -79543890.153518558       -1514674157.3302727        1047269121.1771104     
   134479469.51997465       -328877557.63461769        1113030161.9507916     
   125807304.85265359       -478506927.36522222        1091163032.6632774     
   94122436.737139285       -704845308.58982205        1070763041.0102987     
   39424865.173418105       -1007892701.3084278        1051830186.9918177     
  -38285409.838501751       -1387649105.5210340        1034364470.6078838     
   98262564.668371528       -380843883.89360589        1235601262.8647528     
   83902781.994223028       -541237934.80618930        1197000249.9243395     
   57078776.401426673       -743179395.44759321        1155041165.7707725     
   17790547.889999032       -986668265.81777954        1109724010.4040301     
  -33961903.540075064       -1271704545.9167593        1061048783.8241419     
   1609955647.8728113       -588589459.88673556       -2942000699.0938745     
   1727278164.4603369       -577472961.18263996       -2195018981.1416807     
   1853372422.5702181       -537117324.07068205       -1569723878.6749442     
   1988238422.2024546       -467522548.55087769       -1066115391.6936529     
   2131876163.3570507       -368688634.62320733       -684193520.19781268     
   3088014475.5310545        23822214.222444534       -1149323239.1074753     
   2941063991.2361689       -33276601.834831715       -726022371.66949356     
   2800133926.3530655       -70307353.186164260       -368579816.78760237     
   2665224280.8817425       -87270039.831560373       -76995574.461796984     
   2536335054.8222036       -84164661.771010518        148730355.30792016     
   3536862553.1212888        327470663.31122041        649215537.81651080     
   3285148504.8850265        250009363.57488608        745625678.94461322     
   3036703553.9499688        183445054.84257436        832005810.44598603     
   2791527700.3161201        127777737.11428380        908355932.32063615     
   2549620943.9834771        83007410.390019178        974676044.56855881     
   2956499880.6435051        322355887.37959254        2453615631.6780796     
   2759531705.4068980        272384935.04650557        2219925170.7006307     
   2563081305.3609252        224139900.01552367        2032033003.0258152     
   2367148680.5055833        177620782.28665042        1889939128.6536393     
   2171733830.8408732        132827581.85988569        1793643547.5840964     
   1346926458.0977063        8477886.4275587201        4263877042.4772391     
   1364213592.8017941        33850112.580032229        3696876103.5985661     
   1379267180.5859396        51777182.332700193        3231501760.9518933     
   1392087221.4501386        62259095.685546041        2867754014.5372176     
   1402673715.3943970        65295852.638593495        2605632864.3545399     
   2131876163.3570507       -368688634.62320733       -684193520.19781268     
   2127944972.1657677       -303707586.68875206       -388358850.47658807     
   2122110927.6129341       -245069383.29280794       -134266262.15490353     
   2114374029.6985426       -192774024.43538284        78084244.767245412     
   2104734278.4226022       -146821510.11645448        248692670.28985175     
   2536335054.8222036       -84164661.771010518        148730355.30792016     
   2436234705.4016051       -64951789.880298734        315940848.59004462     
   2335039759.1000991       -49387574.259290576        461479034.49001914     
   2232750215.9176726       -37472014.908009529        585344913.00784910     
   2129366075.8543344       -29205111.826433182        687538484.14353073     
   2549620943.9834771        83007410.390019178        974676044.56855881     
   2410693647.8118262        73654769.680466771        1014205327.3056605     
   2271480011.2399020        63347660.970005035        1052132076.6780065     
   2131980034.2677035        52086084.258630753        1088456292.6855948     
   1992193716.8952322        39870039.546344399        1123177975.3284287     
   2171733830.8408732        132827581.85988569        1793643547.5840964     
   2051321799.3964291        112112091.99354815        1706434585.6702583     
   1931431684.0323520        93136322.395107985        1637692864.4090571     
   1812063484.7486377        75900273.064543724        1587418383.8004849     
   1693217201.5452900        60403944.001864910        1555611143.8445530     
   1402673715.3943970        65295852.638593495        2605632864.3545399     
   1358119160.1554148        50420177.058944583        2392628623.6838403     
   1314894777.4774396        39978410.015985548        2218161397.6831660     
   1273000567.3604727        33970551.509721160        2082231186.3525212     
   1232436529.8045106        32396601.540137589        1984837989.6918955     
   2104734278.4226022       -146821510.11645448        248692670.28985175     
   2037207624.3250780       -122283371.03405392        368952034.42864943     
   1968914611.9033582       -100299759.69897592        478953210.98297012     
   1899855241.1574442       -80870676.111204028        578696199.95281804     
   1830029512.0873384       -63996120.270738602        668181001.33818698     
   2129366075.8543344       -29205111.826433182        687538484.14353073     
   2038705555.1313646       -19268462.754316688        753577299.99298656     
   1947723802.8421102       -10402585.569817305        815448596.02511048     
   1856420818.9865694       -2607480.2729406357        873152372.23988962     
   1764796603.5647445        4116853.1363266706        926688628.63733184     
   1992193716.8952322        39870039.546344399        1123177975.3284287     
   1895801237.4529150        40425770.979996443        1135515557.4394481     
   1799532653.2022219        41394486.385729074        1149776287.5002620     
   1703387964.1431592        42776185.763565302        1165960165.5108714     
   1607367170.2757223        44570869.113483548        1184067191.4712760     
   1693217201.5452900        60403944.001864910        1555611143.8445530     
   1608494671.2897270        56799330.168888032        1514766806.7680264     
   1524341162.9836977        55091456.167689800        1481936285.4084299     
   1440756676.6272116        55280321.998298526        1457119579.7657633     
   1357741212.2202618        57365927.660702169        1440316689.8400302     
   1232436529.8045106        32396601.540137589        1984837989.6918955     
   1176785856.6418042        29852214.812364161        1891331047.9787230     
   1122149332.1865420        30688323.776071012        1811928589.7496109     
   1068526956.4387331        34904928.431287527        1746630615.0045643     
   1015918729.3983667        42502028.777983665        1695437123.7435868     
   1830029512.0873384       -63996120.270738602        668181001.33818698     
   1724965041.8640838       -56136465.173217535        742041237.07564855     
   1621693339.8131547       -42300916.167944551        816195632.02678084     
   1520214405.9345496       -22489473.254925847        890644186.19156647     
   1420528240.2282662        3297863.5658444762        965386899.57001388     
   1764796603.5647445        4116853.1363266706        926688628.63733184     
   1662080349.6367311        8557945.2028621435        970918378.55077720     
   1560373923.0172698        16365128.297900915        1017449188.6386720     
   1459677323.7063568        27538402.421436787        1066281058.9010115     
   1359990551.7039974        42077767.573477507        1117413989.3377919     
   1607367170.2757223        44570869.113483548        1184067191.4712760     
   1512733135.3880427        47313598.972545922        1197753024.5529752     
   1418325986.9451408        50812616.980874121        1215746818.7699025     
   1324145724.9470170        55067923.138465524        1238048574.1220565     
   1230192349.3936710        60079517.445309877        1264658290.6094382     
   1357741212.2202618        57365927.660702169        1440316689.8400302     
   1276923399.1180143        60130496.135831833        1422545175.0822392     
   1195549531.5967689        61041549.880977273        1411088522.4204662     
   1113619609.6565287        60099088.896137953        1405946731.8546984     
   1031133633.2972968        57303113.181322813        1407119803.3849430     
   1015918729.3983667        42502028.777983665        1695437123.7435868     
   954651140.82664299        47008636.692705095        1645294830.1385741     
   892044556.97215188        47051926.998205304        1603474299.5903590     
   828098977.83489394        42631899.694480926        1569975532.0989408     
   762814403.41486251        33748554.781511188        1544798527.6643124     
   1420528240.2282662        3297863.5658444762        965386899.57001388     
   1320562642.3963239        28972634.779825747        1009816563.7620226     
   1218785329.5992568        48608356.110063553        1045678839.9723475     
   1115196301.8370566        62205027.556525052        1072973728.2010109     
   1009795559.1097326        69762649.119234234        1091701228.4479892     
   1359990551.7039974        42077767.573477507        1117413989.3377919     
   1240689374.2806866        50685576.789665222        1139038298.4491658     
   1120347226.0479927        55823483.307904601        1158295002.4714229     
   998964107.00592160        57491487.128217429        1175184101.4045665     
   876540017.15447485        55689588.250617266        1189705595.2485900     
   1230192349.3936710        60079517.445309877        1264658290.6094382     
   1109269257.7863061        56934464.285875261        1264376446.1552181     
   988075939.52530634        52888655.614326656        1267926779.5044420     
   866612394.61068428        47942091.430705994        1275309290.6571116     
   744878623.04243076        42094771.734974414        1286523979.6132293     
   1031133633.2972968        57303113.181322813        1407119803.3849430     
   926302292.91318560        47719297.268449813        1385831006.8801763     
   821971470.03119612        39803873.029317707        1374574171.0714095     
   718141164.65133393        33556840.463943839        1373349295.9586496     
   614811376.77359092        28978199.572297782        1382156381.5419009     
   762814403.41486251        33748554.781511188        1544798527.6643124     
   691788479.66133153        23040075.737431049        1503401980.6240339     
   622033817.56566215        16569135.552886635        1478237177.1723232     
   553550417.12787580        14335734.227953970        1469304117.3091779     
   486338278.34795380        16339871.762568682        1476602801.0345936     
   1009795559.1097326        69762649.119234234        1091701228.4479892     
   899049924.80037045        69176441.590964884        1099161542.4162827     
   785803679.11569357        60254862.811635226        1110889492.6259584     
   670056822.05569506        42997912.781236559        1126885079.0770228     
   551809353.62036681        17405591.499733210        1147148301.7694595     
   876540017.15447485        55689588.250617266        1189705595.2485900     
   777428556.51564372        55400402.051337808        1194937072.0262761     
   675744170.36609554        46534797.483002126        1204781733.5409093     
   571486858.70583975        29092774.545639694        1219239579.7924919     
   464656621.53486198        3074333.2392061353        1238310610.7810216     
   744878623.04243076        42094771.734974414        1286523979.6132293     
   658388617.49002469        42398791.289416462        1289442252.7090106     
   569253372.29152215        33885345.356863111        1297319259.0373068     
   477472887.44691408        16554433.937294960        1310154998.5981252     
   383047162.95620722       -9593942.9692692608        1327949471.3914642     
   614811376.77359092        28978199.572297782        1382156381.5419009     
   541930107.72353017        30171609.305252403        1382677084.4644878     
   466331284.89197856        22306506.433243006        1388502069.1151707     
   388014908.27893823        5382890.9562685490        1399631335.4939375     
   306980977.88440120       -20599237.125695020        1416064883.6007955     
   486338278.34795380        16339871.762568682        1476602801.0345936     
   428053027.21614420        18718856.098800957        1474641567.2927098     
   366977908.16745698        11798280.712107882        1478330163.7744837     
   303112921.20189703       -4421854.3974945694        1487668590.4799170     
   236458066.31945086       -29941549.230050758        1502656847.4090016     
   551809353.62036681        17405591.499733210        1147148301.7694595     
   456134776.30163300       -23116377.617712855        1158727761.7678773     
   348652119.03672653       -102998613.22241186        1177329741.9498978     
   229361381.82563907       -222241115.31438082        1202954242.3155184     
   98262564.668371528       -380843883.89360589        1235601262.8647528     
   464656621.53486198        3074333.2392061353        1238310610.7810216     
   387209482.88689601       -33237759.960952535        1238595866.9198303     
   299736205.05691737       -102970317.10115615        1244908199.7177901     
   202236788.04491693       -206123338.18142703        1257247609.1749094     
   94711231.850908637       -342696823.20173228        1275614095.2911572     
   383047162.95620722       -9593942.9692692608        1327949471.3914642     
   320983338.62343442       -42549397.558794588        1319019454.5621917     
   250675315.87280560       -102985513.54117204        1315121070.8676040     
   172123094.70431745       -190902290.91641662        1316254320.3077211     
   85326675.117974371       -306299729.68450671        1322419202.8825359     
   306980977.88440120       -20599237.125695020        1416064883.6007955     
   257456343.51123935       -51051290.411267519        1399998524.6949434     
   201469451.48438978       -103044202.54246877        1387968355.3993435     
   139020301.80383050       -176577973.51936898        1379974375.7139843     
   70108894.469575986       -271652603.34191716        1376016585.6388757     
   236458066.31945086       -29941549.230050758        1502656847.4090016     
   196628497.55032074       -58743438.518347517        1481533077.3181057     
   152118611.89166114       -103146384.10507599        1463450053.3130014     
   102928409.34345222       -163150385.99030629        1448407775.3936889     
   49057889.905711606       -238755444.17396727        1436406243.5601654     
   98262564.668371528       -380843883.89360589        1235601262.8647528     
   83902781.994223028       -541237934.80618930        1197000249.9243395     
   57078776.401426673       -743179395.44759321        1155041165.7707725     
   17790547.889999032       -986668265.81777954        1109724010.4040301     
  -33961903.540075064       -1271704545.9167593        1061048783.8241419     
   94711231.850908637       -342696823.20173228        1275614095.2911572     
   78293567.257834584       -484230127.71585065        1221519504.7525821     
   50610489.995735794       -663314807.79338479        1164847519.3975668     
   11662000.064617157       -879950863.43432140        1105598139.2261443     
  -38551902.535522640       -1134138294.6386559        1043771364.2382859     
   85326675.117974371       -306299729.68450671        1322419202.8825359     
   69081632.596669555       -428303136.60294843        1254229646.7036579     
   42769987.655967116       -583861884.91938627        1184243372.1051028     
   6391740.2958545089       -772975974.63386106        1112460379.0868597     
  -40053109.483664751       -995645405.74634790        1038880667.6489346     
   70108894.469575986       -271652603.34191716        1376016585.6388757     
   56266978.010741636       -373456961.46744663        1295130675.7775838     
   33557269.382111251       -504820626.82562745        1213228723.8933678     
   1979768.5836993158       -665743599.41641319        1130310729.9862115     
  -38465524.384509712       -856225879.23986399        1046376694.0561053     
   49057889.905711606       -238755444.17396727        1436406243.5601654     
   39849603.500018507       -319691602.30944347        1344222591.9743669     
   22972335.174176484       -426191033.51208544        1251803574.7623744     
  -1573915.0718510151       -558253737.78201234        1159149191.9241753     
  -33789147.238050133       -715879715.11917531        1066259443.4597870     
   1346926458.0977063        8477886.4275587201        4263877042.4772391     
   1364213592.8017941        33850112.580032229        3696876103.5985661     
   1379267180.5859396        51777182.332700193        3231501760.9518933     
   1392087221.4501386        62259095.685546041        2867754014.5372176     
   1402673715.3943970        65295852.638593495        2605632864.3545399     
  -347721480.95529175       -401016482.55332923        2866235182.3133607     
  -114991280.82223693       -316057858.21983910        2588162074.3399501     
   116063759.12136391       -236683101.18453038        2360437097.8073621     
   345443638.87550813       -162892211.44740835        2183060252.7155905     
   573148358.44020236       -94685189.008453876        2056031539.0646405     
  -1137091870.1568584       -538927586.57878613        1466326626.7691221     
  -835428503.99820375       -438335533.88529301        1477832800.8865502     
  -534881911.29851532       -341466059.38835037        1488408641.6536155     
  -235452092.05779222       -248319163.08796203        1498054149.0703261     
   62860953.723970026       -158894844.98411262        1506769323.1366723     
  -1021184709.5069933       -405255425.64881510        64151375.844537549     
  -797098076.72610605       -332982914.41632664        365888283.23836881     
  -573569830.67369664       -262571692.27876335        615416392.49066269     
  -350599971.34976029       -194021759.23611361        812735703.60141742     
  -128188498.75429979       -127333115.28838594        957846216.57063532     
  0.99430427261645349       0.23658730652231905       -1340290570.4604027     
  0.99405611947007011       0.18705742083496421       -747671478.60459626     
  0.99582238060009809       0.14423947384475183       -258539649.68150470     
  0.99960033382508262       0.10812577939228066        127104916.30886756     
   1.0053943941115846        7.8736605147876781E-002   409262219.36652750     
   1402673715.3943970        65295852.638593495        2605632864.3545399     
   1358119160.1554148        50420177.058944583        2392628623.6838403     
   1314894777.4774396        39978410.015985548        2218161397.6831660     
   1273000567.3604727        33970551.509721160        2082231186.3525212     
   1232436529.8045106        32396601.540137589        1984837989.6918955     
   573148358.44020236       -94685189.008453876        2056031539.0646405     
   614051075.24722552       -83546355.727119654        1947447958.9542327     
   655951421.47646689       -69082091.038392603        1860060379.0874178     
   698849397.12792146       -51292394.942286968        1793868799.4642036     
   742745002.20159066       -30177267.438799083        1748873220.0845878     
   62860953.723970026       -158894844.98411262        1506769323.1366723     
   139675187.07292375       -136605229.49301597        1502218436.5912931     
   217154506.70530313       -112098659.72383146        1501522535.8630826     
   295298912.62110674       -85375135.676567376        1504681620.9520473     
   374108404.82033288       -56434657.351227194        1511695691.8581812     
  -128188498.75429979       -127333115.28838594        957846216.57063532     
  -65008504.367493123       -108756444.23874931        1056940056.5950285     
  -1495966.8360515572       -89071296.040332571        1142547868.0101666     
   62349113.840022743       -68277670.693138599        1214669650.8160501     
   126526737.66073179       -46375568.197163291        1273305405.0126779     
   1.0053943941115846        7.8736605147876781E-002   409262219.36652750     
  0.92597760960764608        3.5685282567748999E-002   611612818.96543741     
  0.85240779636251629        1.2123864183650801E-002   783136375.52866638     
  0.78467639894876662        8.0231380147625098E-003   923832889.05621338     
  0.72278712319325111        2.3397538485435798E-002   1033702359.5480789     
   1232436529.8045106        32396601.540137589        1984837989.6918955     
   1176785856.6418042        29852214.812364161        1891331047.9787230     
   1122149332.1865420        30688323.776071012        1811928589.7496109     
   1068526956.4387331        34904928.431287527        1746630615.0045643     
   1015918729.3983667        42502028.777983665        1695437123.7435868     
   742745002.20159066       -30177267.438799083        1748873220.0845878     
   719921682.30065334       -26411151.981815219        1696564067.5039551     
   697858973.93081427       -20109664.754498690        1653945971.9056733     
   676556877.09208357       -11272805.756825268        1621018933.2897422     
   656015391.78445196        99425.011181980371        1597782951.6561625     
   374108404.82033288       -56434657.351227194        1511695691.8581812     
   371502648.17626041       -50140976.710961401        1500288535.0376887     
   369403965.88694429       -42157048.221504420        1494159008.6978340     
   367812357.95238614       -32482871.882855669        1493307112.8386133     
   366727824.37258762       -21118447.695004702        1497732847.4600265     
   126526737.66073179       -46375568.197163291        1273305405.0126779     
   131528754.26862243       -41337259.375084043        1302504450.5799251     
   136784308.05492640       -35453826.624959491        1332567700.1260924     
   142293399.01964515       -28725269.946787491        1363495153.6511827     
   148056027.16277379       -21151589.340579540        1395286811.1551862     
  0.72278712319325111        2.3397538485435798E-002   1033702359.5480789     
  0.57774060261136795        2.5821835512298275E-002   1103211814.1306643     
  0.43476486147483856        3.5147342911559062E-002   1169172046.1904523     
  0.29385221362426156        5.1350521820051821E-002   1231583055.7274423     
  0.15501400529494369        7.4468499132741547E-002   1290444842.7416389     
   1015918729.3983667        42502028.777983665        1695437123.7435868     
   954651140.82664299        47008636.692705095        1645294830.1385741     
   892044556.97215188        47051926.998205304        1603474299.5903590     
   828098977.83489394        42631899.694480926        1569975532.0989408     
   762814403.41486251        33748554.781511188        1544798527.6643124     
   656015391.78445196        99425.011181980371        1597782951.6561625     
   614994665.63807940        4958370.5469861329        1570414123.9845884     
   572969693.02834904        6469827.8716009259        1550216734.1323965     
   529940473.95526725        4633796.9850439429        1537190782.0995805     
   485907008.41882265       -549722.11272224784        1531336267.8861485     
   366727824.37258762       -21118447.695004702        1497732847.4600265     
   342667317.11609328       -16893157.598764524        1493528026.0112064     
   317937312.21565521       -14899526.315669969        1495344317.1443536     
   292537809.67127681       -15137553.845708624        1503181720.8594625     
   266468809.48295408       -17607240.188897699        1517040237.1565392     
   148056027.16277379       -21151589.340579540        1395286811.1551862     
   137669095.26068634       -18545947.744545572        1414636536.2184365     
   126947414.53406812       -17056135.563612573        1438857048.6262348     
   115890984.98292556       -16682152.797762878        1467948348.3785808     
   104499806.60724778       -17423999.447027773        1501910435.4754815     
  0.15501400529494369        7.4468499132741547E-002   1290444842.7416389     
   7.1861472816304103E-002  0.10965463884889741        1333739654.6062708     
  -1.6407388268537312E-002  0.12778496209893300        1380754928.5780394     
 -0.10978864337798230       0.12887397193362338        1431490664.6569414     
 -0.20829373024923514       0.11288493034106843        1485946862.8429761     
   762814403.41486251        33748554.781511188        1544798527.6643124     
   691788479.66133153        23040075.737431049        1503401980.6240339     
   622033817.56566215        16569135.552886635        1478237177.1723232     
   553550417.12787580        14335734.227953970        1469304117.3091779     
   486338278.34795380        16339871.762568682        1476602801.0345936     
   485907008.41882265       -549722.11272224784        1531336267.8861485     
   453447336.20050478       -2338150.2167649269        1508923879.1739998     
   421941110.22460747       -948424.17940983176        1497887620.9142063     
   391388330.49113739        3619455.9993699640        1498227493.1067734     
   361788997.00008571        11365490.319550261        1509943495.7516942     
   266468809.48295408       -17607240.188897699        1517040237.1565392     
   258702208.41068327       -14637571.469655991        1513241222.1211619     
   251571238.16538575       -9549133.3271755576        1515962724.4019356     
   245075898.74707231       -2341925.7614117563        1525204743.9988644     
   239216190.15573454        6984051.2276035398        1540967280.9119396     
   104499806.60724778       -17423999.447027773        1501910435.4754815     
   107553096.29186334       -13858188.021248244        1516354009.4655201     
   110924201.38800728       -9232991.8903754130        1532462487.6355069     
   114613121.89568642       -3548411.0543832108        1550235869.9854357     
   118619857.81489424        3195554.4867017642        1569674156.5153091     
 -0.20829373024923514       0.11288493034106843        1485946862.8429761     
 -0.15595318077225848       0.12846386042842803        1518262241.2070792     
 -0.10753476863546307       0.13096899938185011        1547386910.6149216     
  -6.3027513611132874E-002  0.12043694796038817        1573320871.0665009     
  -2.2438003835897495E-002   9.6845745708610112E-002   1596064122.5618141     
   486338278.34795380        16339871.762568682        1476602801.0345936     
   428053027.21614420        18718856.098800957        1474641567.2927098     
   366977908.16745698        11798280.712107882        1478330163.7744837     
   303112921.20189703       -4421854.3974945694        1487668590.4799170     
   236458066.31945086       -29941549.230050758        1502656847.4090016     
   361788997.00008571        11365490.319550261        1509943495.7516942     
   318025461.37435740        13134849.379323915        1505831824.2703471     
   272169524.81165135        7929538.6491706669        1507381555.7107379     
   224221187.31199932       -4250441.8708013743        1514592690.0728693     
   174180448.87537152       -23405092.180693947        1527465227.3567438     
   239216190.15573454        6984051.2276035398        1540967280.9119396     
   210007434.88773981        8153704.4663543552        1535518883.1676886     
   179403745.66269940        4673577.8482903764        1535743461.0432658     
   147405122.48061556       -3456328.6265871152        1541641014.5386693     
   114011565.34148532       -16236014.958285846        1553211543.6538968     
   118619857.81489424        3195554.4867017642        1569674156.5153091     
   103998947.75631204        3775421.3599633723        1563702743.9847324     
   88680570.720600411        2030398.3094589040        1563415879.7720637     
   72664726.707760945       -2039514.6648042053        1568813563.8773086     
   55951415.717800386       -8434317.5628073774        1579895796.3004699     
  -2.2438003835897495E-002   9.6845745708610112E-002   1596064122.5618141     
  -1.9933322391963611E-002   6.0123792391617359E-002   1590383406.7214808     
  -1.4645061720107601E-002   3.2681824279812505E-002   1590398811.8971376     
  -6.5590619016706016E-003   1.4565306378582417E-002   1596110338.0887918     
   4.3070858235272590E-003   5.7152542771648010E-003   1607517985.2964480     
   236458066.31945086       -29941549.230050758        1502656847.4090016     
   196628497.55032074       -58743438.518347517        1481533077.3181057     
   152118611.89166114       -103146384.10507599        1463450053.3130014     
   102928409.34345222       -163150385.99030629        1448407775.3936889     
   49057889.905711606       -238755444.17396727        1436406243.5601654     
   174180448.87537152       -23405092.180693947        1527465227.3567438     
   144397851.41399702       -44979635.414248839        1502291239.7461891     
   111105016.28545791       -78254970.871688575        1480137096.4277875     
   74301943.489744395       -123231098.55303937        1461002797.4015365     
   33988633.026871160       -179908018.45826024        1444888342.6674557     
   114011565.34148532       -16236014.958285846        1553211543.6538968     
   94216219.777474836       -30601127.960231349        1525352430.9497814     
   72080715.768671870       -52766769.111480966        1500492260.7441857     
   47605053.315069772       -82732938.412062109        1478631033.0371096     
   20789232.416673116       -120499635.86196049        1459768747.8285577     
   55951415.717800386       -8434317.5628073774        1579895796.3004699     
   46083602.640765086       -15607916.156252647        1550716650.9288898     
   35045710.341302194       -26681778.824459296        1524515546.2621992     
   22837738.819419377       -41655905.567397766        1501292482.3003900     
   9459688.0751169175       -60530296.385068178        1481047459.0434673     
   4.3070858235272590E-003   5.7152542771648010E-003   1607517985.2964480     
   3.8605565630736253E-003  -2.3456968967949065E-003   1578383899.6835144     
   3.3632895003819691E-003  -1.0575080188824292E-002   1552206952.9818234     
   2.8144382428991798E-003  -1.8978145520300103E-002   1528987145.1913867     
   2.2042807140016506E-003  -2.7582789532263487E-002   1508724476.3121979     
   49057889.905711606       -238755444.17396727        1436406243.5601654     
   39849603.500018507       -319691602.30944347        1344222591.9743669     
   22972335.174176484       -426191033.51208544        1251803574.7623744     
  -1573915.0718510151       -558253737.78201234        1159149191.9241753     
  -33789147.238050133       -715879715.11917531        1066259443.4597870     
   33988633.026871160       -179908018.45826024        1444888342.6674557     
   29683673.412121236       -239829760.50509804        1345226908.6267142     
   19626977.357249558       -318923957.35234326        1244723149.4155130     
   3818544.8622620106       -417190608.99997526        1143377065.0338449     
  -17741624.072850227       -534629715.44802302        1041188655.4817489     
   20789232.416673116       -120499635.86196049        1459768747.8285577     
   19653429.466398112       -159927212.85813707        1354866317.7262607     
   14683135.556056753       -212136426.38786751        1248514602.9092464     
   5878350.6856441647       -277127276.45116735        1140713603.3775165     
  -6760925.1448438615       -354899763.04805535        1031463319.1310719     
   9459688.0751169175       -60530296.385068178        1481047459.0434673     
   9758871.6628646329       -79983959.368500873        1373140819.2730219     
   8140809.7705903351       -105828440.61867382        1263177935.2435896     
   4605502.3982972652       -138063740.13557979        1151158806.9551709     
  -847050.45401818305       -176689857.91922200        1037083434.4078060     
   2.2042807140016506E-003  -2.7582789532263487E-002   1508724476.3121979     
   1.5179249798494554E-003  -3.6208627671266327E-002   1400050413.2669759     
   8.4936636478706237E-004  -4.4775835969360231E-002   1288713146.4185221     
   2.2241823767370217E-004  -5.3203995696262149E-002   1174712675.7668276     
  -3.8302694349567901E-004  -6.1559091157903360E-002   1058049001.3119038     
  0.99430427261645349       0.23658730652231905       -1340290570.4604027     
  0.99405611947007011       0.18705742083496421       -747671478.60459626     
  0.99582238060009809       0.14423947384475183       -258539649.68150470     
  0.99960033382508262       0.10812577939228066        127104916.30886756     
   1.0053943941115846        7.8736605147876781E-002   409262219.36652750     
   1021184711.5623553        405255426.48101294        64151375.874826461     
   797098078.75364077        332982915.04979104        365888283.24735087     
   573569832.68515575        262571692.75266889        615416392.48030937     
   350599973.35690296        194021759.58964813        812735703.57371128     
   128188500.76887882        127333115.56072858        957846216.52755225     
   1137091872.1889627        538927587.74300873        1466326626.7900133     
   835428505.98079872        438335534.75279999        1477832800.8738346     
   534881913.25108099        341466060.02407634        1488408641.6112545     
   235452093.99981326        248319163.55684963        1498054149.0022688     
  -62860951.773008935        158894845.35111225        1506769323.0468819     
   347721482.87412685        401016484.02256912        2866235182.2851553     
   114991282.67553298        316057859.29607934        2588162074.2748642     
  -116063757.30639999        236683101.95846164        2360437097.7113280     
  -345443637.07166374        162892212.00973985        2183060252.5945439     
  -573148356.62026799        94685189.449886143        2056031538.9245124     
  -1346926456.3821514       -8477884.6803014874        4263877042.3602495     
  -1364213591.1621611       -33850111.320369840        3696876103.4504371     
  -1379267178.9872909       -51777181.444175124        3231501760.7805295     
  -1392087219.8575358       -62259095.051699936        2867754014.3505335     
  -1402673713.7729020       -65295852.142955720        2605632864.1604438     
   1.0053943941115846        7.8736605147876781E-002   409262219.36652750     
  0.92597760960764608        3.5685282567748999E-002   611612818.96543741     
  0.85240779636251629        1.2123864183650801E-002   783136375.52866638     
  0.78467639894876662        8.0231380147625098E-003   923832889.05621338     
  0.72278712319325111        2.3397538485435798E-002   1033702359.5480789     
   128188500.76887882        127333115.56072858        957846216.52755225     
   65008506.221225306        108756444.41608697        1056940056.5426695     
   1495968.5413642488        89071296.164084122        1142547867.9490387     
  -62349112.270702511        68277670.804729298        1214669650.7466600     
  -126526736.21497646        46375568.338019162        1273305404.9355316     
  -62860951.773008935        158894845.35111225        1506769323.0468819     
  -139675185.28337502        136605229.75653508        1502218436.4838150     
  -217154505.06399927        112098659.92776501        1501522535.7389326     
  -295298911.11487967        85375135.864805967        1504681620.8122346     
  -374108403.43601882        56434657.567653820        1511695691.7037227     
  -573148356.62026799        94685189.449886143        2056031538.9245124     
  -614051073.58782411        83546356.057031453        1947447958.7888687     
  -655951419.96368778        69082091.303146720        1860060378.8983426     
  -698849395.74785817        51292395.188242197        1793868799.2529354     
  -742745000.94033718        30177267.712309003        1748873219.8526471     
  -1402673713.7729020       -65295852.142955720        2605632864.1604438     
  -1358119158.6921225       -50420176.682433546        2392628623.4578323     
  -1314894776.1577053       -39978409.709780157        2218161397.4272742     
  -1273000566.1696391       -33970551.224966347        2082231186.0687649     
  -1232436528.7279341       -32396601.228022754        1984837989.3823085     
  0.72278712319325111        2.3397538485435798E-002   1033702359.5480789     
  0.57774060261136795        2.5821835512298275E-002   1103211814.1306643     
  0.43476486147483856        3.5147342911559062E-002   1169172046.1904523     
  0.29385221362426156        5.1350521820051821E-002   1231583055.7274423     
  0.15501400529494369        7.4468499132741547E-002   1290444842.7416389     
  -126526736.21497646        46375568.338019162        1273305404.9355316     
  -131528753.10486601        41337259.519671679        1302504450.4880869     
  -136784307.17107084        35453826.780270673        1332567700.0260451     
  -142293398.41360572        28725270.119769305        1363495153.5494077     
  -148056026.83246267        21151589.538197398        1395286811.0581701     
  -374108403.43601882        56434657.567653820        1511695691.7037227     
  -371502647.04731762        50140976.935580477        1500288534.8514569     
  -369403965.01333117        42157048.454459146        1494159008.4927933     
  -367812357.33406401        32482872.124274433        1493307112.6277316     
  -366727824.00950593        21118447.945056319        1497732847.2562759     
  -742745000.94033718        30177267.712309003        1748873219.8526471     
  -719921681.24962378        26411152.273523390        1696564067.2207704     
  -697858973.09201455        20109665.057722777        1653945971.5906999     
  -676556876.46751058        11272806.064903200        1621018932.9624307     
  -656015391.37611973       -99424.704955905676        1597782951.3359621     
  -1232436528.7279341       -32396601.228022754        1984837989.3823085     
  -1176785855.7117796       -29852214.466486931        1891331047.5960355     
  -1122149331.4071200       -30688323.409939408        1811928589.3197632     
  -1068526955.8139620       -34904928.058396816        1746630614.5534894     
  -1015918728.9322987       -42502028.411834359        1695437123.2972221     
  0.15501400529494369        7.4468499132741547E-002   1290444842.7416389     
   7.1861472816304103E-002  0.10965463884889741        1333739654.6062708     
  -1.6407388268537312E-002  0.12778496209893300        1380754928.5780394     
 -0.10978864337798230       0.12887397193362338        1431490664.6569414     
 -0.20829373024923514       0.11288493034106843        1485946862.8429761     
  -148056026.83246267        21151589.538197398        1395286811.0581701     
  -137669095.09710494        18545947.987608984        1414636536.1167419     
  -126947414.54714370        17056135.819033705        1438857048.5252855     
  -115890985.18257996        16682153.032464556        1467948348.2838054     
  -104499807.00341758        17423999.627893753        1501910435.3922982     
  -366727824.00950593        21118447.945056319        1497732847.2562759     
  -342667316.90466607        16893157.873994932        1493528025.7984555     
  -317937312.16550660        14899526.583994448        1495344316.9334497     
  -292537809.79202741        15137554.075061619        1503181720.6612623     
  -266468809.78422689        17607240.347200260        1517040236.9818816     
  -656015391.37611973       -99424.704955905676        1597782951.3359621     
  -614994665.35082817       -4958370.2312110960        1570414123.6514223     
  -572969692.87150013       -6469827.5773439407        1550216733.8025367     
  -529940473.93813050       -4633796.7433396578        1537190781.7893059     
  -485907008.55072212        549722.27079600096        1531336267.6117306     
  -1015918728.9322987       -42502028.411834359        1695437123.2972221     
  -954651140.43558455       -47008636.327985406        1645294829.6756356     
  -892044556.66511476       -47051926.664952904        1603474299.1325450     
  -828098977.62088907       -42631899.422731966        1569975531.6679449     
  -762814403.30290389       -33748554.601314217        1544798527.2818415     
 -0.20829373024923514       0.11288493034106843        1485946862.8429761     
 -0.15595318077225848       0.12846386042842803        1518262241.2070792     
 -0.10753476863546307       0.13096899938185011        1547386910.6149216     
  -6.3027513611132874E-002  0.12043694796038817        1573320871.0665009     
  -2.2438003835897495E-002   9.6845745708610112E-002   1596064122.5618141     
  -104499807.00341758        17423999.627893753        1501910435.3922982     
  -107553096.59526770        13858188.213398755        1516354009.3989987     
  -110924201.60302162        9232992.0792230368        1532462487.5810657     
  -114613122.02668145        3548411.2253618017        1550235869.9384942     
  -118619857.86623831       -3195554.3481564596        1569674156.4712923     
  -266468809.78422689        17607240.347200260        1517040236.9818816     
  -258702208.64419389        14637571.615435153        1513241221.9838660     
  -251571238.33204302        9549133.4573967308        1515962724.2928410     
  -245075898.84777907        2341925.8730668873        1525204743.9088054     
  -239216190.19140026       -6984051.1375438571        1540967280.8317685     
  -485907008.55072212        549722.27079600096        1531336267.6117306     
  -453447336.30272472        2338150.3345976770        1508923878.9616797     
  -421941110.29458988        948424.26551610231        1497887620.7502491     
  -391388330.52632475       -3619455.9364624619        1498227492.9774415     
  -361788996.99793380       -11365490.271351054        1509943495.6432528     
  -762814403.30290389       -33748554.601314217        1544798527.2818415     
  -691788479.57085776       -23040075.629113853        1503401980.3324442     
  -622033817.49066627       -16569135.496428370        1478237176.9532957     
  -553550417.06232405       -14335734.203239143        1469304117.1443944     
  -486338278.28583890       -16339871.749576360        1476602800.9057429     
  -2.2438003835897495E-002   9.6845745708610112E-002   1596064122.5618141     
  -1.9933322391963611E-002   6.0123792391617359E-002   1590383406.7214808     
  -1.4645061720107601E-002   3.2681824279812505E-002   1590398811.8971376     
  -6.5590619016706016E-003   1.4565306378582417E-002   1596110338.0887918     
   4.3070858235272590E-003   5.7152542771648010E-003   1607517985.2964480     
  -118619857.86623831       -3195554.3481564596        1569674156.4712923     
  -103998947.79887648       -3775421.2756653503        1563702743.9532769     
  -88680570.750412554       -2030398.2661697455        1563415879.7516501     
  -72664726.720820248        2039514.6804194339        1568813563.8664002     
  -55951415.710119098        8434317.5640426204        1579895796.2975385     
  -239216190.19140026       -6984051.1375438571        1540967280.8317685     
  -210007434.91523024       -8153704.4126893431        1535518883.1107924     
  -179403745.67961729       -4673577.8230250031        1535743461.0065925     
  -147405122.48456773        3456328.6314278916        1541641014.5191574     
  -114011565.33007383        16236014.950698100        1553211543.6484947     
  -361788996.99793380       -11365490.271351054        1509943495.6432528     
  -318025461.36899215       -13134849.350933269        1505831824.1940286     
  -272169524.80227435       -7929538.6379330456        1507381555.6619649     
  -224221187.29779756        4250441.8675981760        1514592690.0470569     
  -174180448.85555139        23405092.165696733        1527465227.3493049     
  -486338278.28583890       -16339871.749576360        1476602800.9057429     
  -428053027.16015947       -18718856.090395510        1474641567.2029867     
  -366977908.11837536       -11798280.710864276        1478330163.7177725     
  -303112921.16051757        4421854.3889122754        1487668590.4500992     
  -236458066.28655270        29941549.209044889        1502656847.3999729     
   4.3070858235272590E-003   5.7152542771648010E-003   1607517985.2964480     
   3.8605565630736253E-003  -2.3456968967949065E-003   1578383899.6835144     
   3.3632895003819691E-003  -1.0575080188824292E-002   1552206952.9818234     
   2.8144382428991798E-003  -1.8978145520300103E-002   1528987145.1913867     
   2.2042807140016506E-003  -2.7582789532263487E-002   1508724476.3121979     
  -55951415.710119098        8434317.5640426204        1579895796.2975385     
  -46083602.633990645        15607916.142678294        1550716650.9273973     
  -35045710.335416511        26681778.796133239        1524515546.2618206     
  -22837738.814402282        41655905.524388708        1501292482.3008122     
  -9459688.0709516369        60530296.327431530        1481047459.0443840     
  -114011565.33007383        16236014.950698100        1553211543.6484947     
  -94216219.767867148        30601127.938908026        1525352430.9473767     
  -72080715.760727525        52766769.076895520        1500492260.7441511     
  -47605053.308655642        82732938.364657909        1478631033.0388229     
  -20789232.411651097        120499635.80219612        1459768747.8313837     
  -174180448.85555139        23405092.165696733        1527465227.3493049     
  -144397851.39777875        44979635.386313900        1502291239.7434573     
  -111105016.27257685        78254970.831689641        1480137096.4288244     
  -74301943.479949534        123231098.50182158        1461002797.4054081     
  -33988633.019902520        179908018.39668176        1444888342.6732178     
  -236458066.28655270        29941549.209044889        1502656847.3999729     
  -196628497.52371448        58743438.484925851        1481533077.3156333     
  -152118611.87096047        103146384.06053014        1463450053.3158362     
  -102928409.32828921        163150385.93585655        1448407775.4005744     
  -49057889.895695359        238755444.11092496        1436406243.5698681     
   2.2042807140016506E-003  -2.7582789532263487E-002   1508724476.3121979     
   1.5179249798494554E-003  -3.6208627671266327E-002   1400050413.2669759     
   8.4936636478706237E-004  -4.4775835969360231E-002   1288713146.4185221     
   2.2241823767370217E-004  -5.3203995696262149E-002   1174712675.7668276     
  -3.8302694349567901E-004  -6.1559091157903360E-002   1058049001.3119038     
  -9459688.0709516369        60530296.327431530        1481047459.0443840     
  -9758871.6595901623        79983959.295907065        1373140819.2741382     
  -8140809.7684353814        105828440.53035647        1263177935.2447577     
  -4605502.3974724114        138063740.03083748        1151158806.9562516     
   847050.45327632874        176689857.79726347        1037083434.4085964     
  -20789232.411651097        120499635.80219612        1459768747.8313837     
  -19653429.462227210        159927212.78560406        1354866317.7291751     
  -14683135.553245172        212136426.30087122        1248514602.9119334     
  -5878350.6847016662        277127276.34800869        1140713603.3796532     
   6760925.1434005201        354899762.92701221        1031463319.1323529     
  -33988633.019902520        179908018.39668176        1444888342.6732178     
  -29683673.406407163        239829760.43283814        1345226908.6320958     
  -19626977.353596240        318923957.26671028        1244723149.4200382     
  -3818544.8614604175        417190608.89833266        1143377065.0370536     
   17741624.070000678        534629715.32771033        1041188655.4831433     
  -49057889.895695359        238755444.11092496        1436406243.5698681     
  -39849603.492138088        319691602.23758030        1344222591.9828908     
  -22972335.169486344        426191033.42788595        1251803574.7690883     
   1573915.0722459257        558253737.68179584        1159149191.9284544     
   33789147.233073711        715879714.99935031        1066259443.4609860     
  -1346926456.3821514       -8477884.6803014874        4263877042.3602495     
  -1364213591.1621611       -33850111.320369840        3696876103.4504371     
  -1379267178.9872909       -51777181.444175124        3231501760.7805295     
  -1392087219.8575358       -62259095.051699936        2867754014.3505335     
  -1402673713.7729020       -65295852.142955720        2605632864.1604438     
  -2956499879.2730289       -322355885.97968912        2453615631.4162655     
  -2759531704.1006112       -272384934.10125625        2219925170.5101938     
  -2563081304.0800939       -224139899.39584053        2032033002.9002686     
  -2367148679.2114844       -177620781.86344743        1889939128.5864985     
  -2171733829.4947777       -132827581.50405347        1793643547.5688796     
  -3536862551.9052067       -327470662.20146501        649215537.41898036     
  -3285148503.7625136       -250009362.89917672        745625678.72538853     
  -3036703552.8785152       -183445054.45919502        832005810.38419878     
  -2791527699.2532058       -127777736.88151872        908355932.39540470     
  -2549620942.8865862       -83007410.166139245        974676044.75900519     
  -3088014474.2786751       -23822213.345629096       -1149323239.6316230     
  -2941063990.1478739        33276602.285864830       -726022371.90397239     
  -2800133925.3825502        70307353.365762472       -368579816.76768267     
  -2665224279.9827023        87270039.894076943       -76995574.222750783     
  -2536335053.9483328        84164661.870799184        148730355.73082194     
  -1609955646.3934438        588589460.58781683       -2942000699.7355266     
  -1727278163.2566891        577472961.45386958       -2195018981.3778915     
  -1853372421.5921991        537117324.07904482       -1569723878.5553713     
  -1988238421.3999739        467522548.46332943       -1066115391.2679662     
  -2131876162.6800094        368688634.60675192       -684193519.51567686     
  -1402673713.7729020       -65295852.142955720        2605632864.1604438     
  -1358119158.6921225       -50420176.682433546        2392628623.4578323     
  -1314894776.1577053       -39978409.709780157        2218161397.4272742     
  -1273000566.1696391       -33970551.224966347        2082231186.0687649     
  -1232436528.7279341       -32396601.228022754        1984837989.3823085     
  -2171733829.4947777       -132827581.50405347        1793643547.5688796     
  -2051321798.1834202       -112112091.69062805        1706434585.6451662     
  -1931431682.9449983       -93136322.120322049        1637692864.3760993     
  -1812063483.7795212       -75900272.793165326        1587418383.7616796     
  -1693217200.6869805       -60403943.709128618        1555611143.8019047     
  -2549620942.8865862       -83007410.166139245        974676044.75900519     
  -2410693646.8229446       -73654769.443282247        1014205327.4998422     
  -2271480010.3588271       -63347660.718834519        1052132076.8779203     
  -2131980033.4942336       -52086083.992799878        1088456292.8932405     
  -1992193716.2291620       -39870039.265174985        1123177975.5458012     
  -2536335053.9483328        84164661.870799184        148730355.73082194     
  -2436234704.6107097        64951790.059583783        315940849.02185947     
  -2335039758.3991938        49387574.494686604        461479034.93273634     
  -2232750215.3137817        37472015.176108003        585344913.46344960     
  -2129366075.3544750        29205112.103839040        687538484.61399996     
  -2131876162.6800094        368688634.60675192       -684193519.51567686     
  -2127944971.5467050        303707586.81798756       -388358849.78877926     
  -2122110927.0660882        245069383.52026176       -134266261.45945215     
  -2114374029.2381611        192774024.71356797        78084245.472307071     
  -2104734278.0629253        146821510.39791203        248692671.00649902     
  -1232436528.7279341       -32396601.228022754        1984837989.3823085     
  -1176785855.7117796       -29852214.466486931        1891331047.5960355     
  -1122149331.4071200       -30688323.409939408        1811928589.3197632     
  -1068526955.8139620       -34904928.058396816        1746630614.5534894     
  -1015918728.9322987       -42502028.411834359        1695437123.2972221     
  -1693217200.6869805       -60403943.709128618        1555611143.8019047     
  -1608494670.5180759       -56799329.844155669        1514766806.6533024     
  -1524341162.3039007       -55091455.828283250        1481936285.2421741     
  -1440756676.0444560       -55280321.661508679        1457119579.5685184     
  -1357741211.7397451       -57365927.343851984        1440316689.6323349     
  -1992193716.2291620       -39870039.265174985        1123177975.5458012     
  -1895801236.8290167       -40425770.673218489        1135515557.5844309     
  -1799532652.6268392       -41394486.074478030        1149776287.5880096     
  -1703387963.6226201       -42776185.468935192        1165960165.5565305     
  -1607367169.8163698       -44570868.856624603        1184067191.4899960     
  -2129366075.3544750        29205112.103839040        687538484.61399996     
  -2038705554.6446018        19268463.046329260        753577300.38942540     
  -1947723802.3759246        10402585.851489902        815448596.35726988     
  -1856420818.5484405        2607480.5193415880        873152372.51753235     
  -1764796603.1621602       -4116852.9501461983        926688628.87020862     
  -2104734278.0629253        146821510.39791203        248692671.00649902     
  -2037207623.9648311        122283371.31447673        368952035.06828004     
  -1968914611.5511680        100299759.94960368        478953211.54995310     
  -1899855240.8219280        80870676.303319097        578696200.45151138     
  -1830029511.7771280        63996120.375572324        668181001.77296233     
  -1015918728.9322987       -42502028.411834359        1695437123.2972221     
  -954651140.43558455       -47008636.327985406        1645294829.6756356     
  -892044556.66511476       -47051926.664952904        1603474299.1325450     
  -828098977.62088907       -42631899.422731966        1569975531.6679449     
  -762814403.30290389       -33748554.601314217        1544798527.2818415     
  -1357741211.7397451       -57365927.343851984        1440316689.6323349     
  -1276923398.6673715       -60130495.832456052        1422545174.8344665     
  -1195549531.1808753       -61041549.607315421        1411088522.1484075     
  -1113619609.2802508       -60099088.668412328        1405946731.5741591     
  -1031133632.9654937       -57303113.015739799        1407119803.1117151     
  -1607367169.8163698       -44570868.856624603        1184067191.4899960     
  -1512733134.9302900       -47313598.746277928        1197753024.5129411     
  -1418325986.4897165       -50812616.787608385        1215746818.6810148     
  -1324145724.4946396       -55067922.980597496        1238048573.9942100     
  -1230192348.9450669       -60079517.325270236        1264658290.4525387     
  -1764796603.1621602       -4116852.9501461983        926688628.87020862     
  -1662080349.2243285       -8557945.0694265366        970918378.71106267     
  -1560373922.5916286       -16365128.205812812        1017449188.7303629     
  -1459677323.2640579       -27538402.359296381        1066281058.9281096     
  -1359990551.2416193       -42077767.529886305        1117413989.3042948     
  -1830029511.7771280        63996120.375572324        668181001.77296233     
  -1724965041.5494919        56136465.198087335        742041237.42882752     
  -1621693339.4866221        42300916.138048410        816195632.29645741     
  -1520214405.5885024        22489473.195504248        890644186.37584472     
  -1420528239.8551545       -3297863.6296037436        965386899.66699529     
  -762814403.30290389       -33748554.601314217        1544798527.2818415     
  -691788479.57085776       -23040075.629113853        1503401980.3324442     
  -622033817.49066627       -16569135.496428370        1478237176.9532957     
  -553550417.06232405       -14335734.203239143        1469304117.1443944     
  -486338278.28583890       -16339871.749576360        1476602800.9057429     
  -1031133632.9654937       -57303113.015739799        1407119803.1117151     
  -926302292.64053750       -47719297.169189394        1385831006.6713998     
  -821971469.81267571       -39803872.979614317        1374574170.9151413     
  -718141164.48191440       -33556840.447041392        1373349295.8429496     
  -614811376.64824736       -28978199.571453631        1382156381.4548197     
  -1230192348.9450669       -60079517.325270236        1264658290.4525387     
  -1109269257.4162903       -56934464.221070230        1264376446.0351763     
  -988075939.22986245       -52888655.591354311        1267926779.4156938     
  -866612394.38577414       -47942091.436111301        1275309290.5940905     
  -744878622.88403177       -42094771.755350381        1286523979.5703669     
  -1359990551.2416193       -42077767.529886305        1117413989.3042948     
  -1240689373.8981247       -50685576.784777224        1139038298.4237700     
  -1120347225.7422245       -55823483.331646442        1158295002.4549417     
  -998964106.77390993       -57491487.170467228        1175184101.3978083     
  -876540016.99318540       -55689588.301257908        1189705595.2523694     
  -1420528239.8551545       -3297863.6296037436        965386899.66699529     
  -1320562642.0860410       -28972634.860318601        1009816563.8371907     
  -1218785329.3497658       -48608356.200497329        1045678840.0328952     
  -1115196301.6463175       -62205027.650099337        1072973728.2541076     
  -1009795558.9757105       -69762649.209170163        1091701228.5008366     
  -486338278.28583890       -16339871.749576360        1476602800.9057429     
  -428053027.16015947       -18718856.090395510        1474641567.2029867     
  -366977908.11837536       -11798280.710864276        1478330163.7177725     
  -303112921.16051757        4421854.3889122754        1487668590.4500992     
  -236458066.28655270        29941549.209044889        1502656847.3999729     
  -614811376.64824736       -28978199.571453631        1382156381.4548197     
  -541930107.61686623       -30171609.306706458        1382677084.4059789     
  -466331284.80496341       -22306506.440215334        1388502069.0811594     
  -388014908.21254122       -5382890.9719975889        1399631335.4803588     
  -306980977.83959973        20599237.097950086        1416064883.6035841     
  -744878622.88403177       -42094771.755350381        1286523979.5703669     
  -658388617.35701001       -42398791.308053553        1289442252.6839371     
  -569253372.18504357       -33885345.377595693        1297319259.0280051     
  -477472887.36812997       -16554433.963984042        1310154998.6025722     
  -383047162.90626943        9593942.9327784330        1327949471.4076390     
  -876540016.99318540       -55689588.301257908        1189705595.2523694     
  -777428556.38059235       -55400402.094429702        1194937072.0368569     
  -675744170.25862467       -46534797.523025542        1204781733.5583177     
  -571486858.62728798       -29092774.587057769        1219239579.8167510     
  -464656621.48657012       -3074333.2864808142        1238310610.8121653     
  -1009795558.9757105       -69762649.209170163        1091701228.5008366     
  -899049924.68760753       -69176441.665839016        1099161542.4647336     
  -785803679.02570856       -60254862.876521230        1110889492.6720843     
  -670056821.98999596       -42997912.841155231        1126885079.1228867     
  -551809353.58049512       -17405591.559834033        1147148301.8171468     
  -236458066.28655270        29941549.209044889        1502656847.3999729     
  -196628497.52371448        58743438.484925851        1481533077.3156333     
  -152118611.87096047        103146384.06053014        1463450053.3158362     
  -102928409.32828921        163150385.93585655        1448407775.4005744     
  -49057889.895695359        238755444.11092496        1436406243.5698681     
  -306980977.83959973        20599237.097950086        1416064883.6035841     
  -257456343.47452867        51051290.374391526        1399998524.7024307     
  -201469451.45557955        103044202.49708714        1387968355.4106400     
  -139020301.78273809        176577973.46609157        1379974375.7282057     
  -70108894.456014648        271652603.28136718        1376016585.6551249     
  -383047162.90626943        9593942.9327784330        1327949471.4076390     
  -320983338.58235186        42549397.516741186        1319019454.5809755     
  -250675315.84058312        102985513.49353547        1315121070.8884864     
  -172123094.68096226        190902290.86316741        1316254320.3301723     
  -85326675.103488982        306299729.62564623        1322419202.9060318     
  -464656621.48657012       -3074333.2864808142        1238310610.8121653     
  -387209482.84718144        33237759.911998928        1238595866.9512804     
  -299736205.02597749        102970317.04986323        1244908199.7493856     
  -202236788.02295211        206123338.12713349        1257247609.2064848     
  -94711231.838110149        342696823.14378953        1275614095.3225770     
  -551809353.58049512       -17405591.559834033        1147148301.8171468     
  -456134776.26902044        23116377.560140520        1158727761.8133359     
  -348652119.01175696        102998613.16608045        1177329741.9933348     
  -229361381.80871338        222241115.25795281        1202954242.3571403     
  -98262564.659880877        380843883.83578801        1235601262.9047515     
  -49057889.895695359        238755444.11092496        1436406243.5698681     
  -39849603.492138088        319691602.23758030        1344222591.9828908     
  -22972335.169486344        426191033.42788595        1251803574.7690883     
   1573915.0722459257        558253737.68179584        1159149191.9284544     
   33789147.233073711        715879714.99935031        1066259443.4609860     
  -70108894.456014648        271652603.28136718        1376016585.6551249     
  -56266978.000182554        373456961.39969611        1295130675.7906404     
  -33557269.375591695        504820626.74721926        1213228723.9027975     
  -1979768.5822432637        665743599.32394230        1130310729.9916043     
   38465524.379858226        856225879.12982213        1046376694.0570923     
  -85326675.103488982        306299729.62564623        1322419202.9060318     
  -69081632.585422397        428303136.53865331        1254229646.7219667     
  -42769987.648929656        583861884.84640348        1184243372.1180446     
  -6391740.2940193713        772975974.54888630        1112460379.0942600     
   40053109.479316294        995645405.64612246        1038880667.6506127     
  -94711231.838110149        342696823.14378953        1275614095.3225770     
  -78293567.247858435        484230127.65443844        1221519504.7768857     
  -50610489.989515573        663314807.72538292        1164847519.4148159     
  -11662000.063083529        879950863.35663879        1105598139.2363670     
   38551902.531451941        1134138294.5482197        1043771364.2415544     
  -98262564.659880877        380843883.83578801        1235601262.9047515     
  -83902781.987483710        541237934.74707997        1197000249.9553814     
  -57078776.397332907        743179395.38422310        1155041165.7931187     
  -17790547.889424980        986668265.74722576        1109724010.4179599     
   33961903.536248088        1271704545.8361013        1061048783.8299218     
  -1609955646.3934438        588589460.58781683       -2942000699.7355266     
  -1727278163.2566891        577472961.45386958       -2195018981.3778915     
  -1853372421.5921991        537117324.07904482       -1569723878.5553713     
  -1988238421.3999739        467522548.46332943       -1066115391.2679662     
  -2131876162.6800094        368688634.60675192       -684193519.51567686     
  -147929923.25064391        1293269311.6041386       -1187253813.7338839     
  -567609742.42192197        1058217785.7665989       -804928602.13895774     
  -982016562.01590979        840742925.18669510       -481822001.39118987     
  -1391150382.0326052        640844729.86442065       -217934011.49057928     
  -1795011202.4720142        458523199.79978883       -13264632.437129600     
   188811296.07897651        1660363811.4765012        508058831.26659828     
  -354745812.00617635        1254921262.9536216        542113067.32329643     
  -878985179.46448493        913871183.18688869        579416697.22079670     
  -1383906806.2959490        637213572.17629993        619969720.95909035     
  -1869510692.5005701        424948429.92186534        663772138.53818405     
  -599731988.40461063        1689872960.2049029        2143937235.2659261     
  -1088686372.0094705        1167583393.0149322        1846106027.0088789     
  -1544278273.9379406        756502098.07961607        1613992217.2805836     
  -1966507694.1900051        456629075.39896309        1447595806.0810461     
  -2355374632.7656736        267964324.97297335        1346916793.4102569     
  -2513559776.7013750        1381796757.7893543        3720381398.2640996     
  -2769431422.4317899        796204175.95053542        3107050276.9177847     
  -2977895845.4362569        368635669.86489010        2621904558.7881789     
  -3138953045.7147703        99091239.532410979        2264944243.8752832     
  -3252603023.2673287       -12429115.046880722        2036169332.1790967     
  -2131876162.6800094        368688634.60675192       -684193519.51567686     
  -2127944971.5467050        303707586.81798756       -388358849.78877926     
  -2122110927.0660882        245069383.52026176       -134266261.45945215     
  -2114374029.2381611        192774024.71356797        78084245.472307071     
  -2104734278.0629253        146821510.39791203        248692671.00649902     
  -1795011202.4720142        458523199.79978883       -13264632.437129600     
  -1875384680.5911169        382153608.19997334        150683115.41640043     
  -1955159244.5938449        307780396.98805714        294151324.58358437     
  -2034334894.4802008        235403566.16405153        417139995.06441909     
  -2112911630.2501814        165023115.72797334        519649126.85890865     
  -1869510692.5005701        424948429.92186534        663772138.53818405     
  -1973438717.8400156        355415331.12060952        694311702.08225334     
  -2078071768.2940302        283532148.60412765        725634269.65119565     
  -2183409843.8626060        209298882.37244213        757739841.24501204     
  -2289452944.5457468        132715532.42553496        790628416.86370444     
  -2355374632.7656736        267964324.97297335        1346916793.4102569     
  -2422107083.2934055        223492755.57989693        1242526910.2087724     
  -2490848498.1666393        172324638.36847579        1160182573.7433839     
  -2561598877.3853807        114459973.33870530        1099883784.0140934     
  -2634358220.9496174        49898760.490605474        1061630541.0208985     
  -3252603023.2673287       -12429115.046880722        2036169332.1790967     
  -3221389776.9512835       -13614118.422157288        1795328739.7959647     
  -3193489434.2116866       -25842133.718929052        1597796236.8601501     
  -3168901995.0485158       -49113160.937121987        1443571823.3716533     
  -3147627459.4617934       -83427200.076809406        1332655499.3304715     
  -2104734278.0629253        146821510.39791203        248692671.00649902     
  -2037207623.9648311        122283371.31447673        368952035.06828004     
  -1968914611.5511680        100299759.94960368        478953211.54995310     
  -1899855240.8219280        80870676.303319097        578696200.45151138     
  -1830029511.7771280        63996120.375572324        668181001.77296233     
  -2112911630.2501814        165023115.72797334        519649126.85890865     
  -2065986595.2426314        134973474.60083771        585080086.62201452     
  -2017893258.0378108        108818174.13126087        646193719.75182211     
  -1968631618.6357155        86557214.319259405        702990026.24833333     
  -1918201677.0363536        68190595.164827585        755469006.11154509     
  -2289452944.5457468        132715532.42553496        790628416.86370444     
  -2246155640.2092719        102246555.78053319        801699906.85678601     
  -2201288089.7938256        77011732.732096910        814394931.16338086     
  -2154850293.2994118        57011063.280230403        828713489.78349233     
  -2106842250.7260220        42244547.424933553        844655582.71712208     
  -2634358220.9496174        49898760.490605474        1061630541.0208985     
  -2577714758.8647518        24102614.853580117        1018811495.7725984     
  -2519099106.8192096        4880435.7521318197        983556845.78463304     
  -2458511264.8129959       -7767776.8137567043        955866591.05699384     
  -2395951232.8461232       -13842022.844092131        935740731.58968699     
  -3147627459.4617934       -83427200.076809406        1332655499.3304715     
  -3060663951.2090683       -99458348.180020571        1236414853.3694491     
  -2971326309.1139674       -107575716.80866385        1153679463.6155696     
  -2879614533.1764936       -107779305.96273148        1084449330.0688360     
  -2785528623.3966546       -100069115.64223337        1028724452.7292435     
  -1830029511.7771280        63996120.375572324        668181001.77296233     
  -1724965041.5494919        56136465.198087335        742041237.42882752     
  -1621693339.4866221        42300916.138048410        816195632.29645741     
  -1520214405.5885024        22489473.195504248        890644186.37584472     
  -1420528239.8551545       -3297863.6296037436        965386899.66699529     
  -1918201677.0363536        68190595.164827585        755469006.11154509     
  -1808565597.6955693        66238046.875937819        792702197.24882996     
  -1700986460.4137101        57429025.057273507        831794673.05633700     
  -1595464265.1907969        41763529.708800018        872746433.53406048     
  -1491999012.0268230        19241560.830533087        915557478.68200493     
  -2106842250.7260220        42244547.424933553        844655582.71712208     
  -1988162775.2479038        47540642.131924629        844953526.45928311     
  -1871804415.7229037        45099683.661853790        848675880.33012402     
  -1757767172.1510222        34921672.014723182        855822644.32964277     
  -1646051044.5322626        17006607.190518618        866393818.45783651     
  -2395951232.8461232       -13842022.844092131        935740731.58968699     
  -2263756574.2065077        44250.966030478477        898795225.06018233     
  -2134147205.4141963        5312891.9518043995        866839254.11781383     
  -2007123126.4691823        1963900.1132525206        839872818.76258290     
  -1882684337.3714647       -10002724.549617887        817895918.99448502     
  -2785528623.3966546       -100069115.64223337        1028724452.7292435     
  -2635346994.5713811       -76251126.621757746        954227293.05152988     
  -2488014829.4875875       -61931350.072872996        886284794.41940892     
  -2343532128.1452680       -57109785.995580554        824896956.83288515     
  -2201898890.5444317       -61786434.389883995        770063780.29195523     
  -1420528239.8551545       -3297863.6296037436        965386899.66699529     
  -1320562642.0860410       -28972634.860318601        1009816563.8371907     
  -1218785329.3497658       -48608356.200497329        1045678840.0328952     
  -1115196301.6463175       -62205027.650099337        1072973728.2541076     
  -1009795558.9757105       -69762649.209170163        1091701228.5008366     
  -1491999012.0268230        19241560.830533087        915557478.68200493     
  -1408120702.7296727       -9494805.4591038823        935943527.76781940     
  -1322408515.7150972       -32118246.024017692        953228649.47867846     
  -1234862450.9831052       -48628760.864205062        967412843.81457293     
  -1145482508.5337007       -59026349.979664743        978496110.77551532     
  -1646051044.5322626        17006607.190518618        866393818.45783651     
  -1562641564.8512602       -10105816.501277447        862762109.00123131     
  -1477376044.7025945       -31031438.634195209        861495932.76919627     
  -1390254484.0862510       -45770259.208191752        862595289.76173699     
  -1301276883.0022504       -54322278.223320544        866060179.97884285     
  -1882684337.3714647       -10002724.549617887        817895918.99448502     
  -1784125228.4508131       -30805667.986826420        790272307.53742015     
  -1683687916.3122485       -45347934.031009376        770480689.90445864     
  -1581372400.9557614       -53629522.682114303        758521066.09559512     
  -1477178682.3813603       -55650433.940151036        754393436.11084056     
  -2201898890.5444317       -61786434.389883995        770063780.29195523     
  -2072571693.5283329       -71594359.915785670        718474123.37638867     
  -1941344130.5440724       -75067732.214491129        680182920.88445425     
  -1808216201.5916274       -72206551.285917759        655190172.81614935     
  -1673187906.6710286       -63010817.130148947        643495879.17148173     
  -1009795558.9757105       -69762649.209170163        1091701228.5008366     
  -899049924.68760753       -69176441.665839016        1099161542.4647336     
  -785803679.02570856       -60254862.876521230        1110889492.6720843     
  -670056821.98999596       -42997912.841155231        1126885079.1228867     
  -551809353.58049512       -17405591.559834033        1147148301.8171468     
  -1145482508.5337007       -59026349.979664743        978496110.77551532     
  -1023870408.9826537       -54881226.399446309        980683139.28850520     
  -900879176.88628304       -46138994.334826946        986140062.67486906     
  -776508812.24457061       -32799653.785727292        994866880.93461025     
  -650759315.05753458       -14863204.752208531        1006863594.0677297     
  -1301276883.0022504       -54322278.223320544        866060179.97884285     
  -1171649007.8170545       -47473445.494878173        861665531.07438183     
  -1041763478.9150035       -39765767.043568969        859543035.67321897     
  -911620296.29608727       -31199242.869375050        859692693.77535284     
  -781219459.96030724       -21773872.972319573        862114505.38078845     
  -1477178682.3813603       -55650433.940151036        754393436.11084056     
  -1342385721.1908102       -46953098.952113986        742108717.82237005     
  -1208456585.1118674       -41135181.002764404        731098411.66712582     
  -1075391274.1445312       -38196680.092104495        721362517.64510059     
  -943189788.28879857       -38137596.220124602        712901035.75630033     
  -1673187906.6710286       -63010817.130148947        643495879.17148173     
  -1536080549.1039121       -53320186.771137178        622012699.53246784     
  -1400958495.4768724       -50247236.212387264        600806190.65659463     
  -1267821745.7899172       -53791965.453916132        579876352.54386413     
  -1136670300.0430326       -63954374.495679021        559223185.19428051     
  -551809353.58049512       -17405591.559834033        1147148301.8171468     
  -456134776.26902044        23116377.560140520        1158727761.8133359     
  -348652119.01175696        102998613.16608045        1177329741.9933348     
  -229361381.80871338        222241115.25795281        1202954242.3571403     
  -98262564.659880877        380843883.83578801        1235601262.9047515     
  -650759315.05753458       -14863204.752208531        1006863594.0677297     
  -537738756.45699883        17573976.548560709        1021125842.1306165     
  -414018595.99968016        85676497.371937126        1043574352.8057065     
  -279598833.68558037        189444357.71792525        1074209126.0930157     
  -134479469.51470536        328877557.58649486        1113030161.9925239     
  -781219459.96030724       -21773872.972319573        862114505.38078845     
  -647527941.70384562        3576014.0193170607        877766317.07318854     
  -504245299.67960465        60896313.570200950        902768133.80620527     
  -351371533.88759184        150187025.68032786        937119955.57983172     
  -188906644.32780689        271448150.34970534        980821782.39407051     
  -943189788.28879857       -38137596.220124602        712901035.75630033     
  -785502332.00955284       -18877510.027586371        728649186.64104986     
  -619332230.05152774        28658061.760861397        754911084.99481463     
  -444679482.41473377        104469119.14521131        791686730.81759334     
  -261544089.09918326        208555662.12542668        838976124.10938692     
  -1136670300.0430326       -63954374.495679021        559223185.19428051     
  -951661927.37412584       -49786595.592142910        573774450.83420372     
  -759279387.11545312       -11038258.056075484        600003206.37154055     
  -559522679.26701999        52290638.112532288        637909451.80629325     
  -352391803.82882357        140200092.91369551        687493187.13846850     
  -98262564.659880877        380843883.83578801        1235601262.9047515     
  -83902781.987483710        541237934.74707997        1197000249.9553814     
  -57078776.397332907        743179395.38422310        1155041165.7931187     
  -17790547.889424980        986668265.74722576        1109724010.4179599     
   33961903.536248088        1271704545.8361013        1061048783.8299218     
  -134479469.51470536        328877557.58649486        1113030161.9925239     
  -125807304.84838530        478506927.31553012        1091163032.6948550     
  -94122436.734337091        704845308.53698564        1070763041.0320733     
  -39424865.172583938        1007892701.2508111        1051830187.0041792     
   38285409.836917043        1387649105.4570959        1034364470.6111940     
  -188906644.32780689        271448150.34970534        980821782.39407051     
  -172135786.67389032        414448732.19458604        987995097.36638188     
  -121803745.04227766        669319927.29845238        1001460758.8213719     
  -37910519.432978332        1036061735.6612521        1021218766.7590438     
   79543890.153988481        1514674157.2830117        1047269121.1793933     
  -261544089.09918326        208555662.12542668        838976124.10938692     
  -222888227.46399048        349063349.38428330        887496443.96997237     
  -140122701.32114315        636603251.66864908        947134319.16102719     
  -13247510.670667529        1071175368.9784651        1017889749.6825361     
   157737344.48748881        1652779701.3138556        1099762735.5345168     
  -352391803.82882357        140200092.91369551        687493187.13846850     
  -278064627.21870148        282350778.88456404        789667072.50562191     
  -149079305.57093444        606695281.64758813        907783722.05102372     
   34564161.114415407        1113233601.2025576        1041843135.7746842     
   272865772.83739704        1801965737.5496223        1191845313.6765778     
  -2513559776.7013750        1381796757.7893543        3720381398.2640996     
  -2769431422.4317899        796204175.95053542        3107050276.9177847     
  -2977895845.4362569        368635669.86489010        2621904558.7881789     
  -3138953045.7147703        99091239.532410979        2264944243.8752832     
  -3252603023.2673287       -12429115.046880722        2036169332.1790967     
  -4921745215.8925152       -594060543.84277725        2123381385.4682555     
  -4700821018.8707924       -363253490.57487249        1885593407.0823636     
  -4499706674.2700653       -198479278.71025825        1697986142.5721526     
  -4318402182.0903244       -99737908.248938799        1560559591.9376373     
  -4156907542.3315654       -67029379.190907240        1473313755.1788065     
  -6191510593.3130884       -2228391826.9437389        824576287.89829338     
  -5716661094.5135784       -1248046300.8614182        883911531.46805298     
  -5328838523.2819939       -557790533.33884597        915422799.57247996     
  -5028042879.6183357       -157624524.37602377        919110092.21157444     
  -4814274163.5226040       -47548273.972970963        894973409.38534153     
  -6322855908.9631004       -3521197091.5135355       -176033894.44579276     
  -5816951649.3601351       -1858174254.9090869        102004650.07485539     
  -5465291392.4720364       -709298094.02085948        274214529.78915781     
  -5267875138.2988091       -74568608.848855019        340595744.69710332     
  -5224702886.8404455        46014200.606929541        301148294.79870135     
  -5315781162.8425417       -4472476337.5521545       -878449161.56400907     
  -5001692683.4104643       -2193637352.7178879       -460127237.09722555     
  -4909065281.8402109       -653001960.75632298       -225638666.77781951     
  -5037898958.1317530        149429838.33258033       -174983450.60578433     
  -5388193712.2850990        213658044.54877973       -308161588.58111459     
  -3252603023.2673287       -12429115.046880722        2036169332.1790967     
  -3221389776.9512835       -13614118.422157288        1795328739.7959647     
  -3193489434.2116866       -25842133.718929052        1597796236.8601501     
  -3168901995.0485158       -49113160.937121987        1443571823.3716533     
  -3147627459.4617934       -83427200.076809406        1332655499.3304715     
  -4156907542.3315654       -67029379.190907240        1473313755.1788065     
  -4035307244.3891325       -75802979.782861233        1309504943.7964828     
  -3913356760.2488637       -83409293.048693419        1173667758.9602196     
  -3791056089.9107475       -89848318.988359690        1065802200.6700143     
  -3668405233.3747883       -95120057.601901293        985908268.92586780     
  -4814274163.5226040       -47548273.972970963        894973409.38534153     
  -4646105279.3859510       -77056011.411252260        812469983.74048972     
  -4473923119.2771816       -93186162.275805950        742601721.74043846     
  -4297727683.1962824       -95938726.566594601        685368623.38518822     
  -4117518971.1432538       -85313704.283627510        640770688.67474079     
  -5224702886.8404455        46014200.606929541        301148294.79870135     
  -5053783881.9417439       -17373213.307339430        304223859.62798870     
  -4875188511.2966337       -55172741.400256157        304598125.20081031     
  -4688916774.9051151       -67384383.671807051        302271091.51717597     
  -4494968672.7671890       -54008140.122001648        297242758.57708967     
  -5388193712.2850990        213658044.54877973       -308161588.58111459     
  -5258343052.0565071        103245414.52887917       -215233428.54103315     
  -5117152936.3072243        30630969.577947378       -140343030.65867499     
  -4964623365.0372534       -4185290.3040194511       -83490394.934022665     
  -4800754338.2465878       -1203365.1170077324       -44675521.367083699     
  -3147627459.4617934       -83427200.076809406        1332655499.3304715     
  -3060663951.2090683       -99458348.180020571        1236414853.3694491     
  -2971326309.1139674       -107575716.80866385        1153679463.6155696     
  -2879614533.1764936       -107779305.96273148        1084449330.0688360     
  -2785528623.3966546       -100069115.64223337        1028724452.7292435     
  -3668405233.3747883       -95120057.601901293        985908268.92586780     
  -3544808587.8502588       -98135725.579197168        915771887.52414143     
  -3420261688.5633597       -97983881.015259385        857306013.94144607     
  -3294764535.5140862       -94664523.910078287        810510648.17778647     
  -3168317128.7024422       -88177654.263665557        775385790.23315096     
  -4117518971.1432538       -85313704.283627510        640770688.67474079     
  -3962531326.5986729       -76886533.610535622        595077378.40564752     
  -3808017308.3717184       -70038117.329537153        559219827.56746650     
  -3653976916.4623923       -64768455.440638781        533198036.16021127     
  -3500410150.8707056       -61077547.943843842        517012004.18386674     
  -4494968672.7671890       -54008140.122001648        297242758.57708967     
  -4313832167.4543056       -35710772.274039268        274331326.01395380     
  -4134593168.5390496       -23738425.751514196        259420904.49362954     
  -3957251676.0214233       -18091100.554426908        252511494.01610926     
  -3781807689.9014268       -18768796.682751179        253603094.58139539     
  -4800754338.2465878       -1203365.1170077324       -44675521.367083699     
  -4598711110.4171486        25391558.430294514       -46466269.650920533     
  -4399989269.0653505        40915193.718806744       -42090755.280069649     
  -4204588814.1911635        45367540.748600960       -31548978.254510082     
  -4012509745.7946210        38748599.519593239       -14840938.574265042     
  -2785528623.3966546       -100069115.64223337        1028724452.7292435     
  -2635346994.5713811       -76251126.621757746        954227293.05152988     
  -2488014829.4875875       -61931350.072872996        886284794.41940892     
  -2343532128.1452680       -57109785.995580554        824896956.83288515     
  -2201898890.5444317       -61786434.389883995        770063780.29195523     
  -3168317128.7024422       -88177654.263665557        775385790.23315096     
  -3003295618.4575148       -71304590.763983607        715913702.84579742     
  -2840006364.5090656       -60205714.919216990        662904922.93276739     
  -2678449366.8570833       -54881026.729350567        616359450.49406099     
  -2518624625.5015736       -55330526.194394231        576277285.52967274     
  -3500410150.8707056       -61077547.943843842        517012004.18386674     
  -3320809769.4097571       -51227713.026042104        473868397.77271992     
  -3141824436.8002810       -43428040.946479440        437096745.26461846     
  -2963454153.0422673       -37678531.705127835        406697046.65957034     
  -2785698918.1357293       -33979185.302011967        382669301.95757073     
  -3781807689.9014268       -18768796.682751179        253603094.58139539     
  -3587889447.4281015       -16020493.407937765        228091377.83229315     
  -3393469046.3612452       -11598328.154691219        208860261.41496569     
  -3198546486.7008352       -5502300.9229288101        195909745.32940984     
  -3003121768.4468842        2267588.2872989178        189239829.57564083     
  -4012509745.7946210        38748599.519593239       -14840938.574265042     
  -3804534652.5125513        34317068.090334892       -21417356.975486420     
  -3594940193.1919384        35283423.456210136       -21804528.616200864     
  -3383726367.8327746        41647665.617265224       -16002453.496410299     
  -3170893176.4350648        53409794.573462129       -4011131.6161166416     
  -2201898890.5444317       -61786434.389883995        770063780.29195523     
  -2072571693.5283329       -71594359.915785670        718474123.37638867     
  -1941344130.5440724       -75067732.214491129        680182920.88445425     
  -1808216201.5916274       -72206551.285917759        655190172.81614935     
  -1673187906.6710286       -63010817.130148947        643495879.17148173     
  -2518624625.5015736       -55330526.194394231        576277285.52967274     
  -2357795729.0996852       -56698584.675653219        541559260.09722066     
  -2196038843.7838297       -54973346.777033806        515827195.06606573     
  -2033353969.5540280       -50154812.498578429        499081090.43619359     
  -1869741106.4102488       -42242981.840216756        491320946.20761037     
  -2785698918.1357293       -33979185.302011967        382669301.95757073     
  -2605689733.8404522       -30603800.186328650        363688468.11166412     
  -2425724937.6854324       -27376375.538170099        349381100.64470059     
  -2245804529.6706567       -24296911.357493997        339747199.55668879     
  -2065928509.7961245       -21365407.644291162        334786764.84762001     
  -3003121768.4468842        2267588.2872989178        189239829.57564083     
  -2816253707.7506409        6689993.5521676540        184861747.41969666     
  -2630402412.2488551        7723181.5021642447        180844637.62036106     
  -2445567881.9415207        5367152.1373395920        177188500.17762968     
  -2261750116.8286443       -378094.54236018658        173893335.09149677     
  -3170893176.4350648        53409794.573462129       -4011131.6161166416     
  -2989487650.8302550        55182796.539816380        5079098.0213347794     
  -2810071267.4741087        50325324.343959332        10217805.993047275     
  -2632644026.3666344        38837377.985855818        11404992.299027089     
  -2457205927.5078130        20718957.465589046        8640656.9392516445     
  -1673187906.6710286       -63010817.130148947        643495879.17148173     
  -1536080549.1039121       -53320186.771137178        622012699.53246784     
  -1400958495.4768724       -50247236.212387264        600806190.65659463     
  -1267821745.7899172       -53791965.453916132        579876352.54386413     
  -1136670300.0430326       -63954374.495679021        559223185.19428051     
  -1869741106.4102488       -42242981.840216756        491320946.20761037     
  -1733137121.4459980       -41430042.083746850        469206514.13216609     
  -1596799297.3394547       -41504305.186280489        448476899.43042374     
  -1460727634.0906205       -42465771.147872567        429132102.10237294     
  -1324922131.6995053       -44314439.968492389        411172122.14802653     
  -2065928509.7961245       -21365407.644291162        334786764.84762001     
  -1926661764.2617233       -28480318.538423419        314046747.26517719     
  -1785942036.5026650       -30751955.350376248        295799693.66698807     
  -1643769326.5189576       -28180318.080159307        280045604.05304742     
  -1500143634.3105781       -20765406.727692366        266784478.42335823     
  -2261750116.8286443       -378094.54236018658        173893335.09149677     
  -2116654477.5510879       -14471016.135210872        156533398.93148902     
  -1968386712.9665065       -17990186.704640865        142774573.36628640     
  -1816946823.0749130       -10935606.250698328        132616858.39588383     
  -1662334807.8762805        6692725.2267086506        126060254.02028841     
  -2457205927.5078130        20718957.465589046        8640656.9392516445     
  -2303115261.3140950        597865.12590897083       -3333530.8688995028     
  -2144133326.7309854       -3218999.2491201162       -10598461.471688978     
  -1980260123.7584887        9268364.3404576778       -13154134.869118221     
  -1811495652.3965864        38059955.894742012       -11000551.061202124     
  -1136670300.0430326       -63954374.495679021        559223185.19428051     
  -951661927.37412584       -49786595.592142910        573774450.83420372     
  -759279387.11545312       -11038258.056075484        600003206.37154055     
  -559522679.26701999        52290638.112532288        637909451.80629325     
  -352391803.82882357        140200092.91369551        687493187.13846850     
  -1324922131.6995053       -44314439.968492389        411172122.14802653     
  -1123491833.0659690       -21679978.168069482        430247068.56508249     
  -918633379.01538265        12381668.355876863        448322925.92746520     
  -710346769.54775047        57870499.603304297        465399694.23515856     
  -498632004.66307098        114786515.57420936        481477373.48816454     
  -1500143634.3105781       -20765406.727692366        266784478.42335823     
  -1318510206.7184269       -529901.13216710091        285779424.74939513     
  -1137394635.8819358        17979415.277827024        291098703.06864899     
  -956796921.80111313        34762542.502259672        282742313.38110793     
  -776717064.47595847        49819480.541131228        260710255.68679470     
  -1662334807.8762805        6692725.2267086506        126060254.02028841     
  -1536717048.3315046        13663635.515555978        140371519.38712582     
  -1415563157.7151060        5754982.7098063231        128330537.79508892     
  -1298873136.0270903       -17033233.190535903        89937309.244158909     
  -1186646983.2674487       -54701012.185487807        25191833.734344538     
  -1811495652.3965864        38059955.894742012       -11000551.061202124     
  -1778112357.9052086        20900631.775051236       -5976647.5217177132     
  -1753138944.5149009       -24291629.348218441       -39981569.893212579     
  -1736575412.2256947       -97516827.475153625       -113015318.17570625     
  -1728421761.0375881       -198774962.60575479       -225077892.36917856     
  -352391803.82882357        140200092.91369551        687493187.13846850     
  -278064627.21870148        282350778.88456404        789667072.50562191     
  -149079305.57093444        606695281.64758813        907783722.05102372     
   34564161.114415407        1113233601.2025576        1041843135.7746842     
   272865772.83739704        1801965737.5496223        1191845313.6765778     
  -498632004.66307098        114786515.57420936        481477373.48816454     
  -389427027.98655176        220694379.02365369        599714428.01724458     
  -231071228.30445984        490438319.15831280        737201523.61640978     
  -23564605.616788447        924018335.97821009        893938660.28565359     
   233092840.07642022        1521434429.4833124        1069925838.0249978     
  -776717064.47595847        49819480.541131228        260710255.68679470     
  -623184925.18493342        122319330.23353395        388585270.34040439     
  -426009284.92039227        340297516.50433534        539017602.95593774     
  -185190143.68231627        703754039.35356534        712007253.53340042     
   99272498.529267609        1212688898.7811635        907554222.07277143     
  -1186646983.2674487       -54701012.185487807        25191833.734344538     
  -979338318.81382883       -12774367.485708356        156279599.47510341     
  -733893475.41872108        156272873.68567562        313231960.06962770     
  -450312453.08213925        452440711.32863200        496048915.51791239     
  -128595251.80409813        875729145.44315684        704730465.81995094     
  -1728421761.0375881       -198774962.60575479       -225077892.36917856     
  -1457887208.8732629       -184586714.13417882       -97202584.578658640     
  -1154723799.7994933       -61635609.297810435        59844594.957466550     
  -818931533.81628025        170078351.90340340        246063646.23918673     
  -450510410.92365932        510555169.46926534        461454569.26649678     
 </DataArray>
 <DataArray  type="Float64" Name="VM" NumberOfComponents="1" format="ascii">
   5176957338.8479757     
   4415000098.4115229     
   4633836712.8523893     
   5123224106.9465847     
   5523984329.9375505     
   5496023813.6220131     
   5148984667.4463158     
   5169291426.6408157     
   5264149239.7903767     
   5273719653.1704302     
   5616333333.5535507     
   5426515888.6845121     
   5315004356.4888659     
   5200750706.0390701     
   5035227734.8628445     
   5931181566.3202200     
   5584663748.8579979     
   5295576121.3193340     
   5053105517.2137241     
   4849504982.6375694     
   7295497722.4195652     
   6282516105.2730742     
   5542983410.0447912     
   5056066189.5759268     
   4793444540.7691298     
   5523984329.9375505     
   5323786939.0030775     
   5138290016.3270931     
   4964638579.7345238     
   4800776428.3709707     
   5273719653.1704302     
   5072562405.9755135     
   4876460765.1012754     
   4684935949.4800072     
   4497772240.2061329     
   5035227734.8628445     
   4818147359.3420658     
   4611088370.6524210     
   4413223244.4500704     
   4223946180.4202580     
   4849504982.6375694     
   4596517368.7549820     
   4373487846.2670298     
   4177003946.3649268     
   4004166730.3122344     
   4793444540.7691298     
   4472504544.0519352     
   4216085202.4354715     
   4017513656.6729636     
   3870378922.9088140     
   4800776428.3709707     
   4612161575.2798901     
   4421189990.4996023     
   4227808318.8069057     
   4032105629.6706524     
   4497772240.2061329     
   4322284810.1945295     
   4147188573.8135443     
   3972387599.5468030     
   3797944875.8033319     
   4223946180.4202580     
   4057739766.5006847     
   3895815093.2239842     
   3737911215.2567530     
   3583951653.9328303     
   4004166730.3122344     
   3839705799.6691442     
   3684776946.5124555     
   3538830305.2327099     
   3401514856.9665852     
   3870378922.9088140     
   3695850682.3214478     
   3537462214.7175460     
   3394337111.3895783     
   3265770988.3210726     
   4032105629.6706524     
   3821988771.2673173     
   3612908526.5596108     
   3404854064.2146640     
   3197940143.4096084     
   3797944875.8033319     
   3601639156.3664269     
   3406945251.5370064     
   3213762968.9354186     
   3022083797.4412475     
   3583951653.9328303     
   3396165203.0443096     
   3210866580.5478148     
   3027875335.7347994     
   2847090558.7344041     
   3401514856.9665852     
   3216880078.3230882     
   3035886208.8297987     
   2858286864.7194734     
   2683926447.0349159     
   3265770988.3210726     
   3079215649.3879471     
   2897666194.3658085     
   2720832723.8001690     
   2548553213.4650707     
   3197940143.4096084     
   3017470336.8572621     
   2835624115.2878065     
   2652349547.5517006     
   2467676026.4940438     
   3022083797.4412475     
   2837726557.7435155     
   2652829794.8222895     
   2467416482.6289244     
   2281529148.0433278     
   2847090558.7344041     
   2666011904.9640193     
   2486902660.2263498     
   2309966815.6735282     
   2135561803.4524071     
   2683926447.0349159     
   2511690873.4943314     
   2345872577.8983884     
   2186848688.6956396     
   2035416824.8283737     
   2548553213.4650707     
   2387657833.5418181     
   2239791578.0152788     
   2105259378.0309844     
   1985034013.7699177     
   2467676026.4940438     
   2303421488.2851529     
   2142604280.4126112     
   1985041290.7089508     
   1830921500.1008029     
   2281529148.0433278     
   2126808303.6793945     
   1974996706.2904007     
   1826008659.1364672     
   1679940748.5854568     
   2135561803.4524071     
   1988426719.6431370     
   1843395184.5836337     
   1700507691.0480747     
   1559882337.3720374     
   2035416824.8283737     
   1895821997.0288398     
   1757444492.8667479     
   1620481632.1402264     
   1485212706.7138813     
   1985034013.7699177     
   1855042260.5727468     
   1725606975.5632889     
   1597133896.5284710     
   1470240186.9140689     
   1830921500.1008029     
   1788684216.4155693     
   1742496834.4842882     
   1701227720.0367875     
   1683854646.8512826     
   1679940748.5854568     
   1562624591.2973993     
   1435759344.5373476     
   1299809102.9820309     
   1161084130.4387889     
   1559882337.3720374     
   1408112355.0933156     
   1252459529.1750238     
   1090760800.9137781     
   921073575.65363657     
   1485212706.7138813     
   1339284981.5460484     
   1207640319.8565881     
   1094915647.9918747     
   1007227597.9321862     
   1470240186.9140689     
   1359562607.0943396     
   1283844792.7071822     
   1251336542.7790830     
   1269323465.4740012     
   1683854646.8512826     
   1385187996.8750896     
   1129937176.9313204     
   1010197991.7128562     
   1154321267.7232909     
   1161084130.4387889     
   1009963484.0868863     
   985926604.31855106     
   1161644166.2641342     
   1544664356.1977808     
   921073575.65363657     
   965683472.52651131     
   1146244363.6049547     
   1476738445.4013007     
   1957305989.1816132     
   1007227597.9321862     
   1168450238.8207946     
   1427462119.1005485     
   1809286679.4855177     
   2334241508.4533987     
   1269323465.4740012     
   1451301457.0979245     
   1718418858.5342696     
   2111472733.7026002     
   2662954605.4905758     
   7295497722.4195652     
   6282516105.2730742     
   5542983410.0447912     
   5056066189.5759268     
   4793444540.7691298     
   4244787458.5273600     
   3747524985.4874806     
   3455467145.9891973     
   3355626329.4406991     
   3419547550.7453408     
   1803699971.9114344     
   1739974071.7810555     
   1848844461.3501196     
   2087144161.4545040     
   2406631958.8508892     
   2472742781.1314402     
   1996594749.7850058     
   1786976776.4125545     
   1838471769.8192267     
   2062981065.3849094     
   5463707716.0145493     
   4332291114.1164474     
   3480095107.6838250     
   2917365547.2735696     
   2621295121.9361396     
   4793444540.7691298     
   4472504544.0519352     
   4216085202.4354715     
   4017513656.6729636     
   3870378922.9088140     
   3419547550.7453408     
   3330089260.4228787     
   3271288338.7998962     
   3239957321.0714054     
   3233413450.7516432     
   2406631958.8508892     
   2483621755.1960440     
   2562734512.9827323     
   2643970273.3287539     
   2727330937.2325320     
   2062981065.3849094     
   2109006948.2975109     
   2186026335.2092237     
   2279219233.9020939     
   2377059757.2727499     
   2621295121.9361396     
   2391470034.3327103     
   2266618736.2434649     
   2221176985.4448624     
   2223966577.2037926     
   3870378922.9088140     
   3695850682.3214478     
   3537462214.7175460     
   3394337111.3895783     
   3265770988.3210726     
   3233413450.7516432     
   3133888090.9635043     
   3043079136.6773720     
   2960791047.4327722     
   2886943235.8623691     
   2727330937.2325320     
   2685795862.4286680     
   2647799535.4379306     
   2613384490.6603103     
   2582615075.1875696     
   2377059757.2727499     
   2364810343.5841651     
   2357120494.2125382     
   2352867781.9771099     
   2350989408.9873543     
   2223966577.2037926     
   2196055908.7522216     
   2184572037.7539911     
   2185017266.9783196     
   2193083641.5701928     
   3265770988.3210726     
   3079215649.3879471     
   2897666194.3658085     
   2720832723.8001690     
   2548553213.4650707     
   2886943235.8623691     
   2747397417.5164351     
   2611547795.8697429     
   2479646737.8798938     
   2352154246.1907043     
   2582615075.1875696     
   2488254257.9835310     
   2398094199.0390053     
   2312930244.9805503     
   2233759556.2346950     
   2350989408.9873543     
   2297873619.7463880     
   2251662976.3676085     
   2213355291.0873246     
   2184004617.6101542     
   2193083641.5701928     
   2174250383.6805921     
   2167672415.0893579     
   2173818676.1624694     
   2192975660.2494755     
   2548553213.4650707     
   2387657833.5418181     
   2239791578.0152788     
   2105259378.0309844     
   1985034013.7699177     
   2352154246.1907043     
   2236667523.3585429     
   2131063383.8799574     
   2035895177.0265830     
   1951992972.5039115     
   2233759556.2346950     
   2158525975.9256916     
   2089086774.1398475     
   2025705319.2826777     
   1968696222.6318781     
   2184004617.6101542     
   2144177020.2729316     
   2105530098.7448218     
   2067574189.5989375     
   2029868112.0101140     
   2192975660.2494755     
   2183037655.2549968     
   2169997698.0874782     
   2152203360.4253983     
   2128272210.4378669     
   1985034013.7699177     
   1855042260.5727468     
   1725606975.5632889     
   1597133896.5284710     
   1470240186.9140689     
   1951992972.5039115     
   1842105017.4134052     
   1736624312.6062260     
   1636441458.6763005     
   1542651652.7448514     
   1968696222.6318781     
   1883293756.2361615     
   1806064403.2423565     
   1738044210.3867943     
   1680324978.6145432     
   2029868112.0101140     
   1969860289.0954626     
   1920823549.5056322     
   1883574491.4075618     
   1858859629.7054880     
   2128272210.4378669     
   2091734056.1661394     
   2067848150.1799142     
   2057091117.2898932     
   2059863982.8690631     
   1470240186.9140689     
   1359562607.0943396     
   1283844792.7071822     
   1251336542.7790830     
   1269323465.4740012     
   1542651652.7448514     
   1481664893.6707785     
   1453208448.7387755     
   1461305085.1217453     
   1509334318.7301395     
   1680324978.6145432     
   1653191432.9737206     
   1653375115.6763999     
   1683262004.6486568     
   1745474801.8870423     
   1858859629.7054880     
   1851220132.5824707     
   1865841850.8632381     
   1904943262.5233035     
   1971542766.3031886     
   2059863982.8690631     
   2060846321.8964798     
   2079998476.6897829     
   2119968870.8636343     
   2184548405.2002459     
   1269323465.4740012     
   1451301457.0979245     
   1718418858.5342696     
   2111472733.7026002     
   2662954605.4905758     
   1509334318.7301395     
   1616253788.5716181     
   1790332621.1266193     
   2066417480.1567044     
   2474730480.9424844     
   1745474801.8870423     
   1789173797.1294258     
   1884972664.3829949     
   2059806319.7578506     
   2338888581.1575346     
   1971542766.3031886     
   1968986113.6962595     
   2002899940.1084671     
   2091931709.6895933     
   2254692589.2703662     
   2184548405.2002459     
   2154952051.0460272     
   2144843503.6028969     
   2164681564.8501921     
   2225459485.3291731     
   5463707716.0145493     
   4332291114.1164474     
   3480095107.6838250     
   2917365547.2735696     
   2621295121.9361396     
   3664105522.5633416     
   3214056440.1821899     
   2906908388.3713455     
   2713192899.8629088     
   2592279139.7548428     
   3566911475.2565742     
   3420710518.7918191     
   3282507169.6145949     
   3150807905.6715431     
   3024202362.8901000     
   5094354593.4549856     
   4660660598.2608118     
   4293321565.0953422     
   3991252553.7163725     
   3754607352.6665616     
   7506317736.9891043     
   6543448979.6499252     
   5758598367.3861694     
   5150451650.0284166     
   4716792999.0008078     
   2621295121.9361396     
   2391470034.3327103     
   2266618736.2434649     
   2221176985.4448624     
   2223966577.2037926     
   2592279139.7548428     
   2529259168.0014982     
   2491798638.8133249     
   2469439071.8361340     
   2452624859.0960612     
   3024202362.8901000     
   2953836004.4360576     
   2888024782.1452212     
   2826874004.6644344     
   2770484231.3578110     
   3754607352.6665616     
   3567389697.3953867     
   3406659659.4074664     
   3272841301.7729979     
   3166722947.0850120     
   4716792999.0008078     
   4353454769.6659727     
   4054466562.3332243     
   3819096758.6304512     
   3646747608.5658636     
   2223966577.2037926     
   2196055908.7522216     
   2184572037.7539911     
   2185017266.9783196     
   2193083641.5701928     
   2452624859.0960612     
   2428911397.6081190     
   2410159087.6429038     
   2395481336.2304378     
   2384012171.8100047     
   2770484231.3578110     
   2717948507.9374714     
   2670486299.8008747     
   2628475839.9401474     
   2592300015.9021082     
   3166722947.0850120     
   3063115291.3699164     
   2971713030.7912393     
   2892884828.5839581     
   2827083385.0367346     
   3646747608.5658636     
   3475915108.5844502     
   3327909202.1820073     
   3202784237.1188989     
   3100683763.5952868     
   2193083641.5701928     
   2174250383.6805921     
   2167672415.0893579     
   2173818676.1624694     
   2192975660.2494755     
   2384012171.8100047     
   2361441895.9488964     
   2348426586.4612656     
   2345652352.9964948     
   2353712289.8975530     
   2592300015.9021082     
   2553989857.0875025     
   2525130225.1977229     
   2506345793.7215500     
   2498230409.3554411     
   2827083385.0367346     
   2761932535.6919022     
   2708061855.1401858     
   2665875400.3177261     
   2635790483.4105263     
   3100683763.5952868     
   2998279006.0633249     
   2910218969.1541190     
   2836676131.9492669     
   2777856794.1034551     
   2192975660.2494755     
   2183037655.2549968     
   2169997698.0874782     
   2152203360.4253983     
   2128272210.4378669     
   2353712289.8975530     
   2317589012.4431443     
   2284883896.7834959     
   2255432473.5316386     
   2229082275.1458893     
   2498230409.3554411     
   2442643560.0244145     
   2397863261.0365148     
   2364531589.2318382     
   2343222671.3706398     
   2635790483.4105263     
   2564701408.2741909     
   2512541791.3253689     
   2480124817.7352400     
   2468215028.5978384     
   2777856794.1034551     
   2691433787.5469365     
   2632954519.1153135     
   2602931384.6779919     
   2601905590.7860794     
   2128272210.4378669     
   2091734056.1661394     
   2067848150.1799142     
   2057091117.2898932     
   2059863982.8690631     
   2229082275.1458893     
   2201821593.3050704     
   2186743498.7816372     
   2184136657.7359176     
   2194248441.8322496     
   2343222671.3706398     
   2322787617.6647763     
   2314091625.4519587     
   2317297666.5100121     
   2332561146.2795668     
   2468215028.5978384     
   2452271482.5022874     
   2447728378.2117505     
   2454668924.4194860     
   2473197219.5948195     
   2601905590.7860794     
   2588294879.3802333     
   2585896845.4892969     
   2594746774.2153420     
   2614922874.1067781     
   2059863982.8690631     
   2060846321.8964798     
   2079998476.6897829     
   2119968870.8636343     
   2184548405.2002459     
   2194248441.8322496     
   2183177746.5026107     
   2186480708.3715625     
   2206147529.7823501     
   2245092988.8680639     
   2332561146.2795668     
   2310397231.4586787     
   2299541334.5370393     
   2301413705.6801910     
   2318105551.4951100     
   2473197219.5948195     
   2441725023.2308517     
   2418953652.5724893     
   2405835027.8225665     
   2403751357.6795082     
   2614922874.1067781     
   2576525755.5936880     
   2544509365.0908394     
   2519456363.3996911     
   2502181521.5118308     
   2184548405.2002459     
   2154952051.0460272     
   2144843503.6028969     
   2164681564.8501921     
   2225459485.3291731     
   2245092988.8680639     
   2180561969.9534421     
   2132305764.5936775     
   2109917829.6112585     
   2124243092.0141490     
   2318105551.4951100     
   2221954038.3905554     
   2138923287.8345816     
   2077300570.0919187     
   2047157652.9334381     
   2403751357.6795082     
   2279416541.9120107     
   2165336501.9785781     
   2068173957.1120167     
   1996592029.6848469     
   2502181521.5118308     
   2353153931.5147791     
   2212011233.6656661     
   2083663028.5148878     
   1974883315.5892568     
   7506317736.9891043     
   6543448979.6499252     
   5758598367.3861694     
   5150451650.0284166     
   4716792999.0008078     
   4978774423.8305244     
   4491382909.0417175     
   4100237785.1933675     
   3807806646.8003106     
   3615733681.4724898     
   2724142436.9086871     
   2660047027.4723897     
   2620331002.7374082     
   2605979955.5262227     
   2617297983.0734544     
   897527561.63786292     
   939385773.78151882     
   1176237667.9922364     
   1440193990.9135821     
   1663950569.0877483     
   2321451364.9428916     
   1295004988.3133075     
   447803809.01942486     
   220152172.93874863     
   708862957.56122494     
   4716792999.0008078     
   4353454769.6659727     
   4054466562.3332243     
   3819096758.6304512     
   3646747608.5658636     
   3615733681.4724898     
   3437004670.4419537     
   3295426063.5017924     
   3190730771.7827072     
   3122605873.3248563     
   2617297983.0734544     
   2612897089.6875443     
   2616825308.5682015     
   2629049616.8025837     
   2649514340.9865832     
   1663950569.0877483     
   1833125971.0474272     
   1980921396.2380967     
   2106910863.4243286     
   2210870285.9560366     
   708862957.56122494     
   1059344477.0085634     
   1356431991.6709902     
   1600125501.5485034     
   1790425006.6411040     
   3646747608.5658636     
   3475915108.5844502     
   3327909202.1820073     
   3202784237.1188989     
   3100683763.5952868     
   3122605873.3248563     
   3028694049.2559743     
   2950941729.3591175     
   2889392691.3108521     
   2844120613.0568752     
   2649514340.9865832     
   2629021282.8872976     
   2617507004.2598825     
   2614992747.4262209     
   2621505494.0742679     
   2210870285.9560366     
   2261415298.3881841     
   2313444720.3582025     
   2366963681.7930589     
   2421977591.4214454     
   1790425006.6411040     
   1910818913.5845435     
   2025065386.7911296     
   2133164426.2608621     
   2235116031.9937487     
   3100683763.5952868     
   2998279006.0633249     
   2910218969.1541190     
   2836676131.9492669     
   2777856794.1034551     
   2844120613.0568752     
   2788152652.7785320     
   2744839682.1789961     
   2714271401.8969665     
   2696543219.1757317     
   2621505494.0742679     
   2610626916.1693668     
   2610403632.8087611     
   2620858958.4805112     
   2642014508.8779612     
   2421977591.4214454     
   2454677071.3531075     
   2495896754.5299606     
   2545635360.0356550     
   2603891218.6342716     
   2235116031.9937487     
   2310104845.8474269     
   2391537689.0983005     
   2479414561.7463641     
   2573735463.7916164     
   2777856794.1034551     
   2691433787.5469365     
   2632954519.1153135     
   2602931384.6779919     
   2601905590.7860794     
   2696543219.1757317     
   2652778543.5399113     
   2628580863.0934839     
   2624088065.6274691     
   2639450060.9911051     
   2642014508.8779612     
   2634506567.1165648     
   2638221087.4834404     
   2653184909.4387784     
   2679429593.5891027     
   2603891218.6342716     
   2628923478.3451490     
   2656828450.7801204     
   2687610316.0928860     
   2721274094.7787290     
   2573735463.7916164     
   2629707340.9840550     
   2680152748.1520848     
   2725071685.2957025     
   2764464152.4149013     
   2601905590.7860794     
   2588294879.3802333     
   2585896845.4892969     
   2594746774.2153420     
   2614922874.1067781     
   2639450060.9911051     
   2626732561.7147884     
   2624610144.8680034     
   2633100700.0654349     
   2652246858.5944982     
   2679429593.5891027     
   2667566679.3425198     
   2665875657.8894534     
   2674363615.8924031     
   2693048762.4090300     
   2721274094.7787290     
   2710338762.9092121     
   2709334964.2726202     
   2718264247.1841445     
   2737130941.7244759     
   2764464152.4149013     
   2754624863.9560828     
   2754651546.5030203     
   2764544200.0557256     
   2784302824.6142073     
   2614922874.1067781     
   2576525755.5936880     
   2544509365.0908394     
   2519456363.3996911     
   2502181521.5118308     
   2652246858.5944982     
   2607682069.7432818     
   2568964802.7149153     
   2536424750.4357691     
   2510526621.6926484     
   2693048762.4090300     
   2644389601.3091865     
   2601194821.9335928     
   2563610477.7685342     
   2531843565.6205668     
   2737130941.7244759     
   2686494550.3182440     
   2641082761.5604992     
   2600931651.4875317     
   2566092501.8438387     
   2784302824.6142073     
   2733841108.1005449     
   2688501306.4261932     
   2648283419.5911736     
   2613187447.5954738     
   2502181521.5118308     
   2353153931.5147791     
   2212011233.6656661     
   2083663028.5148878     
   1974883315.5892568     
   2510526621.6926484     
   2344018935.4731479     
   2180909071.5056696     
   2024250227.8906736     
   1878531327.2199638     
   2531843565.6205668     
   2352890627.6381350     
   2173637142.3971167     
   1995531435.0987098     
   1820810214.5273550     
   2566092501.8438387     
   2379878221.9240375     
   2190658108.6718373     
   1998804256.6420143     
   1804909002.6732335     
   2613187447.5954738     
   2424958448.9362059     
   2232116645.9788303     
   2034662038.7233305     
   1832594627.1697271     
   2321451364.9428916     
   1295004988.3133075     
   447803809.01942486     
   220152172.93874863     
   708862957.56122494     
   897527563.42120528     
   939385775.10887802     
   1176237668.7225707     
   1440193991.2246895     
   1663950569.1018150     
   2724142437.5769811     
   2660047027.9172354     
   2620331002.9545307     
   2605979955.5152884     
   2617297982.8389878     
   4978774423.9055815     
   4491382908.9733982     
   4100237784.9793811     
   3807806646.4394541     
   3615733680.9676747     
   7506317736.6376619     
   6543448979.1860542     
   5758598366.8203869     
   5150451649.3737488     
   4716792998.2750025     
   708862957.56122494     
   1059344477.0085634     
   1356431991.6709902     
   1600125501.5485034     
   1790425006.6411040     
   1663950569.1018150     
   1833125970.9749866     
   1980921396.1007915     
   2106910863.2377138     
   2210870285.7318263     
   2617297982.8389878     
   2612897089.3805475     
   2616825308.2003326     
   2629049616.3855734     
   2649514340.5318847     
   3615733680.9676747     
   3437004669.8817172     
   3295426062.8965554     
   3190730771.1439023     
   3122605872.6642232     
   4716792998.2750025     
   4353454768.8996830     
   4054466561.5383759     
   3819096757.8196130     
   3646747607.7512760     
   1790425006.6411040     
   1910818913.5845435     
   2025065386.7911296     
   2133164426.2608621     
   2235116031.9937487     
   2210870285.7318263     
   2261415298.1580215     
   2313444720.1332583     
   2366963681.5843639     
   2421977591.2399058     
   2649514340.5318847     
   2629021282.4183297     
   2617507003.7986145     
   2614992746.9941120     
   2621505493.6922936     
   3122605872.6642232     
   3028694048.5628853     
   2950941728.6662059     
   2889392690.6497703     
   2844120612.4583526     
   3646747607.7512760     
   3475915107.7044697     
   3327909201.2790270     
   3202784236.2340260     
   3100683762.7685323     
   2235116031.9937487     
   2310104845.8474269     
   2391537689.0983005     
   2479414561.7463641     
   2573735463.7916164     
   2421977591.2399058     
   2454677071.1761470     
   2495896754.3643227     
   2545635359.8883214     
   2603891218.5123973     
   2621505493.6922936     
   2610626915.7956338     
   2610403632.4579391     
   2620858958.1674323     
   2642014508.6175246     
   2844120612.4583526     
   2788152652.1867290     
   2744839681.6175685     
   2714271401.3896594     
   2696543218.7462711     
   3100683762.7685323     
   2998279005.2321153     
   2910218968.3514347     
   2836676131.2083707     
   2777856793.4578533     
   2573735463.7916164     
   2629707340.9840550     
   2680152748.1520848     
   2725071685.2957025     
   2764464152.4149013     
   2603891218.5123973     
   2628923478.2481966     
   2656828450.6998644     
   2687610316.0212011     
   2721274094.7076254     
   2642014508.6175246     
   2634506566.9115257     
   2638221087.3182516     
   2653184909.2980671     
   2679429593.4577041     
   2696543218.7462711     
   2652778543.2052951     
   2628580862.8313808     
   2624088065.4157710     
   2639450060.8078032     
   2777856793.4578533     
   2691433787.0484271     
   2632954518.7352352     
   2602931384.3876724     
   2601905590.5564256     
   2764464152.4149013     
   2754624863.9560828     
   2754651546.5030203     
   2764544200.0557256     
   2784302824.6142073     
   2721274094.7076254     
   2710338762.8578715     
   2709334964.2389221     
   2718264247.1658320     
   2737130941.7192473     
   2679429593.4577041     
   2667566679.2483377     
   2665875657.8280034     
   2674363615.8590202     
   2693048762.3989592     
   2639450060.8078032     
   2626732561.5844746     
   2624610144.7835588     
   2633100700.0195298     
   2652246858.5796313     
   2601905590.5564256     
   2588294879.2184558     
   2585896845.3852625     
   2594746774.1586699     
   2614922874.0868602     
   2784302824.6142073     
   2733841108.1005449     
   2688501306.4261932     
   2648283419.5911736     
   2613187447.5954738     
   2737130941.7192473     
   2686494550.3153286     
   2641082761.5592613     
   2600931651.4873009     
   2566092501.8438959     
   2693048762.3989592     
   2644389601.3040009     
   2601194821.9320517     
   2563610477.7693062     
   2531843565.6222043     
   2652246858.5796313     
   2607682069.7362671     
   2568964802.7138705     
   2536424750.4386964     
   2510526621.6974235     
   2614922874.0868602     
   2576525755.5850525     
   2544509365.0909362     
   2519456363.4058180     
   2502181521.5212331     
   2613187447.5954738     
   2424958448.9362059     
   2232116645.9788303     
   2034662038.7233305     
   1832594627.1697271     
   2566092501.8438959     
   2379878221.9233122     
   2190658108.6693673     
   1998804256.6364956     
   1804909002.6627214     
   2531843565.6222043     
   2352890627.6377602     
   2173637142.3928065     
   1995531435.0878279     
   1820810214.5062990     
   2510526621.6974235     
   2344018935.4741979     
   2180909071.5002098     
   2024250227.8749826     
   1878531327.1889882     
   2502181521.5212331     
   2353153931.5183463     
   2212011233.6599035     
   2083663028.4951646     
   1974883315.5496049     
   7506317736.6376619     
   6543448979.1860542     
   5758598366.8203869     
   5150451649.3737488     
   4716792998.2750025     
   5094354592.6423302     
   4660660597.4780159     
   4293321564.3384862     
   3991252552.9889441     
   3754607351.9802794     
   3566911474.3378148     
   3420710517.8865361     
   3282507168.7622418     
   3150807904.9097214     
   3024202362.2527618     
   3664105522.3689475     
   3214056439.5506291     
   2906908387.5080094     
   2713192898.9776697     
   2592279139.0104933     
   5463707716.7142820     
   4332291114.0055971     
   3480095106.9292083     
   2917365546.1518145     
   2621295120.7947483     
   4716792998.2750025     
   4353454768.8996830     
   4054466561.5383759     
   3819096757.8196130     
   3646747607.7512760     
   3754607351.9802794     
   3567389696.7585073     
   3406659658.8286986     
   3272841301.2600355     
   3166722946.6440945     
   3024202362.2527618     
   2953836003.9322271     
   2888024781.7736607     
   2826874004.4234219     
   2770484231.2450666     
   2592279139.0104933     
   2529259167.4823050     
   2491798638.5104995     
   2469439071.7347922     
   2452624859.1784887     
   2621295120.7947483     
   2391470033.4813781     
   2266618735.7094011     
   2221176985.2175455     
   2223966577.2437062     
   3646747607.7512760     
   3475915107.7044697     
   3327909201.2790270     
   3202784236.2340260     
   3100683762.7685323     
   3166722946.6440945     
   3063115290.8809037     
   2971713030.2808700     
   2892884828.0786729     
   2827083384.5630484     
   2770484231.2450666     
   2717948507.7910771     
   2670486299.6309910     
   2628475839.7584810     
   2592300015.7221022     
   2452624859.1784887     
   2428911397.6914802     
   2410159087.7173357     
   2395481336.2900100     
   2384012171.8524880     
   2223966577.2437062     
   2196055908.8760738     
   2184572037.9258556     
   2185017267.1672468     
   2193083641.7510061     
   3100683762.7685323     
   2998279005.2321153     
   2910218968.3514347     
   2836676131.2083707     
   2777856793.4578533     
   2827083384.5630484     
   2761932535.1691380     
   2708061854.5902200     
   2665875399.7633567     
   2635790482.8755293     
   2592300015.7221022     
   2553989856.8271079     
   2525130224.8685012     
   2506345793.3362994     
   2498230408.9283223     
   2384012171.8524880     
   2361441895.9035592     
   2348426586.3290639     
   2345652352.7794127     
   2353712289.5986271     
   2193083641.7510061     
   2174250383.7990584     
   2167672415.1347427     
   2173818676.1237903     
   2192975660.1155925     
   2777856793.4578533     
   2691433787.0484271     
   2632954518.7352352     
   2602931384.3876724     
   2601905590.5564256     
   2635790482.8755293     
   2564701407.8558965     
   2512541791.0064783     
   2480124817.4973440     
   2468215028.4211555     
   2498230408.9283223     
   2442643559.6874866     
   2397863260.7814741     
   2364531589.0488348     
   2343222671.2482371     
   2353712289.5986271     
   2317589012.2062860     
   2284883896.6069980     
   2255432473.4129906     
   2229082275.0818400     
   2192975660.1155925     
   2183037655.1503940     
   2169997698.0143046     
   2152203360.3871951     
   2128272210.4394109     
   2601905590.5564256     
   2588294879.2184558     
   2585896845.3852625     
   2594746774.1586699     
   2614922874.0868602     
   2468215028.4211555     
   2452271482.3802609     
   2447728378.1370888     
   2454668924.3846273     
   2473197219.5919089     
   2343222671.2482371     
   2322787617.5842295     
   2314091625.4086542     
   2317297666.4990444     
   2332561146.2957430     
   2229082275.0818400     
   2201821593.2697883     
   2186743498.7730117     
   2184136657.7516465     
   2194248441.8698449     
   2128272210.4394109     
   2091734056.1823025     
   2067848150.2109311     
   2057091117.3360467     
   2059863982.9306800     
   2614922874.0868602     
   2576525755.5850525     
   2544509365.0909362     
   2519456363.4058180     
   2502181521.5212331     
   2473197219.5919089     
   2441725023.2367611     
   2418953652.5850983     
   2405835027.8395958     
   2403751357.6985259     
   2332561146.2957430     
   2310397231.4810681     
   2299541334.5639033     
   2301413705.7095890     
   2318105551.5249705     
   2194248441.8698449     
   2183177746.5437064     
   2186480708.4146295     
   2206147529.8257322     
   2245092988.9100370     
   2059863982.9306800     
   2060846321.9587398     
   2079998476.7512276     
   2119968870.9228020     
   2184548405.2556148     
   2502181521.5212331     
   2353153931.5183463     
   2212011233.6599035     
   2083663028.4951646     
   1974883315.5496049     
   2403751357.6985259     
   2279416541.9212046     
   2165336501.9746799     
   2068173957.0908122     
   1996592029.6411757     
   2318105551.5249705     
   2221954038.4067335     
   2138923287.8343251     
   2077300570.0717106     
   2047157652.8892004     
   2245092988.9100370     
   2180561969.9780798     
   2132305764.5988703     
   2109917829.5943878     
   2124243091.9725161     
   2184548405.2556148     
   2154952051.0806499     
   2144843503.6153798     
   2164681564.8390312     
   2225459485.2930002     
   5463707716.7142820     
   4332291114.0055971     
   3480095106.9292083     
   2917365546.1518145     
   2621295120.7947483     
   2472742780.6415596     
   1996594748.6243794     
   1786976774.9833519     
   1838471768.6415703     
   2062981064.7239771     
   1803699968.6378651     
   1739974069.6537268     
   1848844460.2489779     
   2087144161.1434383     
   2406631959.1216969     
   4244787457.1527619     
   3747524985.0106220     
   3455467146.1808619     
   3355626330.1090951     
   3419547551.7637529     
   7295497723.0133209     
   6282516106.3690958     
   5542983411.4235115     
   5056066191.0896063     
   4793444542.3526697     
   2621295120.7947483     
   2391470033.4813781     
   2266618735.7094011     
   2221176985.2175455     
   2223966577.2437062     
   2062981064.7239771     
   2109006948.0022416     
   2186026335.2095499     
   2279219234.1330752     
   2377059757.6814265     
   2406631959.1216969     
   2483621755.6137700     
   2562734513.5162578     
   2643970273.9535413     
   2727330937.9303432     
   3419547551.7637529     
   3330089261.3968310     
   3271288339.7430015     
   3239957321.9936414     
   3233413451.6609426     
   4793444542.3526697     
   4472504545.4612360     
   4216085203.7027564     
   4017513657.8262672     
   3870378923.9724355     
   2223966577.2437062     
   2196055908.8760738     
   2184572037.9258556     
   2185017267.1672468     
   2193083641.7510061     
   2377059757.6814265     
   2364810344.0004630     
   2357120494.6135564     
   2352867782.3428173     
   2350989409.3004308     
   2727330937.9303432     
   2685795863.0792961     
   2647799536.0294790     
   2613384491.1813154     
   2582615075.6267724     
   3233413451.6609426     
   3133888091.7962675     
   3043079137.4270902     
   2960791048.0928240     
   2886943236.4254923     
   3870378923.9724355     
   3695850683.2973928     
   3537462215.6016421     
   3394337112.1780710     
   3265770989.0096850     
   2193083641.7510061     
   2174250383.7990584     
   2167672415.1347427     
   2173818676.1237903     
   2192975660.1155925     
   2350989409.3004308     
   2297873619.9864445     
   2251662976.5268307     
   2213355291.1569438     
   2184004617.5804825     
   2582615075.6267724     
   2488254258.3429399     
   2398094199.3121243     
   2312930245.1596670     
   2233759556.3107591     
   2886943236.4254923     
   2747397417.9957204     
   2611547796.2595878     
   2479646738.1736221     
   2352154246.3803558     
   3265770989.0096850     
   3079215649.9903541     
   2897666194.8778129     
   2720832724.2169571     
   2548553213.7811532     
   2192975660.1155925     
   2183037655.1503940     
   2169997698.0143046     
   2152203360.3871951     
   2128272210.4394109     
   2184004617.5804825     
   2144177020.2487180     
   2105530098.7334065     
   2067574189.6082821     
   2029868112.0488384     
   2233759556.3107591     
   2158525975.9847817     
   2089086774.1928706     
   2025705319.3407326     
   1968696222.7063775     
   2352154246.3803558     
   2236667523.5094194     
   2131063384.0047972     
   2035895177.1380985     
   1951992972.6152599     
   2548553213.7811532     
   2387657833.7972398     
   2239791578.2229857     
   2105259378.2038765     
   1985034013.9216752     
   2128272210.4394109     
   2091734056.1823025     
   2067848150.2109311     
   2057091117.3360467     
   2059863982.9306800     
   2029868112.0488384     
   1969860289.1414955     
   1920823549.5599279     
   1883574491.4710512     
   1858859629.7791042     
   1968696222.7063775     
   1883293756.3107891     
   1806064403.3188906     
   1738044210.4670303     
   1680324978.7002790     
   1951992972.6152599     
   1842105017.5174835     
   1736624312.7056553     
   1636441458.7738090     
   1542651652.8433216     
   1985034013.9216752     
   1855042260.7094314     
   1725606975.6881759     
   1597133896.6450689     
   1470240187.0260835     
   2059863982.9306800     
   2060846321.9587398     
   2079998476.7512276     
   2119968870.9228020     
   2184548405.2556148     
   1858859629.7791042     
   1851220132.6540718     
   1865841850.9319372     
   1904943262.5882328     
   1971542766.3634009     
   1680324978.7002790     
   1653191433.0547462     
   1653375115.7522662     
   1683262004.7189243     
   1745474801.9513388     
   1542651652.8433216     
   1481664893.7617693     
   1453208448.8221025     
   1461305085.1972606     
   1509334318.7979250     
   1470240187.0260835     
   1359562607.1960616     
   1283844792.7986000     
   1251336542.8601067     
   1269323465.5449314     
   2184548405.2556148     
   2154952051.0806499     
   2144843503.6153798     
   2164681564.8390312     
   2225459485.2930002     
   1971542766.3634009     
   1968986113.7343030     
   2002899940.1229296     
   2091931709.6797204     
   2254692589.2365746     
   1745474801.9513388     
   1789173797.1711607     
   1884972664.4009297     
   2059806319.7522292     
   2338888581.1306620     
   1509334318.7979250     
   1616253788.6174805     
   1790332621.1495264     
   2066417480.1579053     
   2474730480.9259739     
   1269323465.5449314     
   1451301457.1484585     
   1718418858.5634685     
   2111472733.7127736     
   2662954605.4869909     
   7295497723.0133209     
   6282516106.3690958     
   5542983411.4235115     
   5056066191.0896063     
   4793444542.3526697     
   5931181567.3407106     
   5584663749.6537914     
   5295576122.0600195     
   5053105517.9929399     
   4849504983.4852753     
   5616333334.3575478     
   5426515888.9216938     
   5315004356.5598278     
   5200750706.1326084     
   5035227735.0216618     
   5496023813.8197870     
   5148984667.0600271     
   5169291426.0954561     
   5264149239.2785807     
   5273719652.7255373     
   5176957338.3537092     
   4415000097.4328566     
   4633836711.7793303     
   5123224105.9450378     
   5523984329.0288630     
   4793444542.3526697     
   4472504545.4612360     
   4216085203.7027564     
   4017513657.8262672     
   3870378923.9724355     
   4849504983.4852753     
   4596517369.5289783     
   4373487846.9707441     
   4177003947.0013041     
   4004166730.8833685     
   5035227735.0216618     
   4818147359.5194445     
   4611088370.8334742     
   4413223244.6222086     
   4223946180.5722570     
   5273719652.7255373     
   5072562405.6117306     
   4876460764.8056173     
   4684935949.2403936     
   4497772240.0111141     
   5523984329.0288630     
   5323786938.1823864     
   5138290015.6118135     
   4964638579.1349077     
   4800776427.8919849     
   3870378923.9724355     
   3695850683.2973928     
   3537462215.6016421     
   3394337112.1780710     
   3265770989.0096850     
   4004166730.8833685     
   3839705800.2225161     
   3684776947.0458274     
   3538830305.7432618     
   3401514857.4502535     
   4223946180.5722570     
   4057739766.6892796     
   3895815093.4476814     
   3737911215.5133486     
   3583951654.2190194     
   4497772240.0111141     
   4322284810.0694675     
   4147188573.7578583     
   3972387599.5595269     
   3797944875.8829083     
   4800776427.8919849     
   4612161574.8826122     
   4421189990.1849842     
   4227808318.5760293     
   4032105629.5244918     
   3265770989.0096850     
   3079215649.9903541     
   2897666194.8778129     
   2720832724.2169571     
   2548553213.7811532     
   3401514857.4502535     
   3216880078.7812853     
   3035886209.2568674     
   2858286865.1092920     
   2683926447.3806047     
   3583951654.2190194     
   3396165203.3625832     
   3210866580.8922377     
   3027875336.0991716     
   2847090559.1117921     
   3797944875.8829083     
   3601639156.5311384     
   3406945251.7820687     
   3213762969.2559781     
   3022083797.8317375     
   4032105629.5244918     
   3821988771.2541585     
   3612908526.6774120     
   3404854064.4614544     
   3197940143.7827363     
   2548553213.7811532     
   2387657833.7972398     
   2239791578.2229857     
   2105259378.2038765     
   1985034013.9216752     
   2683926447.3806047     
   2511690873.7863889     
   2345872578.1417236     
   2186848688.8956466     
   2035416824.9913833     
   2847090559.1117921     
   2666011905.2955441     
   2486902660.5123348     
   2309966815.9146624     
   2135561803.6497777     
   3022083797.8317375     
   2837726558.1017971     
   2652829795.1468277     
   2467416482.9181485     
   2281529148.2955556     
   3197940143.7827363     
   3017470337.2203584     
   2835624115.6396379     
   2652349547.8905058     
   2467676026.8177924     
   1985034013.9216752     
   1855042260.7094314     
   1725606975.6881759     
   1597133896.6450689     
   1470240187.0260835     
   2035416824.9913833     
   1895821997.1703422     
   1757444492.9905856     
   1620481632.2503948     
   1485212706.8147149     
   2135561803.6497777     
   1988426719.8098314     
   1843395184.7232108     
   1700507691.1641071     
   1559882337.4683003     
   2281529148.2955556     
   2126808303.8889236     
   1974996706.4598689     
   1826008659.2683144     
   1679940748.6822023     
   2467676026.8177924     
   2303421488.5514226     
   2142604280.6226699     
   1985041290.8637116     
   1830921500.2012308     
   1470240187.0260835     
   1359562607.1960616     
   1283844792.7986000     
   1251336542.8601067     
   1269323465.5449314     
   1485212706.8147149     
   1339284981.6349635     
   1207640319.9332952     
   1094915648.0565615     
   1007227597.9857892     
   1559882337.4683003     
   1408112355.1744194     
   1252459529.2402771     
   1090760800.9631402     
   921073575.68762374     
   1679940748.6822023     
   1562624591.3757684     
   1435759344.5964305     
   1299809103.0213389     
   1161084130.4578085     
   1830921500.2012308     
   1788684216.4948676     
   1742496834.5418899     
   1701227720.0725131     
   1683854646.8653498     
   1269323465.5449314     
   1451301457.1484585     
   1718418858.5634685     
   2111472733.7127736     
   2662954605.4869909     
   1007227597.9857892     
   1168450238.8598952     
   1427462119.1231370     
   1809286679.4932611     
   2334241508.4507155     
   921073575.68762374     
   965683472.55369484     
   1146244363.6209054     
   1476738445.4062817     
   1957305989.1792448     
   1161084130.4578085     
   1009963484.1026131     
   985926604.32822371     
   1161644166.2663002     
   1544664356.1952307     
   1683854646.8653498     
   1385187996.8846376     
   1129937176.9361506     
   1010197991.7123343     
   1154321267.7196829     
 </DataArray>
 <DataArray  type="Float64" Name="strain" NumberOfComponents="3" format="ascii">
   6.6233971044412865E-002   4.7962366457307226E-002  -3.8066130367673479E-002
   7.2393357977670214E-002   1.1552159114688543E-002  -1.9938846960680268E-002
   7.8552744910927563E-002  -1.3661960404714957E-002  -9.7776755676685090E-003
   8.4712131844184857E-002  -2.7679992100903064E-002  -7.5826161886394794E-003
   9.0871518777442151E-002  -3.0501935973875849E-002  -1.3353668823592679E-002
   8.7774946370415052E-002   2.7072338598950973E-002  -7.6281354853715566E-003
   8.7658322892054052E-002   1.8848126359247153E-003   4.4202014584157623E-003
   8.7541699413693164E-002  -1.5504822082484160E-002   1.1882629592948668E-002
   8.7425075935332164E-002  -2.5096565556275541E-002   1.4759148918227299E-002
   8.7308452456971219E-002  -2.6890417785449094E-002   1.3049759434251629E-002
   9.2049884096930601E-002   6.1823107405948319E-003   3.5731639065821719E-002
   8.9037453411679235E-002  -7.7825338428392232E-003   3.8302832967805012E-002
   8.6025022726427841E-002  -1.7347683760253502E-002   3.9668321265261791E-002
   8.3012592041176558E-002  -2.2513139011647899E-002   3.9828103958192265E-002
   8.0000161355925220E-002  -2.3278899597022451E-002   3.8782181046596420E-002
   7.9058784223959261E-002  -1.4707717117761393E-002   9.2013193285906056E-002
   7.6530749536545650E-002  -1.7449880321603162E-002   8.1709047567487647E-002
   7.4002714849131818E-002  -1.9190545438022774E-002   7.3579399449270638E-002
   7.1474680161718027E-002  -1.9929712467020206E-002   6.7624248931255446E-002
   6.8946645474304333E-002  -1.9667381408595697E-002   6.3843596013441528E-002
   4.8801646751501560E-002  -3.5597744976117562E-002  0.16121652717488166     
   5.0138211266653299E-002  -2.7117226800366989E-002  0.13463884525746361     
   5.1474775781804954E-002  -2.1033407115792074E-002  0.11361586414497526     
   5.2811340296956680E-002  -1.7346285922392658E-002   9.8147583837416230E-002
   5.4147904812108433E-002  -1.6055863220168887E-002   8.8234004334786675E-002
   9.0871518777442151E-002  -3.0501935973875849E-002  -1.3353668823592679E-002
   8.8155277954757916E-002  -2.8012472172015968E-002  -9.3267818937495250E-003
   8.5439037132073625E-002  -2.6096280843704744E-002  -6.0815313223254175E-003
   8.2722796309389390E-002  -2.4753361988943151E-002  -3.6179171093197460E-003
   8.0006555486705100E-002  -2.3983715607730383E-002  -1.9359392547323440E-003
   8.7308452456971219E-002  -2.6890417785449094E-002   1.3049759434251629E-002
   8.4142865305085829E-002  -2.4979365860015590E-002   1.3183033908261255E-002
   8.0977278153200521E-002  -2.3456396869984936E-002   1.3199252082287505E-002
   7.7811691001315228E-002  -2.2321510815356778E-002   1.3098413956330046E-002
   7.4646103849429934E-002  -2.1574707696131901E-002   1.2880519530389212E-002
   8.0000161355925220E-002  -2.3278899597022451E-002   3.8782181046596420E-002
   7.7049807933274025E-002  -2.1946259548015490E-002   3.5207032602918908E-002
   7.4099454510622803E-002  -2.0816512896264794E-002   3.2179407917693109E-002
   7.1149101087971539E-002  -1.9889659641770738E-002   2.9699306990918828E-002
   6.8198747665320358E-002  -1.9165699784533141E-002   2.7766729822596370E-002
   6.8946645474304333E-002  -1.9667381408595697E-002   6.3843596013441528E-002
   6.6876105839322297E-002  -1.8913153236015140E-002   5.6745214190223305E-002
   6.4805566204340359E-002  -1.8176628922544874E-002   5.0858936183891840E-002
   6.2735026569358421E-002  -1.7457808468184642E-002   4.6184761994447092E-002
   6.0664486934376448E-002  -1.6756691872934687E-002   4.2722691621889269E-002
   5.4147904812108433E-002  -1.6055863220168887E-002   8.8234004334786675E-002
   5.3621759023230853E-002  -1.5880046924014901E-002   7.7797578670174061E-002
   5.3095613234353259E-002  -1.5536744948824788E-002   6.9237836880883447E-002
   5.2569467445475700E-002  -1.5025957294598311E-002   6.2554778966914582E-002
   5.2043321656598140E-002  -1.4347683961336011E-002   5.7748404928267827E-002
   8.0006555486705100E-002  -2.3983715607730383E-002  -1.9359392547323440E-003
   7.6772142972591384E-002  -2.3416748193949621E-002  -2.0135383477352109E-003
   7.3537730458477779E-002  -2.2681866241484050E-002  -1.8239327255206161E-003
   7.0303317944364091E-002  -2.1779069750332669E-002  -1.3671223880889760E-003
   6.7068905430250458E-002  -2.0708358720496922E-002  -6.4310733544004073E-004
   7.4646103849429934E-002  -2.1574707696131901E-002   1.2880519530389212E-002
   7.1718648932296791E-002  -2.0973981299590327E-002   1.1887690786676175E-002
   6.8791194015163593E-002  -2.0277325413012581E-002   1.1241572521707072E-002
   6.5863739098030422E-002  -1.9484740036398926E-002   1.0942164735481610E-002
   6.2936284180897251E-002  -1.8596225169749681E-002   1.0989467428000110E-002
   6.8198747665320358E-002  -1.9165699784533141E-002   2.7766729822596370E-002
   6.5657756108694398E-002  -1.8531214405230562E-002   2.5786686379523693E-002
   6.3116764552068536E-002  -1.7872784584541113E-002   2.4232859178721464E-002
   6.0575772995442596E-002  -1.7190410322464739E-002   2.3105248220190527E-002
   5.8034781438816685E-002  -1.6484091619001939E-002   2.2403853503929289E-002
   6.0664486934376448E-002  -1.6756691872934687E-002   4.2722691621889269E-002
   5.8589464501784552E-002  -1.6088447510870921E-002   3.9683448430807913E-002
   5.6514442069192608E-002  -1.5468243756069866E-002   3.7149927245523622E-002
   5.4439419636600643E-002  -1.4896080608530884E-002   3.5122128066037005E-002
   5.2364397204008754E-002  -1.4371958068254559E-002   3.3600050892347737E-002
   5.2043321656598140E-002  -1.4347683961336011E-002   5.7748404928267827E-002
   5.0513774111566989E-002  -1.3645680616511474E-002   5.3577976940528238E-002
   4.8984226566535810E-002  -1.3063702927598217E-002   4.9992776722112636E-002
   4.7454679021504589E-002  -1.2601750894596708E-002   4.6992804273021702E-002
   4.5925131476473480E-002  -1.2259824517507123E-002   4.4578059593254393E-002
   6.7068905430250458E-002  -2.0708358720496922E-002  -6.4310733544004073E-004
   6.3580496216186888E-002  -1.9594624396259031E-002  -9.2808546719747032E-004
   6.0092087002123373E-002  -1.8562758021902687E-002  -9.4486290516099247E-004
   5.6603677788059886E-002  -1.7612759597428397E-002  -6.9343964933119007E-004
   5.3115268573996288E-002  -1.6744629122835475E-002  -1.7381569970753574E-004
   6.2936284180897251E-002  -1.8596225169749681E-002   1.0989467428000110E-002
   5.9718054987926539E-002  -1.7672439011511887E-002   9.8839597024440451E-003
   5.6499825794955827E-002  -1.6774039760134585E-002   9.0506113252798448E-003
   5.3281596601985143E-002  -1.5901027415617219E-002   8.4894222965082866E-003
   5.0063367409014403E-002  -1.5053401977959457E-002   8.2003926161282603E-003
   5.8034781438816685E-002  -1.6484091619001939E-002   2.2403853503929289E-002
   5.5090690921537316E-002  -1.5750253626764743E-002   2.0534297227596032E-002
   5.2146600404257962E-002  -1.4985321498365914E-002   1.8940858954253278E-002
   4.9202509886978614E-002  -1.4189295233805927E-002   1.7623538683900979E-002
   4.6258419369699183E-002  -1.3362174833083773E-002   1.6582336416539556E-002
   5.2364397204008754E-002  -1.4371958068254559E-002   3.3600050892347737E-002
   4.9698404017019228E-002  -1.3828068242017821E-002   3.1022927108258685E-002
   4.7032410830029736E-002  -1.3196603236597750E-002   2.8725879981758549E-002
   4.4366417643040237E-002  -1.2477563051994248E-002   2.6708909512847927E-002
   4.1700424456050787E-002  -1.1670947688207478E-002   2.4972015701526351E-002
   4.5925131476473480E-002  -1.2259824517507123E-002   4.4578059593254393E-002
   4.3541194274372363E-002  -1.1905882857270567E-002   4.1349849344431422E-002
   4.1157257072271247E-002  -1.1407884974829322E-002   3.8405674407796103E-002
   3.8773319870170186E-002  -1.0765830870182892E-002   3.5745534783348507E-002
   3.6389382668069015E-002  -9.9797205433315161E-003   3.3369430471088313E-002
   5.3115268573996288E-002  -1.6744629122835475E-002  -1.7381569970753574E-004
   5.0100708157268858E-002  -1.5867151527519607E-002   2.2009424914559705E-004
   4.7086147740541373E-002  -1.4889111740876371E-002   4.4277159305305958E-004
   4.4071587323813916E-002  -1.3810509762903239E-002   4.9421633201468529E-004
   4.1057026907086458E-002  -1.2631345593603793E-002   3.7442846603097379E-004
   5.0063367409014403E-002  -1.5053401977959457E-002   8.2003926161282603E-003
   4.6971011757702130E-002  -1.4192768429114211E-002   8.0106757212904389E-003
   4.3878656106389746E-002  -1.3280731751034142E-002   7.8366009622284349E-003
   4.0786300455077473E-002  -1.2317291943717494E-002   7.6781683389426925E-003
   3.7693944803765089E-002  -1.1302449007165594E-002   7.5353778514322123E-003
   4.6258419369699183E-002  -1.3362174833083773E-002   1.6582336416539556E-002
   4.3275143224523527E-002  -1.2518385330709203E-002   1.5759833615918512E-002
   4.0291867079347884E-002  -1.1672351761191690E-002   1.5139847691794495E-002
   3.7308590934172221E-002  -1.0824074124530861E-002   1.4722378644168282E-002
   3.4325314788996586E-002  -9.9735524207276161E-003   1.4507426473039209E-002
   4.1700424456050787E-002  -1.1670947688207478E-002   2.4972015701526351E-002
   3.9013102557733235E-002  -1.0844002232303779E-002   2.3467567933029405E-002
   3.6325780659415691E-002  -1.0063971771349461E-002   2.2352511781751398E-002
   3.3638458761098201E-002  -9.3308563053448937E-003   2.1626847247692149E-002
   3.0951136862780657E-002  -8.6446558342895274E-003   2.1290574330852116E-002
   3.6389382668069015E-002  -9.9797205433315161E-003   3.3369430471088313E-002
   3.4184889757331138E-002  -9.1696191338985766E-003   3.1133878672623183E-002
   3.1980396846593206E-002  -8.4555917815072601E-003   2.9474593232098611E-002
   2.9775903935855275E-002  -7.8376384861586559E-003   2.8391574149514043E-002
   2.7571411025117398E-002  -7.3157592478514388E-003   2.7884821424869921E-002
   4.1057026907086458E-002  -1.2631345593603793E-002   3.7442846603097379E-004
   3.8388243676425460E-002  -1.1525540724004246E-002  -1.4445300497123448E-004
   3.5719460445764628E-002  -1.0667016645133087E-002  -4.5926666407691830E-004
   3.3050677215103741E-002  -1.0055773356990497E-002  -5.7001251128657726E-004
   3.0381893984442798E-002  -9.6918108595771546E-003  -4.7669054659960075E-004
   3.7693944803765089E-002  -1.1302449007165594E-002   7.5353778514322123E-003
   3.5205219541797894E-002  -1.0342088784554671E-002   6.7831139518577110E-003
   3.2716494279830644E-002  -9.5420971190606774E-003   6.1868981777742360E-003
   3.0227769017863365E-002  -8.9024740106825456E-003   5.7467305291812876E-003
   2.7739043755896198E-002  -8.4232194594209275E-003   5.4626110060796984E-003
   3.4325314788996586E-002  -9.9735524207276161E-003   1.4507426473039209E-002
   3.1968627809317668E-002  -9.1586368451049838E-003   1.3608692378504150E-002
   2.9611940829638778E-002  -8.4171775929871295E-003   1.2817986723054620E-002
   2.7255253849959846E-002  -7.7491746643736995E-003   1.2135309506690575E-002
   2.4898566870280914E-002  -7.1546280592648115E-003   1.1560660729412919E-002
   3.0951136862780657E-002  -8.6446558342895274E-003   2.1290574330852116E-002
   2.8678468478984823E-002  -7.9751849056555746E-003   2.0332282274967931E-002
   2.6405800095188982E-002  -7.2922580669139286E-003   1.9433998971764656E-002
   2.4133131711393207E-002  -6.5958753180648567E-003   1.8595724421242004E-002
   2.1860463327597418E-002  -5.8860366591084179E-003   1.7817458623399215E-002
   2.7571411025117398E-002  -7.3157592478514388E-003   2.7884821424869921E-002
   2.5334741550799345E-002  -6.7917329662058323E-003   2.6953883641249843E-002
   2.3098072076481374E-002  -6.1673385408408943E-003   2.6034934923904407E-002
   2.0861402602163390E-002  -5.4425759717562222E-003   2.5127975272834224E-002
   1.8624733127845350E-002  -4.6174452589522463E-003   2.4233004688039461E-002
   3.0381893984442798E-002  -9.6918108595771546E-003  -4.7669054659960075E-004
   2.9739709122671321E-002  -9.2389056519143198E-003  -2.5898805968971317E-004
   2.9097524260899843E-002  -8.3608342330257490E-003  -1.7325346956319487E-003
   2.8455339399128421E-002  -7.0575966029111231E-003  -4.8973304544278062E-003
   2.7813154537356888E-002  -5.3291927615690682E-003  -9.7533753360758979E-003
   2.7739043755896198E-002  -8.4232194594209275E-003   5.4626110060796984E-003
   2.5680268981894294E-002  -7.9113124999199425E-003   6.0827658389548400E-003
   2.3621494207892502E-002  -7.1737321668238208E-003   5.5609899702219745E-003
   2.1562719433890709E-002  -6.2104784601318685E-003   3.8972833998810741E-003
   1.9503944659888806E-002  -5.0215513798441691E-003   1.0916461279322220E-003
   2.4898566870280914E-002  -7.1546280592648115E-003   1.1560660729412919E-002
   2.1972520605293672E-002  -6.5837193479259537E-003   1.2383775070622161E-002
   1.9046474340306374E-002  -5.9866301006220868E-003   1.2614277131468427E-002
   1.6120428075319146E-002  -5.3633603173530511E-003   1.2252166911951287E-002
   1.3194381810331862E-002  -4.7139099981188259E-003   1.1297444412071589E-002
   2.1860463327597418E-002  -5.8860366591084179E-003   1.7817458623399215E-002
   1.8616463992869384E-002  -5.2561261959313266E-003   1.8644039635312276E-002
   1.5372464658141523E-002  -4.7995280344198116E-003   1.9427326788106623E-002
   1.2128465323413631E-002  -4.5162421745737931E-003   2.0167320081783093E-002
   8.8844659886857316E-003  -4.4062686163939269E-003   2.0864019516341425E-002
   1.8624733127845350E-002  -4.6174452589522463E-003   2.4233004688039461E-002
   1.5612099144621583E-002  -3.9285330439370880E-003   2.4863559533025326E-002
   1.2599465161397844E-002  -3.6124259682180360E-003   2.6000138940137696E-002
   9.5868311781741322E-003  -3.6691240317950485E-003   2.7642742909376627E-002
   6.5741971949503375E-003  -4.0986272346683617E-003   2.9791371440742287E-002
   2.7813154537356888E-002  -5.3291927615690682E-003  -9.7533753360758979E-003
   2.3375186577059504E-002  -4.2129908086898649E-003  -4.2121119984372957E-003
   1.8937218616762286E-002  -4.7463588439565774E-003   2.5932657815272986E-003
   1.4499250656465040E-002  -6.9292968673727307E-003   1.0662758003818551E-002
   1.0061282696167684E-002  -1.0761804878936410E-002   1.9996364668434907E-002
   1.9503944659888806E-002  -5.0215513798441691E-003   1.0916461279322220E-003
   1.6258433475922207E-002  -4.6837854693112524E-003   6.7721159768595607E-003
   1.3012922291955553E-002  -6.2740152718838704E-003   1.3573384936121480E-002
   9.7674111079890102E-003  -9.7922407875606354E-003   2.1495453005718423E-002
   6.5218999240224118E-003  -1.5238462016342602E-002   3.0538320185650836E-002
   1.3194381810331862E-002  -4.7139099981188259E-003   1.1297444412071589E-002
   1.0998012070704555E-002  -5.1545801299338612E-003   1.6838695047330821E-002
   8.8016423310774555E-003  -7.8016716998098867E-003   2.3357429460933499E-002
   6.6052725914501828E-003  -1.2655184707748665E-002   3.0853647652879623E-002
   4.4089028518231599E-003  -1.9715119153748795E-002   3.9327349623170305E-002
   8.8844659886857316E-003  -4.4062686163939269E-003   2.0864019516341425E-002
   7.5939223614068380E-003  -5.6253747905558593E-003   2.5987625212975429E-002
   6.3033787341278992E-003  -9.3293281277365414E-003   3.1945399355961454E-002
   5.0128351068489587E-003  -1.5518128627936632E-002   3.8737341945301089E-002
   3.7222914795700668E-003  -2.4191776291155431E-002   4.6363452980993591E-002
   6.5741971949503375E-003  -4.0986272346683617E-003   2.9791371440742287E-002
   6.0461643480285154E-003  -6.0961694511780795E-003   3.4218906473794108E-002
   5.5181315011068321E-003  -1.0856984555663640E-002   3.9337294621207608E-002
   4.9900986541850240E-003  -1.8381072548124600E-002   4.5146535882982453E-002
   4.4620658072632713E-003  -2.8668433428561624E-002   5.1646630259118975E-002
   4.8801646751501560E-002  -3.5597744976117562E-002  0.16121652717488166     
   5.0138211266653299E-002  -2.7117226800366989E-002  0.13463884525746361     
   5.1474775781804954E-002  -2.1033407115792074E-002  0.11361586414497526     
   5.2811340296956680E-002  -1.7346285922392658E-002   9.8147583837416230E-002
   5.4147904812108433E-002  -1.6055863220168887E-002   8.8234004334786675E-002
   1.8444897964797313E-002  -3.1163209374790612E-002   9.2903946825527883E-002
   2.3982689850382710E-002  -2.4903155144111733E-002   7.9997927798060975E-002
   2.9520481735968163E-002  -2.0329759715351281E-002   6.9939662706531985E-002
   3.5058273621553601E-002  -1.7443023088509604E-002   6.2729151550941289E-002
   4.0596065507139067E-002  -1.6242945263586328E-002   5.8366394331288596E-002
   5.1549641490867826E-003  -2.6728673773463607E-002   2.2015882686473920E-002
   1.2187036536114595E-002  -2.2689083487856365E-002   2.3491566238214995E-002
   1.9219108923142388E-002  -1.9626112314910585E-002   2.5108056856902802E-002
   2.6251181310170190E-002  -1.7539760254626464E-002   2.6865354542537148E-002
   3.3283253697197999E-002  -1.6430027307003797E-002   2.8763459295118157E-002
   8.9318453043700542E-003  -2.2294138172136629E-002  -5.1447665242280109E-002
   1.4751251323848857E-002  -2.0475011831600970E-002  -3.4880239422074064E-002
   2.0570657343327553E-002  -1.8922464914469896E-002  -2.0878953403912652E-002
   2.6390063362806280E-002  -1.7636497420743254E-002  -9.4438071877960411E-003
   3.2209469382284951E-002  -1.6617109350421252E-002  -5.7480077372421695E-004
   2.9775541430647201E-002  -1.7859602570809652E-002 -0.12748669696073456     
   3.1675334213585482E-002  -1.8260940175345686E-002  -9.5117489182806159E-002
   3.3575126996523708E-002  -1.8218817514029123E-002  -6.8021368075914246E-002
   3.5474919779461961E-002  -1.7733234586860235E-002  -4.6198333640058292E-002
   3.7374712562400214E-002  -1.6804191393838708E-002  -2.9648385875238548E-002
   5.4147904812108433E-002  -1.6055863220168887E-002   8.8234004334786675E-002
   5.3621759023230853E-002  -1.5880046924014901E-002   7.7797578670174061E-002
   5.3095613234353259E-002  -1.5536744948824788E-002   6.9237836880883447E-002
   5.2569467445475700E-002  -1.5025957294598311E-002   6.2554778966914582E-002
   5.2043321656598140E-002  -1.4347683961336011E-002   5.7748404928267827E-002
   4.0596065507139067E-002  -1.6242945263586328E-002   5.8366394331288596E-002
   4.1485915168254062E-002  -1.5835414686088164E-002   5.3842832729426873E-002
   4.2375764829369070E-002  -1.5326319801521451E-002   5.0274578152228522E-002
   4.3265614490484071E-002  -1.4715660609886012E-002   4.7661630599693125E-002
   4.4155464151599128E-002  -1.4003437111182127E-002   4.6003990071820960E-002
   3.3283253697197999E-002  -1.6430027307003797E-002   2.8763459295118157E-002
   3.4667721957646710E-002  -1.5790782448161456E-002   3.0086840384040220E-002
   3.6052190218095401E-002  -1.5115894654218115E-002   3.1444151646966415E-002
   3.7436658478544077E-002  -1.4405363925173713E-002   3.2835393083897026E-002
   3.8821126738992809E-002  -1.3659190261028298E-002   3.4260564694832005E-002
   3.2209469382284951E-002  -1.6617109350421252E-002  -5.7480077372421695E-004
   3.3167179391408605E-002  -1.5746150210234677E-002   6.5296016340137784E-003
   3.4124889400532245E-002  -1.4905469506914668E-002   1.2746557365097250E-002
   3.5082599409655857E-002  -1.4095067240461331E-002   1.8076066419526155E-002
   3.6040309418779476E-002  -1.3314943410874414E-002   2.2518128797300408E-002
   3.7374712562400214E-002  -1.6804191393838708E-002  -2.9648385875238548E-002
   3.6984287469539884E-002  -1.5701517972308038E-002  -1.6828883520652149E-002
   3.6593862376679609E-002  -1.4695044359611470E-002  -5.8182046933791531E-003
   3.6203437283819292E-002  -1.3784770555749094E-002   3.3836506065806349E-003
   3.5813012190958976E-002  -1.2970696560720585E-002   1.0776682379226910E-002
   5.2043321656598140E-002  -1.4347683961336011E-002   5.7748404928267827E-002
   5.0513774111566989E-002  -1.3645680616511474E-002   5.3577976940528238E-002
   4.8984226566535810E-002  -1.3063702927598217E-002   4.9992776722112636E-002
   4.7454679021504589E-002  -1.2601750894596708E-002   4.6992804273021702E-002
   4.5925131476473480E-002  -1.2259824517507123E-002   4.4578059593254393E-002
   4.4155464151599128E-002  -1.4003437111182127E-002   4.6003990071820960E-002
   4.3082425721977277E-002  -1.3290284038765088E-002   4.4148498114782497E-002
   4.2009387292355510E-002  -1.2676836125990382E-002   4.2620796619238774E-002
   4.0936348862733681E-002  -1.2163093372857738E-002   4.1420885585189839E-002
   3.9863310433111948E-002  -1.1749055779367579E-002   4.0548765012635213E-002
   3.8821126738992809E-002  -1.3659190261028298E-002   3.4260564694832005E-002
   3.7947160116950901E-002  -1.2934887461018882E-002   3.4740329264764128E-002
   3.7073193494908972E-002  -1.2289969324382331E-002   3.5290446988361264E-002
   3.6199226872867016E-002  -1.1724435851118769E-002   3.5910917865623518E-002
   3.5325260250825136E-002  -1.1238287041228062E-002   3.6601741896551007E-002
   3.6040309418779476E-002  -1.3314943410874414E-002   2.2518128797300408E-002
   3.5107977296487923E-002  -1.2579490883272697E-002   2.5353470390472560E-002
   3.4175645174196363E-002  -1.1903102522774416E-002   2.8001727829480079E-002
   3.3243313051904734E-002  -1.1285778329379634E-002   3.0462901114323097E-002
   3.2310980929613188E-002  -1.0727518303088421E-002   3.2736990245002137E-002
   3.5813012190958976E-002  -1.2970696560720585E-002   1.0776682379226910E-002
   3.4564877260588239E-002  -1.2224094305526290E-002   1.5987921491908141E-002
   3.3316742330217516E-002  -1.1516235721166390E-002   2.0754639142595371E-002
   3.2068607399846759E-002  -1.0847120807640623E-002   2.5076835331288780E-002
   3.0820472469476001E-002  -1.0216749564949001E-002   2.8954510057988103E-002
   4.5925131476473480E-002  -1.2259824517507123E-002   4.4578059593254393E-002
   4.3541194274372363E-002  -1.1905882857270567E-002   4.1349849344431422E-002
   4.1157257072271247E-002  -1.1407884974829322E-002   3.8405674407796103E-002
   3.8773319870170186E-002  -1.0765830870182892E-002   3.5745534783348507E-002
   3.6389382668069015E-002  -9.9797205433315161E-003   3.3369430471088313E-002
   3.9863310433111948E-002  -1.1749055779367579E-002   4.0548765012635213E-002
   3.7729497491582276E-002  -1.1319520383504839E-002   3.8947793066566955E-002
   3.5595684550052700E-002  -1.0759284223254867E-002   3.7563034329454348E-002
   3.3461871608523056E-002  -1.0068347298617490E-002   3.6394488801297045E-002
   3.1328058666993452E-002  -9.2467096095928403E-003   3.5442156482094811E-002
   3.5325260250825136E-002  -1.1238287041228062E-002   3.6601741896551007E-002
   3.3373749466634822E-002  -1.0733157909739000E-002   3.6614652795419950E-002
   3.1422238682444509E-002  -1.0110683471680405E-002   3.6775954800012105E-002
   2.9470727898254168E-002  -9.3708637270521426E-003   3.7085647910327438E-002
   2.7519217114063840E-002  -8.5136986758543309E-003   3.7543732126365775E-002
   3.2310980929613188E-002  -1.0727518303088421E-002   3.2736990245002137E-002
   3.0473950199529889E-002  -1.0146795435973271E-002   3.4350428530990303E-002
   2.8636919469446555E-002  -9.4620827201058917E-003   3.6044435819469776E-002
   2.6799888739363235E-002  -8.6733801554869337E-003   3.7819012110439976E-002
   2.4962858009279922E-002  -7.7806877421157383E-003   3.9674157403900838E-002
   3.0820472469476001E-002  -1.0216749564949001E-002   2.8954510057988103E-002
   2.9030099690267486E-002  -9.5604329622073769E-003   3.2155120273278104E-002
   2.7239726911058970E-002  -8.8134819685315169E-003   3.5368477387827169E-002
   2.5449354131850455E-002  -7.9758965839215115E-003   3.8594581401634548E-002
   2.3658981352641884E-002  -7.0476768083772567E-003   4.1833432314700603E-002
   3.6389382668069015E-002  -9.9797205433315161E-003   3.3369430471088313E-002
   3.4184889757331138E-002  -9.1696191338985766E-003   3.1133878672623183E-002
   3.1980396846593206E-002  -8.4555917815072601E-003   2.9474593232098611E-002
   2.9775903935855275E-002  -7.8376384861586559E-003   2.8391574149514043E-002
   2.7571411025117398E-002  -7.3157592478514388E-003   2.7884821424869921E-002
   3.1328058666993452E-002  -9.2467096095928403E-003   3.5442156482094811E-002
   2.9581392134552686E-002  -8.4071983418365637E-003   3.4245133320149279E-002
   2.7834725602111879E-002  -7.6626406810046122E-003   3.3387496556857355E-002
   2.6088059069671092E-002  -7.0130366270964792E-003   3.2869246192219384E-002
   2.4341392537230305E-002  -6.4583861801124076E-003   3.2690382226235049E-002
   2.7519217114063840E-002  -8.5136986758543309E-003   3.7543732126365775E-002
   2.5993497000633609E-002  -7.6447775497748838E-003   3.7386358051057306E-002
   2.4467776887203238E-002  -6.8696895805012842E-003   3.7331490415116519E-002
   2.2942056773772909E-002  -6.1884347680342990E-003   3.7379129218542646E-002
   2.1416336660342636E-002  -5.6010131123731544E-003   3.7529274461336221E-002
   2.4962858009279922E-002  -7.7806877421157383E-003   3.9674157403900838E-002
   2.3421204355573634E-002  -6.8823567577130373E-003   4.0557552865348158E-002
   2.1879550701867281E-002  -6.0767384799981852E-003   4.1306574806875718E-002
   2.0337897048160934E-002  -5.3638329089720650E-003   4.1921223228484142E-002
   1.8796243394454636E-002  -4.7436400446339011E-003   4.2401498130173021E-002
   2.3658981352641884E-002  -7.0476768083772567E-003   4.1833432314700603E-002
   2.1864514199372936E-002  -6.1199359656511909E-003   4.3758717763020982E-002
   2.0070047046103962E-002  -5.2837873794952250E-003   4.5312749732135060E-002
   1.8275579892834987E-002  -4.5392310499098656E-003   4.6495528222043808E-002
   1.6481112739566040E-002  -3.8862669768947589E-003   4.7307053232746199E-002
   2.7571411025117398E-002  -7.3157592478514388E-003   2.7884821424869921E-002
   2.5334741550799345E-002  -6.7917329662058323E-003   2.6953883641249843E-002
   2.3098072076481374E-002  -6.1673385408408943E-003   2.6034934923904407E-002
   2.0861402602163390E-002  -5.4425759717562222E-003   2.5127975272834224E-002
   1.8624733127845350E-002  -4.6174452589522463E-003   2.4233004688039461E-002
   2.4341392537230305E-002  -6.4583861801124076E-003   3.2690382226235049E-002
   2.2138329858877204E-002  -5.9293769573592336E-003   3.2158044434395017E-002
   1.9935267180524088E-002  -5.3566965761431828E-003   3.1680931168209525E-002
   1.7732204502170994E-002  -4.7403450364650740E-003   3.1259042427678824E-002
   1.5529141823817871E-002  -4.0803223383241161E-003   3.0892378212802385E-002
   2.1416336660342636E-002  -5.6010131123731544E-003   3.7529274461336221E-002
   1.9290116237333982E-002  -5.0670209485124684E-003   3.7338839676019364E-002
   1.7163895814325279E-002  -4.5460546114460543E-003   3.7246864875736835E-002
   1.5037675391316615E-002  -4.0381141011738217E-003   3.7253350060488397E-002
   1.2911454968307937E-002  -3.5431994176959858E-003   3.7358295230274396E-002
   1.8796243394454636E-002  -4.7436400446339011E-003   4.2401498130173021E-002
   1.6790100686169856E-002  -4.2046649396658975E-003   4.2496269366123038E-002
   1.4783957977885098E-002  -3.7354126467486898E-003   4.2732736046486426E-002
   1.2777815269600333E-002  -3.3358831658827880E-003   4.3110898171263734E-002
   1.0771672561315560E-002  -3.0060764970676335E-003   4.3630755740454316E-002
   1.6481112739566040E-002  -3.8862669768947589E-003   4.7307053232746199E-002
   1.4638283205384683E-002  -3.3423089308191045E-003   4.7630333504705580E-002
   1.2795453671203383E-002  -2.9247706820512143E-003   4.8138544680458195E-002
   1.0952624137022068E-002  -2.6336522305911991E-003   4.8831686760004323E-002
   9.1097946028407817E-003  -2.4689535764396142E-003   4.9709759743343240E-002
   1.8624733127845350E-002  -4.6174452589522463E-003   2.4233004688039461E-002
   1.5612099144621583E-002  -3.9285330439370880E-003   2.4863559533025326E-002
   1.2599465161397844E-002  -3.6124259682180360E-003   2.6000138940137696E-002
   9.5868311781741322E-003  -3.6691240317950485E-003   2.7642742909376627E-002
   6.5741971949503375E-003  -4.0986272346683617E-003   2.9791371440742287E-002
   1.5529141823817871E-002  -4.0803223383241161E-003   3.0892378212802385E-002
   1.2997317983449413E-002  -3.6128864934033000E-003   3.1574798084935130E-002
   1.0465494143080942E-002  -3.5742955133859500E-003   3.2712813680651293E-002
   7.9336703027124839E-003  -3.9645493982712332E-003   3.4306424999951804E-002
   5.4018464623440121E-003  -4.7836481480603155E-003   3.6355632042835984E-002
   1.2911454968307937E-002  -3.5431994176959858E-003   3.7358295230274396E-002
   1.0810012432252186E-002  -3.2972399428702059E-003   3.8036540403946467E-002
   8.7085698961963803E-003  -3.5361650585541693E-003   3.9119952462659813E-002
   6.6071273601406091E-003  -4.2599747647480771E-003   4.0608531406414697E-002
   4.5056848240848241E-003  -5.4686690614519362E-003   4.2502277235210828E-002
   1.0771672561315560E-002  -3.0060764970676335E-003   4.3630755740454316E-002
   9.0501824910298664E-003  -2.9815933923367094E-003   4.4248786490059880E-002
   7.3286924207441144E-003  -3.4980346037225690E-003   4.5221555286163735E-002
   5.6072023504583363E-003  -4.5554001312245913E-003   4.6549062128766222E-002
   3.8857122801726658E-003  -6.1536899748435014E-003   4.8231307017867639E-002
   9.1097946028407817E-003  -2.4689535764396142E-003   4.9709759743343240E-002
   7.7178281597824472E-003  -2.6659468418033794E-003   5.0211536343274688E-002
   6.3258617167241682E-003  -3.4599041488904969E-003   5.1017622151162234E-002
   4.9338952736658892E-003  -4.8508254977012097E-003   5.2128017167005797E-002
   3.5419288306075547E-003  -6.8387108882352887E-003   5.3542721390805958E-002
   6.5741971949503375E-003  -4.0986272346683617E-003   2.9791371440742287E-002
   6.0461643480285154E-003  -6.0961694511780795E-003   3.4218906473794108E-002
   5.5181315011068321E-003  -1.0856984555663640E-002   3.9337294621207608E-002
   4.9900986541850240E-003  -1.8381072548124600E-002   4.5146535882982453E-002
   4.4620658072632713E-003  -2.8668433428561624E-002   5.1646630259118975E-002
   5.4018464623440121E-003  -4.7836481480603155E-003   3.6355632042835984E-002
   5.4601205380839513E-003  -6.9321636275687104E-003   3.8458179237278622E-002
   5.5183946138239598E-003  -1.1310667701614374E-002   4.1042487162683272E-002
   5.5766686895638989E-003  -1.7919160370196641E-002   4.4108555819049933E-002
   5.6349427653038520E-003  -2.6757641633315732E-002   4.7656385206378493E-002
   4.5056848240848241E-003  -5.4686690614519362E-003   4.2502277235210828E-002
   4.9411734390867601E-003  -7.7681578039595633E-003   4.2813120884483608E-002
   5.3766620540887725E-003  -1.1764350847565330E-002   4.3396632881318675E-002
   5.8121506690907813E-003  -1.7457248192268793E-002   4.4252813225715545E-002
   6.2476392840927208E-003  -2.4846849838070284E-002   4.5381661917674787E-002
   3.8857122801726658E-003  -6.1536899748435014E-003   4.8231307017867639E-002
   4.4893230510370044E-003  -8.6041519803503053E-003   4.7283731415408689E-002
   5.0929338219014315E-003  -1.2218033993516064E-002   4.6399731777112943E-002
   5.6965445927657744E-003  -1.6995336014340889E-002   4.5579308102978770E-002
   6.3001553636301416E-003  -2.2936058042824725E-002   4.4822460393008301E-002
   3.5419288306075547E-003  -6.8387108882352887E-003   5.3542721390805958E-002
   4.1045693739346634E-003  -9.4401461567409362E-003   5.1870010830054714E-002
   4.6672099172617443E-003  -1.2671717139467020E-002   5.0051783850066811E-002
   5.2298504605888807E-003  -1.6533423836412986E-002   4.8088040450841307E-002
   5.7924910039158783E-003  -2.1025266247578944E-002   4.5978780632379479E-002
   2.9775541430647201E-002  -1.7859602570809652E-002 -0.12748669696073456     
   3.1675334213585482E-002  -1.8260940175345686E-002  -9.5117489182806159E-002
   3.3575126996523708E-002  -1.8218817514029123E-002  -6.8021368075914246E-002
   3.5474919779461961E-002  -1.7733234586860235E-002  -4.6198333640058292E-002
   3.7374712562400214E-002  -1.6804191393838708E-002  -2.9648385875238548E-002
   5.1347796854405353E-002  -1.5043035473947863E-002  -4.9804007027990593E-002
   4.9184116196443639E-002  -1.5259929986761372E-002  -3.1460969439011388E-002
   4.7020435538481911E-002  -1.5172458851534731E-002  -1.5971792060796103E-002
   4.4856754880520176E-002  -1.4780622068268051E-002  -3.3364748933445362E-003
   4.2693074222558441E-002  -1.4084419636961193E-002   6.4449820633432076E-003
   5.7310355902132043E-002  -1.2226468377086103E-002   2.8132673305382133E-002
   5.3502428263542678E-002  -1.2258919798177031E-002   3.2310446087599906E-002
   4.9694500624953272E-002  -1.2126100189040270E-002   3.6053585119326062E-002
   4.5886572986363922E-002  -1.1828009549675871E-002   3.9362090400560899E-002
   4.2078645347774529E-002  -1.1364647880083734E-002   4.2235961931304217E-002
   4.7663218573827118E-002  -9.4099012802243143E-003  0.10632334403938346     
   4.4630270414882441E-002  -9.2579096095927321E-003   9.6196757397027322E-002
   4.1597322255937805E-002  -9.0797415265458994E-003   8.8054763464451999E-002
   3.8564374096993141E-002  -8.8753970310837451E-003   8.1897362241657709E-002
   3.5531425938048464E-002  -8.6448761232062743E-003   7.7724553728644175E-002
   2.2406384869490648E-002  -6.5933341833625536E-003  0.18476800517401371     
   2.2567642650463071E-002  -6.2568994210084328E-003  0.16019796448927121     
   2.2728900431435495E-002  -6.0333828640513620E-003  0.14003174297458204     
   2.2890158212407911E-002  -5.9227845124915912E-003  0.12426934062994610     
   2.3051415993380314E-002  -5.9251043663287595E-003  0.11291075745536339     
   3.7374712562400214E-002  -1.6804191393838708E-002  -2.9648385875238548E-002
   3.6984287469539884E-002  -1.5701517972308038E-002  -1.6828883520652149E-002
   3.6593862376679609E-002  -1.4695044359611470E-002  -5.8182046933791531E-003
   3.6203437283819292E-002  -1.3784770555749094E-002   3.3836506065806349E-003
   3.5813012190958976E-002  -1.2970696560720585E-002   1.0776682379226910E-002
   4.2693074222558441E-002  -1.4084419636961193E-002   6.4449820633432076E-003
   4.0928670706094919E-002  -1.3263703358346340E-002   1.3690770105568600E-002
   3.9164267189631438E-002  -1.2498325033155337E-002   1.9997424827900831E-002
   3.7399863673167923E-002  -1.1788284661388522E-002   2.5364946230340128E-002
   3.5635460156704407E-002  -1.1133582243045559E-002   2.9793334312886333E-002
   4.2078645347774529E-002  -1.1364647880083734E-002   4.2235961931304217E-002
   3.9809953615128103E-002  -1.0825888744384685E-002   4.3948897516578621E-002
   3.7541261882481677E-002  -1.0301605706699427E-002   4.5592389989380283E-002
   3.5272570149835238E-002  -9.7917987670280045E-003   4.7166439349709106E-002
   3.3003878417188819E-002  -9.2964679253704219E-003   4.8671045597565243E-002
   3.5531425938048464E-002  -8.6448761232062743E-003   7.7724553728644175E-002
   3.3628136196639409E-002  -8.3880741304230080E-003   7.3945498712377863E-002
   3.1724846455230327E-002  -8.1048863802432938E-003   7.0966690791059148E-002
   2.9821556713821244E-002  -7.7953128726674596E-003   6.8788129964687680E-002
   2.7918266972412176E-002  -7.4593536076953681E-003   6.7409816233263961E-002
   2.3051415993380314E-002  -5.9251043663287595E-003  0.11291075745536339     
   2.2383218450628857E-002  -5.9502595164613314E-003  0.10368057369296640     
   2.1715020907877400E-002  -5.9081670537874387E-003   9.6120327232937203E-002
   2.1046823365125943E-002  -5.7988269783070118E-003   9.0230018075275920E-002
   2.0378625822374485E-002  -5.6222392900202589E-003   8.6009646219982139E-002
   3.5813012190958976E-002  -1.2970696560720585E-002   1.0776682379226910E-002
   3.4564877260588239E-002  -1.2224094305526290E-002   1.5987921491908141E-002
   3.3316742330217516E-002  -1.1516235721166390E-002   2.0754639142595371E-002
   3.2068607399846759E-002  -1.0847120807640623E-002   2.5076835331288780E-002
   3.0820472469476001E-002  -1.0216749564949001E-002   2.8954510057988103E-002
   3.5635460156704407E-002  -1.1133582243045559E-002   2.9793334312886333E-002
   3.4074768232627659E-002  -1.0514668821562101E-002   3.2655016333029419E-002
   3.2514076308550924E-002  -9.9119954403741745E-003   3.5336105827754788E-002
   3.0953384384474196E-002  -9.3255620994818593E-003   3.7836602797061886E-002
   2.9392692460397440E-002  -8.7553687988849438E-003   4.0156507240951045E-002
   3.3003878417188819E-002  -9.2964679253704219E-003   4.8671045597565243E-002
   3.1394558435981934E-002  -8.8052433375979677E-003   4.9205674155709422E-002
   2.9785238454775053E-002  -8.3077551595822918E-003   4.9823639125011351E-002
   2.8175918473568158E-002  -7.8040033913230403E-003   5.0524940505471100E-002
   2.6566598492361287E-002  -7.2939880328205531E-003   5.1309578297088626E-002
   2.7918266972412176E-002  -7.4593536076953681E-003   6.7409816233263961E-002
   2.6524247870651010E-002  -7.0958178536338345E-003   6.5639894959947806E-002
   2.5130228768889849E-002  -6.7035148787903259E-003   6.4217239034365298E-002
   2.3736209667128701E-002  -6.2824446831644155E-003   6.3141848456516408E-002
   2.2342190565367522E-002  -5.8326072667562734E-003   6.2413723226401312E-002
   2.0378625822374485E-002  -5.6222392900202589E-003   8.6009646219982139E-002
   1.9463836536634915E-002  -5.3863923696696181E-003   8.1957678745744666E-002
   1.8549047250895345E-002  -5.0992745979981935E-003   7.8516905555816474E-002
   1.7634257965155782E-002  -4.7608859750055410E-003   7.5687326650197784E-002
   1.6719468679416191E-002  -4.3712265006921047E-003   7.3468942028888762E-002
   3.0820472469476001E-002  -1.0216749564949001E-002   2.8954510057988103E-002
   2.9030099690267486E-002  -9.5604329622073769E-003   3.2155120273278104E-002
   2.7239726911058970E-002  -8.8134819685315169E-003   3.5368477387827169E-002
   2.5449354131850455E-002  -7.9758965839215115E-003   3.8594581401634548E-002
   2.3658981352641884E-002  -7.0476768083772567E-003   4.1833432314700603E-002
   2.9392692460397440E-002  -8.7553687988849438E-003   4.0156507240951045E-002
   2.7658549434597876E-002  -8.1677693281359542E-003   4.2073129737200343E-002
   2.5924406408798326E-002  -7.5291174767879998E-003   4.4089464841009118E-002
   2.4190263382998761E-002  -6.8394132448411707E-003   4.6205512552377162E-002
   2.2456120357199238E-002  -6.0986566322953628E-003   4.8421272871304322E-002
   2.6566598492361287E-002  -7.2939880328205531E-003   5.1309578297088626E-002
   2.4975650928271316E-002  -6.7751056940644483E-003   5.1902631063962257E-002
   2.3384703364181310E-002  -6.2447529850444689E-003   5.2682362146695777E-002
   2.1793755800091290E-002  -5.7029299057606599E-003   5.3648771545289110E-002
   2.0202808236001304E-002  -5.1496364562131913E-003   5.4801859259742319E-002
   2.2342190565367522E-002  -5.8326072667562734E-003   6.2413723226401312E-002
   2.0981404171287743E-002  -5.3824420599928730E-003   6.1643624253563699E-002
   1.9620617777207926E-002  -4.9603884933008893E-003   6.1147169304886867E-002
   1.8259831383128124E-002  -4.5664465666803451E-003   6.0924358380370261E-002
   1.6899044989048331E-002  -4.2006162801311031E-003   6.0975191480014200E-002
   1.6719468679416191E-002  -4.3712265006921047E-003   7.3468942028888762E-002
   1.5675809163647192E-002  -3.9897784259214641E-003   7.1296109306004884E-002
   1.4632149647878172E-002  -3.6760240015573376E-003   6.9483886315582222E-002
   1.3588490132109162E-002  -3.4299632275997874E-003   6.8032273057620773E-002
   1.2544830616340152E-002  -3.2515961040491259E-003   6.6941269532120207E-002
   2.3658981352641884E-002  -7.0476768083772567E-003   4.1833432314700603E-002
   2.1864514199372936E-002  -6.1199359656511909E-003   4.3758717763020982E-002
   2.0070047046103962E-002  -5.2837873794952250E-003   4.5312749732135060E-002
   1.8275579892834987E-002  -4.5392310499098656E-003   4.6495528222043808E-002
   1.6481112739566040E-002  -3.8862669768947589E-003   4.7307053232746199E-002
   2.2456120357199238E-002  -6.0986566322953628E-003   4.8421272871304322E-002
   2.0424728354063115E-002  -5.3586872582423450E-003   4.9358326266130514E-002
   1.8393336350927020E-002  -4.6713447417748855E-003   5.0192783440428324E-002
   1.6361944347790938E-002  -4.0366290828926510E-003   5.0924644394197888E-002
   1.4330552344654829E-002  -3.4545402815954196E-003   5.1553909127438902E-002
   2.0202808236001304E-002  -5.1496364562131913E-003   5.4801859259742319E-002
   1.8203148641675729E-002  -4.5974385508336102E-003   5.4789646000059450E-002
   1.6203489047350139E-002  -4.0589021040544210E-003   5.4943493778525823E-002
   1.4203829453024543E-002  -3.5340271158749888E-003   5.5263402595141502E-002
   1.2204169858698974E-002  -3.0228135862959138E-003   5.5749372449906603E-002
   1.6899044989048331E-002  -4.2006162801311031E-003   6.0975191480014200E-002
   1.5199775062210843E-002  -3.8361898434250974E-003   6.0052676964807636E-002
   1.3500505135373347E-002  -3.4464594663340190E-003   5.9564880746427740E-002
   1.1801235208535847E-002  -3.0314251488576058E-003   5.9511802824874817E-002
   1.0101965281698360E-002  -2.5910868909963247E-003   5.9893443200149041E-002
   1.2544830616340152E-002  -3.2515961040491259E-003   6.6941269532120207E-002
   1.1414607615668371E-002  -3.0749411360161405E-003   6.5147419160374809E-002
   1.0284384614996603E-002  -2.8340168286135337E-003   6.4056944344134004E-002
   9.1541616143248281E-003  -2.5288231818401466E-003   6.3669845083397708E-002
   8.0239386136530533E-003  -2.1593601956969577E-003   6.3986121378165728E-002
   1.6481112739566040E-002  -3.8862669768947589E-003   4.7307053232746199E-002
   1.4638283205384683E-002  -3.3423089308191045E-003   4.7630333504705580E-002
   1.2795453671203383E-002  -2.9247706820512143E-003   4.8138544680458195E-002
   1.0952624137022068E-002  -2.6336522305911991E-003   4.8831686760004323E-002
   9.1097946028407817E-003  -2.4689535764396142E-003   4.9709759743343240E-002
   1.4330552344654829E-002  -3.4545402815954196E-003   5.1553909127438902E-002
   1.2680140598337372E-002  -2.9638027483892548E-003   5.1780606454471967E-002
   1.1029728852019915E-002  -2.6031408937804423E-003   5.2207208453439402E-002
   9.3793171057024657E-003  -2.3725547177685380E-003   5.2833715124341318E-002
   7.7289053593850021E-003  -2.2720442203542079E-003   5.3660126467177605E-002
   1.2204169858698974E-002  -3.0228135862959138E-003   5.5749372449906603E-002
   1.0761149668386663E-002  -2.5852965659598492E-003   5.5875830950723793E-002
   9.3181294780743870E-003  -2.2815111055098924E-003   5.6217167891616626E-002
   7.8751092877620936E-003  -2.1114572049463209E-003   5.6773383272585423E-002
   6.4320890974498002E-003  -2.0751348642688572E-003   5.7544477093630114E-002
   1.0101965281698360E-002  -2.5910868909963247E-003   5.9893443200149041E-002
   8.8813104155325735E-003  -2.2067903835301106E-003   5.9916006993461141E-002
   7.6606555493667610E-003  -1.9598813172391760E-003   6.0168422994990728E-002
   6.4400006832009615E-003  -1.8503596921235488E-003   6.0650691204737289E-002
   5.2193458170351620E-003  -1.8782255081835897E-003   6.1362811622701137E-002
   8.0239386136530533E-003  -2.1593601956969577E-003   6.3986121378165728E-002
   7.0406228397750653E-003  -1.8282842011007050E-003   6.3901134582684094E-002
   6.0573070658970773E-003  -1.6382515289688204E-003   6.4060973763560958E-002
   5.0739912920190894E-003  -1.5892621793010611E-003   6.4465638920796403E-002
   4.0906755181411014E-003  -1.6813161520981001E-003   6.5115130054390069E-002
   9.1097946028407817E-003  -2.4689535764396142E-003   4.9709759743343240E-002
   7.7178281597824472E-003  -2.6659468418033794E-003   5.0211536343274688E-002
   6.3258617167241682E-003  -3.4599041488904969E-003   5.1017622151162234E-002
   4.9338952736658892E-003  -4.8508254977012097E-003   5.2128017167005797E-002
   3.5419288306075547E-003  -6.8387108882352887E-003   5.3542721390805958E-002
   7.7289053593850021E-003  -2.2720442203542079E-003   5.3660126467177605E-002
   6.6196801812530293E-003  -2.4900100804503555E-003   5.3672487566525984E-002
   5.5104550031210703E-003  -3.2148529769705225E-003   5.3946021987770904E-002
   4.4012298249890835E-003  -4.4465729099150350E-003   5.4480729730912739E-002
   3.2920046468571385E-003  -6.1851698792834142E-003   5.5276610795950143E-002
   6.4320890974498002E-003  -2.0751348642688572E-003   5.7544477093630114E-002
   5.5624692981845469E-003  -2.3140733190970819E-003   5.7157509697694980E-002
   4.6928494989192868E-003  -2.9698018050502289E-003   5.6988579737596176E-002
   3.8232296996540405E-003  -4.0423203221285307E-003   5.7037687213334583E-002
   2.9536099003887734E-003  -5.5316288703316507E-003   5.7304832124909888E-002
   5.2193458170351620E-003  -1.8782255081835897E-003   6.1362811622701137E-002
   4.5461955105769933E-003  -2.1381365577439887E-003   6.0666602736780879E-002
   3.8730452041188402E-003  -2.7247506331297619E-003   6.0145295400638218E-002
   3.1998948976606871E-003  -3.6380677343419692E-003   5.9798889614272654E-002
   2.5267445912025184E-003  -4.8780878613798317E-003   5.9627385377684611E-002
   4.0906755181411014E-003  -1.6813161520981001E-003   6.5115130054390069E-002
   3.5708588184304169E-003  -1.9621997963907289E-003   6.4199766683784576E-002
   3.0510421187197323E-003  -2.4796994612095724E-003   6.3416168976896725E-002
   2.5312254190090686E-003  -3.2338151465556991E-003   6.2764336933726517E-002
   2.0114087192983632E-003  -4.2245468524280128E-003   6.2244270554273839E-002
   3.5419288306075547E-003  -6.8387108882352887E-003   5.3542721390805958E-002
   4.1045693739346634E-003  -9.4401461567409362E-003   5.1870010830054714E-002
   4.6672099172617443E-003  -1.2671717139467020E-002   5.0051783850066811E-002
   5.2298504605888807E-003  -1.6533423836412986E-002   4.8088040450841307E-002
   5.7924910039158783E-003  -2.1025266247578944E-002   4.5978780632379479E-002
   3.2920046468571385E-003  -6.1851698792834142E-003   5.5276610795950143E-002
   3.7260434262098296E-003  -8.4619699648866842E-003   5.2932511872611887E-002
   4.1600822055625208E-003  -1.1308299246535092E-002   5.0476725840561232E-002
   4.5941209849152259E-003  -1.4724157724228443E-002   4.7909252699799593E-002
   5.0281597642679032E-003  -1.8709545397966654E-002   4.5230092450325721E-002
   2.9536099003887734E-003  -5.5316288703316507E-003   5.7304832124909888E-002
   3.2928762262925682E-003  -7.4837937730324877E-003   5.4349951357158505E-002
   3.6321425521963838E-003  -9.9448813536029412E-003   5.1317212791221117E-002
   3.9714088781002133E-003  -1.2914891612043622E-002   4.8206616427097254E-002
   4.3106752040039942E-003  -1.6393824548354141E-002   4.5018162264787165E-002
   2.5267445912025184E-003  -4.8780878613798317E-003   5.9627385377684611E-002
   2.8050677741829275E-003  -6.5056175811778194E-003   5.6122329283695302E-002
   3.0833909571633244E-003  -8.5814634606710127E-003   5.2573244702045940E-002
   3.3617141401437213E-003  -1.1105625499858718E-002   4.8980131632735832E-002
   3.6400373231241581E-003  -1.4078103698741851E-002   4.5342990075764561E-002
   2.0114087192983632E-003  -4.2245468524280128E-003   6.2244270554273839E-002
   2.2626180698808590E-003  -5.5274413893241503E-003   5.8249645652222570E-002
   2.5138274204633687E-003  -7.2180455677389732E-003   5.4244821573036228E-002
   2.7650367710458784E-003  -9.2963593876742856E-003   5.0229798316714258E-002
   3.0162461216283742E-003  -1.1762382849129338E-002   4.6204575883257437E-002
   2.2406384869490648E-002  -6.5933341833625536E-003  0.18476800517401371     
   2.2567642650463071E-002  -6.2568994210084328E-003  0.16019796448927121     
   2.2728900431435495E-002  -6.0333828640513620E-003  0.14003174297458204     
   2.2890158212407911E-002  -5.9227845124915912E-003  0.12426934062994610     
   2.3051415993380314E-002  -5.9251043663287595E-003  0.11291075745536339     
  -3.7902756031548829E-003  -4.9450006377790290E-003  0.12420352456691230     
  -3.3623205593808630E-004  -4.6926745662194680E-003  0.11215368988806451     
   3.1178114912787172E-003  -4.5250371486823260E-003  0.10228560757165236     
   6.5718550384955103E-003  -4.4420883851676793E-003   9.4599277617675587E-002
   1.0025898585712310E-002  -4.4438282756752434E-003   8.9094700026134427E-002
  -1.6256893236387043E-002  -3.2966670921954766E-003   6.3540820493328626E-002
  -1.1732130730543598E-002  -3.1284497114305310E-003   6.4039421371750505E-002
  -7.2073682247001704E-003  -3.0166914333132622E-003   6.4497707804990007E-002
  -2.6826057188567270E-003  -2.9613922578437396E-003   6.4915679793047465E-002
   1.8421567869867303E-003  -2.9625521850217273E-003   6.5293337335922463E-002
  -1.4993468030205813E-002  -1.6483335466119520E-003   2.7798929532632938E-003
  -1.1620053373353468E-002  -1.5642248566415801E-003   1.5855158940329316E-002
  -8.2466387165011264E-003  -1.5083457179442400E-003   2.6668043674595382E-002
  -4.8732240596487710E-003  -1.4806961305197583E-003   3.5218547156061424E-002
  -1.4998094027963999E-003  -1.4812760943682668E-003   4.1506669384727531E-002
   1.5388801344329295E-011  -1.0283995877102825E-012  -5.8079258053284122E-002
   1.5632314886993015E-011  -1.8526569167676143E-012  -3.2399097406199173E-002
   1.5875842307444543E-011  -2.5751206722546272E-012  -1.1203384819531870E-002
   1.6119376666789975E-011  -3.1959053459207354E-012   5.5078797067175944E-003
   1.6362890209453695E-011  -3.7146952180933113E-012   1.7734696172549524E-002
   2.3051415993380314E-002  -5.9251043663287595E-003  0.11291075745536339     
   2.2383218450628857E-002  -5.9502595164613314E-003  0.10368057369296640     
   2.1715020907877400E-002  -5.9081670537874387E-003   9.6120327232937203E-002
   2.1046823365125943E-002  -5.7988269783070118E-003   9.0230018075275920E-002
   2.0378625822374485E-002  -5.6222392900202589E-003   8.6009646219982139E-002
   1.0025898585712310E-002  -4.4438282756752434E-003   8.9094700026134427E-002
   1.0651916366089358E-002  -4.4626946383547889E-003   8.4389411554683422E-002
   1.1277934146466412E-002  -4.4311252913555449E-003   8.0602616427121437E-002
   1.1903951926843459E-002  -4.3491202346777232E-003   7.7734314643448821E-002
   1.2529969707220506E-002  -4.2166794683212716E-003   7.5784506203665475E-002
   1.8421567869867303E-003  -2.9625521850217273E-003   6.5293337335922463E-002
   3.0109459320138091E-003  -2.9751297602482185E-003   6.5096132252289371E-002
   4.1797350770408758E-003  -2.9540835289237066E-003   6.5065976554066915E-002
   5.3485242220679494E-003  -2.8994134910483235E-003   6.5202870241255387E-002
   6.5173133670950179E-003  -2.8111196466221178E-003   6.5506813313854523E-002
  -1.4998094027963999E-003  -1.4812760943682668E-003   4.1506669384727531E-002
  -5.3969285159780533E-004  -1.4875648821416898E-003   4.5800735785784571E-002
   4.2042369960080357E-004  -1.4770417664919516E-003   4.9510407613773892E-002
   1.3805402507994055E-003  -1.4497067474190904E-003   5.2635684868695506E-002
   2.3406568019980131E-003  -1.4055598249230472E-003   5.5176567550549380E-002
   1.6362890209453695E-011  -3.7146952180933113E-012   1.7734696172549524E-002
   1.5254533747288690E-011  -4.0351333385757471E-012   2.6503222155168954E-002
   1.4146177285123684E-011  -4.0599745787517350E-012   3.3935909606242209E-002
   1.3037824292405631E-011  -3.7896630278311250E-012   4.0032758525769249E-002
   1.1929464360793673E-011  -3.2239766412089921E-012   4.4793768913750087E-002
   2.0378625822374485E-002  -5.6222392900202589E-003   8.6009646219982139E-002
   1.9463836536634915E-002  -5.3863923696696181E-003   8.1957678745744666E-002
   1.8549047250895345E-002  -5.0992745979981935E-003   7.8516905555816474E-002
   1.7634257965155782E-002  -4.7608859750055410E-003   7.5687326650197784E-002
   1.6719468679416191E-002  -4.3712265006921047E-003   7.3468942028888762E-002
   1.2529969707220506E-002  -4.2166794683212716E-003   7.5784506203665475E-002
   1.2130750464919966E-002  -4.0397942778668539E-003   7.3517776258504725E-002
   1.1731531222619399E-002  -3.8244559488957164E-003   7.1670992115912505E-002
   1.1332311980318852E-002  -3.5706644814075053E-003   7.0244153775888829E-002
   1.0933092738018291E-002  -3.2784198754025606E-003   6.9237261238433712E-002
   6.5173133670950179E-003  -2.8111196466221178E-003   6.5506813313854523E-002
   6.4424156864924809E-003  -2.6931961860639925E-003   6.5012503184966514E-002
   6.3675180058899265E-003  -2.5496372997931283E-003   6.4746890376906147E-002
   6.2926203252873809E-003  -2.3804429878095251E-003   6.4709974889673241E-002
   6.2177226446848179E-003  -2.1856132501130165E-003   6.4901756723267812E-002
   2.3406568019980131E-003  -1.4055598249230472E-003   5.5176567550549380E-002
   2.3988322013524608E-003  -1.3465980942611797E-003   5.6441859525130082E-002
   2.4570076007069041E-003  -1.2748186506906234E-003   5.7744600338797344E-002
   2.5151830000613570E-003  -1.1902214942113507E-003   5.9084789991551249E-002
   2.5733583994157943E-003  -1.0928066248235280E-003   6.0462428483391402E-002
   1.1929464360793673E-011  -3.2239766412089921E-012   4.4793768913750087E-002
   9.4999008659613082E-012  -2.4583390878518685E-012   4.7805845278995451E-002
   7.0703443100228469E-012  -1.5880352588482083E-012   5.0664122001586265E-002
   4.6407842846374336E-012  -6.1341903778711071E-013   5.3368599081522500E-002
   2.2112242592520204E-012   4.6607162573764072E-013   5.5919276518804351E-002
   1.6719468679416191E-002  -4.3712265006921047E-003   7.3468942028888762E-002
   1.5675809163647192E-002  -3.9897784259214641E-003   7.1296109306004884E-002
   1.4632149647878172E-002  -3.6760240015573376E-003   6.9483886315582222E-002
   1.3588490132109162E-002  -3.4299632275997874E-003   6.8032273057620773E-002
   1.2544830616340152E-002  -3.2515961040491259E-003   6.6941269532120207E-002
   1.0933092738018291E-002  -3.2784198754025606E-003   6.9237261238433712E-002
   1.0225119241233059E-002  -2.9923338190739612E-003   6.8051278705998836E-002
   9.5171457444478136E-003  -2.7570180006150635E-003   6.7176058479070516E-002
   8.8091722476625681E-003  -2.5724724200256038E-003   6.6611600557648490E-002
   8.1011987508773226E-003  -2.4386970773061512E-003   6.6357904941733103E-002
   6.2177226446848179E-003  -2.1856132501130165E-003   6.4901756723267812E-002
   5.7955877399287099E-003  -1.9948892122265416E-003   6.4719547793818943E-002
   5.3734528351726037E-003  -1.8380119996727756E-003   6.4798253742921988E-002
   4.9513179304164897E-003  -1.7149816124515278E-003   6.5137874570576709E-002
   4.5291830256603896E-003  -1.6257980505630654E-003   6.5738410276783371E-002
   2.5733583994157943E-003  -1.0928066248235280E-003   6.0462428483391402E-002
   2.3872146597341670E-003  -9.9744460537919133E-004   6.1300916569465583E-002
   2.2010709200525314E-003  -9.1900599873055017E-004   6.2350472107136845E-002
   2.0149271803709071E-003  -8.5749080487734254E-004   6.3611095096405168E-002
   1.8287834406892686E-003  -8.1289902382003509E-004   6.5082785537270871E-002
   2.2112242592520204E-012   4.6607162573764072E-013   5.5919276518804351E-002
   6.4941801936058141E-013   1.4682699500667695E-012   5.7795385032938407E-002
  -9.1238128163695364E-013   2.2117863096582369E-012   5.9832713571715046E-002
  -2.4741805826344887E-012   2.6968427491169678E-012   6.2031262135134130E-002
  -4.0359868225259277E-012   2.9228841569306496E-012   6.4391030723195630E-002
   1.2544830616340152E-002  -3.2515961040491259E-003   6.6941269532120207E-002
   1.1414607615668371E-002  -3.0749411360161405E-003   6.5147419160374809E-002
   1.0284384614996603E-002  -2.8340168286135337E-003   6.4056944344134004E-002
   9.1541616143248281E-003  -2.5288231818401466E-003   6.3669845083397708E-002
   8.0239386136530533E-003  -2.1593601956969577E-003   6.3986121378165728E-002
   8.1011987508773226E-003  -2.4386970773061512E-003   6.6357904941733103E-002
   7.5691463544255710E-003  -2.3062058512819394E-003   6.5386701430873329E-002
   7.0370939579738404E-003  -2.1255126207798680E-003   6.4908463572948938E-002
   6.5050415615221062E-003  -1.8966173857995205E-003   6.4923191367960181E-002
   5.9729891650703443E-003  -1.6195201463412578E-003   6.5430884815906754E-002
   4.5291830256603896E-003  -1.6257980505630654E-003   6.5738410276783371E-002
   4.3848913308596679E-003  -1.5374705665476829E-003   6.5573786291917013E-002
   4.2405996360589740E-003  -1.4170084129465216E-003   6.5691718057417206E-002
   4.0963079412582645E-003  -1.2644115897588910E-003   6.6092205573284130E-002
   3.9520162464575584E-003  -1.0796800969852804E-003   6.6775248839517382E-002
   1.8287834406892686E-003  -8.1289902382003509E-004   6.5082785537270871E-002
   1.8618425449706301E-003  -7.6873528181345407E-004   6.5708673743505877E-002
   1.8949016492519986E-003  -7.0850420511296003E-004   6.6406707797538628E-002
   1.9279607535333562E-003  -6.3220579371815223E-004   6.7176887699368887E-002
   1.9610198578147286E-003  -5.3984004762944182E-004   6.8019213448996724E-002
  -4.0359868225259277E-012   2.9228841569306496E-012   6.4391030723195630E-002
  -3.2415389816797813E-012   2.9208302443350931E-012   6.5791363785640100E-002
  -2.4470911408336349E-012   2.7204904995414836E-012   6.7053432793313272E-002
  -1.6526432999874885E-012   2.3224200340621337E-012   6.8177237746215036E-002
  -8.5819545914134210E-013   1.7262857809896559E-012   6.9162778644345280E-002
   8.0239386136530533E-003  -2.1593601956969577E-003   6.3986121378165728E-002
   7.0406228397750653E-003  -1.8282842011007050E-003   6.3901134582684094E-002
   6.0573070658970773E-003  -1.6382515289688204E-003   6.4060973763560958E-002
   5.0739912920190894E-003  -1.5892621793010611E-003   6.4465638920796403E-002
   4.0906755181411014E-003  -1.6813161520981001E-003   6.5115130054390069E-002
   5.9729891650703443E-003  -1.6195201463412578E-003   6.5430884815906754E-002
   5.2347501093426702E-003  -1.3712131505497216E-003   6.5252712385048373E-002
   4.4965110536150030E-003  -1.2286886465720792E-003   6.5319867414131982E-002
   3.7582719978873289E-003  -1.1919466344066862E-003   6.5632349903157666E-002
   3.0200329421596617E-003  -1.2609871140550899E-003   6.6190159852125563E-002
   3.9520162464575584E-003  -1.0796800969852804E-003   6.6775248839517382E-002
   3.4593553924638920E-003  -9.1414209999945983E-004   6.6539151603933172E-002
   2.9666945384702048E-003  -8.1912576417532412E-004   6.6548883311874849E-002
   2.4740336844765280E-003  -7.9463108951286290E-004   6.6804443963342341E-002
   1.9813728304828512E-003  -8.4065807601219067E-004   6.7305833558335526E-002
   1.9610198578147286E-003  -5.3984004762944182E-004   6.8019213448996724E-002
   1.7144386891387170E-003  -4.5707104944883725E-004   6.7760452239338409E-002
   1.4678575204627124E-003  -4.0956288177868699E-004   6.7748021456789431E-002
   1.2212763517867034E-003  -3.9731554461887482E-004   6.7981921101350040E-002
   9.7469518311071000E-004  -4.2032903796912491E-004   6.8462151173020361E-002
  -8.5819545914134210E-013   1.7262857809896559E-012   6.9162778644345280E-002
  -6.3284100182414704E-013   1.1017298184867741E-012   6.8916614291264167E-002
  -4.0749348340085589E-013   6.1792237993074650E-013   6.8917281848875966E-002
  -1.8214423025408877E-013   2.7555041581805995E-013   6.9164781317180984E-002
   4.3208492339630311E-014   7.3718808835110394E-014   6.9659112696179415E-002
   4.0906755181411014E-003  -1.6813161520981001E-003   6.5115130054390069E-002
   3.5708588184304169E-003  -1.9621997963907289E-003   6.4199766683784576E-002
   3.0510421187197323E-003  -2.4796994612095724E-003   6.3416168976896725E-002
   2.5312254190090686E-003  -3.2338151465556991E-003   6.2764336933726517E-002
   2.0114087192983632E-003  -4.2245468524280128E-003   6.2244270554273839E-002
   3.0200329421596617E-003  -1.2609871140550899E-003   6.6190159852125563E-002
   2.6315290339711944E-003  -1.4716498473074657E-003   6.5099287055668198E-002
   2.2430251257827410E-003  -1.8597745959554324E-003   6.4139274178537459E-002
   1.8545212175942703E-003  -2.4253613599993784E-003   6.3310121220733248E-002
   1.4660173094058204E-003  -3.1684101394386932E-003   6.2611828182256413E-002
   1.9813728304828512E-003  -8.4065807601219067E-004   6.7305833558335526E-002
   1.7232759694257374E-003  -9.8109989822456334E-004   6.6098605341157191E-002
   1.4651791083686028E-003  -1.2398497307013756E-003   6.5021331298914714E-002
   1.2070822473114733E-003  -1.6169075734430507E-003   6.4074011431608083E-002
   9.4898538625435430E-004  -2.1122734264493737E-003   6.3256645739237505E-002
   9.7469518311071000E-004  -4.2032903796912491E-004   6.8462151173020361E-002
   8.4609962479401460E-004  -4.9054994914136951E-004   6.7197721540251887E-002
   7.1750406647733307E-004  -6.1992486544749925E-004   6.6062340338028630E-002
   5.8890850816064504E-004  -8.0845378688705963E-004   6.5056007566350230E-002
   4.6031294984395614E-004  -1.0561367134600541E-003   6.4178723225216922E-002
   4.3208492339630311E-014   7.3718808835110394E-014   6.9659112696179415E-002
   7.6071093868534945E-014  -5.8397731095283234E-014   6.8396635652952287E-002
   1.0893022595048762E-013  -1.9306778398231472E-013   6.7262301295879012E-002
   1.4179803164982019E-013  -3.3037461655283096E-013   6.6256109624960091E-002
   1.7465195956134494E-013  -4.7073456244106637E-013   6.5378060640195246E-002
   2.0114087192983632E-003  -4.2245468524280128E-003   6.2244270554273839E-002
   2.2626180698808590E-003  -5.5274413893241503E-003   5.8249645652222570E-002
   2.5138274204633687E-003  -7.2180455677389732E-003   5.4244821573036228E-002
   2.7650367710458784E-003  -9.2963593876742856E-003   5.0229798316714258E-002
   3.0162461216283742E-003  -1.1762382849129338E-002   4.6204575883257437E-002
   1.4660173094058204E-003  -3.1684101394386932E-003   6.2611828182256413E-002
   1.6938766927275112E-003  -4.1455810421455741E-003   5.8293166040490951E-002
   1.9217360760492089E-003  -5.4135341759919686E-003   5.3938003141338897E-002
   2.1495954593709100E-003  -6.9722695409775645E-003   4.9546339484799945E-002
   2.3774548426926112E-003  -8.8217871371027989E-003   4.5118175070875788E-002
   9.4898538625435430E-004  -2.1122734264493737E-003   6.3256645739237505E-002
   1.1271932220639873E-003  -2.7637206949676085E-003   5.8710873768137967E-002
   1.3054010578736168E-003  -3.6090227842447420E-003   5.4102299459400677E-002
   1.4836088936832394E-003  -4.6481796942810100E-003   4.9430922813025718E-002
   1.6618167294928793E-003  -5.8811914250767039E-003   4.4696743829013119E-002
   4.6031294984395614E-004  -1.0561367134600541E-003   6.4178723225216922E-002
   5.6256765789024828E-004  -1.3818603477893376E-003   5.9502768835164289E-002
   6.6482236593654129E-004  -1.8045113924975154E-003   5.4737710527222219E-002
   7.6707707398285339E-004  -2.3240898475844832E-003   4.9883548301390739E-002
   8.6933178202914033E-004  -2.9405957130502758E-003   4.4940282157671596E-002
   1.7465195956134494E-013  -4.7073456244106637E-013   6.5378060640195246E-002
   2.0634188802048925E-013  -6.1106675275368616E-013   6.0668851241568955E-002
   2.3803528592658552E-013  -7.5051076464660582E-013   5.5844236344802622E-002
   2.6972694910920580E-013  -8.8784535279273769E-013   5.0904215949895859E-002
   3.0141167339792219E-013  -1.0240697179142444E-012   4.5848790056849165E-002
   1.5388801344329295E-011  -1.0283995877102825E-012  -5.8079258053284122E-002
   1.5632314886993015E-011  -1.8526569167676143E-012  -3.2399097406199173E-002
   1.5875842307444543E-011  -2.5751206722546272E-012  -1.1203384819531870E-002
   1.6119376666789975E-011  -3.1959053459207354E-012   5.5078797067175944E-003
   1.6362890209453695E-011  -3.7146952180933113E-012   1.7734696172549524E-002
   1.4993468060300857E-002   1.6483335502051055E-003   2.7798929545758133E-003
   1.1620053403978391E-002   1.5642248570616468E-003   1.5855158940718539E-002
   8.2466387476559169E-003   1.5083457157853697E-003   2.6668043674146741E-002
   4.8732240913334744E-003   1.4806961263762880E-003   3.5218547154860821E-002
   1.4998094350110042E-003   1.4812760888344156E-003   4.1506669382860600E-002
   1.6256893264434333E-002   3.2966671014386661E-003   6.3540820494233916E-002
   1.1732130759249313E-002   3.1284497159760061E-003   6.4039421371199501E-002
   7.2073682540643013E-003   3.0166914341458670E-003   6.4497707803154364E-002
   2.6826057488793060E-003   2.9613922559484276E-003   6.4915679790098310E-002
  -1.8421567563057101E-003   2.9625521813835820E-003   6.5293337332031548E-002
   3.7902756277892686E-003   4.9450006526721851E-003  0.12420352456569007     
   3.3623208144515325E-004   4.6926745748903237E-003  0.11215368988524411     
  -3.1178114648989746E-003   4.5250371525063608E-003  0.10228560756749089     
  -6.5718550112430956E-003   4.4420883855206495E-003   9.4599277612430241E-002
  -1.0025898557587232E-002   4.4438282739327761E-003   8.9094700020062201E-002
  -2.2406384849634350E-002   6.5933342039057319E-003  0.18476800516894415     
  -2.2567642629434170E-002   6.2568994338046413E-003  0.16019796448285228     
  -2.2728900409233969E-002   6.0333828708668685E-003  0.14003174296715629     
  -2.2890158189033765E-002   5.9227845150926807E-003  0.12426934062185645     
  -2.3051415968833588E-002   5.9251043664819147E-003  0.11291075744695256     
   1.6362890209453695E-011  -3.7146952180933113E-012   1.7734696172549524E-002
   1.5254533747288690E-011  -4.0351333385757471E-012   2.6503222155168954E-002
   1.4146177285123684E-011  -4.0599745787517350E-012   3.3935909606242209E-002
   1.3037824292405631E-011  -3.7896630278311250E-012   4.0032758525769249E-002
   1.1929464360793673E-011  -3.2239766412089921E-012   4.4793768913750087E-002
   1.4998094350110042E-003   1.4812760888344156E-003   4.1506669382860600E-002
   5.3969288160665360E-004   1.4875648758286564E-003   4.5800735783515678E-002
  -4.2042367179768309E-004   1.4770417600279140E-003   4.9510407611125018E-002
  -1.3805402252020215E-003   1.4497067414323342E-003   5.2635684865688599E-002
  -2.3406567786063703E-003   1.4055598200418684E-003   5.5176567547206373E-002
  -1.8421567563057101E-003   2.9625521813835820E-003   6.5293337332031548E-002
  -3.0109459035055925E-003   2.9751297556924600E-003   6.5096132247631985E-002
  -4.1797350507054801E-003   2.9540835241160801E-003   6.5065976548687079E-002
  -5.3485241979053582E-003   2.8994134866544979E-003   6.5202870235196830E-002
  -6.5173133451052502E-003   2.8111196433076580E-003   6.5506813307161321E-002
  -1.0025898557587232E-002   4.4438282739327761E-003   8.9094700020062201E-002
  -1.0651916340082227E-002   4.4626946355563121E-003   8.4389411547517640E-002
  -1.1277934122577198E-002   4.4311252882042185E-003   8.0602616418928186E-002
  -1.1903951905072182E-002   4.3491202318766617E-003   7.7734314634293866E-002
  -1.2529969687567165E-002   4.2166794665735030E-003   7.5784506193614709E-002
  -2.3051415968833588E-002   5.9251043664819147E-003  0.11291075744695256     
  -2.2383218428123207E-002   5.9502595154200533E-003  0.10368057368317274     
  -2.1715020887412853E-002   5.9081670522921903E-003   9.6120327221848545E-002
  -2.1046823346702485E-002   5.7988269770987561E-003   9.0230018062979811E-002
  -2.0378625805992125E-002   5.6222392898392926E-003   8.6009646206566703E-002
   1.1929464360793673E-011  -3.2239766412089921E-012   4.4793768913750087E-002
   9.4999008659613082E-012  -2.4583390878518685E-012   4.7805845278995451E-002
   7.0703443100228469E-012  -1.5880352588482083E-012   5.0664122001586265E-002
   4.6407842846374336E-012  -6.1341903778711071E-013   5.3368599081522500E-002
   2.2112242592520204E-012   4.6607162573764072E-013   5.5919276518804351E-002
  -2.3406567786063703E-003   1.4055598200418684E-003   5.5176567547206373E-002
  -2.3988321826794584E-003   1.3465980908521913E-003   5.6441859521150439E-002
  -2.4570075867525343E-003   1.2748186488598656E-003   5.7744600334461951E-002
  -2.5151829908256085E-003   1.1902214940641836E-003   5.9084789987141000E-002
  -2.5733583948986984E-003   1.0928066264656033E-003   6.0462428479187369E-002
  -6.5173133451052502E-003   2.8111196433076580E-003   6.5506813307161321E-002
  -6.4424156687998635E-003   2.6931961841629298E-003   6.5012503176896469E-002
  -6.3675179924944821E-003   2.5496372993076416E-003   6.4746890368021046E-002
  -6.2926203161891058E-003   2.3804429887415608E-003   6.4709974880535037E-002
  -6.2177226398837139E-003   2.1856132524651350E-003   6.4901756714438624E-002
  -1.2529969687567165E-002   4.2166794665735030E-003   7.5784506193614709E-002
  -1.2130750448861347E-002   4.0397942774735088E-003   7.3517776246233388E-002
  -1.1731531210155523E-002   3.8244559497554523E-003   7.1670992102263659E-002
  -1.1332311971449693E-002   3.5706644834192728E-003   7.0244153761705327E-002
  -1.0933092732743881E-002   3.2784198784646668E-003   6.9237261224558352E-002
  -2.0378625805992125E-002   5.6222392898392926E-003   8.6009646206566703E-002
  -1.9463836522863889E-002   5.3863923707841155E-003   8.1957678729161543E-002
  -1.8549047239735637E-002   5.0992746002032768E-003   7.8516905537189735E-002
  -1.7634257956607384E-002   4.7608859780965303E-003   7.5687326630651211E-002
  -1.6719468673479142E-002   4.3712265044642540E-003   7.3468942009546290E-002
   2.2112242592520204E-012   4.6607162573764072E-013   5.5919276518804351E-002
   6.4941801936058141E-013   1.4682699500667695E-012   5.7795385032938407E-002
  -9.1238128163695364E-013   2.2117863096582369E-012   5.9832713571715046E-002
  -2.4741805826344887E-012   2.6968427491169678E-012   6.2031262135134130E-002
  -4.0359868225259277E-012   2.9228841569306496E-012   6.4391030723195630E-002
  -2.5733583948986984E-003   1.0928066264656033E-003   6.0462428479187369E-002
  -2.3872146582231274E-003   9.9744460861234119E-004   6.1300916565058816E-002
  -2.2010709215475634E-003   9.1900600305294677E-004   6.2350472102762372E-002
  -2.0149271848719889E-003   8.5749080978730907E-004   6.3611095092298231E-002
  -1.8287834481964284E-003   8.1289902881531706E-004   6.5082785533666254E-002
  -6.2177226398837139E-003   2.1856132524651350E-003   6.4901756714438624E-002
  -5.7955877377810754E-003   1.9948892157565790E-003   6.4719547784599735E-002
  -5.3734528356784153E-003   1.8380120038941072E-003   6.4798253733782826E-002
  -4.9513179335757655E-003   1.7149816168778309E-003   6.5137874561988038E-002
  -4.5291830314731166E-003   1.6257980547078055E-003   6.5738410269214870E-002
  -1.0933092732743881E-002   3.2784198784646668E-003   6.9237261224558352E-002
  -1.0225119238024414E-002   2.9923338229006224E-003   6.8051278691561634E-002
  -9.5171457433049483E-003   2.7570180047351012E-003   6.7176058464776589E-002
  -8.8091722485854774E-003   2.5724724239683250E-003   6.6611600544203259E-002
  -8.1011987538660152E-003   2.4386970806002106E-003   6.6357904929841657E-002
  -1.6719468673479142E-002   4.3712265044642540E-003   7.3468942009546290E-002
  -1.5675809158953148E-002   3.9897784300448325E-003   7.1296109285944209E-002
  -1.4632149644427148E-002   3.6760240055763588E-003   6.9483886295743619E-002
  -1.3588490129901157E-002   3.4299632310589127E-003   6.8032273038944283E-002
  -1.2544830615375160E-002   3.2515961064926158E-003   6.6941269515546464E-002
  -4.0359868225259277E-012   2.9228841569306496E-012   6.4391030723195630E-002
  -3.2415389816797813E-012   2.9208302443350931E-012   6.5791363785640100E-002
  -2.4470911408336349E-012   2.7204904995414836E-012   6.7053432793313272E-002
  -1.6526432999874885E-012   2.3224200340621337E-012   6.8177237746215036E-002
  -8.5819545914134210E-013   1.7262857809896559E-012   6.9162778644345280E-002
  -1.8287834481964284E-003   8.1289902881531706E-004   6.5082785533666254E-002
  -1.8618425509881222E-003   7.6873528653298440E-004   6.5708673740623280E-002
  -1.8949016537798090E-003   7.0850420933549207E-004   6.6406707795179515E-002
  -1.9279607565715002E-003   6.3220579722277070E-004   6.7176887697334750E-002
  -1.9610198593631896E-003   5.3984005019525050E-004   6.8019213447089333E-002
  -4.5291830314731166E-003   1.6257980547078055E-003   6.5738410269214870E-002
  -4.3848913354804075E-003   1.5374705701448887E-003   6.5573786285967522E-002
  -4.2405996394877009E-003   1.4170084159501606E-003   6.5691718052689779E-002
  -4.0963079434949857E-003   1.2644115921233434E-003   6.6092205569381571E-002
  -3.9520162475022852E-003   1.0796800986646038E-003   6.6775248836043299E-002
  -8.1011987538660152E-003   2.4386970806002106E-003   6.6357904929841657E-002
  -7.5691463567184002E-003   2.3062058537569180E-003   6.5386701421672785E-002
  -7.0370939595707453E-003   2.1255126225648846E-003   6.4908463565844135E-002
  -6.5050415624230999E-003   1.8966173870239161E-003   6.4923191362355803E-002
  -5.9729891652754753E-003   1.6195201471338183E-003   6.5430884811207624E-002
  -1.2544830615375160E-002   3.2515961064926158E-003   6.6941269515546464E-002
  -1.1414607614702060E-002   3.0749411373690583E-003   6.5147419147739249E-002
  -1.0284384614028964E-002   2.8340168291795254E-003   6.4056944334642818E-002
  -9.1541616133558722E-003   2.5288231819243015E-003   6.3669845076257087E-002
  -8.0239386126827669E-003   2.1593601956029218E-003   6.3986121372582194E-002
  -8.5819545914134210E-013   1.7262857809896559E-012   6.9162778644345280E-002
  -6.3284100182414704E-013   1.1017298184867741E-012   6.8916614291264167E-002
  -4.0749348340085589E-013   6.1792237993074650E-013   6.8917281848875966E-002
  -1.8214423025408877E-013   2.7555041581805995E-013   6.9164781317180984E-002
   4.3208492339630311E-014   7.3718808835110394E-014   6.9659112696179415E-002
  -1.9610198593631896E-003   5.3984005019525050E-004   6.8019213447089333E-002
  -1.7144386902696145E-003   4.5707105106662649E-004   6.7760452237975333E-002
  -1.4678575211760272E-003   4.0956288264923368E-004   6.7748021455904833E-002
  -1.2212763520824347E-003   3.9731554494442517E-004   6.7981921100877349E-002
  -9.7469518298886476E-004   4.2032903795130583E-004   6.8462151172893337E-002
  -3.9520162475022852E-003   1.0796800986646038E-003   6.6775248836043299E-002
  -3.4593553931903907E-003   9.1414210103132887E-004   6.6539151601467672E-002
  -2.9666945388784963E-003   8.1912576468100295E-004   6.6548883310285675E-002
  -2.4740336845666014E-003   7.9463108961330339E-004   6.6804443962496823E-002
  -1.9813728302547212E-003   8.4065807582867080E-004   6.7305833558101436E-002
  -5.9729891652754753E-003   1.6195201471338183E-003   6.5430884811207624E-002
  -5.2347501093952028E-003   1.3712131509960729E-003   6.5252712381741240E-002
  -4.4965110535149077E-003   1.2286886467124877E-003   6.5319867412018479E-002
  -3.7582719976346169E-003   1.1919466342822909E-003   6.5632349902039130E-002
  -3.0200329417543401E-003   1.2609871137060358E-003   6.6190159851803210E-002
  -8.0239386126827669E-003   2.1593601956029218E-003   6.3986121372582194E-002
  -7.0406228388840142E-003   1.8282842009608724E-003   6.3901134578796093E-002
  -6.0573070650852684E-003   1.6382515287441390E-003   6.4060973761103479E-002
  -5.0739912912865209E-003   1.5892621789511258E-003   6.4465638919504298E-002
  -4.0906755174877699E-003   1.6813161515835118E-003   6.5115130053998826E-002
   4.3208492339630311E-014   7.3718808835110394E-014   6.9659112696179415E-002
   7.6071093868534945E-014  -5.8397731095283234E-014   6.8396635652952287E-002
   1.0893022595048762E-013  -1.9306778398231472E-013   6.7262301295879012E-002
   1.4179803164982019E-013  -3.3037461655283096E-013   6.6256109624960091E-002
   1.7465195956134494E-013  -4.7073456244106637E-013   6.5378060640195246E-002
  -9.7469518298886476E-004   4.2032903795130583E-004   6.8462151172893337E-002
  -8.4609962461323560E-004   4.9054994888125814E-004   6.7197721540187216E-002
  -7.1750406623760817E-004   6.1992486494596988E-004   6.6062340338012226E-002
  -5.8890850786198160E-004   8.0845378614515656E-004   6.5056007566368534E-002
  -4.6031294948635157E-004   1.0561367124786170E-003   6.4178723225256640E-002
  -1.9813728302547212E-003   8.4065807582867080E-004   6.7305833558101436E-002
  -1.7232759691589924E-003   9.8109989782113605E-004   6.6098605341052996E-002
  -1.4651791080632698E-003   1.2398497300852296E-003   6.5021331298913215E-002
  -1.2070822469675501E-003   1.6169075726209098E-003   6.4074011431682329E-002
  -9.4898538587183216E-004   2.1122734254281905E-003   6.3256645739359962E-002
  -3.0200329417543401E-003   1.2609871137060358E-003   6.6190159851803210E-002
  -2.6315290335612151E-003   1.4716498467607919E-003   6.5099287055549820E-002
  -2.2430251253680623E-003   1.8597745952243783E-003   6.4139274178582395E-002
  -1.8545212171749335E-003   2.4253613590967740E-003   6.3310121220901017E-002
  -1.4660173089817842E-003   3.1684101383775420E-003   6.2611828182506102E-002
  -4.0906755174877699E-003   1.6813161515835118E-003   6.5115130053998826E-002
  -3.5708588178198705E-003   1.9621997957006698E-003   6.4199766683677439E-002
  -3.0510421181519920E-003   2.4796994603636380E-003   6.3416168977019571E-002
  -2.5312254184841031E-003   3.2338151455723885E-003   6.2764336934024889E-002
  -2.0114087188162141E-003   4.2245468513272266E-003   6.2244270554694281E-002
   1.7465195956134494E-013  -4.7073456244106637E-013   6.5378060640195246E-002
   2.0634188802048925E-013  -6.1106675275368616E-013   6.0668851241568955E-002
   2.3803528592658552E-013  -7.5051076464660582E-013   5.5844236344802622E-002
   2.6972694910920580E-013  -8.8784535279273769E-013   5.0904215949895859E-002
   3.0141167339792219E-013  -1.0240697179142444E-012   4.5848790056849165E-002
  -4.6031294948635157E-004   1.0561367124786170E-003   6.4178723225256640E-002
  -5.6256765747270468E-004   1.3818603465630686E-003   5.9502768835212660E-002
  -6.6482236545903871E-004   1.8045113910147847E-003   5.4737710527272831E-002
  -7.6707707344539442E-004   2.3240898458346537E-003   4.9883548301437569E-002
  -8.6933178143171197E-004   2.9405957110213432E-003   4.4940282157705846E-002
  -9.4898538587183216E-004   2.1122734254281905E-003   6.3256645739359962E-002
  -1.1271932216318069E-003   2.7637206937378700E-003   5.8710873768264255E-002
  -1.3054010573917757E-003   3.6090227827807464E-003   5.4102299459517111E-002
  -1.4836088931517379E-003   4.6481796925569863E-003   4.9430922813118311E-002
  -1.6618167289117192E-003   5.8811914230665341E-003   4.4696743829068630E-002
  -1.4660173089817842E-003   3.1684101383775420E-003   6.2611828182506102E-002
  -1.6938766922709768E-003   4.1455810409126714E-003   5.8293166040724154E-002
  -1.9217360755601554E-003   5.4135341745464860E-003   5.3938003141534990E-002
  -2.1495954588493368E-003   6.9722695392795131E-003   4.9546339484938987E-002
  -2.3774548421385405E-003   8.8217871351118360E-003   4.5118175070936212E-002
  -2.0114087188162141E-003   4.2245468513272266E-003   6.2244270554694281E-002
  -2.2626180693902029E-003   5.5274413880870288E-003   5.8249645652591941E-002
  -2.5138274199642020E-003   7.2180455663121978E-003   5.4244821573327162E-002
  -2.7650367705382133E-003   9.2963593860020330E-003   5.0229798316899693E-002
  -3.0162461211121899E-003   1.1762382847157138E-002   4.6204575883309396E-002
  -2.2406384849634350E-002   6.5933342039057319E-003  0.18476800516894415     
  -2.2567642629434170E-002   6.2568994338046413E-003  0.16019796448285228     
  -2.2728900409233969E-002   6.0333828708668685E-003  0.14003174296715629     
  -2.2890158189033765E-002   5.9227845150926807E-003  0.12426934062185645     
  -2.3051415968833588E-002   5.9251043664819147E-003  0.11291075744695256     
  -4.7663218557985373E-002   9.4099012967036599E-003  0.10632334402803817     
  -4.4630270397837242E-002   9.2579096188154519E-003   9.6196757388775062E-002
  -4.1597322237689034E-002   9.0797415304697954E-003   8.8054763459011642E-002
  -3.8564374077540833E-002   8.8753970316666313E-003   8.1897362238748272E-002
  -3.5531425917392695E-002   8.6448761224063309E-003   7.7724553727984785E-002
  -5.7310355887412789E-002   1.2226468389501616E-002   2.8132673288155816E-002
  -5.3502428248212677E-002   1.2258919803826290E-002   3.2310446078100172E-002
  -4.9694500609012614E-002   1.2126100190072660E-002   3.6053585116648613E-002
  -4.5886572969812509E-002   1.1828009548240719E-002   3.9362090403800870E-002
  -4.2078645330612403E-002   1.1364647878330608E-002   4.2235961939556893E-002
  -5.1347796837916439E-002   1.5043035482299558E-002  -4.9804007050703661E-002
  -4.9184116180560553E-002   1.5259929988837115E-002  -3.1460969449172135E-002
  -4.7020435523204653E-002   1.5172458849675458E-002  -1.5971792059932915E-002
  -4.4856754865848752E-002   1.4780622064814793E-002  -3.3364748829858674E-003
  -4.2693074208492873E-002   1.4084419634254983E-002   6.4449820816689513E-003
  -2.9775541409496481E-002   1.7859602575097500E-002 -0.12748669698853948     
  -3.1675334194880833E-002   1.8260940173847939E-002  -9.5117489193041971E-002
  -3.3575126980265213E-002   1.8218817509278409E-002  -6.8021368070732752E-002
  -3.5474919765649544E-002   1.7733234581388691E-002  -4.6198333621611867E-002
  -3.7374712551033917E-002   1.6804191390179246E-002  -2.9648385845679331E-002
  -2.3051415968833588E-002   5.9251043664819147E-003  0.11291075744695256     
  -2.2383218428123207E-002   5.9502595154200533E-003  0.10368057368317274     
  -2.1715020887412853E-002   5.9081670522921903E-003   9.6120327221848545E-002
  -2.1046823346702485E-002   5.7988269770987561E-003   9.0230018062979811E-002
  -2.0378625805992125E-002   5.6222392898392926E-003   8.6009646206566703E-002
  -3.5531425917392695E-002   8.6448761224063309E-003   7.7724553727984785E-002
  -3.3628136177937196E-002   8.3880741294066336E-003   7.3945498711290539E-002
  -3.1724846438481696E-002   8.1048863793862919E-003   7.0966690789630971E-002
  -2.9821556699026194E-002   7.7953128723448513E-003   6.8788129963006123E-002
  -2.7918266959570698E-002   7.4593536082827594E-003   6.7409816231415870E-002
  -4.2078645330612403E-002   1.1364647878330608E-002   4.2235961939556893E-002
  -3.9809953599832665E-002   1.0825888743393353E-002   4.3948897524993161E-002
  -3.7541261869052947E-002   1.0301605706480227E-002   4.5592389998043215E-002
  -3.5272570138273222E-002   9.7917987675911686E-003   4.7166439358707082E-002
  -3.3003878407493491E-002   9.2964679267262262E-003   4.8671045606984722E-002
  -4.2693074208492873E-002   1.4084419634254983E-002   6.4449820816689513E-003
  -4.0928670693809753E-002   1.3263703357379947E-002   1.3690770124280577E-002
  -3.9164267179126661E-002   1.2498325033574079E-002   1.9997424847085242E-002
  -3.7399863664443568E-002   1.1788284662837375E-002   2.5364946250082818E-002
  -3.5635460149760448E-002   1.1133582245169693E-002   2.9793334333273334E-002
  -3.7374712551033917E-002   1.6804191390179246E-002  -2.9648385845679331E-002
  -3.6984287459868356E-002   1.5701517971366652E-002  -1.6828883490847102E-002
  -3.6593862368702781E-002   1.4695044360668139E-002  -5.8182046632429263E-003
  -3.6203437277537193E-002   1.3784770558083605E-002   3.3836506371333064E-003
  -3.5813012186371646E-002   1.2970696563613160E-002   1.0776682410281624E-002
  -2.0378625805992125E-002   5.6222392898392926E-003   8.6009646206566703E-002
  -1.9463836522863889E-002   5.3863923707841155E-003   8.1957678729161543E-002
  -1.8549047239735637E-002   5.0992746002032768E-003   7.8516905537189735E-002
  -1.7634257956607384E-002   4.7608859780965303E-003   7.5687326630651211E-002
  -1.6719468673479142E-002   4.3712265044642540E-003   7.3468942009546290E-002
  -2.7918266959570698E-002   7.4593536082827594E-003   6.7409816231415870E-002
  -2.6524247859413822E-002   7.0958178551877860E-003   6.5639894954976435E-002
  -2.5130228759256933E-002   6.7035148810481171E-003   6.4217239027160880E-002
  -2.3736209659100057E-002   6.2824446858638014E-003   6.3141848447969134E-002
  -2.2342190558943160E-002   5.8326072696345266E-003   6.2413723217401185E-002
  -3.3003878407493491E-002   9.2964679267262262E-003   4.8671045606984722E-002
  -3.1394558427117518E-002   8.8052433395914426E-003   4.9205674161992008E-002
  -2.9785238446741594E-002   8.3077551618928949E-003   4.9823639128813747E-002
  -2.8175918466365663E-002   7.8040033936308487E-003   5.0524940507449656E-002
  -2.6566598485989704E-002   7.2939880348047714E-003   5.1309578297899824E-002
  -3.5635460149760448E-002   1.1133582245169693E-002   2.9793334333273334E-002
  -3.4074768225975008E-002   1.0514668823995162E-002   3.2655016350208434E-002
  -3.2514076302189526E-002   9.9119954427377872E-003   3.5336105842148365E-002
  -3.0953384378404048E-002   9.3255621013978961E-003   3.7836602809093067E-002
  -2.9392692454618605E-002   8.7553687999750301E-003   4.0156507251042375E-002
  -3.5813012186371646E-002   1.2970696563613160E-002   1.0776682410281624E-002
  -3.4564877255986240E-002   1.2224094308398770E-002   1.5987921519625470E-002
  -3.3316742325600820E-002   1.1516235723582569E-002   2.0754639167164635E-002
  -3.2068607395215394E-002   1.0847120809164959E-002   2.5076835352898827E-002
  -3.0820472464829995E-002   1.0216749565145178E-002   2.8954510076828366E-002
  -1.6719468673479142E-002   4.3712265044642540E-003   7.3468942009546290E-002
  -1.5675809158953148E-002   3.9897784300448325E-003   7.1296109285944209E-002
  -1.4632149644427148E-002   3.6760240055763588E-003   6.9483886295743619E-002
  -1.3588490129901157E-002   3.4299632310589127E-003   6.8032273038944283E-002
  -1.2544830615375160E-002   3.2515961064926158E-003   6.6941269515546464E-002
  -2.2342190558943160E-002   5.8326072696345266E-003   6.2413723217401185E-002
  -2.0981404165293909E-002   5.3824420627959224E-003   6.1643624242826878E-002
  -1.9620617771644679E-002   4.9603884957824529E-003   6.1147169293097658E-002
  -1.8259831377995452E-002   4.5664465685943817E-003   6.0924358368213569E-002
  -1.6899044984346197E-002   4.2006162812318060E-003   6.0975191468174317E-002
  -2.6566598485989704E-002   7.2939880348047714E-003   5.1309578297899824E-002
  -2.4975650921773444E-002   6.7751056955468181E-003   5.1902631062227450E-002
  -2.3384703357557234E-002   6.2447529859884429E-003   5.2682362142843976E-002
  -2.1793755793341009E-002   5.7029299061299079E-003   5.3648771539749104E-002
  -2.0202808229124763E-002   5.1496364559708296E-003   5.4801859252943341E-002
  -2.9392692454618605E-002   8.7553687999750301E-003   4.0156507251042375E-002
  -2.7658549428391674E-002   8.1677693282978664E-003   4.2073129744146051E-002
  -2.5924406402164746E-002   7.5291174761945960E-003   4.4089464844982391E-002
  -2.4190263375937816E-002   6.8394132436653500E-003   4.6205512553551417E-002
  -2.2456120349710892E-002   6.0986566307099921E-003   4.8421272869852781E-002
  -3.0820472464829995E-002   1.0216749565145178E-002   2.8954510076828366E-002
  -2.9030099685148636E-002   9.5604329610489147E-003   3.2155120288582528E-002
  -2.7239726905467276E-002   8.8134819664005826E-003   3.5368477399513154E-002
  -2.5449354125785896E-002   7.9758965812009169E-003   3.8594581409619938E-002
  -2.3658981346104557E-002   7.0476768054490435E-003   4.1833432318903130E-002
  -1.2544830615375160E-002   3.2515961064926158E-003   6.6941269515546464E-002
  -1.1414607614702060E-002   3.0749411373690583E-003   6.5147419147739249E-002
  -1.0284384614028964E-002   2.8340168291795254E-003   6.4056944334642818E-002
  -9.1541616133558722E-003   2.5288231819243015E-003   6.3669845076257087E-002
  -8.0239386126827669E-003   2.1593601956029218E-003   6.3986121372582194E-002
  -1.6899044984346197E-002   4.2006162812318060E-003   6.0975191468174317E-002
  -1.5199775058163011E-002   3.8361898437161979E-003   6.0052676955760664E-002
  -1.3500505131979857E-002   3.4464594660698067E-003   5.9564880739656129E-002
  -1.1801235205796701E-002   3.0314251482922161E-003   5.9511802819861154E-002
  -1.0101965279613521E-002   2.5910868903836759E-003   5.9893443196375518E-002
  -2.0202808229124763E-002   5.1496364559708296E-003   5.4801859252943341E-002
  -1.8203148635832823E-002   4.5974385500636150E-003   5.4789645994857639E-002
  -1.6203489042540938E-002   4.0589021029600741E-003   5.4943493774680066E-002
  -1.4203829449249012E-002   3.5340271146603493E-003   5.5263402592410589E-002
  -1.2204169855957110E-002   3.0228135851643190E-003   5.5749372448049228E-002
  -2.2456120349710892E-002   6.0986566307099921E-003   4.8421272869852781E-002
  -2.0424728347711529E-002   5.3586872564110044E-003   4.9358326265030034E-002
  -1.8393336345712177E-002   4.6713447398503485E-003   5.0192783439714145E-002
  -1.6361944343712829E-002   4.0366290810284287E-003   5.0924644393905025E-002
  -1.4330552341713468E-002   3.4545402799449620E-003   5.1553909127602673E-002
  -2.3658981346104557E-002   7.0476768054490435E-003   4.1833432318903130E-002
  -2.1864514193799089E-002   6.1199359627582273E-003   4.3758717766278266E-002
  -2.0070047041493608E-002   5.2837873767405397E-003   4.5312749734758795E-002
  -1.8275579889188126E-002   4.5392310473965983E-003   4.6495528224344662E-002
  -1.6481112736882658E-002   3.8862669747257161E-003   4.7307053235036256E-002
  -8.0239386126827669E-003   2.1593601956029218E-003   6.3986121372582194E-002
  -7.0406228388840142E-003   1.8282842009608724E-003   6.3901134578796093E-002
  -6.0573070650852684E-003   1.6382515287441390E-003   6.4060973761103479E-002
  -5.0739912912865209E-003   1.5892621789511258E-003   6.4465638919504298E-002
  -4.0906755174877699E-003   1.6813161515835118E-003   6.5115130053998826E-002
  -1.0101965279613521E-002   2.5910868903836759E-003   5.9893443196375518E-002
  -8.8813104137475708E-003   2.2067903829725566E-003   5.9916006990925752E-002
  -7.6606555478816469E-003   1.9598813166878948E-003   6.0168422993516907E-002
  -6.4400006820156995E-003   1.8503596915294129E-003   6.0650691204148885E-002
  -5.2193458161497452E-003   1.8782255074971665E-003   6.1362811622821978E-002
  -1.2204169855957110E-002   3.0228135851643190E-003   5.5749372448049228E-002
  -1.0761149666076567E-002   2.5852965649841575E-003   5.5875830949637273E-002
  -9.3181294761960805E-003   2.2815111046319558E-003   5.6217167891213560E-002
  -7.8751092863155788E-003   2.1114572041075821E-003   5.6773383272778130E-002
  -6.4320890964350494E-003   2.0751348634109879E-003   5.7544477094331026E-002
  -1.4330552341713468E-002   3.4545402799449620E-003   5.1553909127602673E-002
  -1.2680140595871057E-002   2.9638027469958000E-003   5.1780606454930461E-002
  -1.1029728850028616E-002   2.6031408925760308E-003   5.2207208454193764E-002
  -9.3793171041861769E-003   2.3725547166854773E-003   5.2833715125392547E-002
  -7.7289053583437638E-003   2.2720442193248369E-003   5.3660126468527164E-002
  -1.6481112736882658E-002   3.8862669747257161E-003   4.7307053235036256E-002
  -1.4638283203130931E-002   3.3423089290073871E-003   4.7630333506805123E-002
  -1.2795453669379203E-002   2.9247706805198559E-003   4.8138544682456985E-002
  -1.0952624135627489E-002   2.6336522292640593E-003   4.8831686761991761E-002
  -9.1097946018757481E-003   2.4689535752385749E-003   4.9709759745409698E-002
  -4.0906755174877699E-003   1.6813161515835118E-003   6.5115130053998826E-002
  -3.5708588178198705E-003   1.9621997957006698E-003   6.4199766683677439E-002
  -3.0510421181519920E-003   2.4796994603636380E-003   6.3416168977019571E-002
  -2.5312254184841031E-003   3.2338151455723885E-003   6.2764336934024889E-002
  -2.0114087188162141E-003   4.2245468513272266E-003   6.2244270554694281E-002
  -5.2193458161497452E-003   1.8782255074971665E-003   6.1362811622821978E-002
  -4.5461955097807691E-003   2.1381365569458355E-003   6.0666602737105335E-002
  -3.8730452034117617E-003   2.7247506322293502E-003   6.0145295401127730E-002
  -3.1998948970427595E-003   3.6380677333485503E-003   5.9798889614888912E-002
  -2.5267445906737469E-003   4.8780878603028599E-003   5.9627385378388742E-002
  -6.4320890964350494E-003   2.0751348634109879E-003   5.7544477094331026E-002
  -5.5624692972895701E-003   2.3140733181907791E-003   5.7157509698508940E-002
  -4.6928494981440631E-003   2.9698018040951735E-003   5.6988579738501077E-002
  -3.8232296989985414E-003   4.0423203211242681E-003   5.7037687214307464E-002
  -2.9536098998530474E-003   5.5316288692782156E-003   5.7304832125928046E-002
  -7.7289053583437638E-003   2.2720442193248369E-003   5.3660126468527164E-002
  -6.6196801803463517E-003   2.4900100794358893E-003   5.3672487567888817E-002
  -5.5104550023489405E-003   3.2148529759609412E-003   5.3946021989140044E-002
  -4.4012298243515362E-003   4.4465729089003189E-003   5.4480729732281012E-002
  -3.2920046463541168E-003   6.1851698782537101E-003   5.5276610797311672E-002
  -9.1097946018757481E-003   2.4689535752385749E-003   4.9709759745409698E-002
  -7.7178281589510428E-003   2.6659468406807774E-003   5.0211536345244556E-002
  -6.3258617160263514E-003   3.4599041478267922E-003   5.1017622153044506E-002
  -4.9338952731016530E-003   4.8508254966761130E-003   5.2128017168809410E-002
  -3.5419288301769547E-003   6.8387108872292046E-003   5.3542721392539239E-002
  -2.0114087188162141E-003   4.2245468513272266E-003   6.2244270554694281E-002
  -2.2626180693902029E-003   5.5274413880870288E-003   5.8249645652591941E-002
  -2.5138274199642020E-003   7.2180455663121978E-003   5.4244821573327162E-002
  -2.7650367705382133E-003   9.2963593860020330E-003   5.0229798316899693E-002
  -3.0162461211121899E-003   1.1762382847157138E-002   4.6204575883309396E-002
  -2.5267445906737469E-003   4.8780878603028599E-003   5.9627385378388742E-002
  -2.8050677736681899E-003   6.5056175799958482E-003   5.6122329284261085E-002
  -3.0833909566626242E-003   8.5814634593316119E-003   5.2573244702454558E-002
  -3.3617141396570993E-003   1.1105625498310255E-002   4.8980131632969520E-002
  -3.6400373226514737E-003   1.4078103696931077E-002   4.5342990075807332E-002
  -2.9536098998530474E-003   5.5316288692782156E-003   5.7304832125928046E-002
  -3.2928762257836402E-003   7.4837937719046677E-003   5.4349951357951898E-002
  -3.6321425517141783E-003   9.9448813523513729E-003   5.1317212791781933E-002
  -3.9714088776447547E-003   1.2914891610618203E-002   4.8206616427417935E-002
  -4.3106752035753405E-003   1.6393824546705460E-002   4.5018162264859884E-002
  -3.2920046463541168E-003   6.1851698782537101E-003   5.5276610797311672E-002
  -3.7260434257364995E-003   8.4619699638132650E-003   5.2932511873665052E-002
  -4.1600822051188410E-003   1.1308299245370627E-002   5.0476725841308689E-002
  -4.5941209845012532E-003   1.4724157722926066E-002   4.7909252700242572E-002
  -5.0281597638835648E-003   1.8709545396479732E-002   4.5230092450467357E-002
  -3.5419288301769547E-003   6.8387108872292046E-003   5.3542721392539239E-002
  -4.1045693735267952E-003   9.4401461557220845E-003   5.1870010831399860E-002
  -4.6672099168766634E-003   1.2671717138390381E-002   5.0051783851035148E-002
  -5.2298504602265455E-003   1.6533423835234221E-002   4.8088040451444936E-002
  -5.7924910035763721E-003   2.1025266246253782E-002   4.5978780632629945E-002
  -2.9775541409496481E-002   1.7859602575097500E-002 -0.12748669698853948     
  -3.1675334194880833E-002   1.8260940173847939E-002  -9.5117489193041971E-002
  -3.3575126980265213E-002   1.8218817509278409E-002  -6.8021368070732752E-002
  -3.5474919765649544E-002   1.7733234581388691E-002  -4.6198333621611867E-002
  -3.7374712551033917E-002   1.6804191390179246E-002  -2.9648385845679331E-002
  -8.9318452788647584E-003   2.2294138142988862E-002  -5.1447665261801639E-002
  -1.4751251302531694E-002   2.0475011808219590E-002  -3.4880239426021503E-002
  -2.0570657326198637E-002   1.8922464896524466E-002  -2.0878953393618227E-002
  -2.6390063349865524E-002   1.7636497407903372E-002  -9.4438071645917693E-003
  -3.2209469373532515E-002   1.6617109342356551E-002  -5.7480073894228267E-004
  -5.1549641227328982E-003   2.6728673710880141E-002   2.2015882688219260E-002
  -1.2187036514871047E-002   2.2689083442591240E-002   2.3491566250676180E-002
  -1.9219108907009192E-002   1.9626112283770571E-002   2.5108056879567860E-002
  -2.6251181299147316E-002   1.7539760234418077E-002   2.6865354574893915E-002
  -3.3283253691285493E-002   1.6430027294533939E-002   2.8763459336654640E-002
  -1.8444897941101358E-002   3.1163209278771434E-002   9.2903946861523465E-002
  -2.3982689831899169E-002   2.4903155076962891E-002   7.9997927837051425E-002
  -2.9520481722697091E-002   2.0329759671016637E-002   6.9939662748825293E-002
  -3.5058273613494902E-002   1.7443023060932743E-002   6.2729151596845334E-002
  -4.0596065504292761E-002   1.6242945246711257E-002   5.8366394381111131E-002
  -4.8801646733969695E-002   3.5597744846662782E-002  0.16121652725811098     
  -5.0138211253615839E-002   2.7117226711334541E-002  0.13463884533310400     
  -5.1474775773262066E-002   2.1033407058262787E-002  0.11361586421415443     
  -5.2811340292908224E-002   1.7346285887447369E-002   9.8147583901262270E-002
  -5.4147904812554409E-002   1.6055863198888631E-002   8.8234004394427523E-002
  -3.7374712551033917E-002   1.6804191390179246E-002  -2.9648385845679331E-002
  -3.6984287459868356E-002   1.5701517971366652E-002  -1.6828883490847102E-002
  -3.6593862368702781E-002   1.4695044360668139E-002  -5.8182046632429263E-003
  -3.6203437277537193E-002   1.3784770558083605E-002   3.3836506371333064E-003
  -3.5813012186371646E-002   1.2970696563613160E-002   1.0776682410281624E-002
  -3.2209469373532515E-002   1.6617109342356551E-002  -5.7480073894228267E-004
  -3.3167179384185147E-002   1.5746150206288473E-002   6.5296016680440189E-003
  -3.4124889394837703E-002   1.4905469506103511E-002   1.2746557398621988E-002
  -3.5082599405490272E-002   1.4095067241801863E-002   1.8076066452791494E-002
  -3.6040309416142891E-002   1.3314943413383795E-002   2.2518128830552708E-002
  -3.3283253691285493E-002   1.6430027294533939E-002   2.8763459336654640E-002
  -3.4667721952936645E-002   1.5790782441210238E-002   3.0086840423564312E-002
  -3.6052190214587811E-002   1.5115894651538946E-002   3.1444151684885145E-002
  -3.7436658476238976E-002   1.4405363925520399E-002   3.2835393120617187E-002
  -3.8821126737890128E-002   1.3659190263154319E-002   3.4260564730760529E-002
  -4.0596065504292761E-002   1.6242945246711257E-002   5.8366394381111131E-002
  -4.1485915166122912E-002   1.5835414676131976E-002   5.3842832775713473E-002
  -4.2375764827953036E-002   1.5326319796974460E-002   5.0274578195546635E-002
  -4.3265614489783201E-002   1.4715660609238658E-002   4.7661630640610714E-002
  -4.4155464151613311E-002   1.4003437112924844E-002   4.6003990110905599E-002
  -5.4147904812554409E-002   1.6055863198888631E-002   8.8234004394427523E-002
  -5.3621759023743942E-002   1.5880046911053797E-002   7.7797578724491806E-002
  -5.3095613234933461E-002   1.5536744942409614E-002   6.9237836930606506E-002
  -5.2569467446122987E-002   1.5025957292957214E-002   6.2554779012771650E-002
  -5.2043321657312513E-002   1.4347683962695479E-002   5.7748404970987099E-002
  -3.5813012186371646E-002   1.2970696563613160E-002   1.0776682410281624E-002
  -3.4564877255986240E-002   1.2224094308398770E-002   1.5987921519625470E-002
  -3.3316742325600820E-002   1.1516235723582569E-002   2.0754639167164635E-002
  -3.2068607395215394E-002   1.0847120809164959E-002   2.5076835352898827E-002
  -3.0820472464829995E-002   1.0216749565145178E-002   2.8954510076828366E-002
  -3.6040309416142891E-002   1.3314943413383795E-002   2.2518128830552708E-002
  -3.5107977293714711E-002   1.2579490886227118E-002   2.5353470420287294E-002
  -3.4175645171286489E-002   1.1903102525710071E-002   2.8001727855912290E-002
  -3.3243313048858227E-002   1.1285778331832901E-002   3.0462901137427778E-002
  -3.2310980926430033E-002   1.0727518304595562E-002   3.2736990264833621E-002
  -3.8821126737890128E-002   1.3659190263154319E-002   3.4260564730760529E-002
  -3.7947160115723862E-002   1.2934887464055245E-002   3.4740329297127392E-002
  -3.7073193493557574E-002   1.2289969327837408E-002   3.5290447017079840E-002
  -3.6199226871391349E-002   1.1724435854500899E-002   3.5910917890618003E-002
  -3.5325260249225034E-002   1.1238287044045669E-002   3.6601741917741959E-002
  -4.4155464151613311E-002   1.4003437112924844E-002   4.6003990110905599E-002
  -4.3082425722013762E-002   1.3290284041883427E-002   4.4148498150145932E-002
  -4.2009387292414151E-002   1.2676836129964911E-002   4.2620796650667432E-002
  -4.0936348862814484E-002   1.2163093377169035E-002   4.1420885612469732E-002
  -3.9863310433214928E-002   1.1749055783495749E-002   4.0548765035553103E-002
  -5.2043321657312513E-002   1.4347683962695479E-002   5.7748404970987099E-002
  -5.0513774112584370E-002   1.3645680619711664E-002   5.3577976979342801E-002
  -4.8984226567856143E-002   1.3063702932092108E-002   4.9992776756674684E-002
  -4.7454679023127902E-002   1.2601750899836943E-002   4.6992804302982888E-002
  -4.5925131478399744E-002   1.2259824522946050E-002   4.4578059618267218E-002
  -3.0820472464829995E-002   1.0216749565145178E-002   2.8954510076828366E-002
  -2.9030099685148636E-002   9.5604329610489147E-003   3.2155120288582528E-002
  -2.7239726905467276E-002   8.8134819664005826E-003   3.5368477399513154E-002
  -2.5449354125785896E-002   7.9758965812009169E-003   3.8594581409619938E-002
  -2.3658981346104557E-002   7.0476768054490435E-003   4.1833432318903130E-002
  -3.2310980926430033E-002   1.0727518304595562E-002   3.2736990264833621E-002
  -3.0473950195972509E-002   1.0146795436410144E-002   3.4350428547449297E-002
  -2.8636919465514873E-002   9.4620827196897767E-003   3.6044435832441268E-002
  -2.6799888735057280E-002   8.6733801544339843E-003   3.7819012119809287E-002
  -2.4962858004599714E-002   7.7806877406429997E-003   3.9674157409553545E-002
  -3.5325260249225034E-002   1.1238287044045669E-002   3.6601741917741959E-002
  -3.3373749464791352E-002   1.0733157911771596E-002   3.6614652813235601E-002
  -3.1422238680357664E-002   1.0110683472978749E-002   3.6775954814305373E-002
  -2.9470727895923983E-002   9.3708637276671627E-003   3.7085647920951190E-002
  -2.7519217111490302E-002   8.5136986758366229E-003   3.7543732133172913E-002
  -3.9863310433214928E-002   1.1749055783495749E-002   4.0548765035553103E-002
  -3.7729497491605285E-002   1.1319520387133047E-002   3.8947793085941235E-002
  -3.5595684549995628E-002   1.0759284226267721E-002   3.7563034345105266E-002
  -3.3461871608385964E-002   1.0068347300900119E-002   3.6394488813045259E-002
  -3.1328058666776321E-002   9.2467096110303570E-003   3.5442156489761019E-002
  -4.5925131478399744E-002   1.2259824522946050E-002   4.4578059618267218E-002
  -4.3541194276414230E-002   1.1905882862494277E-002   4.1349849365566294E-002
  -4.1157257074428757E-002   1.1407884979556721E-002   3.8405674424841052E-002
  -3.8773319872443236E-002   1.0765830874133332E-002   3.5745534796091688E-002
  -3.6389382670457771E-002   9.9797205462240912E-003   3.3369430479318063E-002
  -2.3658981346104557E-002   7.0476768054490435E-003   4.1833432318903130E-002
  -2.1864514193799089E-002   6.1199359627582273E-003   4.3758717766278266E-002
  -2.0070047041493608E-002   5.2837873767405397E-003   4.5312749734758795E-002
  -1.8275579889188126E-002   4.5392310473965983E-003   4.6495528224344662E-002
  -1.6481112736882658E-002   3.8862669747257161E-003   4.7307053235036256E-002
  -2.4962858004599714E-002   7.7806877406429997E-003   3.9674157409553545E-002
  -2.3421204351532360E-002   6.8823567559966325E-003   4.0557552869938840E-002
  -2.1879550698464867E-002   6.0767384781751921E-003   4.1306574810742736E-002
  -2.0337897045397395E-002   5.3638329071787755E-003   4.1921223231964830E-002
  -1.8796243392330020E-002   4.7436400430074244E-003   4.2401498133605664E-002
  -2.7519217111490302E-002   8.5136986758366229E-003   3.7543732133172913E-002
  -2.5993496998347951E-002   7.6447775492350101E-003   3.7386358056720026E-002
  -2.4467776885205600E-002   6.8696895796097196E-003   3.7331490419998503E-002
  -2.2942056772063228E-002   6.1884347669613933E-003   3.7379129223008602E-002
  -2.1416336658920905E-002   5.6010131112892436E-003   3.7529274465749857E-002
  -3.1328058666776321E-002   9.2467096110303570E-003   3.5442156489761019E-002
  -2.9581392134246084E-002   8.4071983424736235E-003   3.4245133326621539E-002
  -2.7834725601715762E-002   7.6626406810444206E-003   3.3387496562526542E-002
  -2.6088059069185453E-002   7.0130366267435688E-003   3.2869246197475790E-002
  -2.4341392536655251E-002   6.4583861795709518E-003   3.2690382231469757E-002
  -3.6389382670457771E-002   9.9797205462240912E-003   3.3369430479318063E-002
  -3.4184889759226622E-002   9.1696191357119039E-003   3.1133878679643512E-002
  -3.1980396847995418E-002   8.4555917824788440E-003   2.9474593238326352E-002
  -2.9775903936764200E-002   7.8376384865261745E-003   2.8391574155366472E-002
  -2.7571411025533066E-002   7.3157592478526601E-003   2.7884821430764206E-002
  -1.6481112736882658E-002   3.8862669747257161E-003   4.7307053235036256E-002
  -1.4638283203130931E-002   3.3423089290073871E-003   4.7630333506805123E-002
  -1.2795453669379203E-002   2.9247706805198559E-003   4.8138544682456985E-002
  -1.0952624135627489E-002   2.6336522292640593E-003   4.8831686761991761E-002
  -9.1097946018757481E-003   2.4689535752385749E-003   4.9709759745409698E-002
  -1.8796243392330020E-002   4.7436400430074244E-003   4.2401498133605664E-002
  -1.6790100684380332E-002   4.2046649382558310E-003   4.2496269369168560E-002
  -1.4783957976430583E-002   3.7354126455176329E-003   4.2732736049244324E-002
  -1.2777815268480874E-002   3.3358831647940651E-003   4.3110898173833109E-002
  -1.0771672560531201E-002   3.0060764960841979E-003   4.3630755742934957E-002
  -2.1416336658920905E-002   5.6010131112892436E-003   3.7529274465749857E-002
  -1.9290116236143184E-002   5.0670209475039696E-003   3.7338839679889879E-002
  -1.7163895813365547E-002   4.5460546105155347E-003   3.7246864879172822E-002
  -1.5037675390587913E-002   4.0381141003241854E-003   3.7253350063598624E-002
  -1.2911454967810189E-002   3.5431994169295433E-003   3.7358295233167499E-002
  -2.4341392536655251E-002   6.4583861795709518E-003   3.2690382231469757E-002
  -2.2138329858419598E-002   5.9293769567521498E-003   3.2158044438969371E-002
  -1.9935267180183968E-002   5.3566965755132631E-003   3.1680931172242119E-002
  -1.7732204501948332E-002   4.7403450358542484E-003   3.1259042431287694E-002
  -1.5529141823712686E-002   4.0803223377752496E-003   3.0892378216106346E-002
  -2.7571411025533066E-002   7.3157592478526601E-003   2.7884821430764206E-002
  -2.5334741551209516E-002   6.7917329660006076E-003   2.6953883646406940E-002
  -2.3098072076885939E-002   6.1673385405112413E-003   2.6034934928452436E-002
  -2.0861402602562376E-002   5.4425759713843183E-003   2.5127975276900777E-002
  -1.8624733128238813E-002   4.6174452586205117E-003   2.4233004691752158E-002
  -9.1097946018757481E-003   2.4689535752385749E-003   4.9709759745409698E-002
  -7.7178281589510428E-003   2.6659468406807774E-003   5.0211536345244556E-002
  -6.3258617160263514E-003   3.4599041478267922E-003   5.1017622153044506E-002
  -4.9338952731016530E-003   4.8508254966761130E-003   5.2128017168809410E-002
  -3.5419288301769547E-003   6.8387108872292046E-003   5.3542721392539239E-002
  -1.0771672560531201E-002   3.0060764960841979E-003   4.3630755742934957E-002
  -9.0501824903594513E-003   2.9815933914276727E-003   4.4248786492326719E-002
  -7.3286924201876880E-003   3.4980346028640197E-003   4.5221555288247284E-002
  -5.6072023500159662E-003   4.5554001303933223E-003   4.6549062130697344E-002
  -3.8857122798442306E-003   6.1536899740151085E-003   4.8231307019676040E-002
  -1.2911454967810189E-002   3.5431994169295433E-003   3.7358295233167499E-002
  -1.0810012431827346E-002   3.2972399421745124E-003   3.8036540406504837E-002
  -8.7085698958444153E-003   3.5361650579013720E-003   3.9119952464935562E-002
  -6.6071273598615043E-003   4.2599747641100909E-003   4.0608531408459374E-002
  -4.5056848238786418E-003   5.4686690608007904E-003   4.2502277237076391E-002
  -1.5529141823712686E-002   4.0803223377752496E-003   3.0892378216106346E-002
  -1.2997317983354614E-002   3.6128864929213245E-003   3.1574798087778827E-002
  -1.0465494142996436E-002   3.5742955129386619E-003   3.2712813683108632E-002
  -7.9336703026382863E-003   3.9645493978271908E-003   3.4306425002095714E-002
  -5.4018464622801882E-003   4.7836481475863613E-003   3.6355632044740099E-002
  -1.8624733128238813E-002   4.6174452586205117E-003   2.4233004691752158E-002
  -1.5612099144941383E-002   3.9285330436682475E-003   2.4863559536148827E-002
  -1.2599465161643841E-002   3.6124259679760073E-003   2.6000138942766760E-002
  -9.5868311783463278E-003   3.6691240315439716E-003   2.7642742911606039E-002
  -6.5741971950488698E-003   4.0986272343723762E-003   2.9791371442666970E-002
  -3.5419288301769547E-003   6.8387108872292046E-003   5.3542721392539239E-002
  -4.1045693735267952E-003   9.4401461557220845E-003   5.1870010831399860E-002
  -4.6672099168766634E-003   1.2671717138390381E-002   5.0051783851035148E-002
  -5.2298504602265455E-003   1.6533423835234221E-002   4.8088040451444936E-002
  -5.7924910035763721E-003   2.1025266246253782E-002   4.5978780632629945E-002
  -3.8857122798442306E-003   6.1536899740151085E-003   4.8231307019676040E-002
  -4.4893230507174059E-003   8.6041519795007626E-003   4.7283731416777053E-002
  -5.0929338215905465E-003   1.2218033992621447E-002   4.6399731778056508E-002
  -5.6965445924637877E-003   1.6995336013376439E-002   4.5579308103514432E-002
  -6.3001553633368623E-003   2.2936058041767016E-002   4.4822460393151742E-002
  -4.5056848238786418E-003   5.4686690608007904E-003   4.2502277237076391E-002
  -4.9411734388711027E-003   7.7681578032792187E-003   4.2813120885876549E-002
  -5.3766620538635568E-003   1.1764350846852262E-002   4.3396632882259450E-002
  -5.8121506688558998E-003   1.7457248191519094E-002   4.4252813226225235E-002
  -6.2476392838485828E-003   2.4846849837280249E-002   4.5381661917773708E-002
  -5.4018464622801882E-003   4.7836481475863613E-003   3.6355632044740099E-002
  -5.4601205379879248E-003   6.9321636270580078E-003   3.8458179238698806E-002
  -5.5183946136956319E-003   1.1310667701083202E-002   4.1042487163644510E-002
  -5.5766686894034500E-003   1.7919160369661086E-002   4.4108555819576567E-002
  -5.6349427651111311E-003   2.6757641632793483E-002   4.7656385206495733E-002
  -6.5741971950488698E-003   4.0986272343723762E-003   2.9791371442666970E-002
  -6.0461643480678451E-003   6.0961694508362418E-003   3.4218906475243616E-002
  -5.5181315010868481E-003   1.0856984555314475E-002   3.9337294622211028E-002
  -4.9900986541058651E-003   1.8381072547803884E-002   4.5146535883569650E-002
  -4.4620658071248265E-003   2.8668433428306717E-002   5.1646630259318371E-002
  -4.8801646733969695E-002   3.5597744846662782E-002  0.16121652725811098     
  -5.0138211253615839E-002   2.7117226711334541E-002  0.13463884533310400     
  -5.1474775773262066E-002   2.1033407058262787E-002  0.11361586421415443     
  -5.2811340292908224E-002   1.7346285887447369E-002   9.8147583901262270E-002
  -5.4147904812554409E-002   1.6055863198888631E-002   8.8234004394427523E-002
  -7.9058784212328037E-002   1.4707717015416288E-002   9.2013193370291069E-002
  -7.6530749528305519E-002   1.7449880251439426E-002   8.1709047640235760E-002
  -7.4002714844283141E-002   1.9190545392846023E-002   7.3579399511459948E-002
  -7.1474680160260720E-002   1.9929712439635979E-002   6.7624248983964283E-002
  -6.8946645476238216E-002   1.9667381391809374E-002   6.3843596057748281E-002
  -9.2049884087166120E-002  -6.1823108158302054E-003   3.5731639142259380E-002
  -8.9037453404252551E-002   7.7825337915442550E-003   3.8302833030282299E-002
  -8.6025022721338995E-002   1.7347683727429203E-002   3.9668321314807464E-002
  -8.3012592038425481E-002   2.2513138991824617E-002   3.9828103995834890E-002
  -8.0000161355511884E-002   2.3278899584730173E-002   3.8782181073364799E-002
  -8.7774946358483999E-002  -2.7072338647076755E-002  -7.6281354259843531E-003
  -8.7658322881456807E-002  -1.8848126683507771E-003   4.4202015032437335E-003
  -8.7541699404429643E-002   1.5504822062012522E-002   1.1882629624196839E-002
  -8.7425075927402549E-002   2.5096565544013131E-002   1.4759148936874477E-002
  -8.7308452450375412E-002   2.6890417777651054E-002   1.3049759441277058E-002
  -6.6233971026281591E-002  -4.7962366478323193E-002  -3.8066130334440396E-002
  -7.2393357959918303E-002  -1.1552159128245809E-002  -1.9938846940879773E-002
  -7.8552744893555237E-002   1.3661960396595674E-002  -9.7776755603721788E-003
  -8.4712131827192116E-002   2.7679992096201769E-002  -7.5826161929173214E-003
  -9.0871518760828884E-002   3.0501935970571825E-002  -1.3353668838514965E-002
  -5.4147904812554409E-002   1.6055863198888631E-002   8.8234004394427523E-002
  -5.3621759023743942E-002   1.5880046911053797E-002   7.7797578724491806E-002
  -5.3095613234933461E-002   1.5536744942409614E-002   6.9237836930606506E-002
  -5.2569467446122987E-002   1.5025957292957214E-002   6.2554779012771650E-002
  -5.2043321657312513E-002   1.4347683962695479E-002   5.7748404970987099E-002
  -6.8946645476238216E-002   1.9667381391809374E-002   6.3843596057748281E-002
  -6.6876105840904559E-002   1.8913153225564638E-002   5.6745214231180924E-002
  -6.4805566205570930E-002   1.8176628917099431E-002   5.0858936221609516E-002
  -6.2735026570237329E-002   1.7457808466414412E-002   4.6184762029033953E-002
  -6.0664486934903630E-002   1.6756691873508922E-002   4.2722691653454270E-002
  -8.0000161355511884E-002   2.3278899584730173E-002   3.8782181073364799E-002
  -7.7049807932709588E-002   2.1946259540075549E-002   3.5207032628754555E-002
  -7.4099454509907320E-002   2.0816512891789138E-002   3.2179407942085667E-002
  -7.1149101087105066E-002   1.9889659639871504E-002   2.9699307013358156E-002
  -6.8198747664302756E-002   1.9165699784322476E-002   2.7766729842572099E-002
  -8.7308452450375412E-002   2.6890417777651054E-002   1.3049759441277058E-002
  -8.4142865299159042E-002   2.4979365854586398E-002   1.3183033917212842E-002
  -8.0977278147942616E-002   2.3456396866478900E-002   1.3199252092035114E-002
  -7.7811690996726218E-002   2.2321510813328789E-002   1.3098413965744292E-002
  -7.4646103845509820E-002   2.1574707695135920E-002   1.2880519538340553E-002
  -9.0871518760828884E-002   3.0501935970571825E-002  -1.3353668838514965E-002
  -8.8155277940252852E-002   2.8012472169097191E-002  -9.3267819034447697E-003
  -8.5439037119676819E-002   2.6096280841168579E-002  -6.0815313285425832E-003
  -8.2722796299100787E-002   2.4753361986785939E-002  -3.6179171138076491E-003
  -8.0006555478524755E-002   2.3983715605949474E-002  -1.9359392592402935E-003
  -5.2043321657312513E-002   1.4347683962695479E-002   5.7748404970987099E-002
  -5.0513774112584370E-002   1.3645680619711664E-002   5.3577976979342801E-002
  -4.8984226567856143E-002   1.3063702932092108E-002   4.9992776756674684E-002
  -4.7454679023127902E-002   1.2601750899836943E-002   4.6992804302982888E-002
  -4.5925131478399744E-002   1.2259824522946050E-002   4.4578059618267218E-002
  -6.0664486934903630E-002   1.6756691873508922E-002   4.2722691653454270E-002
  -5.8589464502941668E-002   1.6088447512931342E-002   3.9683448459379461E-002
  -5.6514442070979699E-002   1.5468243759229144E-002   3.7149927270795996E-002
  -5.4439419639017717E-002   1.4896080612402461E-002   3.5122128087704083E-002
  -5.2364397207055713E-002   1.4371958072451119E-002   3.3600050910103207E-002
  -6.8198747664302756E-002   1.9165699784322476E-002   2.7766729842572099E-002
  -6.5657756108591869E-002   1.8531214406151103E-002   2.5786686397578057E-002
  -6.3116764552880955E-002   1.7872784586366305E-002   2.4232859194590214E-002
  -6.0575772997170013E-002   1.7190410324967983E-002   2.3105248233609155E-002
  -5.8034781441459203E-002   1.6484091621956132E-002   2.2403853514634225E-002
  -7.4646103845509820E-002   2.1574707695135920E-002   1.2880519538340553E-002
  -7.1718648929534903E-002   2.0973981299370878E-002   1.1887690793937998E-002
  -6.8791194013559931E-002   2.0277325413503348E-002   1.1241572528057280E-002
  -6.5863739097584931E-002   1.9484740037533338E-002   1.0942164740698068E-002
  -6.2936284181610028E-002   1.8596225171461284E-002   1.0989467431860467E-002
  -8.0006555478524755E-002   2.3983715605949474E-002  -1.9359392592402935E-003
  -7.6772142965770618E-002   2.3416748192590653E-002  -2.0135383515398897E-003
  -7.3537730453016537E-002   2.2681866240640197E-002  -1.8239327288030183E-003
  -7.0303317940262400E-002   2.1779069750099168E-002  -1.3671223910287703E-003
  -6.7068905427508319E-002   2.0708358720966324E-002  -6.4310733821815180E-004
  -4.5925131478399744E-002   1.2259824522946050E-002   4.4578059618267218E-002
  -4.3541194276414230E-002   1.1905882862494277E-002   4.1349849365566294E-002
  -4.1157257074428757E-002   1.1407884979556721E-002   3.8405674424841052E-002
  -3.8773319872443236E-002   1.0765830874133332E-002   3.5745534796091688E-002
  -3.6389382670457771E-002   9.9797205462240912E-003   3.3369430479318063E-002
  -5.2364397207055713E-002   1.4371958072451119E-002   3.3600050910103207E-002
  -4.9698404020472001E-002   1.3828068246221181E-002   3.1022927123317889E-002
  -4.7032410833888344E-002   1.3196603240558380E-002   2.8725879993753256E-002
  -4.4366417647304639E-002   1.2477563055462909E-002   2.6708909521409308E-002
  -4.1700424460720920E-002   1.1670947690934630E-002   2.4972015706285822E-002
  -5.8034781441459203E-002   1.6484091621956132E-002   2.2403853514634225E-002
  -5.5090690925032409E-002   1.5750253629948086E-002   2.0534297236817864E-002
  -5.2146600408605623E-002   1.4985321501560081E-002   1.8940858961466800E-002
  -4.9202509892178815E-002   1.4189295236792538E-002   1.7623538688581381E-002
  -4.6258419375752091E-002   1.3362174835645113E-002   1.6582336418161397E-002
  -6.2936284181610028E-002   1.8596225171461284E-002   1.0989467431860467E-002
  -5.9718054990095339E-002   1.7672439013674879E-002   9.8839597060660367E-003
  -5.6499825798580629E-002   1.6774039762561373E-002   9.0506113279818466E-003
  -5.3281596607065940E-002   1.5901027418122028E-002   8.4894222976077596E-003
  -5.0063367415551230E-002   1.5053401980356068E-002   8.2003926149444364E-003
  -6.7068905427508319E-002   2.0708358720966324E-002  -6.4310733821815180E-004
  -6.3580496215660864E-002   1.9594624397401672E-002  -9.2808546893774491E-004
  -6.0092087003813355E-002   1.8562758023563192E-002  -9.4486290670203754E-004
  -5.6603677791965901E-002   1.7612759599451626E-002  -6.9343965151111298E-004
  -5.3115268580118391E-002   1.6744629125066357E-002  -1.7381570336505447E-004
  -3.6389382670457771E-002   9.9797205462240912E-003   3.3369430479318063E-002
  -3.4184889759226622E-002   9.1696191357119039E-003   3.1133878679643512E-002
  -3.1980396847995418E-002   8.4555917824788440E-003   2.9474593238326352E-002
  -2.9775903936764200E-002   7.8376384865261745E-003   2.8391574155366472E-002
  -2.7571411025533066E-002   7.3157592478526601E-003   2.7884821430764206E-002
  -4.1700424460720920E-002   1.1670947690934630E-002   2.4972015706285822E-002
  -3.9013102561616483E-002   1.0844002234237538E-002   2.3467567937546230E-002
  -3.6325780662511992E-002   1.0063971772635252E-002   2.2352511786196183E-002
  -3.3638458763407576E-002   9.3308563061271672E-003   2.1626847252235057E-002
  -3.0951136864303064E-002   8.6446558347142988E-003   2.1290574335663115E-002
  -4.6258419375752091E-002   1.3362174835645113E-002   1.6582336418161397E-002
  -4.3275143229742560E-002   1.2518385332763449E-002   1.5759833618172112E-002
  -4.0291867083733023E-002   1.1672351762790995E-002   1.5139847694603692E-002
  -3.7308590937723471E-002   1.0824074125728382E-002   1.4722378647456513E-002
  -3.4325314791713954E-002   9.9735524215757709E-003   1.4507426476730201E-002
  -5.0063367415551230E-002   1.5053401980356068E-002   8.2003926149444364E-003
  -4.6971011763604853E-002   1.4192768431289332E-002   8.0106757215201892E-003
  -4.3878656111658407E-002   1.3280731752947014E-002   7.8366009635489793E-003
  -4.0786300459712044E-002   1.2317291945329930E-002   7.6781683410306195E-003
  -3.7693944807765598E-002   1.1302449008437215E-002   7.5353778539648600E-003
  -5.3115268580118391E-002   1.6744629125066357E-002  -1.7381570336505447E-004
  -5.0100708163203334E-002   1.5867151529814882E-002   2.2009424759117380E-004
  -4.7086147746288276E-002   1.4889111743103201E-002   4.4277159303204860E-004
  -4.4071587329373191E-002   1.3810509764930770E-002   4.9421633295784057E-004
  -4.1057026912458161E-002   1.2631345595298882E-002   3.7442846736757129E-004
  -2.7571411025533066E-002   7.3157592478526601E-003   2.7884821430764206E-002
  -2.5334741551209516E-002   6.7917329660006076E-003   2.6953883646406940E-002
  -2.3098072076885939E-002   6.1673385405112413E-003   2.6034934928452436E-002
  -2.0861402602562376E-002   5.4425759713843183E-003   2.5127975276900777E-002
  -1.8624733128238813E-002   4.6174452586205117E-003   2.4233004691752158E-002
  -3.0951136864303064E-002   8.6446558347142988E-003   2.1290574335663115E-002
  -2.8678468480347899E-002   7.9751849058342095E-003   2.0332282279060532E-002
  -2.6405800096392845E-002   7.2922580669259329E-003   1.9433998975318362E-002
  -2.4133131712437646E-002   6.5958753179885601E-003   1.8595724424436161E-002
  -2.1860463328482627E-002   5.8860366590226532E-003   1.7817458626414484E-002
  -3.4325314791713954E-002   9.9735524215757709E-003   1.4507426476730201E-002
  -3.1968627811669939E-002   9.1586368456682277E-003   1.3608692381491011E-002
  -2.9611940831625869E-002   8.4171775933403886E-003   1.2817986725569483E-002
  -2.7255253851581829E-002   7.7491746645921324E-003   1.2135309508965388E-002
  -2.4898566871537839E-002   7.1546280594246836E-003   1.1560660731678857E-002
  -3.7693944807765598E-002   1.1302449008437215E-002   7.5353778539648600E-003
  -3.5205219545175415E-002   1.0342088785501927E-002   6.7831139536978571E-003
  -3.2716494282585239E-002   9.5420971197551843E-003   6.1868981792057437E-003
  -3.0227769019995063E-002   8.9024740111962614E-003   5.7467305304882994E-003
  -2.7739043757404887E-002   8.4232194598265475E-003   5.4626110075458312E-003
  -4.1057026912458161E-002   1.2631345595298882E-002   3.7442846736757129E-004
  -3.8388243680864464E-002   1.1525540725335626E-002  -1.4445300431897845E-004
  -3.5719460449270823E-002   1.0667016646169591E-002  -4.5926666377318903E-004
  -3.3050677217677099E-002   1.0055773357800071E-002  -5.7001251099512290E-004
  -3.0381893986083486E-002   9.6918108602286335E-003  -4.7669054598542537E-004
  -1.8624733128238813E-002   4.6174452586205117E-003   2.4233004691752158E-002
  -1.5612099144941383E-002   3.9285330436682475E-003   2.4863559536148827E-002
  -1.2599465161643841E-002   3.6124259679760073E-003   2.6000138942766760E-002
  -9.5868311783463278E-003   3.6691240315439716E-003   2.7642742911606039E-002
  -6.5741971950488698E-003   4.0986272343723762E-003   2.9791371442666970E-002
  -2.1860463328482627E-002   5.8860366590226532E-003   1.7817458626414484E-002
  -1.8616463993592472E-002   5.2561261958620209E-003   1.8644039637820242E-002
  -1.5372464658702428E-002   4.7995280343415270E-003   1.9427326790190158E-002
  -1.2128465323812364E-002   4.5162421744604914E-003   2.0167320083523538E-002
  -8.8844659889222299E-003   4.4062686162188447E-003   2.0864019517820465E-002
  -2.4898566871537839E-002   7.1546280594246836E-003   1.1560660731678857E-002
  -2.1972520606312947E-002   6.5837193480560163E-003   1.2383775072473791E-002
  -1.9046474341088068E-002   5.9866301007067968E-003   1.2614277132974791E-002
  -1.6120428075863183E-002   5.3633603173765601E-003   1.2252166913181345E-002
  -1.3194381810638298E-002   4.7139099980653132E-003   1.1297444413094437E-002
  -2.7739043757404887E-002   8.4232194598265475E-003   5.4626110075458312E-003
  -2.5680268983102855E-002   7.9113125002501228E-003   6.0827658401087850E-003
  -2.3621494208800799E-002   7.1737321670723025E-003   5.5609899711205196E-003
  -2.1562719434498827E-002   6.2104784602931874E-003   3.8972834005802197E-003
  -1.9503944660196709E-002   5.0215513799124478E-003   1.0916461284882634E-003
  -3.0381893986083486E-002   9.6918108602286335E-003  -4.7669054598542537E-004
  -2.9739709123962066E-002   9.2389056524435631E-003  -2.5898805927443425E-004
  -2.9097524261840590E-002   8.3608342334375307E-003  -1.7325346953725451E-003
  -2.8455339399719143E-002   7.0575966032092458E-003  -4.8973304542806045E-003
  -2.7813154537597695E-002   5.3291927617586943E-003  -9.7533753359977382E-003
  -6.5741971950488698E-003   4.0986272343723762E-003   2.9791371442666970E-002
  -6.0461643480678451E-003   6.0961694508362418E-003   3.4218906475243616E-002
  -5.5181315010868481E-003   1.0856984555314475E-002   3.9337294622211028E-002
  -4.9900986541058651E-003   1.8381072547803884E-002   4.5146535883569650E-002
  -4.4620658071248265E-003   2.8668433428306717E-002   5.1646630259318371E-002
  -8.8844659889222299E-003   4.4062686162188447E-003   2.0864019517820465E-002
  -7.5939223615607981E-003   5.6253747903269868E-003   2.5987625214080601E-002
  -6.3033787341992276E-003   9.3293281274941797E-003   3.1945399356711091E-002
  -5.0128351068375251E-003   1.5518128627720777E-002   3.8737341945711656E-002
  -3.7222914794762252E-003   2.4191776291006439E-002   4.6363452981083242E-002
  -1.3194381810638298E-002   4.7139099980653132E-003   1.1297444413094437E-002
  -1.0998012070916559E-002   5.1545801298168992E-003   1.6838695048084190E-002
  -8.8016423311948824E-003   7.8016716996742175E-003   2.3357429461423967E-002
  -6.6052725914730985E-003   1.2655184707637671E-002   3.0853647653114019E-002
  -4.4089028517513562E-003   1.9715119153706384E-002   3.9327349623153429E-002
  -1.9503944660196709E-002   5.0215513799124478E-003   1.0916461284882634E-003
  -1.6258433476135273E-002   4.6837854693073389E-003   6.7721159772544809E-003
  -1.3012922292073731E-002   6.2740152718548658E-003   1.3573384936350533E-002
  -9.7674111080121480E-003   9.7922407875545639E-003   2.1495453005776204E-002
  -6.5218999239507539E-003   1.5238462016406440E-002   3.0538320185531209E-002
  -2.7813154537597695E-002   5.3291927617586943E-003  -9.7533753359977382E-003
  -2.3375186577216822E-002   4.2129908087966683E-003  -4.2121119984085409E-003
  -1.8937218616835838E-002   4.7463588440339599E-003   2.5932657814902171E-003
  -1.4499250656455021E-002   6.9292968674714572E-003   1.0662758003698092E-002
  -1.0061282696073981E-002   1.0761804879106052E-002   1.9996364668214861E-002
 </DataArray>
 </PointData>
 </Piece>
 </UnstructuredGrid>
 </VTKFile>
