 <VTKFile type="UnstructuredGrid"  version="0.1"   >
 <UnstructuredGrid>
 <Piece  NumberOfPoints="          1600 "  NumberOfCells="         1024 ">
 <Points>
 <DataArray  type="Float64" NumberOfComponents="3"  format="ascii" >
   0.0000000000000000        0.0000000000000000        0.0000000000000000     
   3.1250000000000000E-002   0.0000000000000000        0.0000000000000000     
   6.2500000000000000E-002   0.0000000000000000        0.0000000000000000     
   9.3750000000000000E-002   0.0000000000000000        0.0000000000000000     
  0.12500000000000000        0.0000000000000000        0.0000000000000000     
   0.0000000000000000        3.1250000000000000E-002   0.0000000000000000     
   3.1250000000000000E-002   3.1250000000000000E-002   0.0000000000000000     
   6.2500000000000000E-002   3.1250000000000000E-002   0.0000000000000000     
   9.3750000000000000E-002   3.1250000000000000E-002   0.0000000000000000     
  0.12500000000000000        3.1250000000000000E-002   0.0000000000000000     
   0.0000000000000000        6.2500000000000000E-002   0.0000000000000000     
   3.1250000000000000E-002   6.2500000000000000E-002   0.0000000000000000     
   6.2500000000000000E-002   6.2500000000000000E-002   0.0000000000000000     
   9.3750000000000000E-002   6.2500000000000000E-002   0.0000000000000000     
  0.12500000000000000        6.2500000000000000E-002   0.0000000000000000     
   0.0000000000000000        9.3750000000000000E-002   0.0000000000000000     
   3.1250000000000000E-002   9.3750000000000000E-002   0.0000000000000000     
   6.2500000000000000E-002   9.3750000000000000E-002   0.0000000000000000     
   9.3750000000000000E-002   9.3750000000000000E-002   0.0000000000000000     
  0.12500000000000000        9.3750000000000000E-002   0.0000000000000000     
   0.0000000000000000       0.12500000000000000        0.0000000000000000     
   3.1250000000000000E-002  0.12500000000000000        0.0000000000000000     
   6.2500000000000000E-002  0.12500000000000000        0.0000000000000000     
   9.3750000000000000E-002  0.12500000000000000        0.0000000000000000     
  0.12500000000000000       0.12500000000000000        0.0000000000000000     
  0.12500000000000000        0.0000000000000000        0.0000000000000000     
  0.15625000000000000        0.0000000000000000        0.0000000000000000     
  0.18750000000000000        0.0000000000000000        0.0000000000000000     
  0.21875000000000000        0.0000000000000000        0.0000000000000000     
  0.25000000000000000        0.0000000000000000        0.0000000000000000     
  0.12500000000000000        3.1250000000000000E-002   0.0000000000000000     
  0.15625000000000000        3.1250000000000000E-002   0.0000000000000000     
  0.18750000000000000        3.1250000000000000E-002   0.0000000000000000     
  0.21875000000000000        3.1250000000000000E-002   0.0000000000000000     
  0.25000000000000000        3.1250000000000000E-002   0.0000000000000000     
  0.12500000000000000        6.2500000000000000E-002   0.0000000000000000     
  0.15625000000000000        6.2500000000000000E-002   0.0000000000000000     
  0.18750000000000000        6.2500000000000000E-002   0.0000000000000000     
  0.21875000000000000        6.2500000000000000E-002   0.0000000000000000     
  0.25000000000000000        6.2500000000000000E-002   0.0000000000000000     
  0.12500000000000000        9.3750000000000000E-002   0.0000000000000000     
  0.15625000000000000        9.3750000000000000E-002   0.0000000000000000     
  0.18750000000000000        9.3750000000000000E-002   0.0000000000000000     
  0.21875000000000000        9.3750000000000000E-002   0.0000000000000000     
  0.25000000000000000        9.3750000000000000E-002   0.0000000000000000     
  0.12500000000000000       0.12500000000000000        0.0000000000000000     
  0.15625000000000000       0.12500000000000000        0.0000000000000000     
  0.18750000000000000       0.12500000000000000        0.0000000000000000     
  0.21875000000000000       0.12500000000000000        0.0000000000000000     
  0.25000000000000000       0.12500000000000000        0.0000000000000000     
  0.25000000000000000        0.0000000000000000        0.0000000000000000     
  0.28125000000000000        0.0000000000000000        0.0000000000000000     
  0.31250000000000000        0.0000000000000000        0.0000000000000000     
  0.34375000000000000        0.0000000000000000        0.0000000000000000     
  0.37500000000000000        0.0000000000000000        0.0000000000000000     
  0.25000000000000000        3.1250000000000000E-002   0.0000000000000000     
  0.28125000000000000        3.1250000000000000E-002   0.0000000000000000     
  0.31250000000000000        3.1250000000000000E-002   0.0000000000000000     
  0.34375000000000000        3.1250000000000000E-002   0.0000000000000000     
  0.37500000000000000        3.1250000000000000E-002   0.0000000000000000     
  0.25000000000000000        6.2500000000000000E-002   0.0000000000000000     
  0.28125000000000000        6.2500000000000000E-002   0.0000000000000000     
  0.31250000000000000        6.2500000000000000E-002   0.0000000000000000     
  0.34375000000000000        6.2500000000000000E-002   0.0000000000000000     
  0.37500000000000000        6.2500000000000000E-002   0.0000000000000000     
  0.25000000000000000        9.3750000000000000E-002   0.0000000000000000     
  0.28125000000000000        9.3750000000000000E-002   0.0000000000000000     
  0.31250000000000000        9.3750000000000000E-002   0.0000000000000000     
  0.34375000000000000        9.3750000000000000E-002   0.0000000000000000     
  0.37500000000000000        9.3750000000000000E-002   0.0000000000000000     
  0.25000000000000000       0.12500000000000000        0.0000000000000000     
  0.28125000000000000       0.12500000000000000        0.0000000000000000     
  0.31250000000000000       0.12500000000000000        0.0000000000000000     
  0.34375000000000000       0.12500000000000000        0.0000000000000000     
  0.37500000000000000       0.12500000000000000        0.0000000000000000     
  0.37500000000000000        0.0000000000000000        0.0000000000000000     
  0.40625000000000000        0.0000000000000000        0.0000000000000000     
  0.43750000000000000        0.0000000000000000        0.0000000000000000     
  0.46875000000000000        0.0000000000000000        0.0000000000000000     
  0.50000000000000000        0.0000000000000000        0.0000000000000000     
  0.37500000000000000        3.1250000000000000E-002   0.0000000000000000     
  0.40625000000000000        3.1250000000000000E-002   0.0000000000000000     
  0.43750000000000000        3.1250000000000000E-002   0.0000000000000000     
  0.46875000000000000        3.1250000000000000E-002   0.0000000000000000     
  0.50000000000000000        3.1250000000000000E-002   0.0000000000000000     
  0.37500000000000000        6.2500000000000000E-002   0.0000000000000000     
  0.40625000000000000        6.2500000000000000E-002   0.0000000000000000     
  0.43750000000000000        6.2500000000000000E-002   0.0000000000000000     
  0.46875000000000000        6.2500000000000000E-002   0.0000000000000000     
  0.50000000000000000        6.2500000000000000E-002   0.0000000000000000     
  0.37500000000000000        9.3750000000000000E-002   0.0000000000000000     
  0.40625000000000000        9.3750000000000000E-002   0.0000000000000000     
  0.43750000000000000        9.3750000000000000E-002   0.0000000000000000     
  0.46875000000000000        9.3750000000000000E-002   0.0000000000000000     
  0.50000000000000000        9.3750000000000000E-002   0.0000000000000000     
  0.37500000000000000       0.12500000000000000        0.0000000000000000     
  0.40625000000000000       0.12500000000000000        0.0000000000000000     
  0.43750000000000000       0.12500000000000000        0.0000000000000000     
  0.46875000000000000       0.12500000000000000        0.0000000000000000     
  0.50000000000000000       0.12500000000000000        0.0000000000000000     
  0.50000000000000000        0.0000000000000000        0.0000000000000000     
  0.53125000000000000        0.0000000000000000        0.0000000000000000     
  0.56250000000000000        0.0000000000000000        0.0000000000000000     
  0.59375000000000000        0.0000000000000000        0.0000000000000000     
  0.62500000000000000        0.0000000000000000        0.0000000000000000     
  0.50000000000000000        3.1250000000000000E-002   0.0000000000000000     
  0.53125000000000000        3.1250000000000000E-002   0.0000000000000000     
  0.56250000000000000        3.1250000000000000E-002   0.0000000000000000     
  0.59375000000000000        3.1250000000000000E-002   0.0000000000000000     
  0.62500000000000000        3.1250000000000000E-002   0.0000000000000000     
  0.50000000000000000        6.2500000000000000E-002   0.0000000000000000     
  0.53125000000000000        6.2500000000000000E-002   0.0000000000000000     
  0.56250000000000000        6.2500000000000000E-002   0.0000000000000000     
  0.59375000000000000        6.2500000000000000E-002   0.0000000000000000     
  0.62500000000000000        6.2500000000000000E-002   0.0000000000000000     
  0.50000000000000000        9.3750000000000000E-002   0.0000000000000000     
  0.53125000000000000        9.3750000000000000E-002   0.0000000000000000     
  0.56250000000000000        9.3750000000000000E-002   0.0000000000000000     
  0.59375000000000000        9.3750000000000000E-002   0.0000000000000000     
  0.62500000000000000        9.3750000000000000E-002   0.0000000000000000     
  0.50000000000000000       0.12500000000000000        0.0000000000000000     
  0.53125000000000000       0.12500000000000000        0.0000000000000000     
  0.56250000000000000       0.12500000000000000        0.0000000000000000     
  0.59375000000000000       0.12500000000000000        0.0000000000000000     
  0.62500000000000000       0.12500000000000000        0.0000000000000000     
  0.62500000000000000        0.0000000000000000        0.0000000000000000     
  0.65625000000000000        0.0000000000000000        0.0000000000000000     
  0.68750000000000000        0.0000000000000000        0.0000000000000000     
  0.71875000000000000        0.0000000000000000        0.0000000000000000     
  0.75000000000000000        0.0000000000000000        0.0000000000000000     
  0.62500000000000000        3.1250000000000000E-002   0.0000000000000000     
  0.65625000000000000        3.1250000000000000E-002   0.0000000000000000     
  0.68750000000000000        3.1250000000000000E-002   0.0000000000000000     
  0.71875000000000000        3.1250000000000000E-002   0.0000000000000000     
  0.75000000000000000        3.1250000000000000E-002   0.0000000000000000     
  0.62500000000000000        6.2500000000000000E-002   0.0000000000000000     
  0.65625000000000000        6.2500000000000000E-002   0.0000000000000000     
  0.68750000000000000        6.2500000000000000E-002   0.0000000000000000     
  0.71875000000000000        6.2500000000000000E-002   0.0000000000000000     
  0.75000000000000000        6.2500000000000000E-002   0.0000000000000000     
  0.62500000000000000        9.3750000000000000E-002   0.0000000000000000     
  0.65625000000000000        9.3750000000000000E-002   0.0000000000000000     
  0.68750000000000000        9.3750000000000000E-002   0.0000000000000000     
  0.71875000000000000        9.3750000000000000E-002   0.0000000000000000     
  0.75000000000000000        9.3750000000000000E-002   0.0000000000000000     
  0.62500000000000000       0.12500000000000000        0.0000000000000000     
  0.65625000000000000       0.12500000000000000        0.0000000000000000     
  0.68750000000000000       0.12500000000000000        0.0000000000000000     
  0.71875000000000000       0.12500000000000000        0.0000000000000000     
  0.75000000000000000       0.12500000000000000        0.0000000000000000     
  0.75000000000000000        0.0000000000000000        0.0000000000000000     
  0.78125000000000000        0.0000000000000000        0.0000000000000000     
  0.81250000000000000        0.0000000000000000        0.0000000000000000     
  0.84375000000000000        0.0000000000000000        0.0000000000000000     
  0.87500000000000000        0.0000000000000000        0.0000000000000000     
  0.75000000000000000        3.1250000000000000E-002   0.0000000000000000     
  0.78125000000000000        3.1250000000000000E-002   0.0000000000000000     
  0.81250000000000000        3.1250000000000000E-002   0.0000000000000000     
  0.84375000000000000        3.1250000000000000E-002   0.0000000000000000     
  0.87500000000000000        3.1250000000000000E-002   0.0000000000000000     
  0.75000000000000000        6.2500000000000000E-002   0.0000000000000000     
  0.78125000000000000        6.2500000000000000E-002   0.0000000000000000     
  0.81250000000000000        6.2500000000000000E-002   0.0000000000000000     
  0.84375000000000000        6.2500000000000000E-002   0.0000000000000000     
  0.87500000000000000        6.2500000000000000E-002   0.0000000000000000     
  0.75000000000000000        9.3750000000000000E-002   0.0000000000000000     
  0.78125000000000000        9.3750000000000000E-002   0.0000000000000000     
  0.81250000000000000        9.3750000000000000E-002   0.0000000000000000     
  0.84375000000000000        9.3750000000000000E-002   0.0000000000000000     
  0.87500000000000000        9.3750000000000000E-002   0.0000000000000000     
  0.75000000000000000       0.12500000000000000        0.0000000000000000     
  0.78125000000000000       0.12500000000000000        0.0000000000000000     
  0.81250000000000000       0.12500000000000000        0.0000000000000000     
  0.84375000000000000       0.12500000000000000        0.0000000000000000     
  0.87500000000000000       0.12500000000000000        0.0000000000000000     
  0.87500000000000000        0.0000000000000000        0.0000000000000000     
  0.90625000000000000        0.0000000000000000        0.0000000000000000     
  0.93750000000000000        0.0000000000000000        0.0000000000000000     
  0.96875000000000000        0.0000000000000000        0.0000000000000000     
   1.0000000000000000        0.0000000000000000        0.0000000000000000     
  0.87500000000000000        3.1250000000000000E-002   0.0000000000000000     
  0.90625000000000000        3.1250000000000000E-002   0.0000000000000000     
  0.93750000000000000        3.1250000000000000E-002   0.0000000000000000     
  0.96875000000000000        3.1250000000000000E-002   0.0000000000000000     
   1.0000000000000000        3.1250000000000000E-002   0.0000000000000000     
  0.87500000000000000        6.2500000000000000E-002   0.0000000000000000     
  0.90625000000000000        6.2500000000000000E-002   0.0000000000000000     
  0.93750000000000000        6.2500000000000000E-002   0.0000000000000000     
  0.96875000000000000        6.2500000000000000E-002   0.0000000000000000     
   1.0000000000000000        6.2500000000000000E-002   0.0000000000000000     
  0.87500000000000000        9.3750000000000000E-002   0.0000000000000000     
  0.90625000000000000        9.3750000000000000E-002   0.0000000000000000     
  0.93750000000000000        9.3750000000000000E-002   0.0000000000000000     
  0.96875000000000000        9.3750000000000000E-002   0.0000000000000000     
   1.0000000000000000        9.3750000000000000E-002   0.0000000000000000     
  0.87500000000000000       0.12500000000000000        0.0000000000000000     
  0.90625000000000000       0.12500000000000000        0.0000000000000000     
  0.93750000000000000       0.12500000000000000        0.0000000000000000     
  0.96875000000000000       0.12500000000000000        0.0000000000000000     
   1.0000000000000000       0.12500000000000000        0.0000000000000000     
   0.0000000000000000       0.12500000000000000        0.0000000000000000     
   3.1250000000000000E-002  0.12500000000000000        0.0000000000000000     
   6.2500000000000000E-002  0.12500000000000000        0.0000000000000000     
   9.3750000000000000E-002  0.12500000000000000        0.0000000000000000     
  0.12500000000000000       0.12500000000000000        0.0000000000000000     
   0.0000000000000000       0.15625000000000000        0.0000000000000000     
   3.1250000000000000E-002  0.15625000000000000        0.0000000000000000     
   6.2500000000000000E-002  0.15625000000000000        0.0000000000000000     
   9.3750000000000000E-002  0.15625000000000000        0.0000000000000000     
  0.12500000000000000       0.15625000000000000        0.0000000000000000     
   0.0000000000000000       0.18750000000000000        0.0000000000000000     
   3.1250000000000000E-002  0.18750000000000000        0.0000000000000000     
   6.2500000000000000E-002  0.18750000000000000        0.0000000000000000     
   9.3750000000000000E-002  0.18750000000000000        0.0000000000000000     
  0.12500000000000000       0.18750000000000000        0.0000000000000000     
   0.0000000000000000       0.21875000000000000        0.0000000000000000     
   3.1250000000000000E-002  0.21875000000000000        0.0000000000000000     
   6.2500000000000000E-002  0.21875000000000000        0.0000000000000000     
   9.3750000000000000E-002  0.21875000000000000        0.0000000000000000     
  0.12500000000000000       0.21875000000000000        0.0000000000000000     
   0.0000000000000000       0.25000000000000000        0.0000000000000000     
   3.1250000000000000E-002  0.25000000000000000        0.0000000000000000     
   6.2500000000000000E-002  0.25000000000000000        0.0000000000000000     
   9.3750000000000000E-002  0.25000000000000000        0.0000000000000000     
  0.12500000000000000       0.25000000000000000        0.0000000000000000     
  0.12500000000000000       0.12500000000000000        0.0000000000000000     
  0.15625000000000000       0.12500000000000000        0.0000000000000000     
  0.18750000000000000       0.12500000000000000        0.0000000000000000     
  0.21875000000000000       0.12500000000000000        0.0000000000000000     
  0.25000000000000000       0.12500000000000000        0.0000000000000000     
  0.12500000000000000       0.15625000000000000        0.0000000000000000     
  0.15625000000000000       0.15625000000000000        0.0000000000000000     
  0.18750000000000000       0.15625000000000000        0.0000000000000000     
  0.21875000000000000       0.15625000000000000        0.0000000000000000     
  0.25000000000000000       0.15625000000000000        0.0000000000000000     
  0.12500000000000000       0.18750000000000000        0.0000000000000000     
  0.15625000000000000       0.18750000000000000        0.0000000000000000     
  0.18750000000000000       0.18750000000000000        0.0000000000000000     
  0.21875000000000000       0.18750000000000000        0.0000000000000000     
  0.25000000000000000       0.18750000000000000        0.0000000000000000     
  0.12500000000000000       0.21875000000000000        0.0000000000000000     
  0.15625000000000000       0.21875000000000000        0.0000000000000000     
  0.18750000000000000       0.21875000000000000        0.0000000000000000     
  0.21875000000000000       0.21875000000000000        0.0000000000000000     
  0.25000000000000000       0.21875000000000000        0.0000000000000000     
  0.12500000000000000       0.25000000000000000        0.0000000000000000     
  0.15625000000000000       0.25000000000000000        0.0000000000000000     
  0.18750000000000000       0.25000000000000000        0.0000000000000000     
  0.21875000000000000       0.25000000000000000        0.0000000000000000     
  0.25000000000000000       0.25000000000000000        0.0000000000000000     
  0.25000000000000000       0.12500000000000000        0.0000000000000000     
  0.28125000000000000       0.12500000000000000        0.0000000000000000     
  0.31250000000000000       0.12500000000000000        0.0000000000000000     
  0.34375000000000000       0.12500000000000000        0.0000000000000000     
  0.37500000000000000       0.12500000000000000        0.0000000000000000     
  0.25000000000000000       0.15625000000000000        0.0000000000000000     
  0.28125000000000000       0.15625000000000000        0.0000000000000000     
  0.31250000000000000       0.15625000000000000        0.0000000000000000     
  0.34375000000000000       0.15625000000000000        0.0000000000000000     
  0.37500000000000000       0.15625000000000000        0.0000000000000000     
  0.25000000000000000       0.18750000000000000        0.0000000000000000     
  0.28125000000000000       0.18750000000000000        0.0000000000000000     
  0.31250000000000000       0.18750000000000000        0.0000000000000000     
  0.34375000000000000       0.18750000000000000        0.0000000000000000     
  0.37500000000000000       0.18750000000000000        0.0000000000000000     
  0.25000000000000000       0.21875000000000000        0.0000000000000000     
  0.28125000000000000       0.21875000000000000        0.0000000000000000     
  0.31250000000000000       0.21875000000000000        0.0000000000000000     
  0.34375000000000000       0.21875000000000000        0.0000000000000000     
  0.37500000000000000       0.21875000000000000        0.0000000000000000     
  0.25000000000000000       0.25000000000000000        0.0000000000000000     
  0.28125000000000000       0.25000000000000000        0.0000000000000000     
  0.31250000000000000       0.25000000000000000        0.0000000000000000     
  0.34375000000000000       0.25000000000000000        0.0000000000000000     
  0.37500000000000000       0.25000000000000000        0.0000000000000000     
  0.37500000000000000       0.12500000000000000        0.0000000000000000     
  0.40625000000000000       0.12500000000000000        0.0000000000000000     
  0.43750000000000000       0.12500000000000000        0.0000000000000000     
  0.46875000000000000       0.12500000000000000        0.0000000000000000     
  0.50000000000000000       0.12500000000000000        0.0000000000000000     
  0.37500000000000000       0.15625000000000000        0.0000000000000000     
  0.40625000000000000       0.15625000000000000        0.0000000000000000     
  0.43750000000000000       0.15625000000000000        0.0000000000000000     
  0.46875000000000000       0.15625000000000000        0.0000000000000000     
  0.50000000000000000       0.15625000000000000        0.0000000000000000     
  0.37500000000000000       0.18750000000000000        0.0000000000000000     
  0.40625000000000000       0.18750000000000000        0.0000000000000000     
  0.43750000000000000       0.18750000000000000        0.0000000000000000     
  0.46875000000000000       0.18750000000000000        0.0000000000000000     
  0.50000000000000000       0.18750000000000000        0.0000000000000000     
  0.37500000000000000       0.21875000000000000        0.0000000000000000     
  0.40625000000000000       0.21875000000000000        0.0000000000000000     
  0.43750000000000000       0.21875000000000000        0.0000000000000000     
  0.46875000000000000       0.21875000000000000        0.0000000000000000     
  0.50000000000000000       0.21875000000000000        0.0000000000000000     
  0.37500000000000000       0.25000000000000000        0.0000000000000000     
  0.40625000000000000       0.25000000000000000        0.0000000000000000     
  0.43750000000000000       0.25000000000000000        0.0000000000000000     
  0.46875000000000000       0.25000000000000000        0.0000000000000000     
  0.50000000000000000       0.25000000000000000        0.0000000000000000     
  0.50000000000000000       0.12500000000000000        0.0000000000000000     
  0.53125000000000000       0.12500000000000000        0.0000000000000000     
  0.56250000000000000       0.12500000000000000        0.0000000000000000     
  0.59375000000000000       0.12500000000000000        0.0000000000000000     
  0.62500000000000000       0.12500000000000000        0.0000000000000000     
  0.50000000000000000       0.15625000000000000        0.0000000000000000     
  0.53125000000000000       0.15625000000000000        0.0000000000000000     
  0.56250000000000000       0.15625000000000000        0.0000000000000000     
  0.59375000000000000       0.15625000000000000        0.0000000000000000     
  0.62500000000000000       0.15625000000000000        0.0000000000000000     
  0.50000000000000000       0.18750000000000000        0.0000000000000000     
  0.53125000000000000       0.18750000000000000        0.0000000000000000     
  0.56250000000000000       0.18750000000000000        0.0000000000000000     
  0.59375000000000000       0.18750000000000000        0.0000000000000000     
  0.62500000000000000       0.18750000000000000        0.0000000000000000     
  0.50000000000000000       0.21875000000000000        0.0000000000000000     
  0.53125000000000000       0.21875000000000000        0.0000000000000000     
  0.56250000000000000       0.21875000000000000        0.0000000000000000     
  0.59375000000000000       0.21875000000000000        0.0000000000000000     
  0.62500000000000000       0.21875000000000000        0.0000000000000000     
  0.50000000000000000       0.25000000000000000        0.0000000000000000     
  0.53125000000000000       0.25000000000000000        0.0000000000000000     
  0.56250000000000000       0.25000000000000000        0.0000000000000000     
  0.59375000000000000       0.25000000000000000        0.0000000000000000     
  0.62500000000000000       0.25000000000000000        0.0000000000000000     
  0.62500000000000000       0.12500000000000000        0.0000000000000000     
  0.65625000000000000       0.12500000000000000        0.0000000000000000     
  0.68750000000000000       0.12500000000000000        0.0000000000000000     
  0.71875000000000000       0.12500000000000000        0.0000000000000000     
  0.75000000000000000       0.12500000000000000        0.0000000000000000     
  0.62500000000000000       0.15625000000000000        0.0000000000000000     
  0.65625000000000000       0.15625000000000000        0.0000000000000000     
  0.68750000000000000       0.15625000000000000        0.0000000000000000     
  0.71875000000000000       0.15625000000000000        0.0000000000000000     
  0.75000000000000000       0.15625000000000000        0.0000000000000000     
  0.62500000000000000       0.18750000000000000        0.0000000000000000     
  0.65625000000000000       0.18750000000000000        0.0000000000000000     
  0.68750000000000000       0.18750000000000000        0.0000000000000000     
  0.71875000000000000       0.18750000000000000        0.0000000000000000     
  0.75000000000000000       0.18750000000000000        0.0000000000000000     
  0.62500000000000000       0.21875000000000000        0.0000000000000000     
  0.65625000000000000       0.21875000000000000        0.0000000000000000     
  0.68750000000000000       0.21875000000000000        0.0000000000000000     
  0.71875000000000000       0.21875000000000000        0.0000000000000000     
  0.75000000000000000       0.21875000000000000        0.0000000000000000     
  0.62500000000000000       0.25000000000000000        0.0000000000000000     
  0.65625000000000000       0.25000000000000000        0.0000000000000000     
  0.68750000000000000       0.25000000000000000        0.0000000000000000     
  0.71875000000000000       0.25000000000000000        0.0000000000000000     
  0.75000000000000000       0.25000000000000000        0.0000000000000000     
  0.75000000000000000       0.12500000000000000        0.0000000000000000     
  0.78125000000000000       0.12500000000000000        0.0000000000000000     
  0.81250000000000000       0.12500000000000000        0.0000000000000000     
  0.84375000000000000       0.12500000000000000        0.0000000000000000     
  0.87500000000000000       0.12500000000000000        0.0000000000000000     
  0.75000000000000000       0.15625000000000000        0.0000000000000000     
  0.78125000000000000       0.15625000000000000        0.0000000000000000     
  0.81250000000000000       0.15625000000000000        0.0000000000000000     
  0.84375000000000000       0.15625000000000000        0.0000000000000000     
  0.87500000000000000       0.15625000000000000        0.0000000000000000     
  0.75000000000000000       0.18750000000000000        0.0000000000000000     
  0.78125000000000000       0.18750000000000000        0.0000000000000000     
  0.81250000000000000       0.18750000000000000        0.0000000000000000     
  0.84375000000000000       0.18750000000000000        0.0000000000000000     
  0.87500000000000000       0.18750000000000000        0.0000000000000000     
  0.75000000000000000       0.21875000000000000        0.0000000000000000     
  0.78125000000000000       0.21875000000000000        0.0000000000000000     
  0.81250000000000000       0.21875000000000000        0.0000000000000000     
  0.84375000000000000       0.21875000000000000        0.0000000000000000     
  0.87500000000000000       0.21875000000000000        0.0000000000000000     
  0.75000000000000000       0.25000000000000000        0.0000000000000000     
  0.78125000000000000       0.25000000000000000        0.0000000000000000     
  0.81250000000000000       0.25000000000000000        0.0000000000000000     
  0.84375000000000000       0.25000000000000000        0.0000000000000000     
  0.87500000000000000       0.25000000000000000        0.0000000000000000     
  0.87500000000000000       0.12500000000000000        0.0000000000000000     
  0.90625000000000000       0.12500000000000000        0.0000000000000000     
  0.93750000000000000       0.12500000000000000        0.0000000000000000     
  0.96875000000000000       0.12500000000000000        0.0000000000000000     
   1.0000000000000000       0.12500000000000000        0.0000000000000000     
  0.87500000000000000       0.15625000000000000        0.0000000000000000     
  0.90625000000000000       0.15625000000000000        0.0000000000000000     
  0.93750000000000000       0.15625000000000000        0.0000000000000000     
  0.96875000000000000       0.15625000000000000        0.0000000000000000     
   1.0000000000000000       0.15625000000000000        0.0000000000000000     
  0.87500000000000000       0.18750000000000000        0.0000000000000000     
  0.90625000000000000       0.18750000000000000        0.0000000000000000     
  0.93750000000000000       0.18750000000000000        0.0000000000000000     
  0.96875000000000000       0.18750000000000000        0.0000000000000000     
   1.0000000000000000       0.18750000000000000        0.0000000000000000     
  0.87500000000000000       0.21875000000000000        0.0000000000000000     
  0.90625000000000000       0.21875000000000000        0.0000000000000000     
  0.93750000000000000       0.21875000000000000        0.0000000000000000     
  0.96875000000000000       0.21875000000000000        0.0000000000000000     
   1.0000000000000000       0.21875000000000000        0.0000000000000000     
  0.87500000000000000       0.25000000000000000        0.0000000000000000     
  0.90625000000000000       0.25000000000000000        0.0000000000000000     
  0.93750000000000000       0.25000000000000000        0.0000000000000000     
  0.96875000000000000       0.25000000000000000        0.0000000000000000     
   1.0000000000000000       0.25000000000000000        0.0000000000000000     
   0.0000000000000000       0.25000000000000000        0.0000000000000000     
   3.1250000000000000E-002  0.25000000000000000        0.0000000000000000     
   6.2500000000000000E-002  0.25000000000000000        0.0000000000000000     
   9.3750000000000000E-002  0.25000000000000000        0.0000000000000000     
  0.12500000000000000       0.25000000000000000        0.0000000000000000     
   0.0000000000000000       0.28125000000000000        0.0000000000000000     
   3.1250000000000000E-002  0.28125000000000000        0.0000000000000000     
   6.2500000000000000E-002  0.28125000000000000        0.0000000000000000     
   9.3750000000000000E-002  0.28125000000000000        0.0000000000000000     
  0.12500000000000000       0.28125000000000000        0.0000000000000000     
   0.0000000000000000       0.31250000000000000        0.0000000000000000     
   3.1250000000000000E-002  0.31250000000000000        0.0000000000000000     
   6.2500000000000000E-002  0.31250000000000000        0.0000000000000000     
   9.3750000000000000E-002  0.31250000000000000        0.0000000000000000     
  0.12500000000000000       0.31250000000000000        0.0000000000000000     
   0.0000000000000000       0.34375000000000000        0.0000000000000000     
   3.1250000000000000E-002  0.34375000000000000        0.0000000000000000     
   6.2500000000000000E-002  0.34375000000000000        0.0000000000000000     
   9.3750000000000000E-002  0.34375000000000000        0.0000000000000000     
  0.12500000000000000       0.34375000000000000        0.0000000000000000     
   0.0000000000000000       0.37500000000000000        0.0000000000000000     
   3.1250000000000000E-002  0.37500000000000000        0.0000000000000000     
   6.2500000000000000E-002  0.37500000000000000        0.0000000000000000     
   9.3750000000000000E-002  0.37500000000000000        0.0000000000000000     
  0.12500000000000000       0.37500000000000000        0.0000000000000000     
  0.12500000000000000       0.25000000000000000        0.0000000000000000     
  0.15625000000000000       0.25000000000000000        0.0000000000000000     
  0.18750000000000000       0.25000000000000000        0.0000000000000000     
  0.21875000000000000       0.25000000000000000        0.0000000000000000     
  0.25000000000000000       0.25000000000000000        0.0000000000000000     
  0.12500000000000000       0.28125000000000000        0.0000000000000000     
  0.15625000000000000       0.28125000000000000        0.0000000000000000     
  0.18750000000000000       0.28125000000000000        0.0000000000000000     
  0.21875000000000000       0.28125000000000000        0.0000000000000000     
  0.25000000000000000       0.28125000000000000        0.0000000000000000     
  0.12500000000000000       0.31250000000000000        0.0000000000000000     
  0.15625000000000000       0.31250000000000000        0.0000000000000000     
  0.18750000000000000       0.31250000000000000        0.0000000000000000     
  0.21875000000000000       0.31250000000000000        0.0000000000000000     
  0.25000000000000000       0.31250000000000000        0.0000000000000000     
  0.12500000000000000       0.34375000000000000        0.0000000000000000     
  0.15625000000000000       0.34375000000000000        0.0000000000000000     
  0.18750000000000000       0.34375000000000000        0.0000000000000000     
  0.21875000000000000       0.34375000000000000        0.0000000000000000     
  0.25000000000000000       0.34375000000000000        0.0000000000000000     
  0.12500000000000000       0.37500000000000000        0.0000000000000000     
  0.15625000000000000       0.37500000000000000        0.0000000000000000     
  0.18750000000000000       0.37500000000000000        0.0000000000000000     
  0.21875000000000000       0.37500000000000000        0.0000000000000000     
  0.25000000000000000       0.37500000000000000        0.0000000000000000     
  0.25000000000000000       0.25000000000000000        0.0000000000000000     
  0.28125000000000000       0.25000000000000000        0.0000000000000000     
  0.31250000000000000       0.25000000000000000        0.0000000000000000     
  0.34375000000000000       0.25000000000000000        0.0000000000000000     
  0.37500000000000000       0.25000000000000000        0.0000000000000000     
  0.25000000000000000       0.28125000000000000        0.0000000000000000     
  0.28125000000000000       0.28125000000000000        0.0000000000000000     
  0.31250000000000000       0.28125000000000000        0.0000000000000000     
  0.34375000000000000       0.28125000000000000        0.0000000000000000     
  0.37500000000000000       0.28125000000000000        0.0000000000000000     
  0.25000000000000000       0.31250000000000000        0.0000000000000000     
  0.28125000000000000       0.31250000000000000        0.0000000000000000     
  0.31250000000000000       0.31250000000000000        0.0000000000000000     
  0.34375000000000000       0.31250000000000000        0.0000000000000000     
  0.37500000000000000       0.31250000000000000        0.0000000000000000     
  0.25000000000000000       0.34375000000000000        0.0000000000000000     
  0.28125000000000000       0.34375000000000000        0.0000000000000000     
  0.31250000000000000       0.34375000000000000        0.0000000000000000     
  0.34375000000000000       0.34375000000000000        0.0000000000000000     
  0.37500000000000000       0.34375000000000000        0.0000000000000000     
  0.25000000000000000       0.37500000000000000        0.0000000000000000     
  0.28125000000000000       0.37500000000000000        0.0000000000000000     
  0.31250000000000000       0.37500000000000000        0.0000000000000000     
  0.34375000000000000       0.37500000000000000        0.0000000000000000     
  0.37500000000000000       0.37500000000000000        0.0000000000000000     
  0.37500000000000000       0.25000000000000000        0.0000000000000000     
  0.40625000000000000       0.25000000000000000        0.0000000000000000     
  0.43750000000000000       0.25000000000000000        0.0000000000000000     
  0.46875000000000000       0.25000000000000000        0.0000000000000000     
  0.50000000000000000       0.25000000000000000        0.0000000000000000     
  0.37500000000000000       0.28125000000000000        0.0000000000000000     
  0.40625000000000000       0.28125000000000000        0.0000000000000000     
  0.43750000000000000       0.28125000000000000        0.0000000000000000     
  0.46875000000000000       0.28125000000000000        0.0000000000000000     
  0.50000000000000000       0.28125000000000000        0.0000000000000000     
  0.37500000000000000       0.31250000000000000        0.0000000000000000     
  0.40625000000000000       0.31250000000000000        0.0000000000000000     
  0.43750000000000000       0.31250000000000000        0.0000000000000000     
  0.46875000000000000       0.31250000000000000        0.0000000000000000     
  0.50000000000000000       0.31250000000000000        0.0000000000000000     
  0.37500000000000000       0.34375000000000000        0.0000000000000000     
  0.40625000000000000       0.34375000000000000        0.0000000000000000     
  0.43750000000000000       0.34375000000000000        0.0000000000000000     
  0.46875000000000000       0.34375000000000000        0.0000000000000000     
  0.50000000000000000       0.34375000000000000        0.0000000000000000     
  0.37500000000000000       0.37500000000000000        0.0000000000000000     
  0.40625000000000000       0.37500000000000000        0.0000000000000000     
  0.43750000000000000       0.37500000000000000        0.0000000000000000     
  0.46875000000000000       0.37500000000000000        0.0000000000000000     
  0.50000000000000000       0.37500000000000000        0.0000000000000000     
  0.50000000000000000       0.25000000000000000        0.0000000000000000     
  0.53125000000000000       0.25000000000000000        0.0000000000000000     
  0.56250000000000000       0.25000000000000000        0.0000000000000000     
  0.59375000000000000       0.25000000000000000        0.0000000000000000     
  0.62500000000000000       0.25000000000000000        0.0000000000000000     
  0.50000000000000000       0.28125000000000000        0.0000000000000000     
  0.53125000000000000       0.28125000000000000        0.0000000000000000     
  0.56250000000000000       0.28125000000000000        0.0000000000000000     
  0.59375000000000000       0.28125000000000000        0.0000000000000000     
  0.62500000000000000       0.28125000000000000        0.0000000000000000     
  0.50000000000000000       0.31250000000000000        0.0000000000000000     
  0.53125000000000000       0.31250000000000000        0.0000000000000000     
  0.56250000000000000       0.31250000000000000        0.0000000000000000     
  0.59375000000000000       0.31250000000000000        0.0000000000000000     
  0.62500000000000000       0.31250000000000000        0.0000000000000000     
  0.50000000000000000       0.34375000000000000        0.0000000000000000     
  0.53125000000000000       0.34375000000000000        0.0000000000000000     
  0.56250000000000000       0.34375000000000000        0.0000000000000000     
  0.59375000000000000       0.34375000000000000        0.0000000000000000     
  0.62500000000000000       0.34375000000000000        0.0000000000000000     
  0.50000000000000000       0.37500000000000000        0.0000000000000000     
  0.53125000000000000       0.37500000000000000        0.0000000000000000     
  0.56250000000000000       0.37500000000000000        0.0000000000000000     
  0.59375000000000000       0.37500000000000000        0.0000000000000000     
  0.62500000000000000       0.37500000000000000        0.0000000000000000     
  0.62500000000000000       0.25000000000000000        0.0000000000000000     
  0.65625000000000000       0.25000000000000000        0.0000000000000000     
  0.68750000000000000       0.25000000000000000        0.0000000000000000     
  0.71875000000000000       0.25000000000000000        0.0000000000000000     
  0.75000000000000000       0.25000000000000000        0.0000000000000000     
  0.62500000000000000       0.28125000000000000        0.0000000000000000     
  0.65625000000000000       0.28125000000000000        0.0000000000000000     
  0.68750000000000000       0.28125000000000000        0.0000000000000000     
  0.71875000000000000       0.28125000000000000        0.0000000000000000     
  0.75000000000000000       0.28125000000000000        0.0000000000000000     
  0.62500000000000000       0.31250000000000000        0.0000000000000000     
  0.65625000000000000       0.31250000000000000        0.0000000000000000     
  0.68750000000000000       0.31250000000000000        0.0000000000000000     
  0.71875000000000000       0.31250000000000000        0.0000000000000000     
  0.75000000000000000       0.31250000000000000        0.0000000000000000     
  0.62500000000000000       0.34375000000000000        0.0000000000000000     
  0.65625000000000000       0.34375000000000000        0.0000000000000000     
  0.68750000000000000       0.34375000000000000        0.0000000000000000     
  0.71875000000000000       0.34375000000000000        0.0000000000000000     
  0.75000000000000000       0.34375000000000000        0.0000000000000000     
  0.62500000000000000       0.37500000000000000        0.0000000000000000     
  0.65625000000000000       0.37500000000000000        0.0000000000000000     
  0.68750000000000000       0.37500000000000000        0.0000000000000000     
  0.71875000000000000       0.37500000000000000        0.0000000000000000     
  0.75000000000000000       0.37500000000000000        0.0000000000000000     
  0.75000000000000000       0.25000000000000000        0.0000000000000000     
  0.78125000000000000       0.25000000000000000        0.0000000000000000     
  0.81250000000000000       0.25000000000000000        0.0000000000000000     
  0.84375000000000000       0.25000000000000000        0.0000000000000000     
  0.87500000000000000       0.25000000000000000        0.0000000000000000     
  0.75000000000000000       0.28125000000000000        0.0000000000000000     
  0.78125000000000000       0.28125000000000000        0.0000000000000000     
  0.81250000000000000       0.28125000000000000        0.0000000000000000     
  0.84375000000000000       0.28125000000000000        0.0000000000000000     
  0.87500000000000000       0.28125000000000000        0.0000000000000000     
  0.75000000000000000       0.31250000000000000        0.0000000000000000     
  0.78125000000000000       0.31250000000000000        0.0000000000000000     
  0.81250000000000000       0.31250000000000000        0.0000000000000000     
  0.84375000000000000       0.31250000000000000        0.0000000000000000     
  0.87500000000000000       0.31250000000000000        0.0000000000000000     
  0.75000000000000000       0.34375000000000000        0.0000000000000000     
  0.78125000000000000       0.34375000000000000        0.0000000000000000     
  0.81250000000000000       0.34375000000000000        0.0000000000000000     
  0.84375000000000000       0.34375000000000000        0.0000000000000000     
  0.87500000000000000       0.34375000000000000        0.0000000000000000     
  0.75000000000000000       0.37500000000000000        0.0000000000000000     
  0.78125000000000000       0.37500000000000000        0.0000000000000000     
  0.81250000000000000       0.37500000000000000        0.0000000000000000     
  0.84375000000000000       0.37500000000000000        0.0000000000000000     
  0.87500000000000000       0.37500000000000000        0.0000000000000000     
  0.87500000000000000       0.25000000000000000        0.0000000000000000     
  0.90625000000000000       0.25000000000000000        0.0000000000000000     
  0.93750000000000000       0.25000000000000000        0.0000000000000000     
  0.96875000000000000       0.25000000000000000        0.0000000000000000     
   1.0000000000000000       0.25000000000000000        0.0000000000000000     
  0.87500000000000000       0.28125000000000000        0.0000000000000000     
  0.90625000000000000       0.28125000000000000        0.0000000000000000     
  0.93750000000000000       0.28125000000000000        0.0000000000000000     
  0.96875000000000000       0.28125000000000000        0.0000000000000000     
   1.0000000000000000       0.28125000000000000        0.0000000000000000     
  0.87500000000000000       0.31250000000000000        0.0000000000000000     
  0.90625000000000000       0.31250000000000000        0.0000000000000000     
  0.93750000000000000       0.31250000000000000        0.0000000000000000     
  0.96875000000000000       0.31250000000000000        0.0000000000000000     
   1.0000000000000000       0.31250000000000000        0.0000000000000000     
  0.87500000000000000       0.34375000000000000        0.0000000000000000     
  0.90625000000000000       0.34375000000000000        0.0000000000000000     
  0.93750000000000000       0.34375000000000000        0.0000000000000000     
  0.96875000000000000       0.34375000000000000        0.0000000000000000     
   1.0000000000000000       0.34375000000000000        0.0000000000000000     
  0.87500000000000000       0.37500000000000000        0.0000000000000000     
  0.90625000000000000       0.37500000000000000        0.0000000000000000     
  0.93750000000000000       0.37500000000000000        0.0000000000000000     
  0.96875000000000000       0.37500000000000000        0.0000000000000000     
   1.0000000000000000       0.37500000000000000        0.0000000000000000     
   0.0000000000000000       0.37500000000000000        0.0000000000000000     
   3.1250000000000000E-002  0.37500000000000000        0.0000000000000000     
   6.2500000000000000E-002  0.37500000000000000        0.0000000000000000     
   9.3750000000000000E-002  0.37500000000000000        0.0000000000000000     
  0.12500000000000000       0.37500000000000000        0.0000000000000000     
   0.0000000000000000       0.40625000000000000        0.0000000000000000     
   3.1250000000000000E-002  0.40625000000000000        0.0000000000000000     
   6.2500000000000000E-002  0.40625000000000000        0.0000000000000000     
   9.3750000000000000E-002  0.40625000000000000        0.0000000000000000     
  0.12500000000000000       0.40625000000000000        0.0000000000000000     
   0.0000000000000000       0.43750000000000000        0.0000000000000000     
   3.1250000000000000E-002  0.43750000000000000        0.0000000000000000     
   6.2500000000000000E-002  0.43750000000000000        0.0000000000000000     
   9.3750000000000000E-002  0.43750000000000000        0.0000000000000000     
  0.12500000000000000       0.43750000000000000        0.0000000000000000     
   0.0000000000000000       0.46875000000000000        0.0000000000000000     
   3.1250000000000000E-002  0.46875000000000000        0.0000000000000000     
   6.2500000000000000E-002  0.46875000000000000        0.0000000000000000     
   9.3750000000000000E-002  0.46875000000000000        0.0000000000000000     
  0.12500000000000000       0.46875000000000000        0.0000000000000000     
   0.0000000000000000       0.50000000000000000        0.0000000000000000     
   3.1250000000000000E-002  0.50000000000000000        0.0000000000000000     
   6.2500000000000000E-002  0.50000000000000000        0.0000000000000000     
   9.3750000000000000E-002  0.50000000000000000        0.0000000000000000     
  0.12500000000000000       0.50000000000000000        0.0000000000000000     
  0.12500000000000000       0.37500000000000000        0.0000000000000000     
  0.15625000000000000       0.37500000000000000        0.0000000000000000     
  0.18750000000000000       0.37500000000000000        0.0000000000000000     
  0.21875000000000000       0.37500000000000000        0.0000000000000000     
  0.25000000000000000       0.37500000000000000        0.0000000000000000     
  0.12500000000000000       0.40625000000000000        0.0000000000000000     
  0.15625000000000000       0.40625000000000000        0.0000000000000000     
  0.18750000000000000       0.40625000000000000        0.0000000000000000     
  0.21875000000000000       0.40625000000000000        0.0000000000000000     
  0.25000000000000000       0.40625000000000000        0.0000000000000000     
  0.12500000000000000       0.43750000000000000        0.0000000000000000     
  0.15625000000000000       0.43750000000000000        0.0000000000000000     
  0.18750000000000000       0.43750000000000000        0.0000000000000000     
  0.21875000000000000       0.43750000000000000        0.0000000000000000     
  0.25000000000000000       0.43750000000000000        0.0000000000000000     
  0.12500000000000000       0.46875000000000000        0.0000000000000000     
  0.15625000000000000       0.46875000000000000        0.0000000000000000     
  0.18750000000000000       0.46875000000000000        0.0000000000000000     
  0.21875000000000000       0.46875000000000000        0.0000000000000000     
  0.25000000000000000       0.46875000000000000        0.0000000000000000     
  0.12500000000000000       0.50000000000000000        0.0000000000000000     
  0.15625000000000000       0.50000000000000000        0.0000000000000000     
  0.18750000000000000       0.50000000000000000        0.0000000000000000     
  0.21875000000000000       0.50000000000000000        0.0000000000000000     
  0.25000000000000000       0.50000000000000000        0.0000000000000000     
  0.25000000000000000       0.37500000000000000        0.0000000000000000     
  0.28125000000000000       0.37500000000000000        0.0000000000000000     
  0.31250000000000000       0.37500000000000000        0.0000000000000000     
  0.34375000000000000       0.37500000000000000        0.0000000000000000     
  0.37500000000000000       0.37500000000000000        0.0000000000000000     
  0.25000000000000000       0.40625000000000000        0.0000000000000000     
  0.28125000000000000       0.40625000000000000        0.0000000000000000     
  0.31250000000000000       0.40625000000000000        0.0000000000000000     
  0.34375000000000000       0.40625000000000000        0.0000000000000000     
  0.37500000000000000       0.40625000000000000        0.0000000000000000     
  0.25000000000000000       0.43750000000000000        0.0000000000000000     
  0.28125000000000000       0.43750000000000000        0.0000000000000000     
  0.31250000000000000       0.43750000000000000        0.0000000000000000     
  0.34375000000000000       0.43750000000000000        0.0000000000000000     
  0.37500000000000000       0.43750000000000000        0.0000000000000000     
  0.25000000000000000       0.46875000000000000        0.0000000000000000     
  0.28125000000000000       0.46875000000000000        0.0000000000000000     
  0.31250000000000000       0.46875000000000000        0.0000000000000000     
  0.34375000000000000       0.46875000000000000        0.0000000000000000     
  0.37500000000000000       0.46875000000000000        0.0000000000000000     
  0.25000000000000000       0.50000000000000000        0.0000000000000000     
  0.28125000000000000       0.50000000000000000        0.0000000000000000     
  0.31250000000000000       0.50000000000000000        0.0000000000000000     
  0.34375000000000000       0.50000000000000000        0.0000000000000000     
  0.37500000000000000       0.50000000000000000        0.0000000000000000     
  0.37500000000000000       0.37500000000000000        0.0000000000000000     
  0.40625000000000000       0.37500000000000000        0.0000000000000000     
  0.43750000000000000       0.37500000000000000        0.0000000000000000     
  0.46875000000000000       0.37500000000000000        0.0000000000000000     
  0.50000000000000000       0.37500000000000000        0.0000000000000000     
  0.37500000000000000       0.40625000000000000        0.0000000000000000     
  0.40625000000000000       0.40625000000000000        0.0000000000000000     
  0.43750000000000000       0.40625000000000000        0.0000000000000000     
  0.46875000000000000       0.40625000000000000        0.0000000000000000     
  0.50000000000000000       0.40625000000000000        0.0000000000000000     
  0.37500000000000000       0.43750000000000000        0.0000000000000000     
  0.40625000000000000       0.43750000000000000        0.0000000000000000     
  0.43750000000000000       0.43750000000000000        0.0000000000000000     
  0.46875000000000000       0.43750000000000000        0.0000000000000000     
  0.50000000000000000       0.43750000000000000        0.0000000000000000     
  0.37500000000000000       0.46875000000000000        0.0000000000000000     
  0.40625000000000000       0.46875000000000000        0.0000000000000000     
  0.43750000000000000       0.46875000000000000        0.0000000000000000     
  0.46875000000000000       0.46875000000000000        0.0000000000000000     
  0.50000000000000000       0.46875000000000000        0.0000000000000000     
  0.37500000000000000       0.50000000000000000        0.0000000000000000     
  0.40625000000000000       0.50000000000000000        0.0000000000000000     
  0.43750000000000000       0.50000000000000000        0.0000000000000000     
  0.46875000000000000       0.50000000000000000        0.0000000000000000     
  0.50000000000000000       0.50000000000000000        0.0000000000000000     
  0.50000000000000000       0.37500000000000000        0.0000000000000000     
  0.53125000000000000       0.37500000000000000        0.0000000000000000     
  0.56250000000000000       0.37500000000000000        0.0000000000000000     
  0.59375000000000000       0.37500000000000000        0.0000000000000000     
  0.62500000000000000       0.37500000000000000        0.0000000000000000     
  0.50000000000000000       0.40625000000000000        0.0000000000000000     
  0.53125000000000000       0.40625000000000000        0.0000000000000000     
  0.56250000000000000       0.40625000000000000        0.0000000000000000     
  0.59375000000000000       0.40625000000000000        0.0000000000000000     
  0.62500000000000000       0.40625000000000000        0.0000000000000000     
  0.50000000000000000       0.43750000000000000        0.0000000000000000     
  0.53125000000000000       0.43750000000000000        0.0000000000000000     
  0.56250000000000000       0.43750000000000000        0.0000000000000000     
  0.59375000000000000       0.43750000000000000        0.0000000000000000     
  0.62500000000000000       0.43750000000000000        0.0000000000000000     
  0.50000000000000000       0.46875000000000000        0.0000000000000000     
  0.53125000000000000       0.46875000000000000        0.0000000000000000     
  0.56250000000000000       0.46875000000000000        0.0000000000000000     
  0.59375000000000000       0.46875000000000000        0.0000000000000000     
  0.62500000000000000       0.46875000000000000        0.0000000000000000     
  0.50000000000000000       0.50000000000000000        0.0000000000000000     
  0.53125000000000000       0.50000000000000000        0.0000000000000000     
  0.56250000000000000       0.50000000000000000        0.0000000000000000     
  0.59375000000000000       0.50000000000000000        0.0000000000000000     
  0.62500000000000000       0.50000000000000000        0.0000000000000000     
  0.62500000000000000       0.37500000000000000        0.0000000000000000     
  0.65625000000000000       0.37500000000000000        0.0000000000000000     
  0.68750000000000000       0.37500000000000000        0.0000000000000000     
  0.71875000000000000       0.37500000000000000        0.0000000000000000     
  0.75000000000000000       0.37500000000000000        0.0000000000000000     
  0.62500000000000000       0.40625000000000000        0.0000000000000000     
  0.65625000000000000       0.40625000000000000        0.0000000000000000     
  0.68750000000000000       0.40625000000000000        0.0000000000000000     
  0.71875000000000000       0.40625000000000000        0.0000000000000000     
  0.75000000000000000       0.40625000000000000        0.0000000000000000     
  0.62500000000000000       0.43750000000000000        0.0000000000000000     
  0.65625000000000000       0.43750000000000000        0.0000000000000000     
  0.68750000000000000       0.43750000000000000        0.0000000000000000     
  0.71875000000000000       0.43750000000000000        0.0000000000000000     
  0.75000000000000000       0.43750000000000000        0.0000000000000000     
  0.62500000000000000       0.46875000000000000        0.0000000000000000     
  0.65625000000000000       0.46875000000000000        0.0000000000000000     
  0.68750000000000000       0.46875000000000000        0.0000000000000000     
  0.71875000000000000       0.46875000000000000        0.0000000000000000     
  0.75000000000000000       0.46875000000000000        0.0000000000000000     
  0.62500000000000000       0.50000000000000000        0.0000000000000000     
  0.65625000000000000       0.50000000000000000        0.0000000000000000     
  0.68750000000000000       0.50000000000000000        0.0000000000000000     
  0.71875000000000000       0.50000000000000000        0.0000000000000000     
  0.75000000000000000       0.50000000000000000        0.0000000000000000     
  0.75000000000000000       0.37500000000000000        0.0000000000000000     
  0.78125000000000000       0.37500000000000000        0.0000000000000000     
  0.81250000000000000       0.37500000000000000        0.0000000000000000     
  0.84375000000000000       0.37500000000000000        0.0000000000000000     
  0.87500000000000000       0.37500000000000000        0.0000000000000000     
  0.75000000000000000       0.40625000000000000        0.0000000000000000     
  0.78125000000000000       0.40625000000000000        0.0000000000000000     
  0.81250000000000000       0.40625000000000000        0.0000000000000000     
  0.84375000000000000       0.40625000000000000        0.0000000000000000     
  0.87500000000000000       0.40625000000000000        0.0000000000000000     
  0.75000000000000000       0.43750000000000000        0.0000000000000000     
  0.78125000000000000       0.43750000000000000        0.0000000000000000     
  0.81250000000000000       0.43750000000000000        0.0000000000000000     
  0.84375000000000000       0.43750000000000000        0.0000000000000000     
  0.87500000000000000       0.43750000000000000        0.0000000000000000     
  0.75000000000000000       0.46875000000000000        0.0000000000000000     
  0.78125000000000000       0.46875000000000000        0.0000000000000000     
  0.81250000000000000       0.46875000000000000        0.0000000000000000     
  0.84375000000000000       0.46875000000000000        0.0000000000000000     
  0.87500000000000000       0.46875000000000000        0.0000000000000000     
  0.75000000000000000       0.50000000000000000        0.0000000000000000     
  0.78125000000000000       0.50000000000000000        0.0000000000000000     
  0.81250000000000000       0.50000000000000000        0.0000000000000000     
  0.84375000000000000       0.50000000000000000        0.0000000000000000     
  0.87500000000000000       0.50000000000000000        0.0000000000000000     
  0.87500000000000000       0.37500000000000000        0.0000000000000000     
  0.90625000000000000       0.37500000000000000        0.0000000000000000     
  0.93750000000000000       0.37500000000000000        0.0000000000000000     
  0.96875000000000000       0.37500000000000000        0.0000000000000000     
   1.0000000000000000       0.37500000000000000        0.0000000000000000     
  0.87500000000000000       0.40625000000000000        0.0000000000000000     
  0.90625000000000000       0.40625000000000000        0.0000000000000000     
  0.93750000000000000       0.40625000000000000        0.0000000000000000     
  0.96875000000000000       0.40625000000000000        0.0000000000000000     
   1.0000000000000000       0.40625000000000000        0.0000000000000000     
  0.87500000000000000       0.43750000000000000        0.0000000000000000     
  0.90625000000000000       0.43750000000000000        0.0000000000000000     
  0.93750000000000000       0.43750000000000000        0.0000000000000000     
  0.96875000000000000       0.43750000000000000        0.0000000000000000     
   1.0000000000000000       0.43750000000000000        0.0000000000000000     
  0.87500000000000000       0.46875000000000000        0.0000000000000000     
  0.90625000000000000       0.46875000000000000        0.0000000000000000     
  0.93750000000000000       0.46875000000000000        0.0000000000000000     
  0.96875000000000000       0.46875000000000000        0.0000000000000000     
   1.0000000000000000       0.46875000000000000        0.0000000000000000     
  0.87500000000000000       0.50000000000000000        0.0000000000000000     
  0.90625000000000000       0.50000000000000000        0.0000000000000000     
  0.93750000000000000       0.50000000000000000        0.0000000000000000     
  0.96875000000000000       0.50000000000000000        0.0000000000000000     
   1.0000000000000000       0.50000000000000000        0.0000000000000000     
   0.0000000000000000       0.50000000000000000        0.0000000000000000     
   3.1250000000000000E-002  0.50000000000000000        0.0000000000000000     
   6.2500000000000000E-002  0.50000000000000000        0.0000000000000000     
   9.3750000000000000E-002  0.50000000000000000        0.0000000000000000     
  0.12500000000000000       0.50000000000000000        0.0000000000000000     
   0.0000000000000000       0.53125000000000000        0.0000000000000000     
   3.1250000000000000E-002  0.53125000000000000        0.0000000000000000     
   6.2500000000000000E-002  0.53125000000000000        0.0000000000000000     
   9.3750000000000000E-002  0.53125000000000000        0.0000000000000000     
  0.12500000000000000       0.53125000000000000        0.0000000000000000     
   0.0000000000000000       0.56250000000000000        0.0000000000000000     
   3.1250000000000000E-002  0.56250000000000000        0.0000000000000000     
   6.2500000000000000E-002  0.56250000000000000        0.0000000000000000     
   9.3750000000000000E-002  0.56250000000000000        0.0000000000000000     
  0.12500000000000000       0.56250000000000000        0.0000000000000000     
   0.0000000000000000       0.59375000000000000        0.0000000000000000     
   3.1250000000000000E-002  0.59375000000000000        0.0000000000000000     
   6.2500000000000000E-002  0.59375000000000000        0.0000000000000000     
   9.3750000000000000E-002  0.59375000000000000        0.0000000000000000     
  0.12500000000000000       0.59375000000000000        0.0000000000000000     
   0.0000000000000000       0.62500000000000000        0.0000000000000000     
   3.1250000000000000E-002  0.62500000000000000        0.0000000000000000     
   6.2500000000000000E-002  0.62500000000000000        0.0000000000000000     
   9.3750000000000000E-002  0.62500000000000000        0.0000000000000000     
  0.12500000000000000       0.62500000000000000        0.0000000000000000     
  0.12500000000000000       0.50000000000000000        0.0000000000000000     
  0.15625000000000000       0.50000000000000000        0.0000000000000000     
  0.18750000000000000       0.50000000000000000        0.0000000000000000     
  0.21875000000000000       0.50000000000000000        0.0000000000000000     
  0.25000000000000000       0.50000000000000000        0.0000000000000000     
  0.12500000000000000       0.53125000000000000        0.0000000000000000     
  0.15625000000000000       0.53125000000000000        0.0000000000000000     
  0.18750000000000000       0.53125000000000000        0.0000000000000000     
  0.21875000000000000       0.53125000000000000        0.0000000000000000     
  0.25000000000000000       0.53125000000000000        0.0000000000000000     
  0.12500000000000000       0.56250000000000000        0.0000000000000000     
  0.15625000000000000       0.56250000000000000        0.0000000000000000     
  0.18750000000000000       0.56250000000000000        0.0000000000000000     
  0.21875000000000000       0.56250000000000000        0.0000000000000000     
  0.25000000000000000       0.56250000000000000        0.0000000000000000     
  0.12500000000000000       0.59375000000000000        0.0000000000000000     
  0.15625000000000000       0.59375000000000000        0.0000000000000000     
  0.18750000000000000       0.59375000000000000        0.0000000000000000     
  0.21875000000000000       0.59375000000000000        0.0000000000000000     
  0.25000000000000000       0.59375000000000000        0.0000000000000000     
  0.12500000000000000       0.62500000000000000        0.0000000000000000     
  0.15625000000000000       0.62500000000000000        0.0000000000000000     
  0.18750000000000000       0.62500000000000000        0.0000000000000000     
  0.21875000000000000       0.62500000000000000        0.0000000000000000     
  0.25000000000000000       0.62500000000000000        0.0000000000000000     
  0.25000000000000000       0.50000000000000000        0.0000000000000000     
  0.28125000000000000       0.50000000000000000        0.0000000000000000     
  0.31250000000000000       0.50000000000000000        0.0000000000000000     
  0.34375000000000000       0.50000000000000000        0.0000000000000000     
  0.37500000000000000       0.50000000000000000        0.0000000000000000     
  0.25000000000000000       0.53125000000000000        0.0000000000000000     
  0.28125000000000000       0.53125000000000000        0.0000000000000000     
  0.31250000000000000       0.53125000000000000        0.0000000000000000     
  0.34375000000000000       0.53125000000000000        0.0000000000000000     
  0.37500000000000000       0.53125000000000000        0.0000000000000000     
  0.25000000000000000       0.56250000000000000        0.0000000000000000     
  0.28125000000000000       0.56250000000000000        0.0000000000000000     
  0.31250000000000000       0.56250000000000000        0.0000000000000000     
  0.34375000000000000       0.56250000000000000        0.0000000000000000     
  0.37500000000000000       0.56250000000000000        0.0000000000000000     
  0.25000000000000000       0.59375000000000000        0.0000000000000000     
  0.28125000000000000       0.59375000000000000        0.0000000000000000     
  0.31250000000000000       0.59375000000000000        0.0000000000000000     
  0.34375000000000000       0.59375000000000000        0.0000000000000000     
  0.37500000000000000       0.59375000000000000        0.0000000000000000     
  0.25000000000000000       0.62500000000000000        0.0000000000000000     
  0.28125000000000000       0.62500000000000000        0.0000000000000000     
  0.31250000000000000       0.62500000000000000        0.0000000000000000     
  0.34375000000000000       0.62500000000000000        0.0000000000000000     
  0.37500000000000000       0.62500000000000000        0.0000000000000000     
  0.37500000000000000       0.50000000000000000        0.0000000000000000     
  0.40625000000000000       0.50000000000000000        0.0000000000000000     
  0.43750000000000000       0.50000000000000000        0.0000000000000000     
  0.46875000000000000       0.50000000000000000        0.0000000000000000     
  0.50000000000000000       0.50000000000000000        0.0000000000000000     
  0.37500000000000000       0.53125000000000000        0.0000000000000000     
  0.40625000000000000       0.53125000000000000        0.0000000000000000     
  0.43750000000000000       0.53125000000000000        0.0000000000000000     
  0.46875000000000000       0.53125000000000000        0.0000000000000000     
  0.50000000000000000       0.53125000000000000        0.0000000000000000     
  0.37500000000000000       0.56250000000000000        0.0000000000000000     
  0.40625000000000000       0.56250000000000000        0.0000000000000000     
  0.43750000000000000       0.56250000000000000        0.0000000000000000     
  0.46875000000000000       0.56250000000000000        0.0000000000000000     
  0.50000000000000000       0.56250000000000000        0.0000000000000000     
  0.37500000000000000       0.59375000000000000        0.0000000000000000     
  0.40625000000000000       0.59375000000000000        0.0000000000000000     
  0.43750000000000000       0.59375000000000000        0.0000000000000000     
  0.46875000000000000       0.59375000000000000        0.0000000000000000     
  0.50000000000000000       0.59375000000000000        0.0000000000000000     
  0.37500000000000000       0.62500000000000000        0.0000000000000000     
  0.40625000000000000       0.62500000000000000        0.0000000000000000     
  0.43750000000000000       0.62500000000000000        0.0000000000000000     
  0.46875000000000000       0.62500000000000000        0.0000000000000000     
  0.50000000000000000       0.62500000000000000        0.0000000000000000     
  0.50000000000000000       0.50000000000000000        0.0000000000000000     
  0.53125000000000000       0.50000000000000000        0.0000000000000000     
  0.56250000000000000       0.50000000000000000        0.0000000000000000     
  0.59375000000000000       0.50000000000000000        0.0000000000000000     
  0.62500000000000000       0.50000000000000000        0.0000000000000000     
  0.50000000000000000       0.53125000000000000        0.0000000000000000     
  0.53125000000000000       0.53125000000000000        0.0000000000000000     
  0.56250000000000000       0.53125000000000000        0.0000000000000000     
  0.59375000000000000       0.53125000000000000        0.0000000000000000     
  0.62500000000000000       0.53125000000000000        0.0000000000000000     
  0.50000000000000000       0.56250000000000000        0.0000000000000000     
  0.53125000000000000       0.56250000000000000        0.0000000000000000     
  0.56250000000000000       0.56250000000000000        0.0000000000000000     
  0.59375000000000000       0.56250000000000000        0.0000000000000000     
  0.62500000000000000       0.56250000000000000        0.0000000000000000     
  0.50000000000000000       0.59375000000000000        0.0000000000000000     
  0.53125000000000000       0.59375000000000000        0.0000000000000000     
  0.56250000000000000       0.59375000000000000        0.0000000000000000     
  0.59375000000000000       0.59375000000000000        0.0000000000000000     
  0.62500000000000000       0.59375000000000000        0.0000000000000000     
  0.50000000000000000       0.62500000000000000        0.0000000000000000     
  0.53125000000000000       0.62500000000000000        0.0000000000000000     
  0.56250000000000000       0.62500000000000000        0.0000000000000000     
  0.59375000000000000       0.62500000000000000        0.0000000000000000     
  0.62500000000000000       0.62500000000000000        0.0000000000000000     
  0.62500000000000000       0.50000000000000000        0.0000000000000000     
  0.65625000000000000       0.50000000000000000        0.0000000000000000     
  0.68750000000000000       0.50000000000000000        0.0000000000000000     
  0.71875000000000000       0.50000000000000000        0.0000000000000000     
  0.75000000000000000       0.50000000000000000        0.0000000000000000     
  0.62500000000000000       0.53125000000000000        0.0000000000000000     
  0.65625000000000000       0.53125000000000000        0.0000000000000000     
  0.68750000000000000       0.53125000000000000        0.0000000000000000     
  0.71875000000000000       0.53125000000000000        0.0000000000000000     
  0.75000000000000000       0.53125000000000000        0.0000000000000000     
  0.62500000000000000       0.56250000000000000        0.0000000000000000     
  0.65625000000000000       0.56250000000000000        0.0000000000000000     
  0.68750000000000000       0.56250000000000000        0.0000000000000000     
  0.71875000000000000       0.56250000000000000        0.0000000000000000     
  0.75000000000000000       0.56250000000000000        0.0000000000000000     
  0.62500000000000000       0.59375000000000000        0.0000000000000000     
  0.65625000000000000       0.59375000000000000        0.0000000000000000     
  0.68750000000000000       0.59375000000000000        0.0000000000000000     
  0.71875000000000000       0.59375000000000000        0.0000000000000000     
  0.75000000000000000       0.59375000000000000        0.0000000000000000     
  0.62500000000000000       0.62500000000000000        0.0000000000000000     
  0.65625000000000000       0.62500000000000000        0.0000000000000000     
  0.68750000000000000       0.62500000000000000        0.0000000000000000     
  0.71875000000000000       0.62500000000000000        0.0000000000000000     
  0.75000000000000000       0.62500000000000000        0.0000000000000000     
  0.75000000000000000       0.50000000000000000        0.0000000000000000     
  0.78125000000000000       0.50000000000000000        0.0000000000000000     
  0.81250000000000000       0.50000000000000000        0.0000000000000000     
  0.84375000000000000       0.50000000000000000        0.0000000000000000     
  0.87500000000000000       0.50000000000000000        0.0000000000000000     
  0.75000000000000000       0.53125000000000000        0.0000000000000000     
  0.78125000000000000       0.53125000000000000        0.0000000000000000     
  0.81250000000000000       0.53125000000000000        0.0000000000000000     
  0.84375000000000000       0.53125000000000000        0.0000000000000000     
  0.87500000000000000       0.53125000000000000        0.0000000000000000     
  0.75000000000000000       0.56250000000000000        0.0000000000000000     
  0.78125000000000000       0.56250000000000000        0.0000000000000000     
  0.81250000000000000       0.56250000000000000        0.0000000000000000     
  0.84375000000000000       0.56250000000000000        0.0000000000000000     
  0.87500000000000000       0.56250000000000000        0.0000000000000000     
  0.75000000000000000       0.59375000000000000        0.0000000000000000     
  0.78125000000000000       0.59375000000000000        0.0000000000000000     
  0.81250000000000000       0.59375000000000000        0.0000000000000000     
  0.84375000000000000       0.59375000000000000        0.0000000000000000     
  0.87500000000000000       0.59375000000000000        0.0000000000000000     
  0.75000000000000000       0.62500000000000000        0.0000000000000000     
  0.78125000000000000       0.62500000000000000        0.0000000000000000     
  0.81250000000000000       0.62500000000000000        0.0000000000000000     
  0.84375000000000000       0.62500000000000000        0.0000000000000000     
  0.87500000000000000       0.62500000000000000        0.0000000000000000     
  0.87500000000000000       0.50000000000000000        0.0000000000000000     
  0.90625000000000000       0.50000000000000000        0.0000000000000000     
  0.93750000000000000       0.50000000000000000        0.0000000000000000     
  0.96875000000000000       0.50000000000000000        0.0000000000000000     
   1.0000000000000000       0.50000000000000000        0.0000000000000000     
  0.87500000000000000       0.53125000000000000        0.0000000000000000     
  0.90625000000000000       0.53125000000000000        0.0000000000000000     
  0.93750000000000000       0.53125000000000000        0.0000000000000000     
  0.96875000000000000       0.53125000000000000        0.0000000000000000     
   1.0000000000000000       0.53125000000000000        0.0000000000000000     
  0.87500000000000000       0.56250000000000000        0.0000000000000000     
  0.90625000000000000       0.56250000000000000        0.0000000000000000     
  0.93750000000000000       0.56250000000000000        0.0000000000000000     
  0.96875000000000000       0.56250000000000000        0.0000000000000000     
   1.0000000000000000       0.56250000000000000        0.0000000000000000     
  0.87500000000000000       0.59375000000000000        0.0000000000000000     
  0.90625000000000000       0.59375000000000000        0.0000000000000000     
  0.93750000000000000       0.59375000000000000        0.0000000000000000     
  0.96875000000000000       0.59375000000000000        0.0000000000000000     
   1.0000000000000000       0.59375000000000000        0.0000000000000000     
  0.87500000000000000       0.62500000000000000        0.0000000000000000     
  0.90625000000000000       0.62500000000000000        0.0000000000000000     
  0.93750000000000000       0.62500000000000000        0.0000000000000000     
  0.96875000000000000       0.62500000000000000        0.0000000000000000     
   1.0000000000000000       0.62500000000000000        0.0000000000000000     
   0.0000000000000000       0.62500000000000000        0.0000000000000000     
   3.1250000000000000E-002  0.62500000000000000        0.0000000000000000     
   6.2500000000000000E-002  0.62500000000000000        0.0000000000000000     
   9.3750000000000000E-002  0.62500000000000000        0.0000000000000000     
  0.12500000000000000       0.62500000000000000        0.0000000000000000     
   0.0000000000000000       0.65625000000000000        0.0000000000000000     
   3.1250000000000000E-002  0.65625000000000000        0.0000000000000000     
   6.2500000000000000E-002  0.65625000000000000        0.0000000000000000     
   9.3750000000000000E-002  0.65625000000000000        0.0000000000000000     
  0.12500000000000000       0.65625000000000000        0.0000000000000000     
   0.0000000000000000       0.68750000000000000        0.0000000000000000     
   3.1250000000000000E-002  0.68750000000000000        0.0000000000000000     
   6.2500000000000000E-002  0.68750000000000000        0.0000000000000000     
   9.3750000000000000E-002  0.68750000000000000        0.0000000000000000     
  0.12500000000000000       0.68750000000000000        0.0000000000000000     
   0.0000000000000000       0.71875000000000000        0.0000000000000000     
   3.1250000000000000E-002  0.71875000000000000        0.0000000000000000     
   6.2500000000000000E-002  0.71875000000000000        0.0000000000000000     
   9.3750000000000000E-002  0.71875000000000000        0.0000000000000000     
  0.12500000000000000       0.71875000000000000        0.0000000000000000     
   0.0000000000000000       0.75000000000000000        0.0000000000000000     
   3.1250000000000000E-002  0.75000000000000000        0.0000000000000000     
   6.2500000000000000E-002  0.75000000000000000        0.0000000000000000     
   9.3750000000000000E-002  0.75000000000000000        0.0000000000000000     
  0.12500000000000000       0.75000000000000000        0.0000000000000000     
  0.12500000000000000       0.62500000000000000        0.0000000000000000     
  0.15625000000000000       0.62500000000000000        0.0000000000000000     
  0.18750000000000000       0.62500000000000000        0.0000000000000000     
  0.21875000000000000       0.62500000000000000        0.0000000000000000     
  0.25000000000000000       0.62500000000000000        0.0000000000000000     
  0.12500000000000000       0.65625000000000000        0.0000000000000000     
  0.15625000000000000       0.65625000000000000        0.0000000000000000     
  0.18750000000000000       0.65625000000000000        0.0000000000000000     
  0.21875000000000000       0.65625000000000000        0.0000000000000000     
  0.25000000000000000       0.65625000000000000        0.0000000000000000     
  0.12500000000000000       0.68750000000000000        0.0000000000000000     
  0.15625000000000000       0.68750000000000000        0.0000000000000000     
  0.18750000000000000       0.68750000000000000        0.0000000000000000     
  0.21875000000000000       0.68750000000000000        0.0000000000000000     
  0.25000000000000000       0.68750000000000000        0.0000000000000000     
  0.12500000000000000       0.71875000000000000        0.0000000000000000     
  0.15625000000000000       0.71875000000000000        0.0000000000000000     
  0.18750000000000000       0.71875000000000000        0.0000000000000000     
  0.21875000000000000       0.71875000000000000        0.0000000000000000     
  0.25000000000000000       0.71875000000000000        0.0000000000000000     
  0.12500000000000000       0.75000000000000000        0.0000000000000000     
  0.15625000000000000       0.75000000000000000        0.0000000000000000     
  0.18750000000000000       0.75000000000000000        0.0000000000000000     
  0.21875000000000000       0.75000000000000000        0.0000000000000000     
  0.25000000000000000       0.75000000000000000        0.0000000000000000     
  0.25000000000000000       0.62500000000000000        0.0000000000000000     
  0.28125000000000000       0.62500000000000000        0.0000000000000000     
  0.31250000000000000       0.62500000000000000        0.0000000000000000     
  0.34375000000000000       0.62500000000000000        0.0000000000000000     
  0.37500000000000000       0.62500000000000000        0.0000000000000000     
  0.25000000000000000       0.65625000000000000        0.0000000000000000     
  0.28125000000000000       0.65625000000000000        0.0000000000000000     
  0.31250000000000000       0.65625000000000000        0.0000000000000000     
  0.34375000000000000       0.65625000000000000        0.0000000000000000     
  0.37500000000000000       0.65625000000000000        0.0000000000000000     
  0.25000000000000000       0.68750000000000000        0.0000000000000000     
  0.28125000000000000       0.68750000000000000        0.0000000000000000     
  0.31250000000000000       0.68750000000000000        0.0000000000000000     
  0.34375000000000000       0.68750000000000000        0.0000000000000000     
  0.37500000000000000       0.68750000000000000        0.0000000000000000     
  0.25000000000000000       0.71875000000000000        0.0000000000000000     
  0.28125000000000000       0.71875000000000000        0.0000000000000000     
  0.31250000000000000       0.71875000000000000        0.0000000000000000     
  0.34375000000000000       0.71875000000000000        0.0000000000000000     
  0.37500000000000000       0.71875000000000000        0.0000000000000000     
  0.25000000000000000       0.75000000000000000        0.0000000000000000     
  0.28125000000000000       0.75000000000000000        0.0000000000000000     
  0.31250000000000000       0.75000000000000000        0.0000000000000000     
  0.34375000000000000       0.75000000000000000        0.0000000000000000     
  0.37500000000000000       0.75000000000000000        0.0000000000000000     
  0.37500000000000000       0.62500000000000000        0.0000000000000000     
  0.40625000000000000       0.62500000000000000        0.0000000000000000     
  0.43750000000000000       0.62500000000000000        0.0000000000000000     
  0.46875000000000000       0.62500000000000000        0.0000000000000000     
  0.50000000000000000       0.62500000000000000        0.0000000000000000     
  0.37500000000000000       0.65625000000000000        0.0000000000000000     
  0.40625000000000000       0.65625000000000000        0.0000000000000000     
  0.43750000000000000       0.65625000000000000        0.0000000000000000     
  0.46875000000000000       0.65625000000000000        0.0000000000000000     
  0.50000000000000000       0.65625000000000000        0.0000000000000000     
  0.37500000000000000       0.68750000000000000        0.0000000000000000     
  0.40625000000000000       0.68750000000000000        0.0000000000000000     
  0.43750000000000000       0.68750000000000000        0.0000000000000000     
  0.46875000000000000       0.68750000000000000        0.0000000000000000     
  0.50000000000000000       0.68750000000000000        0.0000000000000000     
  0.37500000000000000       0.71875000000000000        0.0000000000000000     
  0.40625000000000000       0.71875000000000000        0.0000000000000000     
  0.43750000000000000       0.71875000000000000        0.0000000000000000     
  0.46875000000000000       0.71875000000000000        0.0000000000000000     
  0.50000000000000000       0.71875000000000000        0.0000000000000000     
  0.37500000000000000       0.75000000000000000        0.0000000000000000     
  0.40625000000000000       0.75000000000000000        0.0000000000000000     
  0.43750000000000000       0.75000000000000000        0.0000000000000000     
  0.46875000000000000       0.75000000000000000        0.0000000000000000     
  0.50000000000000000       0.75000000000000000        0.0000000000000000     
  0.50000000000000000       0.62500000000000000        0.0000000000000000     
  0.53125000000000000       0.62500000000000000        0.0000000000000000     
  0.56250000000000000       0.62500000000000000        0.0000000000000000     
  0.59375000000000000       0.62500000000000000        0.0000000000000000     
  0.62500000000000000       0.62500000000000000        0.0000000000000000     
  0.50000000000000000       0.65625000000000000        0.0000000000000000     
  0.53125000000000000       0.65625000000000000        0.0000000000000000     
  0.56250000000000000       0.65625000000000000        0.0000000000000000     
  0.59375000000000000       0.65625000000000000        0.0000000000000000     
  0.62500000000000000       0.65625000000000000        0.0000000000000000     
  0.50000000000000000       0.68750000000000000        0.0000000000000000     
  0.53125000000000000       0.68750000000000000        0.0000000000000000     
  0.56250000000000000       0.68750000000000000        0.0000000000000000     
  0.59375000000000000       0.68750000000000000        0.0000000000000000     
  0.62500000000000000       0.68750000000000000        0.0000000000000000     
  0.50000000000000000       0.71875000000000000        0.0000000000000000     
  0.53125000000000000       0.71875000000000000        0.0000000000000000     
  0.56250000000000000       0.71875000000000000        0.0000000000000000     
  0.59375000000000000       0.71875000000000000        0.0000000000000000     
  0.62500000000000000       0.71875000000000000        0.0000000000000000     
  0.50000000000000000       0.75000000000000000        0.0000000000000000     
  0.53125000000000000       0.75000000000000000        0.0000000000000000     
  0.56250000000000000       0.75000000000000000        0.0000000000000000     
  0.59375000000000000       0.75000000000000000        0.0000000000000000     
  0.62500000000000000       0.75000000000000000        0.0000000000000000     
  0.62500000000000000       0.62500000000000000        0.0000000000000000     
  0.65625000000000000       0.62500000000000000        0.0000000000000000     
  0.68750000000000000       0.62500000000000000        0.0000000000000000     
  0.71875000000000000       0.62500000000000000        0.0000000000000000     
  0.75000000000000000       0.62500000000000000        0.0000000000000000     
  0.62500000000000000       0.65625000000000000        0.0000000000000000     
  0.65625000000000000       0.65625000000000000        0.0000000000000000     
  0.68750000000000000       0.65625000000000000        0.0000000000000000     
  0.71875000000000000       0.65625000000000000        0.0000000000000000     
  0.75000000000000000       0.65625000000000000        0.0000000000000000     
  0.62500000000000000       0.68750000000000000        0.0000000000000000     
  0.65625000000000000       0.68750000000000000        0.0000000000000000     
  0.68750000000000000       0.68750000000000000        0.0000000000000000     
  0.71875000000000000       0.68750000000000000        0.0000000000000000     
  0.75000000000000000       0.68750000000000000        0.0000000000000000     
  0.62500000000000000       0.71875000000000000        0.0000000000000000     
  0.65625000000000000       0.71875000000000000        0.0000000000000000     
  0.68750000000000000       0.71875000000000000        0.0000000000000000     
  0.71875000000000000       0.71875000000000000        0.0000000000000000     
  0.75000000000000000       0.71875000000000000        0.0000000000000000     
  0.62500000000000000       0.75000000000000000        0.0000000000000000     
  0.65625000000000000       0.75000000000000000        0.0000000000000000     
  0.68750000000000000       0.75000000000000000        0.0000000000000000     
  0.71875000000000000       0.75000000000000000        0.0000000000000000     
  0.75000000000000000       0.75000000000000000        0.0000000000000000     
  0.75000000000000000       0.62500000000000000        0.0000000000000000     
  0.78125000000000000       0.62500000000000000        0.0000000000000000     
  0.81250000000000000       0.62500000000000000        0.0000000000000000     
  0.84375000000000000       0.62500000000000000        0.0000000000000000     
  0.87500000000000000       0.62500000000000000        0.0000000000000000     
  0.75000000000000000       0.65625000000000000        0.0000000000000000     
  0.78125000000000000       0.65625000000000000        0.0000000000000000     
  0.81250000000000000       0.65625000000000000        0.0000000000000000     
  0.84375000000000000       0.65625000000000000        0.0000000000000000     
  0.87500000000000000       0.65625000000000000        0.0000000000000000     
  0.75000000000000000       0.68750000000000000        0.0000000000000000     
  0.78125000000000000       0.68750000000000000        0.0000000000000000     
  0.81250000000000000       0.68750000000000000        0.0000000000000000     
  0.84375000000000000       0.68750000000000000        0.0000000000000000     
  0.87500000000000000       0.68750000000000000        0.0000000000000000     
  0.75000000000000000       0.71875000000000000        0.0000000000000000     
  0.78125000000000000       0.71875000000000000        0.0000000000000000     
  0.81250000000000000       0.71875000000000000        0.0000000000000000     
  0.84375000000000000       0.71875000000000000        0.0000000000000000     
  0.87500000000000000       0.71875000000000000        0.0000000000000000     
  0.75000000000000000       0.75000000000000000        0.0000000000000000     
  0.78125000000000000       0.75000000000000000        0.0000000000000000     
  0.81250000000000000       0.75000000000000000        0.0000000000000000     
  0.84375000000000000       0.75000000000000000        0.0000000000000000     
  0.87500000000000000       0.75000000000000000        0.0000000000000000     
  0.87500000000000000       0.62500000000000000        0.0000000000000000     
  0.90625000000000000       0.62500000000000000        0.0000000000000000     
  0.93750000000000000       0.62500000000000000        0.0000000000000000     
  0.96875000000000000       0.62500000000000000        0.0000000000000000     
   1.0000000000000000       0.62500000000000000        0.0000000000000000     
  0.87500000000000000       0.65625000000000000        0.0000000000000000     
  0.90625000000000000       0.65625000000000000        0.0000000000000000     
  0.93750000000000000       0.65625000000000000        0.0000000000000000     
  0.96875000000000000       0.65625000000000000        0.0000000000000000     
   1.0000000000000000       0.65625000000000000        0.0000000000000000     
  0.87500000000000000       0.68750000000000000        0.0000000000000000     
  0.90625000000000000       0.68750000000000000        0.0000000000000000     
  0.93750000000000000       0.68750000000000000        0.0000000000000000     
  0.96875000000000000       0.68750000000000000        0.0000000000000000     
   1.0000000000000000       0.68750000000000000        0.0000000000000000     
  0.87500000000000000       0.71875000000000000        0.0000000000000000     
  0.90625000000000000       0.71875000000000000        0.0000000000000000     
  0.93750000000000000       0.71875000000000000        0.0000000000000000     
  0.96875000000000000       0.71875000000000000        0.0000000000000000     
   1.0000000000000000       0.71875000000000000        0.0000000000000000     
  0.87500000000000000       0.75000000000000000        0.0000000000000000     
  0.90625000000000000       0.75000000000000000        0.0000000000000000     
  0.93750000000000000       0.75000000000000000        0.0000000000000000     
  0.96875000000000000       0.75000000000000000        0.0000000000000000     
   1.0000000000000000       0.75000000000000000        0.0000000000000000     
   0.0000000000000000       0.75000000000000000        0.0000000000000000     
   3.1250000000000000E-002  0.75000000000000000        0.0000000000000000     
   6.2500000000000000E-002  0.75000000000000000        0.0000000000000000     
   9.3750000000000000E-002  0.75000000000000000        0.0000000000000000     
  0.12500000000000000       0.75000000000000000        0.0000000000000000     
   0.0000000000000000       0.78125000000000000        0.0000000000000000     
   3.1250000000000000E-002  0.78125000000000000        0.0000000000000000     
   6.2500000000000000E-002  0.78125000000000000        0.0000000000000000     
   9.3750000000000000E-002  0.78125000000000000        0.0000000000000000     
  0.12500000000000000       0.78125000000000000        0.0000000000000000     
   0.0000000000000000       0.81250000000000000        0.0000000000000000     
   3.1250000000000000E-002  0.81250000000000000        0.0000000000000000     
   6.2500000000000000E-002  0.81250000000000000        0.0000000000000000     
   9.3750000000000000E-002  0.81250000000000000        0.0000000000000000     
  0.12500000000000000       0.81250000000000000        0.0000000000000000     
   0.0000000000000000       0.84375000000000000        0.0000000000000000     
   3.1250000000000000E-002  0.84375000000000000        0.0000000000000000     
   6.2500000000000000E-002  0.84375000000000000        0.0000000000000000     
   9.3750000000000000E-002  0.84375000000000000        0.0000000000000000     
  0.12500000000000000       0.84375000000000000        0.0000000000000000     
   0.0000000000000000       0.87500000000000000        0.0000000000000000     
   3.1250000000000000E-002  0.87500000000000000        0.0000000000000000     
   6.2500000000000000E-002  0.87500000000000000        0.0000000000000000     
   9.3750000000000000E-002  0.87500000000000000        0.0000000000000000     
  0.12500000000000000       0.87500000000000000        0.0000000000000000     
  0.12500000000000000       0.75000000000000000        0.0000000000000000     
  0.15625000000000000       0.75000000000000000        0.0000000000000000     
  0.18750000000000000       0.75000000000000000        0.0000000000000000     
  0.21875000000000000       0.75000000000000000        0.0000000000000000     
  0.25000000000000000       0.75000000000000000        0.0000000000000000     
  0.12500000000000000       0.78125000000000000        0.0000000000000000     
  0.15625000000000000       0.78125000000000000        0.0000000000000000     
  0.18750000000000000       0.78125000000000000        0.0000000000000000     
  0.21875000000000000       0.78125000000000000        0.0000000000000000     
  0.25000000000000000       0.78125000000000000        0.0000000000000000     
  0.12500000000000000       0.81250000000000000        0.0000000000000000     
  0.15625000000000000       0.81250000000000000        0.0000000000000000     
  0.18750000000000000       0.81250000000000000        0.0000000000000000     
  0.21875000000000000       0.81250000000000000        0.0000000000000000     
  0.25000000000000000       0.81250000000000000        0.0000000000000000     
  0.12500000000000000       0.84375000000000000        0.0000000000000000     
  0.15625000000000000       0.84375000000000000        0.0000000000000000     
  0.18750000000000000       0.84375000000000000        0.0000000000000000     
  0.21875000000000000       0.84375000000000000        0.0000000000000000     
  0.25000000000000000       0.84375000000000000        0.0000000000000000     
  0.12500000000000000       0.87500000000000000        0.0000000000000000     
  0.15625000000000000       0.87500000000000000        0.0000000000000000     
  0.18750000000000000       0.87500000000000000        0.0000000000000000     
  0.21875000000000000       0.87500000000000000        0.0000000000000000     
  0.25000000000000000       0.87500000000000000        0.0000000000000000     
  0.25000000000000000       0.75000000000000000        0.0000000000000000     
  0.28125000000000000       0.75000000000000000        0.0000000000000000     
  0.31250000000000000       0.75000000000000000        0.0000000000000000     
  0.34375000000000000       0.75000000000000000        0.0000000000000000     
  0.37500000000000000       0.75000000000000000        0.0000000000000000     
  0.25000000000000000       0.78125000000000000        0.0000000000000000     
  0.28125000000000000       0.78125000000000000        0.0000000000000000     
  0.31250000000000000       0.78125000000000000        0.0000000000000000     
  0.34375000000000000       0.78125000000000000        0.0000000000000000     
  0.37500000000000000       0.78125000000000000        0.0000000000000000     
  0.25000000000000000       0.81250000000000000        0.0000000000000000     
  0.28125000000000000       0.81250000000000000        0.0000000000000000     
  0.31250000000000000       0.81250000000000000        0.0000000000000000     
  0.34375000000000000       0.81250000000000000        0.0000000000000000     
  0.37500000000000000       0.81250000000000000        0.0000000000000000     
  0.25000000000000000       0.84375000000000000        0.0000000000000000     
  0.28125000000000000       0.84375000000000000        0.0000000000000000     
  0.31250000000000000       0.84375000000000000        0.0000000000000000     
  0.34375000000000000       0.84375000000000000        0.0000000000000000     
  0.37500000000000000       0.84375000000000000        0.0000000000000000     
  0.25000000000000000       0.87500000000000000        0.0000000000000000     
  0.28125000000000000       0.87500000000000000        0.0000000000000000     
  0.31250000000000000       0.87500000000000000        0.0000000000000000     
  0.34375000000000000       0.87500000000000000        0.0000000000000000     
  0.37500000000000000       0.87500000000000000        0.0000000000000000     
  0.37500000000000000       0.75000000000000000        0.0000000000000000     
  0.40625000000000000       0.75000000000000000        0.0000000000000000     
  0.43750000000000000       0.75000000000000000        0.0000000000000000     
  0.46875000000000000       0.75000000000000000        0.0000000000000000     
  0.50000000000000000       0.75000000000000000        0.0000000000000000     
  0.37500000000000000       0.78125000000000000        0.0000000000000000     
  0.40625000000000000       0.78125000000000000        0.0000000000000000     
  0.43750000000000000       0.78125000000000000        0.0000000000000000     
  0.46875000000000000       0.78125000000000000        0.0000000000000000     
  0.50000000000000000       0.78125000000000000        0.0000000000000000     
  0.37500000000000000       0.81250000000000000        0.0000000000000000     
  0.40625000000000000       0.81250000000000000        0.0000000000000000     
  0.43750000000000000       0.81250000000000000        0.0000000000000000     
  0.46875000000000000       0.81250000000000000        0.0000000000000000     
  0.50000000000000000       0.81250000000000000        0.0000000000000000     
  0.37500000000000000       0.84375000000000000        0.0000000000000000     
  0.40625000000000000       0.84375000000000000        0.0000000000000000     
  0.43750000000000000       0.84375000000000000        0.0000000000000000     
  0.46875000000000000       0.84375000000000000        0.0000000000000000     
  0.50000000000000000       0.84375000000000000        0.0000000000000000     
  0.37500000000000000       0.87500000000000000        0.0000000000000000     
  0.40625000000000000       0.87500000000000000        0.0000000000000000     
  0.43750000000000000       0.87500000000000000        0.0000000000000000     
  0.46875000000000000       0.87500000000000000        0.0000000000000000     
  0.50000000000000000       0.87500000000000000        0.0000000000000000     
  0.50000000000000000       0.75000000000000000        0.0000000000000000     
  0.53125000000000000       0.75000000000000000        0.0000000000000000     
  0.56250000000000000       0.75000000000000000        0.0000000000000000     
  0.59375000000000000       0.75000000000000000        0.0000000000000000     
  0.62500000000000000       0.75000000000000000        0.0000000000000000     
  0.50000000000000000       0.78125000000000000        0.0000000000000000     
  0.53125000000000000       0.78125000000000000        0.0000000000000000     
  0.56250000000000000       0.78125000000000000        0.0000000000000000     
  0.59375000000000000       0.78125000000000000        0.0000000000000000     
  0.62500000000000000       0.78125000000000000        0.0000000000000000     
  0.50000000000000000       0.81250000000000000        0.0000000000000000     
  0.53125000000000000       0.81250000000000000        0.0000000000000000     
  0.56250000000000000       0.81250000000000000        0.0000000000000000     
  0.59375000000000000       0.81250000000000000        0.0000000000000000     
  0.62500000000000000       0.81250000000000000        0.0000000000000000     
  0.50000000000000000       0.84375000000000000        0.0000000000000000     
  0.53125000000000000       0.84375000000000000        0.0000000000000000     
  0.56250000000000000       0.84375000000000000        0.0000000000000000     
  0.59375000000000000       0.84375000000000000        0.0000000000000000     
  0.62500000000000000       0.84375000000000000        0.0000000000000000     
  0.50000000000000000       0.87500000000000000        0.0000000000000000     
  0.53125000000000000       0.87500000000000000        0.0000000000000000     
  0.56250000000000000       0.87500000000000000        0.0000000000000000     
  0.59375000000000000       0.87500000000000000        0.0000000000000000     
  0.62500000000000000       0.87500000000000000        0.0000000000000000     
  0.62500000000000000       0.75000000000000000        0.0000000000000000     
  0.65625000000000000       0.75000000000000000        0.0000000000000000     
  0.68750000000000000       0.75000000000000000        0.0000000000000000     
  0.71875000000000000       0.75000000000000000        0.0000000000000000     
  0.75000000000000000       0.75000000000000000        0.0000000000000000     
  0.62500000000000000       0.78125000000000000        0.0000000000000000     
  0.65625000000000000       0.78125000000000000        0.0000000000000000     
  0.68750000000000000       0.78125000000000000        0.0000000000000000     
  0.71875000000000000       0.78125000000000000        0.0000000000000000     
  0.75000000000000000       0.78125000000000000        0.0000000000000000     
  0.62500000000000000       0.81250000000000000        0.0000000000000000     
  0.65625000000000000       0.81250000000000000        0.0000000000000000     
  0.68750000000000000       0.81250000000000000        0.0000000000000000     
  0.71875000000000000       0.81250000000000000        0.0000000000000000     
  0.75000000000000000       0.81250000000000000        0.0000000000000000     
  0.62500000000000000       0.84375000000000000        0.0000000000000000     
  0.65625000000000000       0.84375000000000000        0.0000000000000000     
  0.68750000000000000       0.84375000000000000        0.0000000000000000     
  0.71875000000000000       0.84375000000000000        0.0000000000000000     
  0.75000000000000000       0.84375000000000000        0.0000000000000000     
  0.62500000000000000       0.87500000000000000        0.0000000000000000     
  0.65625000000000000       0.87500000000000000        0.0000000000000000     
  0.68750000000000000       0.87500000000000000        0.0000000000000000     
  0.71875000000000000       0.87500000000000000        0.0000000000000000     
  0.75000000000000000       0.87500000000000000        0.0000000000000000     
  0.75000000000000000       0.75000000000000000        0.0000000000000000     
  0.78125000000000000       0.75000000000000000        0.0000000000000000     
  0.81250000000000000       0.75000000000000000        0.0000000000000000     
  0.84375000000000000       0.75000000000000000        0.0000000000000000     
  0.87500000000000000       0.75000000000000000        0.0000000000000000     
  0.75000000000000000       0.78125000000000000        0.0000000000000000     
  0.78125000000000000       0.78125000000000000        0.0000000000000000     
  0.81250000000000000       0.78125000000000000        0.0000000000000000     
  0.84375000000000000       0.78125000000000000        0.0000000000000000     
  0.87500000000000000       0.78125000000000000        0.0000000000000000     
  0.75000000000000000       0.81250000000000000        0.0000000000000000     
  0.78125000000000000       0.81250000000000000        0.0000000000000000     
  0.81250000000000000       0.81250000000000000        0.0000000000000000     
  0.84375000000000000       0.81250000000000000        0.0000000000000000     
  0.87500000000000000       0.81250000000000000        0.0000000000000000     
  0.75000000000000000       0.84375000000000000        0.0000000000000000     
  0.78125000000000000       0.84375000000000000        0.0000000000000000     
  0.81250000000000000       0.84375000000000000        0.0000000000000000     
  0.84375000000000000       0.84375000000000000        0.0000000000000000     
  0.87500000000000000       0.84375000000000000        0.0000000000000000     
  0.75000000000000000       0.87500000000000000        0.0000000000000000     
  0.78125000000000000       0.87500000000000000        0.0000000000000000     
  0.81250000000000000       0.87500000000000000        0.0000000000000000     
  0.84375000000000000       0.87500000000000000        0.0000000000000000     
  0.87500000000000000       0.87500000000000000        0.0000000000000000     
  0.87500000000000000       0.75000000000000000        0.0000000000000000     
  0.90625000000000000       0.75000000000000000        0.0000000000000000     
  0.93750000000000000       0.75000000000000000        0.0000000000000000     
  0.96875000000000000       0.75000000000000000        0.0000000000000000     
   1.0000000000000000       0.75000000000000000        0.0000000000000000     
  0.87500000000000000       0.78125000000000000        0.0000000000000000     
  0.90625000000000000       0.78125000000000000        0.0000000000000000     
  0.93750000000000000       0.78125000000000000        0.0000000000000000     
  0.96875000000000000       0.78125000000000000        0.0000000000000000     
   1.0000000000000000       0.78125000000000000        0.0000000000000000     
  0.87500000000000000       0.81250000000000000        0.0000000000000000     
  0.90625000000000000       0.81250000000000000        0.0000000000000000     
  0.93750000000000000       0.81250000000000000        0.0000000000000000     
  0.96875000000000000       0.81250000000000000        0.0000000000000000     
   1.0000000000000000       0.81250000000000000        0.0000000000000000     
  0.87500000000000000       0.84375000000000000        0.0000000000000000     
  0.90625000000000000       0.84375000000000000        0.0000000000000000     
  0.93750000000000000       0.84375000000000000        0.0000000000000000     
  0.96875000000000000       0.84375000000000000        0.0000000000000000     
   1.0000000000000000       0.84375000000000000        0.0000000000000000     
  0.87500000000000000       0.87500000000000000        0.0000000000000000     
  0.90625000000000000       0.87500000000000000        0.0000000000000000     
  0.93750000000000000       0.87500000000000000        0.0000000000000000     
  0.96875000000000000       0.87500000000000000        0.0000000000000000     
   1.0000000000000000       0.87500000000000000        0.0000000000000000     
   0.0000000000000000       0.87500000000000000        0.0000000000000000     
   3.1250000000000000E-002  0.87500000000000000        0.0000000000000000     
   6.2500000000000000E-002  0.87500000000000000        0.0000000000000000     
   9.3750000000000000E-002  0.87500000000000000        0.0000000000000000     
  0.12500000000000000       0.87500000000000000        0.0000000000000000     
   0.0000000000000000       0.90625000000000000        0.0000000000000000     
   3.1250000000000000E-002  0.90625000000000000        0.0000000000000000     
   6.2500000000000000E-002  0.90625000000000000        0.0000000000000000     
   9.3750000000000000E-002  0.90625000000000000        0.0000000000000000     
  0.12500000000000000       0.90625000000000000        0.0000000000000000     
   0.0000000000000000       0.93750000000000000        0.0000000000000000     
   3.1250000000000000E-002  0.93750000000000000        0.0000000000000000     
   6.2500000000000000E-002  0.93750000000000000        0.0000000000000000     
   9.3750000000000000E-002  0.93750000000000000        0.0000000000000000     
  0.12500000000000000       0.93750000000000000        0.0000000000000000     
   0.0000000000000000       0.96875000000000000        0.0000000000000000     
   3.1250000000000000E-002  0.96875000000000000        0.0000000000000000     
   6.2500000000000000E-002  0.96875000000000000        0.0000000000000000     
   9.3750000000000000E-002  0.96875000000000000        0.0000000000000000     
  0.12500000000000000       0.96875000000000000        0.0000000000000000     
   0.0000000000000000        1.0000000000000000        0.0000000000000000     
   3.1250000000000000E-002   1.0000000000000000        0.0000000000000000     
   6.2500000000000000E-002   1.0000000000000000        0.0000000000000000     
   9.3750000000000000E-002   1.0000000000000000        0.0000000000000000     
  0.12500000000000000        1.0000000000000000        0.0000000000000000     
  0.12500000000000000       0.87500000000000000        0.0000000000000000     
  0.15625000000000000       0.87500000000000000        0.0000000000000000     
  0.18750000000000000       0.87500000000000000        0.0000000000000000     
  0.21875000000000000       0.87500000000000000        0.0000000000000000     
  0.25000000000000000       0.87500000000000000        0.0000000000000000     
  0.12500000000000000       0.90625000000000000        0.0000000000000000     
  0.15625000000000000       0.90625000000000000        0.0000000000000000     
  0.18750000000000000       0.90625000000000000        0.0000000000000000     
  0.21875000000000000       0.90625000000000000        0.0000000000000000     
  0.25000000000000000       0.90625000000000000        0.0000000000000000     
  0.12500000000000000       0.93750000000000000        0.0000000000000000     
  0.15625000000000000       0.93750000000000000        0.0000000000000000     
  0.18750000000000000       0.93750000000000000        0.0000000000000000     
  0.21875000000000000       0.93750000000000000        0.0000000000000000     
  0.25000000000000000       0.93750000000000000        0.0000000000000000     
  0.12500000000000000       0.96875000000000000        0.0000000000000000     
  0.15625000000000000       0.96875000000000000        0.0000000000000000     
  0.18750000000000000       0.96875000000000000        0.0000000000000000     
  0.21875000000000000       0.96875000000000000        0.0000000000000000     
  0.25000000000000000       0.96875000000000000        0.0000000000000000     
  0.12500000000000000        1.0000000000000000        0.0000000000000000     
  0.15625000000000000        1.0000000000000000        0.0000000000000000     
  0.18750000000000000        1.0000000000000000        0.0000000000000000     
  0.21875000000000000        1.0000000000000000        0.0000000000000000     
  0.25000000000000000        1.0000000000000000        0.0000000000000000     
  0.25000000000000000       0.87500000000000000        0.0000000000000000     
  0.28125000000000000       0.87500000000000000        0.0000000000000000     
  0.31250000000000000       0.87500000000000000        0.0000000000000000     
  0.34375000000000000       0.87500000000000000        0.0000000000000000     
  0.37500000000000000       0.87500000000000000        0.0000000000000000     
  0.25000000000000000       0.90625000000000000        0.0000000000000000     
  0.28125000000000000       0.90625000000000000        0.0000000000000000     
  0.31250000000000000       0.90625000000000000        0.0000000000000000     
  0.34375000000000000       0.90625000000000000        0.0000000000000000     
  0.37500000000000000       0.90625000000000000        0.0000000000000000     
  0.25000000000000000       0.93750000000000000        0.0000000000000000     
  0.28125000000000000       0.93750000000000000        0.0000000000000000     
  0.31250000000000000       0.93750000000000000        0.0000000000000000     
  0.34375000000000000       0.93750000000000000        0.0000000000000000     
  0.37500000000000000       0.93750000000000000        0.0000000000000000     
  0.25000000000000000       0.96875000000000000        0.0000000000000000     
  0.28125000000000000       0.96875000000000000        0.0000000000000000     
  0.31250000000000000       0.96875000000000000        0.0000000000000000     
  0.34375000000000000       0.96875000000000000        0.0000000000000000     
  0.37500000000000000       0.96875000000000000        0.0000000000000000     
  0.25000000000000000        1.0000000000000000        0.0000000000000000     
  0.28125000000000000        1.0000000000000000        0.0000000000000000     
  0.31250000000000000        1.0000000000000000        0.0000000000000000     
  0.34375000000000000        1.0000000000000000        0.0000000000000000     
  0.37500000000000000        1.0000000000000000        0.0000000000000000     
  0.37500000000000000       0.87500000000000000        0.0000000000000000     
  0.40625000000000000       0.87500000000000000        0.0000000000000000     
  0.43750000000000000       0.87500000000000000        0.0000000000000000     
  0.46875000000000000       0.87500000000000000        0.0000000000000000     
  0.50000000000000000       0.87500000000000000        0.0000000000000000     
  0.37500000000000000       0.90625000000000000        0.0000000000000000     
  0.40625000000000000       0.90625000000000000        0.0000000000000000     
  0.43750000000000000       0.90625000000000000        0.0000000000000000     
  0.46875000000000000       0.90625000000000000        0.0000000000000000     
  0.50000000000000000       0.90625000000000000        0.0000000000000000     
  0.37500000000000000       0.93750000000000000        0.0000000000000000     
  0.40625000000000000       0.93750000000000000        0.0000000000000000     
  0.43750000000000000       0.93750000000000000        0.0000000000000000     
  0.46875000000000000       0.93750000000000000        0.0000000000000000     
  0.50000000000000000       0.93750000000000000        0.0000000000000000     
  0.37500000000000000       0.96875000000000000        0.0000000000000000     
  0.40625000000000000       0.96875000000000000        0.0000000000000000     
  0.43750000000000000       0.96875000000000000        0.0000000000000000     
  0.46875000000000000       0.96875000000000000        0.0000000000000000     
  0.50000000000000000       0.96875000000000000        0.0000000000000000     
  0.37500000000000000        1.0000000000000000        0.0000000000000000     
  0.40625000000000000        1.0000000000000000        0.0000000000000000     
  0.43750000000000000        1.0000000000000000        0.0000000000000000     
  0.46875000000000000        1.0000000000000000        0.0000000000000000     
  0.50000000000000000        1.0000000000000000        0.0000000000000000     
  0.50000000000000000       0.87500000000000000        0.0000000000000000     
  0.53125000000000000       0.87500000000000000        0.0000000000000000     
  0.56250000000000000       0.87500000000000000        0.0000000000000000     
  0.59375000000000000       0.87500000000000000        0.0000000000000000     
  0.62500000000000000       0.87500000000000000        0.0000000000000000     
  0.50000000000000000       0.90625000000000000        0.0000000000000000     
  0.53125000000000000       0.90625000000000000        0.0000000000000000     
  0.56250000000000000       0.90625000000000000        0.0000000000000000     
  0.59375000000000000       0.90625000000000000        0.0000000000000000     
  0.62500000000000000       0.90625000000000000        0.0000000000000000     
  0.50000000000000000       0.93750000000000000        0.0000000000000000     
  0.53125000000000000       0.93750000000000000        0.0000000000000000     
  0.56250000000000000       0.93750000000000000        0.0000000000000000     
  0.59375000000000000       0.93750000000000000        0.0000000000000000     
  0.62500000000000000       0.93750000000000000        0.0000000000000000     
  0.50000000000000000       0.96875000000000000        0.0000000000000000     
  0.53125000000000000       0.96875000000000000        0.0000000000000000     
  0.56250000000000000       0.96875000000000000        0.0000000000000000     
  0.59375000000000000       0.96875000000000000        0.0000000000000000     
  0.62500000000000000       0.96875000000000000        0.0000000000000000     
  0.50000000000000000        1.0000000000000000        0.0000000000000000     
  0.53125000000000000        1.0000000000000000        0.0000000000000000     
  0.56250000000000000        1.0000000000000000        0.0000000000000000     
  0.59375000000000000        1.0000000000000000        0.0000000000000000     
  0.62500000000000000        1.0000000000000000        0.0000000000000000     
  0.62500000000000000       0.87500000000000000        0.0000000000000000     
  0.65625000000000000       0.87500000000000000        0.0000000000000000     
  0.68750000000000000       0.87500000000000000        0.0000000000000000     
  0.71875000000000000       0.87500000000000000        0.0000000000000000     
  0.75000000000000000       0.87500000000000000        0.0000000000000000     
  0.62500000000000000       0.90625000000000000        0.0000000000000000     
  0.65625000000000000       0.90625000000000000        0.0000000000000000     
  0.68750000000000000       0.90625000000000000        0.0000000000000000     
  0.71875000000000000       0.90625000000000000        0.0000000000000000     
  0.75000000000000000       0.90625000000000000        0.0000000000000000     
  0.62500000000000000       0.93750000000000000        0.0000000000000000     
  0.65625000000000000       0.93750000000000000        0.0000000000000000     
  0.68750000000000000       0.93750000000000000        0.0000000000000000     
  0.71875000000000000       0.93750000000000000        0.0000000000000000     
  0.75000000000000000       0.93750000000000000        0.0000000000000000     
  0.62500000000000000       0.96875000000000000        0.0000000000000000     
  0.65625000000000000       0.96875000000000000        0.0000000000000000     
  0.68750000000000000       0.96875000000000000        0.0000000000000000     
  0.71875000000000000       0.96875000000000000        0.0000000000000000     
  0.75000000000000000       0.96875000000000000        0.0000000000000000     
  0.62500000000000000        1.0000000000000000        0.0000000000000000     
  0.65625000000000000        1.0000000000000000        0.0000000000000000     
  0.68750000000000000        1.0000000000000000        0.0000000000000000     
  0.71875000000000000        1.0000000000000000        0.0000000000000000     
  0.75000000000000000        1.0000000000000000        0.0000000000000000     
  0.75000000000000000       0.87500000000000000        0.0000000000000000     
  0.78125000000000000       0.87500000000000000        0.0000000000000000     
  0.81250000000000000       0.87500000000000000        0.0000000000000000     
  0.84375000000000000       0.87500000000000000        0.0000000000000000     
  0.87500000000000000       0.87500000000000000        0.0000000000000000     
  0.75000000000000000       0.90625000000000000        0.0000000000000000     
  0.78125000000000000       0.90625000000000000        0.0000000000000000     
  0.81250000000000000       0.90625000000000000        0.0000000000000000     
  0.84375000000000000       0.90625000000000000        0.0000000000000000     
  0.87500000000000000       0.90625000000000000        0.0000000000000000     
  0.75000000000000000       0.93750000000000000        0.0000000000000000     
  0.78125000000000000       0.93750000000000000        0.0000000000000000     
  0.81250000000000000       0.93750000000000000        0.0000000000000000     
  0.84375000000000000       0.93750000000000000        0.0000000000000000     
  0.87500000000000000       0.93750000000000000        0.0000000000000000     
  0.75000000000000000       0.96875000000000000        0.0000000000000000     
  0.78125000000000000       0.96875000000000000        0.0000000000000000     
  0.81250000000000000       0.96875000000000000        0.0000000000000000     
  0.84375000000000000       0.96875000000000000        0.0000000000000000     
  0.87500000000000000       0.96875000000000000        0.0000000000000000     
  0.75000000000000000        1.0000000000000000        0.0000000000000000     
  0.78125000000000000        1.0000000000000000        0.0000000000000000     
  0.81250000000000000        1.0000000000000000        0.0000000000000000     
  0.84375000000000000        1.0000000000000000        0.0000000000000000     
  0.87500000000000000        1.0000000000000000        0.0000000000000000     
  0.87500000000000000       0.87500000000000000        0.0000000000000000     
  0.90625000000000000       0.87500000000000000        0.0000000000000000     
  0.93750000000000000       0.87500000000000000        0.0000000000000000     
  0.96875000000000000       0.87500000000000000        0.0000000000000000     
   1.0000000000000000       0.87500000000000000        0.0000000000000000     
  0.87500000000000000       0.90625000000000000        0.0000000000000000     
  0.90625000000000000       0.90625000000000000        0.0000000000000000     
  0.93750000000000000       0.90625000000000000        0.0000000000000000     
  0.96875000000000000       0.90625000000000000        0.0000000000000000     
   1.0000000000000000       0.90625000000000000        0.0000000000000000     
  0.87500000000000000       0.93750000000000000        0.0000000000000000     
  0.90625000000000000       0.93750000000000000        0.0000000000000000     
  0.93750000000000000       0.93750000000000000        0.0000000000000000     
  0.96875000000000000       0.93750000000000000        0.0000000000000000     
   1.0000000000000000       0.93750000000000000        0.0000000000000000     
  0.87500000000000000       0.96875000000000000        0.0000000000000000     
  0.90625000000000000       0.96875000000000000        0.0000000000000000     
  0.93750000000000000       0.96875000000000000        0.0000000000000000     
  0.96875000000000000       0.96875000000000000        0.0000000000000000     
   1.0000000000000000       0.96875000000000000        0.0000000000000000     
  0.87500000000000000        1.0000000000000000        0.0000000000000000     
  0.90625000000000000        1.0000000000000000        0.0000000000000000     
  0.93750000000000000        1.0000000000000000        0.0000000000000000     
  0.96875000000000000        1.0000000000000000        0.0000000000000000     
   1.0000000000000000        1.0000000000000000        0.0000000000000000     
 </DataArray>
 </Points>
 <Cells>
 <DataArray  type="Int32"  Name="connectivity"  format="ascii">
           0           1           6           5
           1           2           7           6
           2           3           8           7
           3           4           9           8
           5           6          11          10
           6           7          12          11
           7           8          13          12
           8           9          14          13
          10          11          16          15
          11          12          17          16
          12          13          18          17
          13          14          19          18
          15          16          21          20
          16          17          22          21
          17          18          23          22
          18          19          24          23
          25          26          31          30
          26          27          32          31
          27          28          33          32
          28          29          34          33
          30          31          36          35
          31          32          37          36
          32          33          38          37
          33          34          39          38
          35          36          41          40
          36          37          42          41
          37          38          43          42
          38          39          44          43
          40          41          46          45
          41          42          47          46
          42          43          48          47
          43          44          49          48
          50          51          56          55
          51          52          57          56
          52          53          58          57
          53          54          59          58
          55          56          61          60
          56          57          62          61
          57          58          63          62
          58          59          64          63
          60          61          66          65
          61          62          67          66
          62          63          68          67
          63          64          69          68
          65          66          71          70
          66          67          72          71
          67          68          73          72
          68          69          74          73
          75          76          81          80
          76          77          82          81
          77          78          83          82
          78          79          84          83
          80          81          86          85
          81          82          87          86
          82          83          88          87
          83          84          89          88
          85          86          91          90
          86          87          92          91
          87          88          93          92
          88          89          94          93
          90          91          96          95
          91          92          97          96
          92          93          98          97
          93          94          99          98
         100         101         106         105
         101         102         107         106
         102         103         108         107
         103         104         109         108
         105         106         111         110
         106         107         112         111
         107         108         113         112
         108         109         114         113
         110         111         116         115
         111         112         117         116
         112         113         118         117
         113         114         119         118
         115         116         121         120
         116         117         122         121
         117         118         123         122
         118         119         124         123
         125         126         131         130
         126         127         132         131
         127         128         133         132
         128         129         134         133
         130         131         136         135
         131         132         137         136
         132         133         138         137
         133         134         139         138
         135         136         141         140
         136         137         142         141
         137         138         143         142
         138         139         144         143
         140         141         146         145
         141         142         147         146
         142         143         148         147
         143         144         149         148
         150         151         156         155
         151         152         157         156
         152         153         158         157
         153         154         159         158
         155         156         161         160
         156         157         162         161
         157         158         163         162
         158         159         164         163
         160         161         166         165
         161         162         167         166
         162         163         168         167
         163         164         169         168
         165         166         171         170
         166         167         172         171
         167         168         173         172
         168         169         174         173
         175         176         181         180
         176         177         182         181
         177         178         183         182
         178         179         184         183
         180         181         186         185
         181         182         187         186
         182         183         188         187
         183         184         189         188
         185         186         191         190
         186         187         192         191
         187         188         193         192
         188         189         194         193
         190         191         196         195
         191         192         197         196
         192         193         198         197
         193         194         199         198
         200         201         206         205
         201         202         207         206
         202         203         208         207
         203         204         209         208
         205         206         211         210
         206         207         212         211
         207         208         213         212
         208         209         214         213
         210         211         216         215
         211         212         217         216
         212         213         218         217
         213         214         219         218
         215         216         221         220
         216         217         222         221
         217         218         223         222
         218         219         224         223
         225         226         231         230
         226         227         232         231
         227         228         233         232
         228         229         234         233
         230         231         236         235
         231         232         237         236
         232         233         238         237
         233         234         239         238
         235         236         241         240
         236         237         242         241
         237         238         243         242
         238         239         244         243
         240         241         246         245
         241         242         247         246
         242         243         248         247
         243         244         249         248
         250         251         256         255
         251         252         257         256
         252         253         258         257
         253         254         259         258
         255         256         261         260
         256         257         262         261
         257         258         263         262
         258         259         264         263
         260         261         266         265
         261         262         267         266
         262         263         268         267
         263         264         269         268
         265         266         271         270
         266         267         272         271
         267         268         273         272
         268         269         274         273
         275         276         281         280
         276         277         282         281
         277         278         283         282
         278         279         284         283
         280         281         286         285
         281         282         287         286
         282         283         288         287
         283         284         289         288
         285         286         291         290
         286         287         292         291
         287         288         293         292
         288         289         294         293
         290         291         296         295
         291         292         297         296
         292         293         298         297
         293         294         299         298
         300         301         306         305
         301         302         307         306
         302         303         308         307
         303         304         309         308
         305         306         311         310
         306         307         312         311
         307         308         313         312
         308         309         314         313
         310         311         316         315
         311         312         317         316
         312         313         318         317
         313         314         319         318
         315         316         321         320
         316         317         322         321
         317         318         323         322
         318         319         324         323
         325         326         331         330
         326         327         332         331
         327         328         333         332
         328         329         334         333
         330         331         336         335
         331         332         337         336
         332         333         338         337
         333         334         339         338
         335         336         341         340
         336         337         342         341
         337         338         343         342
         338         339         344         343
         340         341         346         345
         341         342         347         346
         342         343         348         347
         343         344         349         348
         350         351         356         355
         351         352         357         356
         352         353         358         357
         353         354         359         358
         355         356         361         360
         356         357         362         361
         357         358         363         362
         358         359         364         363
         360         361         366         365
         361         362         367         366
         362         363         368         367
         363         364         369         368
         365         366         371         370
         366         367         372         371
         367         368         373         372
         368         369         374         373
         375         376         381         380
         376         377         382         381
         377         378         383         382
         378         379         384         383
         380         381         386         385
         381         382         387         386
         382         383         388         387
         383         384         389         388
         385         386         391         390
         386         387         392         391
         387         388         393         392
         388         389         394         393
         390         391         396         395
         391         392         397         396
         392         393         398         397
         393         394         399         398
         400         401         406         405
         401         402         407         406
         402         403         408         407
         403         404         409         408
         405         406         411         410
         406         407         412         411
         407         408         413         412
         408         409         414         413
         410         411         416         415
         411         412         417         416
         412         413         418         417
         413         414         419         418
         415         416         421         420
         416         417         422         421
         417         418         423         422
         418         419         424         423
         425         426         431         430
         426         427         432         431
         427         428         433         432
         428         429         434         433
         430         431         436         435
         431         432         437         436
         432         433         438         437
         433         434         439         438
         435         436         441         440
         436         437         442         441
         437         438         443         442
         438         439         444         443
         440         441         446         445
         441         442         447         446
         442         443         448         447
         443         444         449         448
         450         451         456         455
         451         452         457         456
         452         453         458         457
         453         454         459         458
         455         456         461         460
         456         457         462         461
         457         458         463         462
         458         459         464         463
         460         461         466         465
         461         462         467         466
         462         463         468         467
         463         464         469         468
         465         466         471         470
         466         467         472         471
         467         468         473         472
         468         469         474         473
         475         476         481         480
         476         477         482         481
         477         478         483         482
         478         479         484         483
         480         481         486         485
         481         482         487         486
         482         483         488         487
         483         484         489         488
         485         486         491         490
         486         487         492         491
         487         488         493         492
         488         489         494         493
         490         491         496         495
         491         492         497         496
         492         493         498         497
         493         494         499         498
         500         501         506         505
         501         502         507         506
         502         503         508         507
         503         504         509         508
         505         506         511         510
         506         507         512         511
         507         508         513         512
         508         509         514         513
         510         511         516         515
         511         512         517         516
         512         513         518         517
         513         514         519         518
         515         516         521         520
         516         517         522         521
         517         518         523         522
         518         519         524         523
         525         526         531         530
         526         527         532         531
         527         528         533         532
         528         529         534         533
         530         531         536         535
         531         532         537         536
         532         533         538         537
         533         534         539         538
         535         536         541         540
         536         537         542         541
         537         538         543         542
         538         539         544         543
         540         541         546         545
         541         542         547         546
         542         543         548         547
         543         544         549         548
         550         551         556         555
         551         552         557         556
         552         553         558         557
         553         554         559         558
         555         556         561         560
         556         557         562         561
         557         558         563         562
         558         559         564         563
         560         561         566         565
         561         562         567         566
         562         563         568         567
         563         564         569         568
         565         566         571         570
         566         567         572         571
         567         568         573         572
         568         569         574         573
         575         576         581         580
         576         577         582         581
         577         578         583         582
         578         579         584         583
         580         581         586         585
         581         582         587         586
         582         583         588         587
         583         584         589         588
         585         586         591         590
         586         587         592         591
         587         588         593         592
         588         589         594         593
         590         591         596         595
         591         592         597         596
         592         593         598         597
         593         594         599         598
         600         601         606         605
         601         602         607         606
         602         603         608         607
         603         604         609         608
         605         606         611         610
         606         607         612         611
         607         608         613         612
         608         609         614         613
         610         611         616         615
         611         612         617         616
         612         613         618         617
         613         614         619         618
         615         616         621         620
         616         617         622         621
         617         618         623         622
         618         619         624         623
         625         626         631         630
         626         627         632         631
         627         628         633         632
         628         629         634         633
         630         631         636         635
         631         632         637         636
         632         633         638         637
         633         634         639         638
         635         636         641         640
         636         637         642         641
         637         638         643         642
         638         639         644         643
         640         641         646         645
         641         642         647         646
         642         643         648         647
         643         644         649         648
         650         651         656         655
         651         652         657         656
         652         653         658         657
         653         654         659         658
         655         656         661         660
         656         657         662         661
         657         658         663         662
         658         659         664         663
         660         661         666         665
         661         662         667         666
         662         663         668         667
         663         664         669         668
         665         666         671         670
         666         667         672         671
         667         668         673         672
         668         669         674         673
         675         676         681         680
         676         677         682         681
         677         678         683         682
         678         679         684         683
         680         681         686         685
         681         682         687         686
         682         683         688         687
         683         684         689         688
         685         686         691         690
         686         687         692         691
         687         688         693         692
         688         689         694         693
         690         691         696         695
         691         692         697         696
         692         693         698         697
         693         694         699         698
         700         701         706         705
         701         702         707         706
         702         703         708         707
         703         704         709         708
         705         706         711         710
         706         707         712         711
         707         708         713         712
         708         709         714         713
         710         711         716         715
         711         712         717         716
         712         713         718         717
         713         714         719         718
         715         716         721         720
         716         717         722         721
         717         718         723         722
         718         719         724         723
         725         726         731         730
         726         727         732         731
         727         728         733         732
         728         729         734         733
         730         731         736         735
         731         732         737         736
         732         733         738         737
         733         734         739         738
         735         736         741         740
         736         737         742         741
         737         738         743         742
         738         739         744         743
         740         741         746         745
         741         742         747         746
         742         743         748         747
         743         744         749         748
         750         751         756         755
         751         752         757         756
         752         753         758         757
         753         754         759         758
         755         756         761         760
         756         757         762         761
         757         758         763         762
         758         759         764         763
         760         761         766         765
         761         762         767         766
         762         763         768         767
         763         764         769         768
         765         766         771         770
         766         767         772         771
         767         768         773         772
         768         769         774         773
         775         776         781         780
         776         777         782         781
         777         778         783         782
         778         779         784         783
         780         781         786         785
         781         782         787         786
         782         783         788         787
         783         784         789         788
         785         786         791         790
         786         787         792         791
         787         788         793         792
         788         789         794         793
         790         791         796         795
         791         792         797         796
         792         793         798         797
         793         794         799         798
         800         801         806         805
         801         802         807         806
         802         803         808         807
         803         804         809         808
         805         806         811         810
         806         807         812         811
         807         808         813         812
         808         809         814         813
         810         811         816         815
         811         812         817         816
         812         813         818         817
         813         814         819         818
         815         816         821         820
         816         817         822         821
         817         818         823         822
         818         819         824         823
         825         826         831         830
         826         827         832         831
         827         828         833         832
         828         829         834         833
         830         831         836         835
         831         832         837         836
         832         833         838         837
         833         834         839         838
         835         836         841         840
         836         837         842         841
         837         838         843         842
         838         839         844         843
         840         841         846         845
         841         842         847         846
         842         843         848         847
         843         844         849         848
         850         851         856         855
         851         852         857         856
         852         853         858         857
         853         854         859         858
         855         856         861         860
         856         857         862         861
         857         858         863         862
         858         859         864         863
         860         861         866         865
         861         862         867         866
         862         863         868         867
         863         864         869         868
         865         866         871         870
         866         867         872         871
         867         868         873         872
         868         869         874         873
         875         876         881         880
         876         877         882         881
         877         878         883         882
         878         879         884         883
         880         881         886         885
         881         882         887         886
         882         883         888         887
         883         884         889         888
         885         886         891         890
         886         887         892         891
         887         888         893         892
         888         889         894         893
         890         891         896         895
         891         892         897         896
         892         893         898         897
         893         894         899         898
         900         901         906         905
         901         902         907         906
         902         903         908         907
         903         904         909         908
         905         906         911         910
         906         907         912         911
         907         908         913         912
         908         909         914         913
         910         911         916         915
         911         912         917         916
         912         913         918         917
         913         914         919         918
         915         916         921         920
         916         917         922         921
         917         918         923         922
         918         919         924         923
         925         926         931         930
         926         927         932         931
         927         928         933         932
         928         929         934         933
         930         931         936         935
         931         932         937         936
         932         933         938         937
         933         934         939         938
         935         936         941         940
         936         937         942         941
         937         938         943         942
         938         939         944         943
         940         941         946         945
         941         942         947         946
         942         943         948         947
         943         944         949         948
         950         951         956         955
         951         952         957         956
         952         953         958         957
         953         954         959         958
         955         956         961         960
         956         957         962         961
         957         958         963         962
         958         959         964         963
         960         961         966         965
         961         962         967         966
         962         963         968         967
         963         964         969         968
         965         966         971         970
         966         967         972         971
         967         968         973         972
         968         969         974         973
         975         976         981         980
         976         977         982         981
         977         978         983         982
         978         979         984         983
         980         981         986         985
         981         982         987         986
         982         983         988         987
         983         984         989         988
         985         986         991         990
         986         987         992         991
         987         988         993         992
         988         989         994         993
         990         991         996         995
         991         992         997         996
         992         993         998         997
         993         994         999         998
        1000        1001        1006        1005
        1001        1002        1007        1006
        1002        1003        1008        1007
        1003        1004        1009        1008
        1005        1006        1011        1010
        1006        1007        1012        1011
        1007        1008        1013        1012
        1008        1009        1014        1013
        1010        1011        1016        1015
        1011        1012        1017        1016
        1012        1013        1018        1017
        1013        1014        1019        1018
        1015        1016        1021        1020
        1016        1017        1022        1021
        1017        1018        1023        1022
        1018        1019        1024        1023
        1025        1026        1031        1030
        1026        1027        1032        1031
        1027        1028        1033        1032
        1028        1029        1034        1033
        1030        1031        1036        1035
        1031        1032        1037        1036
        1032        1033        1038        1037
        1033        1034        1039        1038
        1035        1036        1041        1040
        1036        1037        1042        1041
        1037        1038        1043        1042
        1038        1039        1044        1043
        1040        1041        1046        1045
        1041        1042        1047        1046
        1042        1043        1048        1047
        1043        1044        1049        1048
        1050        1051        1056        1055
        1051        1052        1057        1056
        1052        1053        1058        1057
        1053        1054        1059        1058
        1055        1056        1061        1060
        1056        1057        1062        1061
        1057        1058        1063        1062
        1058        1059        1064        1063
        1060        1061        1066        1065
        1061        1062        1067        1066
        1062        1063        1068        1067
        1063        1064        1069        1068
        1065        1066        1071        1070
        1066        1067        1072        1071
        1067        1068        1073        1072
        1068        1069        1074        1073
        1075        1076        1081        1080
        1076        1077        1082        1081
        1077        1078        1083        1082
        1078        1079        1084        1083
        1080        1081        1086        1085
        1081        1082        1087        1086
        1082        1083        1088        1087
        1083        1084        1089        1088
        1085        1086        1091        1090
        1086        1087        1092        1091
        1087        1088        1093        1092
        1088        1089        1094        1093
        1090        1091        1096        1095
        1091        1092        1097        1096
        1092        1093        1098        1097
        1093        1094        1099        1098
        1100        1101        1106        1105
        1101        1102        1107        1106
        1102        1103        1108        1107
        1103        1104        1109        1108
        1105        1106        1111        1110
        1106        1107        1112        1111
        1107        1108        1113        1112
        1108        1109        1114        1113
        1110        1111        1116        1115
        1111        1112        1117        1116
        1112        1113        1118        1117
        1113        1114        1119        1118
        1115        1116        1121        1120
        1116        1117        1122        1121
        1117        1118        1123        1122
        1118        1119        1124        1123
        1125        1126        1131        1130
        1126        1127        1132        1131
        1127        1128        1133        1132
        1128        1129        1134        1133
        1130        1131        1136        1135
        1131        1132        1137        1136
        1132        1133        1138        1137
        1133        1134        1139        1138
        1135        1136        1141        1140
        1136        1137        1142        1141
        1137        1138        1143        1142
        1138        1139        1144        1143
        1140        1141        1146        1145
        1141        1142        1147        1146
        1142        1143        1148        1147
        1143        1144        1149        1148
        1150        1151        1156        1155
        1151        1152        1157        1156
        1152        1153        1158        1157
        1153        1154        1159        1158
        1155        1156        1161        1160
        1156        1157        1162        1161
        1157        1158        1163        1162
        1158        1159        1164        1163
        1160        1161        1166        1165
        1161        1162        1167        1166
        1162        1163        1168        1167
        1163        1164        1169        1168
        1165        1166        1171        1170
        1166        1167        1172        1171
        1167        1168        1173        1172
        1168        1169        1174        1173
        1175        1176        1181        1180
        1176        1177        1182        1181
        1177        1178        1183        1182
        1178        1179        1184        1183
        1180        1181        1186        1185
        1181        1182        1187        1186
        1182        1183        1188        1187
        1183        1184        1189        1188
        1185        1186        1191        1190
        1186        1187        1192        1191
        1187        1188        1193        1192
        1188        1189        1194        1193
        1190        1191        1196        1195
        1191        1192        1197        1196
        1192        1193        1198        1197
        1193        1194        1199        1198
        1200        1201        1206        1205
        1201        1202        1207        1206
        1202        1203        1208        1207
        1203        1204        1209        1208
        1205        1206        1211        1210
        1206        1207        1212        1211
        1207        1208        1213        1212
        1208        1209        1214        1213
        1210        1211        1216        1215
        1211        1212        1217        1216
        1212        1213        1218        1217
        1213        1214        1219        1218
        1215        1216        1221        1220
        1216        1217        1222        1221
        1217        1218        1223        1222
        1218        1219        1224        1223
        1225        1226        1231        1230
        1226        1227        1232        1231
        1227        1228        1233        1232
        1228        1229        1234        1233
        1230        1231        1236        1235
        1231        1232        1237        1236
        1232        1233        1238        1237
        1233        1234        1239        1238
        1235        1236        1241        1240
        1236        1237        1242        1241
        1237        1238        1243        1242
        1238        1239        1244        1243
        1240        1241        1246        1245
        1241        1242        1247        1246
        1242        1243        1248        1247
        1243        1244        1249        1248
        1250        1251        1256        1255
        1251        1252        1257        1256
        1252        1253        1258        1257
        1253        1254        1259        1258
        1255        1256        1261        1260
        1256        1257        1262        1261
        1257        1258        1263        1262
        1258        1259        1264        1263
        1260        1261        1266        1265
        1261        1262        1267        1266
        1262        1263        1268        1267
        1263        1264        1269        1268
        1265        1266        1271        1270
        1266        1267        1272        1271
        1267        1268        1273        1272
        1268        1269        1274        1273
        1275        1276        1281        1280
        1276        1277        1282        1281
        1277        1278        1283        1282
        1278        1279        1284        1283
        1280        1281        1286        1285
        1281        1282        1287        1286
        1282        1283        1288        1287
        1283        1284        1289        1288
        1285        1286        1291        1290
        1286        1287        1292        1291
        1287        1288        1293        1292
        1288        1289        1294        1293
        1290        1291        1296        1295
        1291        1292        1297        1296
        1292        1293        1298        1297
        1293        1294        1299        1298
        1300        1301        1306        1305
        1301        1302        1307        1306
        1302        1303        1308        1307
        1303        1304        1309        1308
        1305        1306        1311        1310
        1306        1307        1312        1311
        1307        1308        1313        1312
        1308        1309        1314        1313
        1310        1311        1316        1315
        1311        1312        1317        1316
        1312        1313        1318        1317
        1313        1314        1319        1318
        1315        1316        1321        1320
        1316        1317        1322        1321
        1317        1318        1323        1322
        1318        1319        1324        1323
        1325        1326        1331        1330
        1326        1327        1332        1331
        1327        1328        1333        1332
        1328        1329        1334        1333
        1330        1331        1336        1335
        1331        1332        1337        1336
        1332        1333        1338        1337
        1333        1334        1339        1338
        1335        1336        1341        1340
        1336        1337        1342        1341
        1337        1338        1343        1342
        1338        1339        1344        1343
        1340        1341        1346        1345
        1341        1342        1347        1346
        1342        1343        1348        1347
        1343        1344        1349        1348
        1350        1351        1356        1355
        1351        1352        1357        1356
        1352        1353        1358        1357
        1353        1354        1359        1358
        1355        1356        1361        1360
        1356        1357        1362        1361
        1357        1358        1363        1362
        1358        1359        1364        1363
        1360        1361        1366        1365
        1361        1362        1367        1366
        1362        1363        1368        1367
        1363        1364        1369        1368
        1365        1366        1371        1370
        1366        1367        1372        1371
        1367        1368        1373        1372
        1368        1369        1374        1373
        1375        1376        1381        1380
        1376        1377        1382        1381
        1377        1378        1383        1382
        1378        1379        1384        1383
        1380        1381        1386        1385
        1381        1382        1387        1386
        1382        1383        1388        1387
        1383        1384        1389        1388
        1385        1386        1391        1390
        1386        1387        1392        1391
        1387        1388        1393        1392
        1388        1389        1394        1393
        1390        1391        1396        1395
        1391        1392        1397        1396
        1392        1393        1398        1397
        1393        1394        1399        1398
        1400        1401        1406        1405
        1401        1402        1407        1406
        1402        1403        1408        1407
        1403        1404        1409        1408
        1405        1406        1411        1410
        1406        1407        1412        1411
        1407        1408        1413        1412
        1408        1409        1414        1413
        1410        1411        1416        1415
        1411        1412        1417        1416
        1412        1413        1418        1417
        1413        1414        1419        1418
        1415        1416        1421        1420
        1416        1417        1422        1421
        1417        1418        1423        1422
        1418        1419        1424        1423
        1425        1426        1431        1430
        1426        1427        1432        1431
        1427        1428        1433        1432
        1428        1429        1434        1433
        1430        1431        1436        1435
        1431        1432        1437        1436
        1432        1433        1438        1437
        1433        1434        1439        1438
        1435        1436        1441        1440
        1436        1437        1442        1441
        1437        1438        1443        1442
        1438        1439        1444        1443
        1440        1441        1446        1445
        1441        1442        1447        1446
        1442        1443        1448        1447
        1443        1444        1449        1448
        1450        1451        1456        1455
        1451        1452        1457        1456
        1452        1453        1458        1457
        1453        1454        1459        1458
        1455        1456        1461        1460
        1456        1457        1462        1461
        1457        1458        1463        1462
        1458        1459        1464        1463
        1460        1461        1466        1465
        1461        1462        1467        1466
        1462        1463        1468        1467
        1463        1464        1469        1468
        1465        1466        1471        1470
        1466        1467        1472        1471
        1467        1468        1473        1472
        1468        1469        1474        1473
        1475        1476        1481        1480
        1476        1477        1482        1481
        1477        1478        1483        1482
        1478        1479        1484        1483
        1480        1481        1486        1485
        1481        1482        1487        1486
        1482        1483        1488        1487
        1483        1484        1489        1488
        1485        1486        1491        1490
        1486        1487        1492        1491
        1487        1488        1493        1492
        1488        1489        1494        1493
        1490        1491        1496        1495
        1491        1492        1497        1496
        1492        1493        1498        1497
        1493        1494        1499        1498
        1500        1501        1506        1505
        1501        1502        1507        1506
        1502        1503        1508        1507
        1503        1504        1509        1508
        1505        1506        1511        1510
        1506        1507        1512        1511
        1507        1508        1513        1512
        1508        1509        1514        1513
        1510        1511        1516        1515
        1511        1512        1517        1516
        1512        1513        1518        1517
        1513        1514        1519        1518
        1515        1516        1521        1520
        1516        1517        1522        1521
        1517        1518        1523        1522
        1518        1519        1524        1523
        1525        1526        1531        1530
        1526        1527        1532        1531
        1527        1528        1533        1532
        1528        1529        1534        1533
        1530        1531        1536        1535
        1531        1532        1537        1536
        1532        1533        1538        1537
        1533        1534        1539        1538
        1535        1536        1541        1540
        1536        1537        1542        1541
        1537        1538        1543        1542
        1538        1539        1544        1543
        1540        1541        1546        1545
        1541        1542        1547        1546
        1542        1543        1548        1547
        1543        1544        1549        1548
        1550        1551        1556        1555
        1551        1552        1557        1556
        1552        1553        1558        1557
        1553        1554        1559        1558
        1555        1556        1561        1560
        1556        1557        1562        1561
        1557        1558        1563        1562
        1558        1559        1564        1563
        1560        1561        1566        1565
        1561        1562        1567        1566
        1562        1563        1568        1567
        1563        1564        1569        1568
        1565        1566        1571        1570
        1566        1567        1572        1571
        1567        1568        1573        1572
        1568        1569        1574        1573
        1575        1576        1581        1580
        1576        1577        1582        1581
        1577        1578        1583        1582
        1578        1579        1584        1583
        1580        1581        1586        1585
        1581        1582        1587        1586
        1582        1583        1588        1587
        1583        1584        1589        1588
        1585        1586        1591        1590
        1586        1587        1592        1591
        1587        1588        1593        1592
        1588        1589        1594        1593
        1590        1591        1596        1595
        1591        1592        1597        1596
        1592        1593        1598        1597
        1593        1594        1599        1598
 </DataArray>
 <DataArray  type="Int32"  Name="offsets"  format="ascii"> 
           4
           8
          12
          16
          20
          24
          28
          32
          36
          40
          44
          48
          52
          56
          60
          64
          68
          72
          76
          80
          84
          88
          92
          96
         100
         104
         108
         112
         116
         120
         124
         128
         132
         136
         140
         144
         148
         152
         156
         160
         164
         168
         172
         176
         180
         184
         188
         192
         196
         200
         204
         208
         212
         216
         220
         224
         228
         232
         236
         240
         244
         248
         252
         256
         260
         264
         268
         272
         276
         280
         284
         288
         292
         296
         300
         304
         308
         312
         316
         320
         324
         328
         332
         336
         340
         344
         348
         352
         356
         360
         364
         368
         372
         376
         380
         384
         388
         392
         396
         400
         404
         408
         412
         416
         420
         424
         428
         432
         436
         440
         444
         448
         452
         456
         460
         464
         468
         472
         476
         480
         484
         488
         492
         496
         500
         504
         508
         512
         516
         520
         524
         528
         532
         536
         540
         544
         548
         552
         556
         560
         564
         568
         572
         576
         580
         584
         588
         592
         596
         600
         604
         608
         612
         616
         620
         624
         628
         632
         636
         640
         644
         648
         652
         656
         660
         664
         668
         672
         676
         680
         684
         688
         692
         696
         700
         704
         708
         712
         716
         720
         724
         728
         732
         736
         740
         744
         748
         752
         756
         760
         764
         768
         772
         776
         780
         784
         788
         792
         796
         800
         804
         808
         812
         816
         820
         824
         828
         832
         836
         840
         844
         848
         852
         856
         860
         864
         868
         872
         876
         880
         884
         888
         892
         896
         900
         904
         908
         912
         916
         920
         924
         928
         932
         936
         940
         944
         948
         952
         956
         960
         964
         968
         972
         976
         980
         984
         988
         992
         996
        1000
        1004
        1008
        1012
        1016
        1020
        1024
        1028
        1032
        1036
        1040
        1044
        1048
        1052
        1056
        1060
        1064
        1068
        1072
        1076
        1080
        1084
        1088
        1092
        1096
        1100
        1104
        1108
        1112
        1116
        1120
        1124
        1128
        1132
        1136
        1140
        1144
        1148
        1152
        1156
        1160
        1164
        1168
        1172
        1176
        1180
        1184
        1188
        1192
        1196
        1200
        1204
        1208
        1212
        1216
        1220
        1224
        1228
        1232
        1236
        1240
        1244
        1248
        1252
        1256
        1260
        1264
        1268
        1272
        1276
        1280
        1284
        1288
        1292
        1296
        1300
        1304
        1308
        1312
        1316
        1320
        1324
        1328
        1332
        1336
        1340
        1344
        1348
        1352
        1356
        1360
        1364
        1368
        1372
        1376
        1380
        1384
        1388
        1392
        1396
        1400
        1404
        1408
        1412
        1416
        1420
        1424
        1428
        1432
        1436
        1440
        1444
        1448
        1452
        1456
        1460
        1464
        1468
        1472
        1476
        1480
        1484
        1488
        1492
        1496
        1500
        1504
        1508
        1512
        1516
        1520
        1524
        1528
        1532
        1536
        1540
        1544
        1548
        1552
        1556
        1560
        1564
        1568
        1572
        1576
        1580
        1584
        1588
        1592
        1596
        1600
        1604
        1608
        1612
        1616
        1620
        1624
        1628
        1632
        1636
        1640
        1644
        1648
        1652
        1656
        1660
        1664
        1668
        1672
        1676
        1680
        1684
        1688
        1692
        1696
        1700
        1704
        1708
        1712
        1716
        1720
        1724
        1728
        1732
        1736
        1740
        1744
        1748
        1752
        1756
        1760
        1764
        1768
        1772
        1776
        1780
        1784
        1788
        1792
        1796
        1800
        1804
        1808
        1812
        1816
        1820
        1824
        1828
        1832
        1836
        1840
        1844
        1848
        1852
        1856
        1860
        1864
        1868
        1872
        1876
        1880
        1884
        1888
        1892
        1896
        1900
        1904
        1908
        1912
        1916
        1920
        1924
        1928
        1932
        1936
        1940
        1944
        1948
        1952
        1956
        1960
        1964
        1968
        1972
        1976
        1980
        1984
        1988
        1992
        1996
        2000
        2004
        2008
        2012
        2016
        2020
        2024
        2028
        2032
        2036
        2040
        2044
        2048
        2052
        2056
        2060
        2064
        2068
        2072
        2076
        2080
        2084
        2088
        2092
        2096
        2100
        2104
        2108
        2112
        2116
        2120
        2124
        2128
        2132
        2136
        2140
        2144
        2148
        2152
        2156
        2160
        2164
        2168
        2172
        2176
        2180
        2184
        2188
        2192
        2196
        2200
        2204
        2208
        2212
        2216
        2220
        2224
        2228
        2232
        2236
        2240
        2244
        2248
        2252
        2256
        2260
        2264
        2268
        2272
        2276
        2280
        2284
        2288
        2292
        2296
        2300
        2304
        2308
        2312
        2316
        2320
        2324
        2328
        2332
        2336
        2340
        2344
        2348
        2352
        2356
        2360
        2364
        2368
        2372
        2376
        2380
        2384
        2388
        2392
        2396
        2400
        2404
        2408
        2412
        2416
        2420
        2424
        2428
        2432
        2436
        2440
        2444
        2448
        2452
        2456
        2460
        2464
        2468
        2472
        2476
        2480
        2484
        2488
        2492
        2496
        2500
        2504
        2508
        2512
        2516
        2520
        2524
        2528
        2532
        2536
        2540
        2544
        2548
        2552
        2556
        2560
        2564
        2568
        2572
        2576
        2580
        2584
        2588
        2592
        2596
        2600
        2604
        2608
        2612
        2616
        2620
        2624
        2628
        2632
        2636
        2640
        2644
        2648
        2652
        2656
        2660
        2664
        2668
        2672
        2676
        2680
        2684
        2688
        2692
        2696
        2700
        2704
        2708
        2712
        2716
        2720
        2724
        2728
        2732
        2736
        2740
        2744
        2748
        2752
        2756
        2760
        2764
        2768
        2772
        2776
        2780
        2784
        2788
        2792
        2796
        2800
        2804
        2808
        2812
        2816
        2820
        2824
        2828
        2832
        2836
        2840
        2844
        2848
        2852
        2856
        2860
        2864
        2868
        2872
        2876
        2880
        2884
        2888
        2892
        2896
        2900
        2904
        2908
        2912
        2916
        2920
        2924
        2928
        2932
        2936
        2940
        2944
        2948
        2952
        2956
        2960
        2964
        2968
        2972
        2976
        2980
        2984
        2988
        2992
        2996
        3000
        3004
        3008
        3012
        3016
        3020
        3024
        3028
        3032
        3036
        3040
        3044
        3048
        3052
        3056
        3060
        3064
        3068
        3072
        3076
        3080
        3084
        3088
        3092
        3096
        3100
        3104
        3108
        3112
        3116
        3120
        3124
        3128
        3132
        3136
        3140
        3144
        3148
        3152
        3156
        3160
        3164
        3168
        3172
        3176
        3180
        3184
        3188
        3192
        3196
        3200
        3204
        3208
        3212
        3216
        3220
        3224
        3228
        3232
        3236
        3240
        3244
        3248
        3252
        3256
        3260
        3264
        3268
        3272
        3276
        3280
        3284
        3288
        3292
        3296
        3300
        3304
        3308
        3312
        3316
        3320
        3324
        3328
        3332
        3336
        3340
        3344
        3348
        3352
        3356
        3360
        3364
        3368
        3372
        3376
        3380
        3384
        3388
        3392
        3396
        3400
        3404
        3408
        3412
        3416
        3420
        3424
        3428
        3432
        3436
        3440
        3444
        3448
        3452
        3456
        3460
        3464
        3468
        3472
        3476
        3480
        3484
        3488
        3492
        3496
        3500
        3504
        3508
        3512
        3516
        3520
        3524
        3528
        3532
        3536
        3540
        3544
        3548
        3552
        3556
        3560
        3564
        3568
        3572
        3576
        3580
        3584
        3588
        3592
        3596
        3600
        3604
        3608
        3612
        3616
        3620
        3624
        3628
        3632
        3636
        3640
        3644
        3648
        3652
        3656
        3660
        3664
        3668
        3672
        3676
        3680
        3684
        3688
        3692
        3696
        3700
        3704
        3708
        3712
        3716
        3720
        3724
        3728
        3732
        3736
        3740
        3744
        3748
        3752
        3756
        3760
        3764
        3768
        3772
        3776
        3780
        3784
        3788
        3792
        3796
        3800
        3804
        3808
        3812
        3816
        3820
        3824
        3828
        3832
        3836
        3840
        3844
        3848
        3852
        3856
        3860
        3864
        3868
        3872
        3876
        3880
        3884
        3888
        3892
        3896
        3900
        3904
        3908
        3912
        3916
        3920
        3924
        3928
        3932
        3936
        3940
        3944
        3948
        3952
        3956
        3960
        3964
        3968
        3972
        3976
        3980
        3984
        3988
        3992
        3996
        4000
        4004
        4008
        4012
        4016
        4020
        4024
        4028
        4032
        4036
        4040
        4044
        4048
        4052
        4056
        4060
        4064
        4068
        4072
        4076
        4080
        4084
        4088
        4092
        4096
 </DataArray>
 <DataArray  type="UInt8"  Name="types"  format="ascii">
 9
 9
 9
 9
 9
 9
 9
 9
 9
 9
 9
 9
 9
 9
 9
 9
 9
 9
 9
 9
 9
 9
 9
 9
 9
 9
 9
 9
 9
 9
 9
 9
 9
 9
 9
 9
 9
 9
 9
 9
 9
 9
 9
 9
 9
 9
 9
 9
 9
 9
 9
 9
 9
 9
 9
 9
 9
 9
 9
 9
 9
 9
 9
 9
 9
 9
 9
 9
 9
 9
 9
 9
 9
 9
 9
 9
 9
 9
 9
 9
 9
 9
 9
 9
 9
 9
 9
 9
 9
 9
 9
 9
 9
 9
 9
 9
 9
 9
 9
 9
 9
 9
 9
 9
 9
 9
 9
 9
 9
 9
 9
 9
 9
 9
 9
 9
 9
 9
 9
 9
 9
 9
 9
 9
 9
 9
 9
 9
 9
 9
 9
 9
 9
 9
 9
 9
 9
 9
 9
 9
 9
 9
 9
 9
 9
 9
 9
 9
 9
 9
 9
 9
 9
 9
 9
 9
 9
 9
 9
 9
 9
 9
 9
 9
 9
 9
 9
 9
 9
 9
 9
 9
 9
 9
 9
 9
 9
 9
 9
 9
 9
 9
 9
 9
 9
 9
 9
 9
 9
 9
 9
 9
 9
 9
 9
 9
 9
 9
 9
 9
 9
 9
 9
 9
 9
 9
 9
 9
 9
 9
 9
 9
 9
 9
 9
 9
 9
 9
 9
 9
 9
 9
 9
 9
 9
 9
 9
 9
 9
 9
 9
 9
 9
 9
 9
 9
 9
 9
 9
 9
 9
 9
 9
 9
 9
 9
 9
 9
 9
 9
 9
 9
 9
 9
 9
 9
 9
 9
 9
 9
 9
 9
 9
 9
 9
 9
 9
 9
 9
 9
 9
 9
 9
 9
 9
 9
 9
 9
 9
 9
 9
 9
 9
 9
 9
 9
 9
 9
 9
 9
 9
 9
 9
 9
 9
 9
 9
 9
 9
 9
 9
 9
 9
 9
 9
 9
 9
 9
 9
 9
 9
 9
 9
 9
 9
 9
 9
 9
 9
 9
 9
 9
 9
 9
 9
 9
 9
 9
 9
 9
 9
 9
 9
 9
 9
 9
 9
 9
 9
 9
 9
 9
 9
 9
 9
 9
 9
 9
 9
 9
 9
 9
 9
 9
 9
 9
 9
 9
 9
 9
 9
 9
 9
 9
 9
 9
 9
 9
 9
 9
 9
 9
 9
 9
 9
 9
 9
 9
 9
 9
 9
 9
 9
 9
 9
 9
 9
 9
 9
 9
 9
 9
 9
 9
 9
 9
 9
 9
 9
 9
 9
 9
 9
 9
 9
 9
 9
 9
 9
 9
 9
 9
 9
 9
 9
 9
 9
 9
 9
 9
 9
 9
 9
 9
 9
 9
 9
 9
 9
 9
 9
 9
 9
 9
 9
 9
 9
 9
 9
 9
 9
 9
 9
 9
 9
 9
 9
 9
 9
 9
 9
 9
 9
 9
 9
 9
 9
 9
 9
 9
 9
 9
 9
 9
 9
 9
 9
 9
 9
 9
 9
 9
 9
 9
 9
 9
 9
 9
 9
 9
 9
 9
 9
 9
 9
 9
 9
 9
 9
 9
 9
 9
 9
 9
 9
 9
 9
 9
 9
 9
 9
 9
 9
 9
 9
 9
 9
 9
 9
 9
 9
 9
 9
 9
 9
 9
 9
 9
 9
 9
 9
 9
 9
 9
 9
 9
 9
 9
 9
 9
 9
 9
 9
 9
 9
 9
 9
 9
 9
 9
 9
 9
 9
 9
 9
 9
 9
 9
 9
 9
 9
 9
 9
 9
 9
 9
 9
 9
 9
 9
 9
 9
 9
 9
 9
 9
 9
 9
 9
 9
 9
 9
 9
 9
 9
 9
 9
 9
 9
 9
 9
 9
 9
 9
 9
 9
 9
 9
 9
 9
 9
 9
 9
 9
 9
 9
 9
 9
 9
 9
 9
 9
 9
 9
 9
 9
 9
 9
 9
 9
 9
 9
 9
 9
 9
 9
 9
 9
 9
 9
 9
 9
 9
 9
 9
 9
 9
 9
 9
 9
 9
 9
 9
 9
 9
 9
 9
 9
 9
 9
 9
 9
 9
 9
 9
 9
 9
 9
 9
 9
 9
 9
 9
 9
 9
 9
 9
 9
 9
 9
 9
 9
 9
 9
 9
 9
 9
 9
 9
 9
 9
 9
 9
 9
 9
 9
 9
 9
 9
 9
 9
 9
 9
 9
 9
 9
 9
 9
 9
 9
 9
 9
 9
 9
 9
 9
 9
 9
 9
 9
 9
 9
 9
 9
 9
 9
 9
 9
 9
 9
 9
 9
 9
 9
 9
 9
 9
 9
 9
 9
 9
 9
 9
 9
 9
 9
 9
 9
 9
 9
 9
 9
 9
 9
 9
 9
 9
 9
 9
 9
 9
 9
 9
 9
 9
 9
 9
 9
 9
 9
 9
 9
 9
 9
 9
 9
 9
 9
 9
 9
 9
 9
 9
 9
 9
 9
 9
 9
 9
 9
 9
 9
 9
 9
 9
 9
 9
 9
 9
 9
 9
 9
 9
 9
 9
 9
 9
 9
 9
 9
 9
 9
 9
 9
 9
 9
 9
 9
 9
 9
 9
 9
 9
 9
 9
 9
 9
 9
 9
 9
 9
 9
 9
 9
 9
 9
 9
 9
 9
 9
 9
 9
 9
 9
 9
 9
 9
 9
 9
 9
 9
 9
 9
 9
 9
 9
 9
 9
 9
 9
 9
 9
 9
 9
 9
 9
 9
 9
 9
 9
 9
 9
 9
 9
 9
 9
 9
 9
 9
 9
 9
 9
 9
 9
 9
 9
 9
 9
 9
 9
 9
 9
 9
 9
 9
 9
 9
 9
 9
 9
 9
 9
 9
 9
 9
 9
 9
 9
 9
 9
 9
 9
 9
 9
 9
 9
 9
 9
 9
 9
 9
 9
 9
 9
 9
 9
 9
 9
 9
 9
 9
 9
 9
 9
 9
 9
 9
 9
 9
 9
 9
 9
 9
 9
 9
 9
 9
 9
 9
 9
 9
 9
 9
 9
 9
 9
 9
 9
 9
 9
 9
 9
 9
 9
 9
 9
 9
 9
 9
 9
 9
 9
 9
 9
 9
 9
 9
 9
 9
 9
 9
 9
 9
 9
 9
 9
 9
 9
 9
 9
 9
 9
 9
 9
 9
 9
 9
 9
 9
 9
 9
 9
 9
 9
 9
 9
 9
 9
 9
 9
 9
 9
 9
 9
 9
 9
 9
 9
 9
 9
 9
 9
 9
 9
 9
 9
 9
 9
 9
 9
 9
 9
 9
 9
 9
 9
 9
 9
 9
 9
 9
 9
 9
 9
 </DataArray>
 </Cells> 
 <PointData>
 <DataArray  type="Float64" Name="disp" NumberOfComponents="3" format="ascii">
   0.0000000000000000        0.0000000000000000        0.0000000000000000     
   6.0944157347681384E-003   3.7870439966887796E-003   0.0000000000000000     
   1.1664059954348369E-002   7.3177725987875102E-003   0.0000000000000000     
   1.6708932658740690E-002   1.0592185806296192E-002   0.0000000000000000     
   2.1229033847945104E-002   1.3610283619214826E-002   0.0000000000000000     
   0.0000000000000000        0.0000000000000000        0.0000000000000000     
   4.8909606197235587E-003   3.0192703909626339E-003   0.0000000000000000     
   9.5737963038999858E-003   6.0548871281522459E-003   0.0000000000000000     
   1.4048507052529281E-002   9.1068502115688350E-003   0.0000000000000000     
   1.8315092865611449E-002   1.2175159641212406E-002   0.0000000000000000     
   0.0000000000000000        0.0000000000000000        0.0000000000000000     
   3.9541723157069456E-003   2.4226330615710230E-003   0.0000000000000000     
   7.9119270579323889E-003   5.0576763280978047E-003   0.0000000000000000     
   1.1873264226676332E-002   7.9051297995803450E-003   0.0000000000000000     
   1.5838183821938776E-002   1.0964993476018646E-002   0.0000000000000000     
   0.0000000000000000        0.0000000000000000        0.0000000000000000     
   3.2840508227182999E-003   1.9971320085139460E-003   0.0000000000000000     
   6.6784522164455807E-003   4.3261401986241857E-003   0.0000000000000000     
   1.0183204181181842E-002   6.9870245703307198E-003   0.0000000000000000     
   1.3798306716927085E-002   9.9797851236335458E-003   0.0000000000000000     
   0.0000000000000000        0.0000000000000000        0.0000000000000000     
   2.8805961407576209E-003   1.7427672317914034E-003   0.0000000000000000     
   5.8733717794395577E-003   3.8602787397313890E-003   0.0000000000000000     
   8.9783269160458104E-003   6.3525345238199579E-003   0.0000000000000000     
   1.2195461550576381E-002   9.2195345840571079E-003   0.0000000000000000     
   2.1229033847945104E-002   1.3610283619214826E-002   0.0000000000000000     
   2.5436890524390358E-002   1.6600888472779317E-002   0.0000000000000000     
   2.9545029690505206E-002   1.9792822802225583E-002   0.0000000000000000     
   3.3553451346289648E-002   2.3186086607553610E-002   0.0000000000000000     
   3.7462155491743677E-002   2.6780679888763408E-002   0.0000000000000000     
   1.8315092865611449E-002   1.2175159641212406E-002   0.0000000000000000     
   2.2412157643243516E-002   1.5327064767444490E-002   0.0000000000000000     
   2.6378305285522530E-002   1.8629814940626627E-002   0.0000000000000000     
   3.0213535792448482E-002   2.2083410160758814E-002   0.0000000000000000     
   3.3917849164021380E-002   2.5687850427841056E-002   0.0000000000000000     
   1.5838183821938776E-002   1.0964993476018646E-002   0.0000000000000000     
   1.9735611950461418E-002   1.4195472510466628E-002   0.0000000000000000     
   2.3494474718985962E-002   1.7554772055978225E-002   0.0000000000000000     
   2.7114772127512413E-002   2.1042892112553432E-002   0.0000000000000000     
   3.0596504176040755E-002   2.4659832680192246E-002   0.0000000000000000     
   1.3798306716927085E-002   9.9797851236335458E-003   0.0000000000000000     
   1.7407253446044057E-002   1.3206111701845739E-002   0.0000000000000000     
   2.0893537990895501E-002   1.6567694148280378E-002   0.0000000000000000     
   2.4257160351481424E-002   2.0064532462937455E-002   0.0000000000000000     
   2.7498120527801810E-002   2.3696626645816978E-002   0.0000000000000000     
   1.2195461550576381E-002   9.2195345840571079E-003   0.0000000000000000     
   1.5427082129991436E-002   1.2358982341581825E-002   0.0000000000000000     
   1.8575495101251147E-002   1.5668581217533086E-002   0.0000000000000000     
   2.1640700464355518E-002   1.9148331211910900E-002   0.0000000000000000     
   2.4622698219304542E-002   2.2798232324715256E-002   0.0000000000000000     
   3.7462155491743677E-002   2.6780679888763408E-002   0.0000000000000000     
   4.1281162873947064E-002   3.0575575452379374E-002   0.0000000000000000     
   4.5020494239979593E-002   3.4569746104925893E-002   0.0000000000000000     
   4.8680149589841230E-002   3.8763191846402978E-002   0.0000000000000000     
   5.2260128923532004E-002   4.3155912676810612E-002   0.0000000000000000     
   3.3917849164021380E-002   2.5687850427841056E-002   0.0000000000000000     
   3.7516405467074930E-002   2.9473784569984906E-002   0.0000000000000000     
   4.1034364768442841E-002   3.3471861415301923E-002   0.0000000000000000     
   4.4471727068125112E-002   3.7682080963792101E-002   0.0000000000000000     
   4.7828492366121744E-002   4.2104443215455457E-002   0.0000000000000000     
   3.0596504176040755E-002   2.4659832680192246E-002   0.0000000000000000     
   3.3968419766711812E-002   2.8450945306786005E-002   0.0000000000000000     
   3.7259267801666385E-002   3.2461581540226041E-002   0.0000000000000000     
   4.0469048280904474E-002   3.6691741380512344E-002   0.0000000000000000     
   4.3597761204426072E-002   4.1141424827644921E-002   0.0000000000000000     
   2.7498120527801810E-002   2.3696626645816978E-002   0.0000000000000000     
   3.0637205772857730E-002   2.7507057662782667E-002   0.0000000000000000     
   3.3695203339650232E-002   3.1538906479698231E-002   0.0000000000000000     
   3.6672113228179308E-002   3.5792173096563698E-002   0.0000000000000000     
   3.9567935438444959E-002   4.0266857513379037E-002   0.0000000000000000     
   2.4622698219304542E-002   2.2798232324715256E-002   0.0000000000000000     
   2.7522763485512674E-002   2.6642121637974886E-002   0.0000000000000000     
   3.0342171382394367E-002   3.0703836233718515E-002   0.0000000000000000     
   3.3080921909949615E-002   3.4983376111946136E-002   0.0000000000000000     
   3.5739015068178427E-002   3.9480741272657757E-002   0.0000000000000000     
   5.2260128923532004E-002   4.3155912676810612E-002   0.0000000000000000     
   5.5757908434201073E-002   4.7761419560636550E-002   0.0000000000000000     
   5.9170964314997611E-002   5.2593223462368527E-002   0.0000000000000000     
   6.2499296565921618E-002   5.7651324382006548E-002   0.0000000000000000     
   6.5742905186973094E-002   6.2935722319550608E-002   0.0000000000000000     
   4.7828492366121744E-002   4.2104443215455457E-002   0.0000000000000000     
   5.1107864963302496E-002   4.6742689236611346E-002   0.0000000000000000     
   5.4313049160537127E-002   5.1600560093579120E-002   0.0000000000000000     
   5.7444044957825610E-002   5.6678055786358789E-002   0.0000000000000000     
   6.0500852355167972E-002   6.1975176314950371E-002   0.0000000000000000     
   4.3597761204426072E-002   4.1141424827644921E-002   0.0000000000000000     
   4.6650919228375262E-002   4.5807997455725752E-002   0.0000000000000000     
   4.9634035008896155E-002   5.0688824838856762E-002   0.0000000000000000     
   5.2547108545988715E-002   5.5783906977037979E-002   0.0000000000000000     
   5.5390139839652970E-002   6.1093243870269390E-002   0.0000000000000000     
   3.9567935438444959E-002   4.0266857513379037E-002   0.0000000000000000     
   4.2387071229419364E-002   4.4957344217979783E-002   0.0000000000000000     
   4.5133921860074679E-002   4.9858017698201473E-002   0.0000000000000000     
   4.7808487330410925E-002   5.4968877954044093E-002   0.0000000000000000     
   5.0410767640428074E-002   6.0289924985507663E-002   0.0000000000000000     
   3.5739015068178427E-002   3.9480741272657757E-002   0.0000000000000000     
   3.8316320966434794E-002   4.4190729523373447E-002   0.0000000000000000     
   4.0812709714072727E-002   4.9108138671613240E-002   0.0000000000000000     
   4.3228181311092219E-002   5.4232968717377150E-002   0.0000000000000000     
   4.5562735757493290E-002   5.9565219660665185E-002   0.0000000000000000     
   6.5742905186973094E-002   6.2935722319550608E-002   0.0000000000000000     
   6.8904615909186562E-002   6.8413815654522550E-002   0.0000000000000000     
   7.1987254463596592E-002   7.4053002766444248E-002   0.0000000000000000     
   7.4990820850203144E-002   7.9853283655315660E-002   0.0000000000000000     
   7.7915315069006258E-002   8.5814658321136827E-002   0.0000000000000000     
   6.0500852355167972E-002   6.1975176314950371E-002   0.0000000000000000     
   6.3482346551754540E-002   6.7465685783325180E-002   0.0000000000000000     
   6.6387402746775626E-002   7.3123348295454541E-002   0.0000000000000000     
   6.9216020940231257E-002   7.8948163851338446E-002   0.0000000000000000     
   7.1968201132121434E-002   8.4940132450976896E-002   0.0000000000000000     
   5.5390139839652970E-002   6.1093243870269390E-002   0.0000000000000000     
   5.8162490944035347E-002   6.6596004910024958E-002   0.0000000000000000     
   6.0863523913282279E-002   7.2271359487778575E-002   0.0000000000000000     
   6.3493238747393765E-002   7.8119307603530308E-002   0.0000000000000000     
   6.6051635446369814E-002   8.4139849257280103E-002   0.0000000000000000     
   5.0410767640428074E-002   6.0289924985507663E-002   0.0000000000000000     
   5.2945049086028990E-002   6.5804773034621858E-002   0.0000000000000000     
   5.5415617963116524E-002   7.1497036343416392E-002   0.0000000000000000     
   5.7822474271690662E-002   7.7366714911891246E-002   0.0000000000000000     
   6.0165618011751430E-002   8.3413808740046433E-002   0.0000000000000000     
   4.5562735757493290E-002   5.9565219660665185E-002   0.0000000000000000     
   4.7830020977735477E-002   6.5091990157115920E-002   0.0000000000000000     
   5.0043684896278376E-002   7.0800378862367966E-002   0.0000000000000000     
   5.2203727513121974E-002   7.6690385776421274E-002   0.0000000000000000     
   5.4310148828266278E-002   8.2762010899275901E-002   0.0000000000000000     
   7.7915315069006258E-002   8.5814658321136827E-002   0.0000000000000000     
   8.0751712519916835E-002   9.1941587443307715E-002   0.0000000000000000     
   8.3490988602845762E-002   9.8238531701228371E-002   0.0000000000000000     
   8.6133143317793093E-002  0.10470549109489877        0.0000000000000000     
   8.8678176664758829E-002  0.11134246562431893        0.0000000000000000     
   7.1968201132121434E-002   8.4940132450976896E-002   0.0000000000000000     
   7.4633867815548968E-002   9.1100163236033635E-002   0.0000000000000000     
   7.7202945483616739E-002   9.7429165348172406E-002   0.0000000000000000     
   7.9675434136324746E-002  0.10392713878739317        0.0000000000000000     
   8.2051333773672963E-002  0.11059408355369596        0.0000000000000000     
   6.6051635446369814E-002   8.4139849257280103E-002   0.0000000000000000     
   6.8526827939004678E-002   9.0330601386728590E-002   0.0000000000000000     
   7.0906930154092621E-002   9.6689180929576304E-002   0.0000000000000000     
   7.3191942091633627E-002  0.10321558788582332        0.0000000000000000     
   7.5381863751627698E-002  0.10990982225546955        0.0000000000000000     
   6.0165618011751430E-002   8.3413808740046433E-002   0.0000000000000000     
   6.2430592890283965E-002   8.9632901895392553E-002   0.0000000000000000     
   6.4602942614273406E-002   9.6018578445440109E-002   0.0000000000000000     
   6.6682667183719763E-002  0.10257083839018918        0.0000000000000000     
   6.8669766598623047E-002  0.10928968172963974        0.0000000000000000     
   5.4310148828266278E-002   8.2762010899275901E-002   0.0000000000000000     
   5.6345162669386807E-002   8.9007064762025509E-002   0.0000000000000000     
   5.8290982864159097E-002   9.5417357895763805E-002   0.0000000000000000     
   6.0147609412583153E-002  0.10199289030049080        0.0000000000000000     
   6.1915042314658997E-002  0.10873366197620650        0.0000000000000000     
   8.8678176664758829E-002  0.11134246562431893        0.0000000000000000     
   9.1123015264512233E-002  0.11814718481998589        0.0000000000000000     
   9.3464585737822625E-002  0.12511737821239674        0.0000000000000000     
   9.5702888084690033E-002  0.13225304580155151        0.0000000000000000     
   9.7837922305114414E-002  0.13955418758745014        0.0000000000000000     
   8.2051333773672963E-002  0.11059408355369596        0.0000000000000000     
   8.4334213242079570E-002  0.11742425252017111        0.0000000000000000     
   8.6527641387962734E-002  0.12441189855990899        0.0000000000000000     
   8.8631618211322441E-002  0.13155702167290959        0.0000000000000000     
   9.0646143712158678E-002  0.13885962185917292        0.0000000000000000     
   7.5381863751627698E-002  0.10990982225546955        0.0000000000000000     
   7.7481746938211971E-002  0.11676320125737918        0.0000000000000000     
   7.9496643455523527E-002  0.12376704211041627        0.0000000000000000     
   8.1426553303562382E-002  0.13092134481458084        0.0000000000000000     
   8.3271476482328535E-002  0.13822610936987290        0.0000000000000000     
   6.8669766598623047E-002  0.10928968172963974        0.0000000000000000     
   7.0565616352909408E-002  0.11616403103161009        0.0000000000000000     
   7.2371591940505034E-002  0.12318280886391866        0.0000000000000000     
   7.4087693361409912E-002  0.13034601522656536        0.0000000000000000     
   7.5713920615624014E-002  0.13765365011955019        0.0000000000000000     
   6.1915042314658997E-002  0.10873366197620650        0.0000000000000000     
   6.3585821486171909E-002  0.11562674184286389        0.0000000000000000     
   6.5152486842907226E-002  0.12265919882041609        0.0000000000000000     
   6.6615038384864947E-002  0.12983103290886305        0.0000000000000000     
   6.7973476112045073E-002  0.13714224410820477        0.0000000000000000     
   9.7837922305114414E-002  0.13955418758745014        0.0000000000000000     
   9.9794919612715360E-002  0.14690833361883712        0.0000000000000000     
  0.10149911122111244       0.15420301394445685        0.0000000000000000     
  0.10295049713030566       0.16143822856430931        0.0000000000000000     
  0.10414907734029501       0.16861397747839454        0.0000000000000000     
   9.0646143712158678E-002  0.13885962185917292        0.0000000000000000     
   9.2547593942151299E-002  0.14626667385167610        0.0000000000000000     
   9.4312344952980173E-002  0.15372515238339629        0.0000000000000000     
   9.5940396744645273E-002  0.16123505745433350        0.0000000000000000     
   9.7431749317146599E-002  0.16879638906448774        0.0000000000000000     
   8.3271476482328535E-002  0.13822610936987290        0.0000000000000000     
   8.5035111514736819E-002  0.14566230857571949        0.0000000000000000     
   8.6721156923702039E-002  0.15321091523154742        0.0000000000000000     
   8.8329612709224167E-002  0.16087192933735686        0.0000000000000000     
   8.9860478871303287E-002  0.16864535089314778        0.0000000000000000     
   7.5713920615624014E-002  0.13765365011955019        0.0000000000000000     
   7.7257472330471880E-002  0.14509523779096717        0.0000000000000000     
   7.8725547133277993E-002  0.15266030248891027        0.0000000000000000     
   8.0118145024042381E-002  0.16034884421337944        0.0000000000000000     
   8.1435266002765044E-002  0.16816086296437463        0.0000000000000000     
   6.7973476112045073E-002  0.13714224410820477        0.0000000000000000     
   6.9214676389356494E-002  0.14456546149741933        0.0000000000000000     
   7.0325515581708103E-002  0.15207331415548475        0.0000000000000000     
   7.1305993689099900E-002  0.15966580208240111        0.0000000000000000     
   7.2156110711531884E-002  0.16734292527816830        0.0000000000000000     
   0.0000000000000000        0.0000000000000000        0.0000000000000000     
   2.8805961407576209E-003   1.7427672317914034E-003   0.0000000000000000     
   5.8733717794395577E-003   3.8602787397313890E-003   0.0000000000000000     
   8.9783269160458104E-003   6.3525345238199579E-003   0.0000000000000000     
   1.2195461550576381E-002   9.2195345840571079E-003   0.0000000000000000     
   0.0000000000000000        0.0000000000000000        0.0000000000000000     
   2.6103384012152791E-003   1.5870355261751864E-003   0.0000000000000000     
   5.2893755032467479E-003   3.5529250547919377E-003   0.0000000000000000     
   8.0371113060944081E-003   5.8976685858502529E-003   0.0000000000000000     
   1.0853545809758256E-002   8.6212661193501312E-003   0.0000000000000000     
   0.0000000000000000        0.0000000000000000        0.0000000000000000     
   2.3398077354816436E-003   1.4574336864370870E-003   0.0000000000000000     
   4.7191531441995761E-003   3.2969122471783519E-003   0.0000000000000000     
   7.1380362261538001E-003   5.5184356822237952E-003   0.0000000000000000     
   9.5964569813443111E-003   8.1220039915734180E-003   0.0000000000000000     
   0.0000000000000000        0.0000000000000000        0.0000000000000000     
   2.0690041435567144E-003   1.3539617125771042E-003   0.0000000000000000     
   4.1627047022980449E-003   3.0922403168906327E-003   0.0000000000000000     
   6.2811016762239899E-003   5.2148358129405856E-003   0.0000000000000000     
   8.4241950653345492E-003   7.7217482007269616E-003   0.0000000000000000     
   0.0000000000000000        0.0000000000000000        0.0000000000000000     
   1.7979276254404919E-003   1.2766196045952390E-003   0.0000000000000000     
   3.6200301775421500E-003   2.9389092639287798E-003   0.0000000000000000     
   5.4663076563049749E-003   4.9868689780006234E-003   0.0000000000000000     
   7.3367600617289660E-003   7.4204987468107688E-003   0.0000000000000000     
   1.2195461550576381E-002   9.2195345840571079E-003   0.0000000000000000     
   1.5427082129991436E-002   1.2358982341581825E-002   0.0000000000000000     
   1.8575495101251147E-002   1.5668581217533086E-002   0.0000000000000000     
   2.1640700464355518E-002   1.9148331211910900E-002   0.0000000000000000     
   2.4622698219304542E-002   2.2798232324715256E-002   0.0000000000000000     
   1.0853545809758256E-002   8.6212661193501312E-003   0.0000000000000000     
   1.3684795816155627E-002   1.1641269214288810E-002   0.0000000000000000     
   1.6476978127203865E-002   1.4875229429663520E-002   0.0000000000000000     
   1.9230092742902955E-002   1.8323146765474262E-002   0.0000000000000000     
   2.1944139663252909E-002   2.1985021221721038E-002   0.0000000000000000     
   9.5964569813443111E-003   8.1220039915734180E-003   0.0000000000000000     
   1.2070092318388712E-002   1.1040157104580627E-002   0.0000000000000000     
   1.4534619145904610E-002   1.4205434950598846E-002   0.0000000000000000     
   1.6990037463891990E-002   1.7617837529628061E-002   0.0000000000000000     
   1.9436347272350860E-002   2.1277364841668284E-002   0.0000000000000000     
   8.4241950653345492E-003   7.7217482007269616E-003   0.0000000000000000     
   1.0582971636690692E-002   1.0555646012457282E-002   0.0000000000000000     
   1.2748418157353380E-002   1.3659197780339059E-002   0.0000000000000000     
   1.4920534627322622E-002   1.7032403504372299E-002   0.0000000000000000     
   1.7099321046598410E-002   2.0675263184556997E-002   0.0000000000000000     
   7.3367600617289660E-003   7.4204987468107688E-003   0.0000000000000000     
   9.2234337710615597E-003   1.0187735937918765E-002   0.0000000000000000     
   1.1118375161550186E-002   1.3236517918884166E-002   0.0000000000000000     
   1.3021584233194848E-002   1.6566844689706969E-002   0.0000000000000000     
   1.4933060985995545E-002   2.0178716250387179E-002   0.0000000000000000     
   2.4622698219304542E-002   2.2798232324715256E-002   0.0000000000000000     
   2.7522763485512674E-002   2.6642121637974886E-002   0.0000000000000000     
   3.0342171382394367E-002   3.0703836233718515E-002   0.0000000000000000     
   3.3080921909949615E-002   3.4983376111946136E-002   0.0000000000000000     
   3.5739015068178427E-002   3.9480741272657757E-002   0.0000000000000000     
   2.1944139663252909E-002   2.1985021221721038E-002   0.0000000000000000     
   2.4599700188415688E-002   2.5860698503072529E-002   0.0000000000000000     
   2.7177355618553264E-002   2.9950024314197406E-002   0.0000000000000000     
   2.9677105953665645E-002   3.4252998655095679E-002   0.0000000000000000     
   3.2098951193752827E-002   3.8769621525767350E-002   0.0000000000000000     
   1.9436347272350860E-002   2.1277364841668284E-002   0.0000000000000000     
   2.1842623165305806E-002   2.5167349528785438E-002   0.0000000000000000     
   2.4177939736781395E-002   2.9271124233045440E-002   0.0000000000000000     
   2.6442296986777636E-002   3.3588688954448304E-002   0.0000000000000000     
   2.8635694915294527E-002   3.8120043692994002E-002   0.0000000000000000     
   1.7099321046598410E-002   2.0675263184556997E-002   0.0000000000000000     
   1.9251532416183024E-002   2.4562074715113617E-002   0.0000000000000000     
   2.1343923737078749E-002   2.8667135990262611E-002   0.0000000000000000     
   2.3376495009285590E-002   3.2990447010003990E-002   0.0000000000000000     
   2.5349246232803536E-002   3.7532007774337732E-002   0.0000000000000000     
   1.4933060985995545E-002   2.0178716250387179E-002   0.0000000000000000     
   1.6826427941047349E-002   2.4044874062057072E-002   0.0000000000000000     
   1.8675307619445337E-002   2.8138059585848932E-002   0.0000000000000000     
   2.0479700021189495E-002   3.2458272821762758E-002   0.0000000000000000     
   2.2239605146279838E-002   3.7005513769798548E-002   0.0000000000000000     
   3.5739015068178427E-002   3.9480741272657757E-002   0.0000000000000000     
   3.8316320966434794E-002   4.4190729523373447E-002   0.0000000000000000     
   4.0812709714072727E-002   4.9108138671613240E-002   0.0000000000000000     
   4.3228181311092219E-002   5.4232968717377150E-002   0.0000000000000000     
   4.5562735757493290E-002   5.9565219660665185E-002   0.0000000000000000     
   3.2098951193752827E-002   3.8769621525767350E-002   0.0000000000000000     
   3.4438063771296996E-002   4.3495874325374217E-002   0.0000000000000000     
   3.6689616118780355E-002   4.8427738453078122E-002   0.0000000000000000     
   3.8853608236202895E-002   5.3565213908879049E-002   0.0000000000000000     
   4.0930040123564618E-002   5.8908300692777006E-002   0.0000000000000000     
   2.8635694915294527E-002   3.8120043692994002E-002   0.0000000000000000     
   3.0751694975881413E-002   4.2860499577449612E-002   0.0000000000000000     
   3.2783858622087637E-002   4.7805367736582186E-002   0.0000000000000000     
   3.4732185853913196E-002   5.2954648170391701E-002   0.0000000000000000     
   3.6596676671358096E-002   5.8308340878878172E-002   0.0000000000000000     
   2.5349246232803536E-002   3.7532007774337732E-002   0.0000000000000000     
   2.7257214580188049E-002   4.2284605279599631E-002   0.0000000000000000     
   2.9095437223994578E-002   4.7241026522125425E-002   0.0000000000000000     
   3.0863914164223127E-002   5.2401271501915106E-002   0.0000000000000000     
   3.2562645400873703E-002   5.7765340218968689E-002   0.0000000000000000     
   2.2239605146279838E-002   3.7005513769798548E-002   0.0000000000000000     
   2.3954622584216888E-002   4.1768191431824260E-002   0.0000000000000000     
   2.5624351924501177E-002   4.6734714809707839E-002   0.0000000000000000     
   2.7248793167132690E-002   5.1905083903449264E-002   0.0000000000000000     
   2.8827946312111444E-002   5.7279298713048571E-002   0.0000000000000000     
   4.5562735757493290E-002   5.9565219660665185E-002   0.0000000000000000     
   4.7830020977735477E-002   6.5091990157115920E-002   0.0000000000000000     
   5.0043684896278376E-002   7.0800378862367966E-002   0.0000000000000000     
   5.2203727513121974E-002   7.6690385776421274E-002   0.0000000000000000     
   5.4310148828266278E-002   8.2762010899275901E-002   0.0000000000000000     
   4.0930040123564618E-002   5.8908300692777006E-002   0.0000000000000000     
   4.2940720219610581E-002   6.4446946269473976E-002   0.0000000000000000     
   4.4907456963085811E-002   7.0171098103671933E-002   0.0000000000000000     
   4.6830250353990313E-002   7.6080756195370886E-002   0.0000000000000000     
   4.8709100392324081E-002   8.2175920544570819E-002   0.0000000000000000     
   3.6596676671358096E-002   5.8308340878878172E-002   0.0000000000000000     
   3.8400460412110059E-002   6.3858931363662857E-002   0.0000000000000000     
   4.0166666413856793E-002   6.9598905126366975E-002   0.0000000000000000     
   4.1895294676598312E-002   7.5528262166990545E-002   0.0000000000000000     
   4.3586345200334609E-002   8.1647002485533554E-002   0.0000000000000000     
   3.2562645400873703E-002   5.7765340218968689E-002   0.0000000000000000     
   3.4209241555233902E-002   6.3327945439682565E-002   0.0000000000000000     
   3.5821313248591322E-002   6.9083799930453063E-002   0.0000000000000000     
   3.7398860480945983E-002   7.5032903691280253E-002   0.0000000000000000     
   3.8941883252297860E-002   8.1175256722164107E-002   0.0000000000000000     
   2.8827946312111444E-002   5.7279298713048571E-002   0.0000000000000000     
   3.0367063648982118E-002   6.2853988497533098E-002   0.0000000000000000     
   3.1871397467289411E-002   6.8625782515930267E-002   0.0000000000000000     
   3.3340947767033308E-002   7.4594680768240038E-002   0.0000000000000000     
   3.4775714548213821E-002   8.0760683254462465E-002   0.0000000000000000     
   5.4310148828266278E-002   8.2762010899275901E-002   0.0000000000000000     
   5.6345162669386807E-002   8.9007064762025509E-002   0.0000000000000000     
   5.8290982864159097E-002   9.5417357895763805E-002   0.0000000000000000     
   6.0147609412583153E-002  0.10199289030049080        0.0000000000000000     
   6.1915042314658997E-002  0.10873366197620650        0.0000000000000000     
   4.8709100392324081E-002   8.2175920544570819E-002   0.0000000000000000     
   5.0523636756886446E-002   8.8445789345184989E-002   0.0000000000000000     
   5.2253489126476711E-002   9.4879560791126569E-002   0.0000000000000000     
   5.3898657501094870E-002  0.10147723488239559        0.0000000000000000     
   5.5459141880740942E-002  0.10823881161899199        0.0000000000000000     
   4.3586345200334609E-002   8.1647002485533554E-002   0.0000000000000000     
   4.5219114633356108E-002   8.7941775003428438E-002   0.0000000000000000     
   4.6772899623953215E-002   9.4399228642107508E-002   0.0000000000000000     
   4.8247700172125950E-002  0.10101936340157082        0.0000000000000000     
   4.9643516277874278E-002  0.10780217928181834        0.0000000000000000     
   3.8941883252297860E-002   8.1175256722164107E-002   0.0000000000000000     
   4.0431596298795801E-002   8.7495021736755829E-002   0.0000000000000000     
   4.1849214356588650E-002   9.3976361448706636E-002   0.0000000000000000     
   4.3194737425676387E-002  0.10061927585801658        0.0000000000000000     
   4.4468165506059025E-002  0.10742376496468561        0.0000000000000000     
   3.4775714548213821E-002   8.0760683254462465E-002   0.0000000000000000     
   3.6161081753205523E-002   8.7105529545167190E-002   0.0000000000000000     
   3.7482433324382988E-002   9.3610959210923980E-002   0.0000000000000000     
   3.8739769261746201E-002  0.10027697225173282        0.0000000000000000     
   3.9933089565295184E-002  0.10710356866759374        0.0000000000000000     
   6.1915042314658997E-002  0.10873366197620650        0.0000000000000000     
   6.3585821486171909E-002  0.11562674184286389        0.0000000000000000     
   6.5152486842907226E-002  0.12265919882041609        0.0000000000000000     
   6.6615038384864947E-002  0.12983103290886305        0.0000000000000000     
   6.7973476112045073E-002  0.13714224410820477        0.0000000000000000     
   5.5459141880740942E-002  0.10823881161899199        0.0000000000000000     
   5.6919343956108114E-002  0.11515031767389532        0.0000000000000000     
   5.8263665417889632E-002  0.12219777972008511        0.0000000000000000     
   5.9492106266085455E-002  0.12938119775756127        0.0000000000000000     
   6.0604666500695625E-002  0.13670057178632386        0.0000000000000000     
   4.9643516277874278E-002  0.10780217928181834        0.0000000000000000     
   5.0943165380826723E-002  0.11473374250745912        0.0000000000000000     
   5.2129464920611747E-002  0.12180011930310208        0.0000000000000000     
   5.3202414897229364E-002  0.12900130966874732        0.0000000000000000     
   5.4162015310679559E-002  0.13633731360439474        0.0000000000000000     
   4.4468165506059025E-002  0.10742376496468561        0.0000000000000000     
   4.5657285760327716E-002  0.11437701634355527        0.0000000000000000     
   4.6749885351073592E-002  0.12146621756946711        0.0000000000000000     
   4.7745964278296631E-002  0.12869136864242117        0.0000000000000000     
   4.8645522541996875E-002  0.13605246956241737        0.0000000000000000     
   3.9933089565295184E-002  0.10710356866759374        0.0000000000000000     
   4.1061705094611108E-002  0.11408013918218381        0.0000000000000000     
   4.2124926709275139E-002  0.12119607451918017        0.0000000000000000     
   4.3122754409287298E-002  0.12845137467858284        0.0000000000000000     
   4.4055188194647578E-002  0.13584603966039183        0.0000000000000000     
   6.7973476112045073E-002  0.13714224410820477        0.0000000000000000     
   6.9214676389356494E-002  0.14456546149741933        0.0000000000000000     
   7.0325515581708103E-002  0.15207331415548475        0.0000000000000000     
   7.1305993689099900E-002  0.15966580208240111        0.0000000000000000     
   7.2156110711531884E-002  0.16734292527816830        0.0000000000000000     
   6.0604666500695625E-002  0.13670057178632386        0.0000000000000000     
   6.1563023612317053E-002  0.14410605147658076        0.0000000000000000     
   6.2328855091546669E-002  0.15154778649853992        0.0000000000000000     
   6.2902160938384494E-002  0.15902577685220126        0.0000000000000000     
   6.3282941152830521E-002  0.16654002253756481        0.0000000000000000     
   5.4162015310679559E-002  0.13633731360439474        0.0000000000000000     
   5.4958813920279931E-002  0.14375007950995647        0.0000000000000000     
   5.5543358485348075E-002  0.15118155578534465        0.0000000000000000     
   5.5915649005883993E-002  0.15863174243055922        0.0000000000000000     
   5.6075685481887676E-002  0.16610063944560025        0.0000000000000000     
   4.8645522541996875E-002  0.13605246956241737        0.0000000000000000     
   4.9402047313245157E-002  0.14349754559754643        0.0000000000000000     
   4.9969025763112317E-002  0.15097462201589898        0.0000000000000000     
   5.0346457891598390E-002  0.15848369881747504        0.0000000000000000     
   5.0534343698703341E-002  0.16602477600227461        0.0000000000000000     
   4.4055188194647578E-002  0.13584603966039183        0.0000000000000000     
   4.4892723791212709E-002  0.14334844973935065        0.0000000000000000     
   4.5605856924839393E-002  0.15092698519020292        0.0000000000000000     
   4.6194587595527678E-002  0.15858164601294866        0.0000000000000000     
   4.6658915803277537E-002  0.16631243220758785        0.0000000000000000     
   0.0000000000000000        0.0000000000000000        0.0000000000000000     
   1.7979276254404919E-003   1.2766196045952390E-003   0.0000000000000000     
   3.6200301775421500E-003   2.9389092639287798E-003   0.0000000000000000     
   5.4663076563049749E-003   4.9868689780006234E-003   0.0000000000000000     
   7.3367600617289660E-003   7.4204987468107688E-003   0.0000000000000000     
   0.0000000000000000        0.0000000000000000        0.0000000000000000     
   1.5347302559204669E-003   1.2181239578119318E-003   0.0000000000000000     
   3.0982624130544813E-003   2.8221238610452010E-003   0.0000000000000000     
   4.6905964714020441E-003   4.8119997096998067E-003   0.0000000000000000     
   6.3117324309631554E-003   7.1877515037757503E-003   0.0000000000000000     
   0.0000000000000000        0.0000000000000000        0.0000000000000000     
   1.2875641097841305E-003   1.1711913675476241E-003   0.0000000000000000     
   2.6045342519576244E-003   2.7270888809923020E-003   0.0000000000000000     
   3.9509104265204823E-003   4.6676925403340338E-003   0.0000000000000000     
   5.3266926334727040E-003   6.9930023455728203E-003   0.0000000000000000     
   0.0000000000000000        0.0000000000000000        0.0000000000000000     
   1.0564291870314830E-003   1.1358218338023154E-003   0.0000000000000000     
   2.1388456942515802E-003   2.6538043237700833E-003   0.0000000000000000     
   3.2472495216602907E-003   4.5539474699033029E-003   0.0000000000000000     
   4.3816406692576155E-003   6.8362512722019769E-003   0.0000000000000000     
   0.0000000000000000        0.0000000000000000        0.0000000000000000     
   8.4132548766252416E-004   1.1120153565760060E-003   0.0000000000000000     
   1.7011967399363469E-003   2.6022701893785452E-003   0.0000000000000000     
   2.5796137568214680E-003   4.4707644984076167E-003   0.0000000000000000     
   3.4765765383178875E-003   6.7174982836632220E-003   0.0000000000000000     
   7.3367600617289660E-003   7.4204987468107688E-003   0.0000000000000000     
   9.2234337710615597E-003   1.0187735937918765E-002   0.0000000000000000     
   1.1118375161550186E-002   1.3236517918884166E-002   0.0000000000000000     
   1.3021584233194848E-002   1.6566844689706969E-002   0.0000000000000000     
   1.4933060985995545E-002   2.0178716250387179E-002   0.0000000000000000     
   6.3117324309631554E-003   7.1877515037757503E-003   0.0000000000000000     
   7.9491578456264977E-003   9.9004004451740540E-003   0.0000000000000000     
   9.5903602692807600E-003   1.2900967735795750E-002   0.0000000000000000     
   1.1235339701925943E-002   1.6189453375640830E-002   0.0000000000000000     
   1.2884096143562044E-002   1.9765857364709302E-002   0.0000000000000000     
   5.3266926334727040E-003   6.9930023455728203E-003   0.0000000000000000     
   6.7178229845106926E-003   9.6576130984321155E-003   0.0000000000000000     
   8.1102435913308520E-003   1.2616119600635389E-002   0.0000000000000000     
   9.5039544539331777E-003   1.5868521852182630E-002   0.0000000000000000     
   1.0898955572317674E-002   1.9414819853073841E-002   0.0000000000000000     
   4.3816406692576155E-003   6.8362512722019769E-003   0.0000000000000000     
   5.5294291877141400E-003   9.4593738976929530E-003   0.0000000000000000     
   6.6780251277004515E-003   1.2381973513403083E-002   0.0000000000000000     
   7.8274284892165501E-003   1.5604050119332368E-002   0.0000000000000000     
   8.9776392722624374E-003   1.9125603715480801E-002   0.0000000000000000     
   3.4765765383178875E-003   6.7174982836632220E-003   0.0000000000000000     
   4.3839764552368425E-003   9.3056828429565579E-003   0.0000000000000000     
   5.2937048783895683E-003   1.2198529474098834E-002   0.0000000000000000     
   6.2057618077760637E-003   1.5396038177090041E-002   0.0000000000000000     
   7.1201472433963311E-003   1.8898208951930184E-002   0.0000000000000000     
   1.4933060985995545E-002   2.0178716250387179E-002   0.0000000000000000     
   1.6826427941047349E-002   2.4044874062057072E-002   0.0000000000000000     
   1.8675307619445337E-002   2.8138059585848932E-002   0.0000000000000000     
   2.0479700021189495E-002   3.2458272821762758E-002   0.0000000000000000     
   2.2239605146279838E-002   3.7005513769798548E-002   0.0000000000000000     
   1.2884096143562044E-002   1.9765857364709302E-002   0.0000000000000000     
   1.4520143305543850E-002   2.3604611702311866E-002   0.0000000000000000     
   1.6126994899226157E-002   2.7680148387759222E-002   0.0000000000000000     
   1.7704650924608954E-002   3.1992467421051385E-002   0.0000000000000000     
   1.9253111381692251E-002   3.6541568802188354E-002   0.0000000000000000     
   1.0898955572317674E-002   1.9414819853073841E-002   0.0000000000000000     
   1.2285512075317605E-002   2.3230151768574063E-002   0.0000000000000000     
   1.3653889091766231E-002   2.7289655763948342E-002   0.0000000000000000     
   1.5004086621663556E-002   3.1593331839196666E-002   0.0000000000000000     
   1.6336104665009579E-002   3.6141179994319053E-002   0.0000000000000000     
   8.9776392722624374E-003   1.9125603715480801E-002   0.0000000000000000     
   1.0122534250368607E-002   2.2921494260843674E-002   0.0000000000000000     
   1.1255990197065557E-002   2.6966581714416279E-002   0.0000000000000000     
   1.2378007112353295E-002   3.1260866076198601E-002   0.0000000000000000     
   1.3488584996231812E-002   3.5804347346190653E-002   0.0000000000000000     
   7.1201472433963311E-003   1.8898208951930184E-002   0.0000000000000000     
   8.0312098306968612E-003   2.2678639179120701E-002   0.0000000000000000     
   8.9332982151241417E-003   2.6710926239163036E-002   0.0000000000000000     
   9.8264123966781743E-003   3.0995070132057191E-002   0.0000000000000000     
   1.0710552375358959E-002   3.5531070857803160E-002   0.0000000000000000     
   2.2239605146279838E-002   3.7005513769798548E-002   0.0000000000000000     
   2.3954622584216888E-002   4.1768191431824260E-002   0.0000000000000000     
   2.5624351924501177E-002   4.6734714809707839E-002   0.0000000000000000     
   2.7248793167132690E-002   5.1905083903449264E-002   0.0000000000000000     
   2.8827946312111444E-002   5.7279298713048571E-002   0.0000000000000000     
   1.9253111381692251E-002   3.6541568802188354E-002   0.0000000000000000     
   2.0776386845251311E-002   4.1311372181355652E-002   0.0000000000000000     
   2.2278487890061385E-002   4.6285797208738842E-002   0.0000000000000000     
   2.3759414516122485E-002   5.1464843884337926E-002   0.0000000000000000     
   2.5219166723434605E-002   5.6848512208152888E-002   0.0000000000000000     
   1.6336104665009579E-002   3.6141179994319053E-002   0.0000000000000000     
   1.7654975220574663E-002   4.0914261675425966E-002   0.0000000000000000     
   1.8965730287129171E-002   4.5893638328627875E-002   0.0000000000000000     
   2.0268369864673109E-002   5.1079309953924817E-002   0.0000000000000000     
   2.1562893953206472E-002   5.6471276551316757E-002   0.0000000000000000     
   1.3488584996231812E-002   3.5804347346190653E-002   0.0000000000000000     
   1.4590387710186946E-002   4.0576859914035188E-002   0.0000000000000000     
   1.5686079115704531E-002   4.5558238169374952E-002   0.0000000000000000     
   1.6775659212784559E-002   5.0748482112209947E-002   0.0000000000000000     
   1.7859128001427048E-002   5.6147591742540179E-002   0.0000000000000000     
   1.0710552375358959E-002   3.5531070857803160E-002   0.0000000000000000     
   1.1582624314088165E-002   4.0299166897183325E-002   0.0000000000000000     
   1.2439534375787461E-002   4.5279596730980032E-002   0.0000000000000000     
   1.3281282560456846E-002   5.0472360359193322E-002   0.0000000000000000     
   1.4107868868096323E-002   5.5877457781823153E-002   0.0000000000000000     
   2.8827946312111444E-002   5.7279298713048571E-002   0.0000000000000000     
   3.0367063648982118E-002   6.2853988497533098E-002   0.0000000000000000     
   3.1871397467289411E-002   6.8625782515930267E-002   0.0000000000000000     
   3.3340947767033308E-002   7.4594680768240038E-002   0.0000000000000000     
   3.4775714548213821E-002   8.0760683254462465E-002   0.0000000000000000     
   2.5219166723434605E-002   5.6848512208152888E-002   0.0000000000000000     
   2.6650758784393803E-002   6.2434604875626770E-002   0.0000000000000000     
   2.8047204971396126E-002   6.8220924582202594E-002   0.0000000000000000     
   2.9408505284441583E-002   7.4207471327880359E-002   0.0000000000000000     
   3.0734659723530171E-002   8.0394245112660079E-002   0.0000000000000000     
   2.1562893953206472E-002   5.6471276551316757E-002   0.0000000000000000     
   2.2837159052508035E-002   6.2067338912375820E-002   0.0000000000000000     
   2.4079021662356578E-002   6.7865297828674134E-002   0.0000000000000000     
   2.5288481782752083E-002   7.3865153300211678E-002   0.0000000000000000     
   2.6465539413694564E-002   8.0066905326988458E-002   0.0000000000000000     
   1.7859128001427048E-002   5.6147591742540179E-002   0.0000000000000000     
   1.8926264453324824E-002   6.1752190607780276E-002   0.0000000000000000     
   1.9966847540170741E-002   6.7558902255344888E-002   0.0000000000000000     
   2.0980877261964802E-002   7.3567726685233994E-002   0.0000000000000000     
   2.1968353618707005E-002   7.9778663897447616E-002   0.0000000000000000     
   1.4107868868096323E-002   5.5877457781823153E-002   0.0000000000000000     
   1.4918074986844164E-002   6.1489159961840144E-002   0.0000000000000000     
   1.5710682604838634E-002   6.7301737862214869E-002   0.0000000000000000     
   1.6485691722079743E-002   7.3315191482947309E-002   0.0000000000000000     
   1.7243102338567486E-002   7.9529520824037511E-002   0.0000000000000000     
   3.4775714548213821E-002   8.0760683254462465E-002   0.0000000000000000     
   3.6161081753205523E-002   8.7105529545167190E-002   0.0000000000000000     
   3.7482433324382988E-002   9.3610959210923980E-002   0.0000000000000000     
   3.8739769261746201E-002  0.10027697225173282        0.0000000000000000     
   3.9933089565295184E-002  0.10710356866759374        0.0000000000000000     
   3.0734659723530171E-002   8.0394245112660079E-002   0.0000000000000000     
   3.2015566857420387E-002   8.6761155799862821E-002   0.0000000000000000     
   3.3241125254870725E-002   9.3288113252809737E-002   0.0000000000000000     
   3.4411334915881171E-002   9.9975117471500785E-002   0.0000000000000000     
   3.5526195840451753E-002  0.10682216845593596        0.0000000000000000     
   2.6465539413694564E-002   8.0066905326988458E-002   0.0000000000000000     
   2.7603047472275488E-002   8.6449757872043079E-002   0.0000000000000000     
   2.8693858875586335E-002   9.2992914898414145E-002   0.0000000000000000     
   2.9737973623627078E-002   9.9696376406101642E-002   0.0000000000000000     
   3.0735391716397744E-002  0.10656014239510554        0.0000000000000000     
   2.1968353618707005E-002   7.9778663897447616E-002   0.0000000000000000     
   2.2923523597770841E-002   8.6171335761707935E-002   0.0000000000000000     
   2.3840634186529819E-002   9.2725364147737188E-002   0.0000000000000000     
   2.4719685384983918E-002   9.9440749055535377E-002   0.0000000000000000     
   2.5560677193133170E-002  0.10631749048510247        0.0000000000000000     
   1.7243102338567486E-002   7.9529520824037511E-002   0.0000000000000000     
   1.7976995233906438E-002   8.5925889468857375E-002   0.0000000000000000     
   1.8681451187701176E-002   9.2485461000778882E-002   0.0000000000000000     
   1.9356470199951702E-002   9.9208235419801977E-002   0.0000000000000000     
   2.0002052270658013E-002  0.10609421272592676        0.0000000000000000     
   3.9933089565295184E-002  0.10710356866759374        0.0000000000000000     
   4.1061705094611108E-002  0.11408013918218381        0.0000000000000000     
   4.2124926709275139E-002  0.12119607451918017        0.0000000000000000     
   4.3122754409287298E-002  0.12845137467858284        0.0000000000000000     
   4.4055188194647578E-002  0.13584603966039183        0.0000000000000000     
   3.5526195840451753E-002  0.10682216845593596        0.0000000000000000     
   3.6596186658259935E-002  0.11382086937708573        0.0000000000000000     
   3.7631785998983223E-002  0.12096282340592050        0.0000000000000000     
   3.8632993862621604E-002  0.12824803054244033        0.0000000000000000     
   3.9599810249175089E-002  0.13567649078664515        0.0000000000000000     
   3.0735391716397744E-002  0.10656014239510554        0.0000000000000000     
   3.1700493725857280E-002  0.11357696528200209        0.0000000000000000     
   3.2647660223964640E-002  0.12073959748336742        0.0000000000000000     
   3.3576891210719821E-002  0.12804803899920159        0.0000000000000000     
   3.4488186686122829E-002  0.13550228982950455        0.0000000000000000     
   2.5560677193133170E-002  0.10631749048510247        0.0000000000000000     
   2.6374626297403132E-002  0.11334842689693285        0.0000000000000000     
   2.7172549384219393E-002  0.12052639675152092        0.0000000000000000     
   2.7954446453581947E-002  0.12785140004886661        0.0000000000000000     
   2.8720317505490815E-002  0.13532343678896996        0.0000000000000000     
   2.0002052270658013E-002  0.10609421272592676        0.0000000000000000     
   2.0618584372897479E-002  0.11313525422187809        0.0000000000000000     
   2.1206453479747471E-002  0.12032322121038096        0.0000000000000000     
   2.1765659591207992E-002  0.12765811369143543        0.0000000000000000     
   2.2296202707279038E-002  0.13513993166504143        0.0000000000000000     
   4.4055188194647578E-002  0.13584603966039183        0.0000000000000000     
   4.4892723791212709E-002  0.14334844973935065        0.0000000000000000     
   4.5605856924839393E-002  0.15092698519020292        0.0000000000000000     
   4.6194587595527678E-002  0.15858164601294866        0.0000000000000000     
   4.6658915803277537E-002  0.16631243220758785        0.0000000000000000     
   3.9599810249175089E-002  0.13567649078664515        0.0000000000000000     
   4.0522167649282272E-002  0.14323941937139295        0.0000000000000000     
   4.1389998553581775E-002  0.15092803152954171        0.0000000000000000     
   4.2203302962073599E-002  0.15874232726109141        0.0000000000000000     
   4.2962080874757738E-002  0.16668230656604208        0.0000000000000000     
   3.4488186686122829E-002  0.13550228982950455        0.0000000000000000     
   3.5381703182553563E-002  0.14310708192969723        0.0000000000000000     
   3.6257597232391907E-002  0.15086714725520059        0.0000000000000000     
   3.7115868835637868E-002  0.15878248580601456        0.0000000000000000     
   3.7956517992291453E-002  0.16685309758213923        0.0000000000000000     
   2.8720317505490815E-002  0.13532343678896996        0.0000000000000000     
   2.9471330391026569E-002  0.14295143741426344        0.0000000000000000     
   3.0208652961269799E-002  0.15074433236717949        0.0000000000000000     
   3.0932285216220504E-002  0.15870212164771816        0.0000000000000000     
   3.1642227155878687E-002  0.16682480525587945        0.0000000000000000     
   2.2296202707279038E-002  0.13513993166504143        0.0000000000000000     
   2.2791049274701294E-002  0.14277248582509158        0.0000000000000000     
   2.3243165740215444E-002  0.15055958686547849        0.0000000000000000     
   2.3652552103821486E-002  0.15850123478620215        0.0000000000000000     
   2.4019208365519427E-002  0.16659742958726259        0.0000000000000000     
   0.0000000000000000        0.0000000000000000        0.0000000000000000     
   8.4132548766252416E-004   1.1120153565760060E-003   0.0000000000000000     
   1.7011967399363469E-003   2.6022701893785452E-003   0.0000000000000000     
   2.5796137568214680E-003   4.4707644984076167E-003   0.0000000000000000     
   3.4765765383178875E-003   6.7174982836632220E-003   0.0000000000000000     
   0.0000000000000000        0.0000000000000000        0.0000000000000000     
   6.3342657892381327E-004   1.0962435262309471E-003   0.0000000000000000     
   1.2771500792212993E-003   2.5666936317759485E-003   0.0000000000000000     
   1.9311705008924582E-003   4.4113503166350052E-003   0.0000000000000000     
   2.5954878439372903E-003   6.6302135808081154E-003   0.0000000000000000     
   0.0000000000000000        0.0000000000000000        0.0000000000000000     
   4.2390602806190896E-004   1.0849779331293895E-003   0.0000000000000000     
   8.5226840231581043E-004   2.5412818049205558E-003   0.0000000000000000     
   1.2850871227617047E-003   4.3689116153734992E-003   0.0000000000000000     
   1.7223621893995911E-003   6.5678673644882189E-003   0.0000000000000000     
   0.0000000000000000        0.0000000000000000        0.0000000000000000     
   2.1276383507681142E-004   1.0782185772713333E-003   0.0000000000000000     
   4.2655170921988042E-004   2.5260347088123668E-003   0.0000000000000000     
   6.4136362242920696E-004   4.3434483946231004E-003   0.0000000000000000     
   8.5719957470479081E-004   6.5304596347035334E-003   0.0000000000000000     
   0.0000000000000000        0.0000000000000000        0.0000000000000000     
  -3.1479403502301939E-014   1.0759654586567787E-003   0.0000000000000000     
  -6.6491029262344403E-014   2.5209523434513810E-003   0.0000000000000000     
  -1.0503485017507308E-013   4.3349606543838072E-003   0.0000000000000000     
  -1.4711102887081384E-013   6.5179903914540571E-003   0.0000000000000000     
   3.4765765383178875E-003   6.7174982836632220E-003   0.0000000000000000     
   4.3839764552368425E-003   9.3056828429565579E-003   0.0000000000000000     
   5.2937048783895683E-003   1.2198529474098834E-002   0.0000000000000000     
   6.2057618077760637E-003   1.5396038177090041E-002   0.0000000000000000     
   7.1201472433963311E-003   1.8898208951930184E-002   0.0000000000000000     
   2.5954878439372903E-003   6.6302135808081154E-003   0.0000000000000000     
   3.2669912765343279E-003   9.1906929839407243E-003   0.0000000000000000     
   3.9425699668621042E-003   1.2060198085678275E-002   0.0000000000000000     
   4.6222239149206201E-003   1.5238728886020765E-002   0.0000000000000000     
   5.3059531207098748E-003   1.8726285384968195E-002   0.0000000000000000     
   1.7223621893995911E-003   6.5678673644882189E-003   0.0000000000000000     
   2.1640001410621278E-003   9.1085573703632294E-003   0.0000000000000000     
   2.6099075165819715E-003   1.1961389951097037E-002   0.0000000000000000     
   3.0600843159591224E-003   1.5126365106689648E-002   0.0000000000000000     
   3.5145305391935805E-003   1.8603482837141059E-002   0.0000000000000000     
   8.5719957470479081E-004   6.5304596347035334E-003   0.0000000000000000     
   1.0750030488202414E-003   9.0592760022240731E-003   0.0000000000000000     
   1.2957175275491678E-003   1.1902105070355126E-002   0.0000000000000000     
   1.5193430108915705E-003   1.5058946839096690E-002   0.0000000000000000     
   1.7458794988474485E-003   1.8529801308448769E-002   0.0000000000000000     
  -1.4711102887081384E-013   6.5179903914540571E-003   0.0000000000000000     
  -1.9133053973628689E-013   9.0428488795232572E-003   0.0000000000000000     
  -2.3630559721444719E-013   1.1882343443452537E-002   0.0000000000000000     
  -2.8203523060553719E-013   1.5036474083241892E-002   0.0000000000000000     
  -3.2852019715701175E-013   1.8505240798891327E-002   0.0000000000000000     
   7.1201472433963311E-003   1.8898208951930184E-002   0.0000000000000000     
   8.0312098306968612E-003   2.2678639179120701E-002   0.0000000000000000     
   8.9332982151241417E-003   2.6710926239163036E-002   0.0000000000000000     
   9.8264123966781743E-003   3.0995070132057191E-002   0.0000000000000000     
   1.0710552375358959E-002   3.5531070857803160E-002   0.0000000000000000     
   5.3059531207098748E-003   1.8726285384968195E-002   0.0000000000000000     
   5.9876359284802873E-003   2.2494929543991536E-002   0.0000000000000000     
   6.6611506824822775E-003   2.6516723324561745E-002   0.0000000000000000     
   7.3264973827158455E-003   3.0791666726678830E-002   0.0000000000000000     
   7.9836760291809913E-003   3.5319759750342794E-002   0.0000000000000000     
   3.5145305391935805E-003   1.8603482837141059E-002   0.0000000000000000     
   3.9679096558968077E-003   2.2363708376042585E-002   0.0000000000000000     
   4.4148851356802677E-003   2.6378006956985549E-002   0.0000000000000000     
   4.8554569785439596E-003   3.0646378579969945E-002   0.0000000000000000     
   5.2896251844878834E-003   3.5168823244995769E-002   0.0000000000000000     
   1.7458794988474485E-003   1.8529801308448769E-002   0.0000000000000000     
   1.9720310129464221E-003   2.2284975675273853E-002   0.0000000000000000     
   2.1945015747181114E-003   2.6294777136434435E-002   0.0000000000000000     
   2.4132911841625157E-003   3.0559205691930522E-002   0.0000000000000000     
   2.6283998412796354E-003   3.5078261341762111E-002   0.0000000000000000     
  -3.2852019715701175E-013   1.8505240798891327E-002   0.0000000000000000     
  -3.7086918822440418E-013   2.2258731441685338E-002   0.0000000000000000     
  -4.0419084095313917E-013   2.6267033862908414E-002   0.0000000000000000     
  -4.2848598204737326E-013   3.0530148062560571E-002   0.0000000000000000     
  -4.4375375769789560E-013   3.5048074040641794E-002   0.0000000000000000     
   1.0710552375358959E-002   3.5531070857803160E-002   0.0000000000000000     
   1.1582624314088165E-002   4.0299166897183325E-002   0.0000000000000000     
   1.2439534375787461E-002   4.5279596730980032E-002   0.0000000000000000     
   1.3281282560456846E-002   5.0472360359193322E-002   0.0000000000000000     
   1.4107868868096323E-002   5.5877457781823153E-002   0.0000000000000000     
   7.9836760291809913E-003   3.5319759750342794E-002   0.0000000000000000     
   8.6241967902145646E-003   4.0082308083162037E-002   0.0000000000000000     
   9.2395698341534108E-003   4.5060617412744974E-002   0.0000000000000000     
   9.8297951609975353E-003   5.0254687739091621E-002   0.0000000000000000     
   1.0394872770746934E-002   5.5664519062201955E-002   0.0000000000000000     
   5.2896251844878834E-003   3.5168823244995769E-002   0.0000000000000000     
   5.7076168965023892E-003   3.9927408930262996E-002   0.0000000000000000     
   6.0996592575778283E-003   4.4904203613971586E-002   0.0000000000000000     
   6.4657522677141997E-003   5.0099207296121537E-002   0.0000000000000000     
   6.8058959269115043E-003   5.5512419976712836E-002   0.0000000000000000     
   2.6283998412796354E-003   3.5078261341762111E-002   0.0000000000000000     
   2.8328846329516428E-003   3.9834469438486224E-002   0.0000000000000000     
   3.0198026460607121E-003   4.4810355334659858E-002   0.0000000000000000     
   3.1891538806068432E-003   5.0005919030283064E-002   0.0000000000000000     
   3.3409383365900357E-003   5.5421160525355798E-002   0.0000000000000000     
  -4.4375375769789560E-013   3.5048074040641794E-002   0.0000000000000000     
  -4.3767680452111435E-013   3.9803489607831685E-002   0.0000000000000000     
  -3.9793770492332903E-013   4.4779072574809814E-002   0.0000000000000000     
  -3.2453693324299010E-013   4.9974822941576201E-002   0.0000000000000000     
  -2.1747382540626692E-013   5.5390740708130853E-002   0.0000000000000000     
   1.4107868868096323E-002   5.5877457781823153E-002   0.0000000000000000     
   1.4918074986844164E-002   6.1489159961840144E-002   0.0000000000000000     
   1.5710682604838634E-002   6.7301737862214869E-002   0.0000000000000000     
   1.6485691722079743E-002   7.3315191482947309E-002   0.0000000000000000     
   1.7243102338567486E-002   7.9529520824037511E-002   0.0000000000000000     
   1.0394872770746934E-002   5.5664519062201955E-002   0.0000000000000000     
   1.0943067625064055E-002   6.1281809622282767E-002   0.0000000000000000     
   1.1482644685611340E-002   6.7098257659540875E-002   0.0000000000000000     
   1.2013603952388789E-002   7.3113863173976251E-002   0.0000000000000000     
   1.2535945425396405E-002   7.9328626165588917E-002   0.0000000000000000     
   6.8058959269115043E-003   5.5512419976712836E-002   0.0000000000000000     
   7.1317193399824995E-003   6.1133702236835549E-002   0.0000000000000000     
   7.4548516117399384E-003   6.6952914657579743E-002   0.0000000000000000     
   7.7752927421838253E-003   7.2970057238945424E-002   0.0000000000000000     
   8.0930427313141567E-003   7.9185129980932564E-002   0.0000000000000000     
   3.3409383365900357E-003   5.5421160525355798E-002   0.0000000000000000     
   3.4840301315994982E-003   6.1044837805498478E-002   0.0000000000000000     
   3.6273033832244345E-003   6.6865708856331488E-002   0.0000000000000000     
   3.7707580914648491E-003   7.2883773677854813E-002   0.0000000000000000     
   3.9143942563207397E-003   7.9099032270068440E-002   0.0000000000000000     
  -2.1747382540626692E-013   5.5390740708130853E-002   0.0000000000000000     
  -8.4951360182494717E-014   6.1015216328271539E-002   0.0000000000000000     
   6.4826941557905027E-014   6.6836640255796054E-002   0.0000000000000000     
   2.3186137797052975E-013   7.2855012490704404E-002   0.0000000000000000     
   4.1615213879075963E-013   7.9070333032996584E-002   0.0000000000000000     
   1.7243102338567486E-002   7.9529520824037511E-002   0.0000000000000000     
   1.7976995233906438E-002   8.5925889468857375E-002   0.0000000000000000     
   1.8681451187701176E-002   9.2485461000778882E-002   0.0000000000000000     
   1.9356470199951702E-002   9.9208235419801977E-002   0.0000000000000000     
   2.0002052270658013E-002  0.10609421272592676        0.0000000000000000     
   1.2535945425396405E-002   7.9328626165588917E-002   0.0000000000000000     
   1.3043410075417840E-002   8.5725550882741919E-002   0.0000000000000000     
   1.3529738873236746E-002   9.2287641573798346E-002   0.0000000000000000     
   1.3994931818853121E-002   9.9014898238758212E-002   0.0000000000000000     
   1.4438988912266963E-002  0.10590732087762153        0.0000000000000000     
   8.0930427313141567E-003   7.9185129980932564E-002   0.0000000000000000     
   8.4027158170406086E-003   8.5582451892612071E-002   0.0000000000000000     
   8.6989262372728481E-003   9.2146341983054811E-002   0.0000000000000000     
   8.9816739920108753E-003   9.8876800252260783E-002   0.0000000000000000     
   9.2509590812546953E-003  0.10577382670023000        0.0000000000000000     
   3.9143942563207397E-003   7.9099032270068440E-002   0.0000000000000000     
   4.0549124587747403E-003   8.5496592498467791E-002   0.0000000000000000     
   4.1890132798094847E-003   9.2061562228548208E-002   0.0000000000000000     
   4.3166967194249745E-003   9.8793941460309648E-002   0.0000000000000000     
   4.4379627776212054E-003  0.10569373019375215        0.0000000000000000     
   4.1615213879075963E-013   7.9070333032996584E-002   0.0000000000000000     
   6.2023801893074104E-013   8.5467972700309133E-002   0.0000000000000000     
   8.4665819277338072E-013   9.2033302310278536E-002   0.0000000000000000     
   1.0954115083538704E-012   9.8766321862904835E-002   0.0000000000000000     
   1.3664984942207692E-012  0.10566703135818800        0.0000000000000000     
   2.0002052270658013E-002  0.10609421272592676        0.0000000000000000     
   2.0618584372897479E-002  0.11313525422187809        0.0000000000000000     
   2.1206453479747471E-002  0.12032322121038096        0.0000000000000000     
   2.1765659591207992E-002  0.12765811369143543        0.0000000000000000     
   2.2296202707279038E-002  0.13513993166504143        0.0000000000000000     
   1.4438988912266963E-002  0.10590732087762153        0.0000000000000000     
   1.4851575970297274E-002  0.11295545062932870        0.0000000000000000     
   1.5222358809763050E-002  0.12014982863282016        0.0000000000000000     
   1.5551337430664286E-002  0.12749045488809596        0.0000000000000000     
   1.5838511833000984E-002  0.13497732939515605        0.0000000000000000     
   9.2509590812546953E-003  0.10577382670023000        0.0000000000000000     
   9.4928091075594436E-003  0.11282701949177566        0.0000000000000000     
   9.6932516734802698E-003  0.12002597679171106        0.0000000000000000     
   9.8522867790171702E-003  0.12737069860003616        0.0000000000000000     
   9.9699144241701450E-003  0.13486118491675095        0.0000000000000000     
   4.4379627776212054E-003  0.10569373019375215        0.0000000000000000     
   4.5422837846839908E-003  0.11274996080921908        0.0000000000000000     
   4.6191320708991387E-003  0.11995166568705369        0.0000000000000000     
   4.6685076362666450E-003  0.12729884482725609        0.0000000000000000     
   4.6904104807865147E-003  0.13479149822982617        0.0000000000000000     
   1.3664984942207692E-012  0.10566703135818800        0.0000000000000000     
   1.6709142749982142E-012  0.11272427458165882        0.0000000000000000     
   2.0196528911081701E-012  0.11992689531884802        0.0000000000000000     
   2.4127127704574869E-012  0.12727489356975563        0.0000000000000000     
   2.8500968946021388E-012  0.13476826933438166        0.0000000000000000     
   2.2296202707279038E-002  0.13513993166504143        0.0000000000000000     
   2.2791049274701294E-002  0.14277248582509158        0.0000000000000000     
   2.3243165740215444E-002  0.15055958686547849        0.0000000000000000     
   2.3652552103821486E-002  0.15850123478620215        0.0000000000000000     
   2.4019208365519427E-002  0.16659742958726259        0.0000000000000000     
   1.5838511833000984E-002  0.13497732939515605        0.0000000000000000     
   1.6067682236195296E-002  0.14260570633987307        0.0000000000000000     
   1.6222648859669359E-002  0.15037083990811964        0.0000000000000000     
   1.6303411703423178E-002  0.15827273009989570        0.0000000000000000     
   1.6309970767456744E-002  0.16631137691520131        0.0000000000000000     
   9.9699144241701450E-003  0.13486118491675095        0.0000000000000000     
   1.0028051678126126E-002  0.14248657813629931        0.0000000000000000     
   1.0008615610072043E-002  0.15023602065312494        0.0000000000000000     
   9.9116062200079007E-003  0.15810951246722801        0.0000000000000000     
   9.7370235079336943E-003  0.16610705357860836        0.0000000000000000     
   4.6904104807865147E-003  0.13479149822982617        0.0000000000000000     
   4.6721576004937872E-003  0.14241510121437026        0.0000000000000000     
   4.6010659914235037E-003  0.15015512910049450        0.0000000000000000     
   4.4771356535756660E-003  0.15801158188819897        0.0000000000000000     
   4.3003665869502730E-003  0.16598445957748356        0.0000000000000000     
   2.8500968946021388E-012  0.13476826933438166        0.0000000000000000     
   3.2982789676533342E-012  0.14239127557408593        0.0000000000000000     
   3.7237375726320576E-012  0.15012816525022821        0.0000000000000000     
   4.1264730619040152E-012  0.15797893836280863        0.0000000000000000     
   4.5064845952125232E-012  0.16594359491182709        0.0000000000000000     
   0.0000000000000000        0.0000000000000000        0.0000000000000000     
  -3.1479403502301939E-014   1.0759654586567787E-003   0.0000000000000000     
  -6.6491029262344403E-014   2.5209523434513810E-003   0.0000000000000000     
  -1.0503485017507308E-013   4.3349606543838072E-003   0.0000000000000000     
  -1.4711102887081384E-013   6.5179903914540571E-003   0.0000000000000000     
   0.0000000000000000        0.0000000000000000        0.0000000000000000     
  -2.1276383513883193E-004   1.0782185772855895E-003   0.0000000000000000     
  -4.2655170935104758E-004   2.5260347088375155E-003   0.0000000000000000     
  -6.4136362263664704E-004   4.3434483946557774E-003   0.0000000000000000     
  -8.5719957499563011E-004   6.5304596347403755E-003   0.0000000000000000     
   0.0000000000000000        0.0000000000000000        0.0000000000000000     
  -4.2390602812111475E-004   1.0849779331576302E-003   0.0000000000000000     
  -8.5226840244153354E-004   2.5412818049706863E-003   0.0000000000000000     
  -1.2850871229612567E-003   4.3689116154391680E-003   0.0000000000000000     
  -1.7223621896802833E-003   6.5678673645630766E-003   0.0000000000000000     
   0.0000000000000000        0.0000000000000000        0.0000000000000000     
  -6.3342657897832782E-004   1.0962435262729009E-003   0.0000000000000000     
  -1.2771500793379489E-003   2.5666936318508938E-003   0.0000000000000000     
  -1.9311705010788627E-003   4.4113503167339798E-003   0.0000000000000000     
  -2.5954878442010702E-003   6.6302135809221579E-003   0.0000000000000000     
   0.0000000000000000        0.0000000000000000        0.0000000000000000     
  -8.4132548771047116E-004   1.1120153566314011E-003   0.0000000000000000     
  -1.7011967400402932E-003   2.6022701894781383E-003   0.0000000000000000     
  -2.5796137569894665E-003   4.4707644985402112E-003   0.0000000000000000     
  -3.4765765385579902E-003   6.7174982838176201E-003   0.0000000000000000     
  -1.4711102887081384E-013   6.5179903914540571E-003   0.0000000000000000     
  -1.9133053973628689E-013   9.0428488795232572E-003   0.0000000000000000     
  -2.3630559721444719E-013   1.1882343443452537E-002   0.0000000000000000     
  -2.8203523060553719E-013   1.5036474083241892E-002   0.0000000000000000     
  -3.2852019715701175E-013   1.8505240798891327E-002   0.0000000000000000     
  -8.5719957499563011E-004   6.5304596347403755E-003   0.0000000000000000     
  -1.0750030491989081E-003   9.0592760022618953E-003   0.0000000000000000     
  -1.2957175280173920E-003   1.1902105070390925E-002   0.0000000000000000     
  -1.5193430114510812E-003   1.5058946839127459E-002   0.0000000000000000     
  -1.7458794994999758E-003   1.8529801308471504E-002   0.0000000000000000     
  -1.7223621896802833E-003   6.5678673645630766E-003   0.0000000000000000     
  -2.1640001414288106E-003   9.1085573704411029E-003   0.0000000000000000     
  -2.6099075170370328E-003   1.1961389951171941E-002   0.0000000000000000     
  -3.0600843165049523E-003   1.5126365106755595E-002   0.0000000000000000     
  -3.5145305398325681E-003   1.8603482837192056E-002   0.0000000000000000     
  -2.5954878442010702E-003   6.6302135809221579E-003   0.0000000000000000     
  -3.2669912768810375E-003   9.1906929840608800E-003   0.0000000000000000     
  -3.9425699672952308E-003   1.2060198085795592E-002   0.0000000000000000     
  -4.6222239154436497E-003   1.5238728886126303E-002   0.0000000000000000     
  -5.3059531213262958E-003   1.8726285385053002E-002   0.0000000000000000     
  -3.4765765385579902E-003   6.7174982838176201E-003   0.0000000000000000     
  -4.3839764555555875E-003   9.3056828431212230E-003   0.0000000000000000     
  -5.2937048787919817E-003   1.2198529474261874E-002   0.0000000000000000     
  -6.2057618082671734E-003   1.5396038177239576E-002   0.0000000000000000     
  -7.1201472439811593E-003   1.8898208952054327E-002   0.0000000000000000     
  -3.2852019715701175E-013   1.8505240798891327E-002   0.0000000000000000     
  -3.7086918822440418E-013   2.2258731441685338E-002   0.0000000000000000     
  -4.0419084095313917E-013   2.6267033862908414E-002   0.0000000000000000     
  -4.2848598204737326E-013   3.0530148062560571E-002   0.0000000000000000     
  -4.4375375769789560E-013   3.5048074040641794E-002   0.0000000000000000     
  -1.7458794994999758E-003   1.8529801308471504E-002   0.0000000000000000     
  -1.9720310136845010E-003   2.2284975675281142E-002   0.0000000000000000     
  -2.1945015755250787E-003   2.6294777136414486E-002   0.0000000000000000     
  -2.4132911850217112E-003   3.0559205691871517E-002   0.0000000000000000     
  -2.6283998421743971E-003   3.5078261341652262E-002   0.0000000000000000     
  -3.5145305398325681E-003   1.8603482837192056E-002   0.0000000000000000     
  -3.9679096566239049E-003   2.2363708376065394E-002   0.0000000000000000     
  -4.4148851364829936E-003   2.6378006956959649E-002   0.0000000000000000     
  -4.8554569794098269E-003   3.0646378579874824E-002   0.0000000000000000     
  -5.2896251854044106E-003   3.5168823244810916E-002   0.0000000000000000     
  -5.3059531213262958E-003   1.8726285385053002E-002   0.0000000000000000     
  -5.9876359291890831E-003   2.2494929544038072E-002   0.0000000000000000     
  -6.6611506832779293E-003   2.6516723324543901E-002   0.0000000000000000     
  -7.3264973835928341E-003   3.0791666726570473E-002   0.0000000000000000     
  -7.9836760301337968E-003   3.5319759750117800E-002   0.0000000000000000     
  -7.1201472439811593E-003   1.8898208952054327E-002   0.0000000000000000     
  -8.0312098313800352E-003   2.2678639179199201E-002   0.0000000000000000     
  -8.9332982159098934E-003   2.6710926239167244E-002   0.0000000000000000     
  -9.8264123975707312E-003   3.0995070131958485E-002   0.0000000000000000     
  -1.0710552376362549E-002   3.5531070857572900E-002   0.0000000000000000     
  -4.4375375769789560E-013   3.5048074040641794E-002   0.0000000000000000     
  -4.3767680452111435E-013   3.9803489607831685E-002   0.0000000000000000     
  -3.9793770492332903E-013   4.4779072574809814E-002   0.0000000000000000     
  -3.2453693324299010E-013   4.9974822941576201E-002   0.0000000000000000     
  -2.1747382540626692E-013   5.5390740708130853E-002   0.0000000000000000     
  -2.6283998421743971E-003   3.5078261341652262E-002   0.0000000000000000     
  -2.8328846338419398E-003   3.9834469438321952E-002   0.0000000000000000     
  -3.0198026468831424E-003   4.4810355334445905E-002   0.0000000000000000     
  -3.1891538812980043E-003   5.0005919030024104E-002   0.0000000000000000     
  -3.3409383370865253E-003   5.5421160525056544E-002   0.0000000000000000     
  -5.2896251854044106E-003   3.5168823244810916E-002   0.0000000000000000     
  -5.7076168974375188E-003   3.9927408929979633E-002   0.0000000000000000     
  -6.0996592584799218E-003   4.4904203613592618E-002   0.0000000000000000     
  -6.4657522685316240E-003   5.0099207295649893E-002   0.0000000000000000     
  -6.8058959275926209E-003   5.5512419976151431E-002   0.0000000000000000     
  -7.9836760301337968E-003   3.5319759750117800E-002   0.0000000000000000     
  -8.6241967912244095E-003   4.0082308082804691E-002   0.0000000000000000     
  -9.2395698351882775E-003   4.5060617412249947E-002   0.0000000000000000     
  -9.8297951620253936E-003   5.0254687738453548E-002   0.0000000000000000     
  -1.0394872771735760E-002   5.5664519061415514E-002   0.0000000000000000     
  -1.0710552376362549E-002   3.5531070857572900E-002   0.0000000000000000     
  -1.1582624315202619E-002   4.0299166896797141E-002   0.0000000000000000     
  -1.2439534377008208E-002   4.5279596730417884E-002   0.0000000000000000     
  -1.3281282561779318E-002   5.0472360358435095E-002   0.0000000000000000     
  -1.4107868869515943E-002   5.5877457780848808E-002   0.0000000000000000     
  -2.1747382540626692E-013   5.5390740708130853E-002   0.0000000000000000     
  -8.4951360182494717E-014   6.1015216328271539E-002   0.0000000000000000     
   6.4826941557905027E-014   6.6836640255796054E-002   0.0000000000000000     
   2.3186137797052975E-013   7.2855012490704404E-002   0.0000000000000000     
   4.1615213879075963E-013   7.9070333032996584E-002   0.0000000000000000     
  -3.3409383370865253E-003   5.5421160525056544E-002   0.0000000000000000     
  -3.4840301318525657E-003   6.1044837805168083E-002   0.0000000000000000     
  -3.6273033831999892E-003   6.6865708855983544E-002   0.0000000000000000     
  -3.7707580911287906E-003   7.2883773677502955E-002   0.0000000000000000     
  -3.9143942556389743E-003   7.9099032269726297E-002   0.0000000000000000     
  -6.8058959275926209E-003   5.5512419976151431E-002   0.0000000000000000     
  -7.1317193404850671E-003   6.1133702236201425E-002   0.0000000000000000     
  -7.4548516120311143E-003   6.6952914656903978E-002   0.0000000000000000     
  -7.7752927422307617E-003   7.2970057238259139E-002   0.0000000000000000     
  -8.0930427310840075E-003   7.9185129980266861E-002   0.0000000000000000     
  -1.0394872771735760E-002   5.5664519061415514E-002   0.0000000000000000     
  -1.0943067625982454E-002   6.1281809621371572E-002   0.0000000000000000     
  -1.1482644686428550E-002   6.7098257658557370E-002   0.0000000000000000     
  -1.2013603953074051E-002   7.3113863172972957E-002   0.0000000000000000     
  -1.2535945425918953E-002   7.9328626164618318E-002   0.0000000000000000     
  -1.4107868869515943E-002   5.5877457780848808E-002   0.0000000000000000     
  -1.4918074988344727E-002   6.1489159960678517E-002   0.0000000000000000     
  -1.5710682606392294E-002   6.7301737860943733E-002   0.0000000000000000     
  -1.6485691723658658E-002   7.3315191481644421E-002   0.0000000000000000     
  -1.7243102340143805E-002   7.9529520822780655E-002   0.0000000000000000     
   4.1615213879075963E-013   7.9070333032996584E-002   0.0000000000000000     
   6.2023801893074104E-013   8.5467972700309133E-002   0.0000000000000000     
   8.4665819277338072E-013   9.2033302310278536E-002   0.0000000000000000     
   1.0954115083538704E-012   9.8766321862904835E-002   0.0000000000000000     
   1.3664984942207692E-012  0.10566703135818800        0.0000000000000000     
  -3.9143942556389743E-003   7.9099032269726297E-002   0.0000000000000000     
  -4.0549124577101536E-003   8.5496592498148366E-002   0.0000000000000000     
  -4.1890132783219420E-003   9.2061562228263991E-002   0.0000000000000000     
  -4.3166967174743413E-003   9.8793941460073142E-002   0.0000000000000000     
  -4.4379627751673506E-003  0.10569373019357582        0.0000000000000000     
  -8.0930427310840075E-003   7.9185129980266861E-002   0.0000000000000000     
  -8.4027158165036857E-003   8.5582451891997813E-002   0.0000000000000000     
  -8.6989262364026224E-003   9.2146341982522653E-002   0.0000000000000000     
  -8.9816739907808158E-003   9.8876800251841340E-002   0.0000000000000000     
  -9.2509590796382695E-003  0.10577382669995392        0.0000000000000000     
  -1.2535945425918953E-002   7.9328626164618318E-002   0.0000000000000000     
  -1.3043410075760363E-002   8.5725550881857501E-002   0.0000000000000000     
  -1.3529738873395382E-002   9.2287641573054552E-002   0.0000000000000000     
  -1.3994931818824014E-002   9.9014898238209484E-002   0.0000000000000000     
  -1.4438988912046253E-002  0.10590732087732230        0.0000000000000000     
  -1.7243102340143805E-002   7.9529520822780655E-002   0.0000000000000000     
  -1.7976995235480180E-002   8.5925889467727390E-002   0.0000000000000000     
  -1.8681451189300223E-002   9.2485460999859687E-002   0.0000000000000000     
  -1.9356470201603929E-002   9.9208235419177546E-002   0.0000000000000000     
  -2.0002052272391307E-002  0.10609421272568095        0.0000000000000000     
   1.3664984942207692E-012  0.10566703135818800        0.0000000000000000     
   1.6709142749982142E-012  0.11272427458165882        0.0000000000000000     
   2.0196528911081701E-012  0.11992689531884802        0.0000000000000000     
   2.4127127704574869E-012  0.12727489356975563        0.0000000000000000     
   2.8500968946021388E-012  0.13476826933438166        0.0000000000000000     
  -4.4379627751673506E-003  0.10569373019357582        0.0000000000000000     
  -4.5422837816682564E-003  0.11274996080914275        0.0000000000000000     
  -4.6191320672443461E-003  0.11995166568714467        0.0000000000000000     
  -4.6685076318956145E-003  0.12729884482758150        0.0000000000000000     
  -4.6904104756220659E-003  0.13479149823045333        0.0000000000000000     
  -9.2509590796382695E-003  0.10577382669995392        0.0000000000000000     
  -9.4928091055219970E-003  0.11282701949171875        0.0000000000000000     
  -9.6932516709790154E-003  0.12002597679199421        0.0000000000000000     
  -9.8522867760093263E-003  0.12737069860078035        0.0000000000000000     
  -9.9699144206129298E-003  0.13486118491807703        0.0000000000000000     
  -1.4438988912046253E-002  0.10590732087732230        0.0000000000000000     
  -1.4851575969890302E-002  0.11295545062938676        0.0000000000000000     
  -1.5222358809184360E-002  0.12014982863339667        0.0000000000000000     
  -1.5551337429928423E-002  0.12749045488935201        0.0000000000000000     
  -1.5838511832122495E-002  0.13497732939725282        0.0000000000000000     
  -2.0002052272391307E-002  0.10609421272568095        0.0000000000000000     
  -2.0618584374773173E-002  0.11313525422214682        0.0000000000000000     
  -2.1206453481860371E-002  0.12032322121135204        0.0000000000000000     
  -2.1765659593652901E-002  0.12765811369329666        0.0000000000000000     
  -2.2296202710150755E-002  0.13513993166798066        0.0000000000000000     
   2.8500968946021388E-012  0.13476826933438166        0.0000000000000000     
   3.2982789676533342E-012  0.14239127557408593        0.0000000000000000     
   3.7237375726320576E-012  0.15012816525022821        0.0000000000000000     
   4.1264730619040152E-012  0.15797893836280863        0.0000000000000000     
   4.5064845952125232E-012  0.16594359491182709        0.0000000000000000     
  -4.6904104756220659E-003  0.13479149823045333        0.0000000000000000     
  -4.6721575945234267E-003  0.14241510121546458        0.0000000000000000     
  -4.6010659846994302E-003  0.15015512910231982        0.0000000000000000     
  -4.4771356461500676E-003  0.15801158189101902        0.0000000000000000     
  -4.3003665788753469E-003  0.16598445958156216        0.0000000000000000     
  -9.9699144206129298E-003  0.13486118491807703        0.0000000000000000     
  -1.0028051674034363E-002  0.14248657813852450        0.0000000000000000     
  -1.0008615605518169E-002  0.15023602065676286        0.0000000000000000     
  -9.9116062150643464E-003  0.15810951247279206        0.0000000000000000     
  -9.7370235026728938E-003  0.16610705358661215        0.0000000000000000     
  -1.5838511832122495E-002  0.13497732939725282        0.0000000000000000     
  -1.6067682235234526E-002  0.14260570634326572        0.0000000000000000     
  -1.6222648858732480E-002  0.15037083991355737        0.0000000000000000     
  -1.6303411702616361E-002  0.15827273010812790        0.0000000000000000     
  -1.6309970766886159E-002  0.16631137692697709        0.0000000000000000     
  -2.2296202710150755E-002  0.13513993166798066        0.0000000000000000     
  -2.2791049278123920E-002  0.14277248582968818        0.0000000000000000     
  -2.3243165744342376E-002  0.15055958687270340        0.0000000000000000     
  -2.3652552108806110E-002  0.15850123479702630        0.0000000000000000     
  -2.4019208371515138E-002  0.16659742960265689        0.0000000000000000     
   0.0000000000000000        0.0000000000000000        0.0000000000000000     
  -8.4132548771047116E-004   1.1120153566314011E-003   0.0000000000000000     
  -1.7011967400402932E-003   2.6022701894781383E-003   0.0000000000000000     
  -2.5796137569894665E-003   4.4707644985402112E-003   0.0000000000000000     
  -3.4765765385579902E-003   6.7174982838176201E-003   0.0000000000000000     
   0.0000000000000000        0.0000000000000000        0.0000000000000000     
  -1.0564291870711403E-003   1.1358218338702627E-003   0.0000000000000000     
  -2.1388456943391143E-003   2.6538043238929676E-003   0.0000000000000000     
  -3.2472495218039219E-003   4.5539474700681155E-003   0.0000000000000000     
  -4.3816406694655637E-003   6.8362512723957039E-003   0.0000000000000000     
   0.0000000000000000        0.0000000000000000        0.0000000000000000     
  -1.2875641098139307E-003   1.1711913676266173E-003   0.0000000000000000     
  -2.6045342520249586E-003   2.7270888811359311E-003   0.0000000000000000     
  -3.9509104266330832E-003   4.6676925405279420E-003   0.0000000000000000     
  -5.3266926336383068E-003   6.9930023458026486E-003   0.0000000000000000     
   0.0000000000000000        0.0000000000000000        0.0000000000000000     
  -1.5347302559388426E-003   1.2181239579004647E-003   0.0000000000000000     
  -3.0982624130978268E-003   2.8221238612070282E-003   0.0000000000000000     
  -4.6905964714769530E-003   4.8119997099196907E-003   0.0000000000000000     
  -6.3117324310762203E-003   7.1877515040384525E-003   0.0000000000000000     
   0.0000000000000000        0.0000000000000000        0.0000000000000000     
  -1.7979276254458758E-003   1.2766196046918043E-003   0.0000000000000000     
  -3.6200301775577187E-003   2.9389092641062590E-003   0.0000000000000000     
  -5.4663076563355286E-003   4.9868689782433641E-003   0.0000000000000000     
  -7.3367600617793060E-003   7.4204987471031183E-003   0.0000000000000000     
  -3.4765765385579902E-003   6.7174982838176201E-003   0.0000000000000000     
  -4.3839764555555875E-003   9.3056828431212230E-003   0.0000000000000000     
  -5.2937048787919817E-003   1.2198529474261874E-002   0.0000000000000000     
  -6.2057618082671734E-003   1.5396038177239576E-002   0.0000000000000000     
  -7.1201472439811593E-003   1.8898208952054327E-002   0.0000000000000000     
  -4.3816406694655637E-003   6.8362512723957039E-003   0.0000000000000000     
  -5.5294291879937887E-003   9.4593738979018675E-003   0.0000000000000000     
  -6.6780251280583510E-003   1.2381973513612740E-002   0.0000000000000000     
  -7.8274284896592480E-003   1.5604050119528321E-002   0.0000000000000000     
  -8.9776392727964824E-003   1.9125603715648611E-002   0.0000000000000000     
  -5.3266926336383068E-003   6.9930023458026486E-003   0.0000000000000000     
  -6.7178229847369639E-003   9.6576130986825489E-003   0.0000000000000000     
  -8.1102435916253959E-003   1.2616119600890142E-002   0.0000000000000000     
  -9.5039544543036054E-003   1.5868521852425425E-002   0.0000000000000000     
  -1.0898955572771587E-002   1.9414819853288402E-002   0.0000000000000000     
  -6.3117324310762203E-003   7.1877515040384525E-003   0.0000000000000000     
  -7.9491578457851157E-003   9.9004004454632654E-003   0.0000000000000000     
  -9.5903602694931232E-003   1.2900967736094083E-002   0.0000000000000000     
  -1.1235339702200239E-002   1.6189453375930897E-002   0.0000000000000000     
  -1.2884096143906471E-002   1.9765857364973723E-002   0.0000000000000000     
  -7.3367600617793060E-003   7.4204987471031183E-003   0.0000000000000000     
  -9.2234337711382414E-003   1.0187735938244019E-002   0.0000000000000000     
  -1.1118375161661524E-002   1.3236517919224556E-002   0.0000000000000000     
  -1.3021584233349159E-002   1.6566844690044734E-002   0.0000000000000000     
  -1.4933060986201138E-002   2.0178716250704554E-002   0.0000000000000000     
  -7.1201472439811593E-003   1.8898208952054327E-002   0.0000000000000000     
  -8.0312098313800352E-003   2.2678639179199201E-002   0.0000000000000000     
  -8.9332982159098934E-003   2.6710926239167244E-002   0.0000000000000000     
  -9.8264123975707312E-003   3.0995070131958485E-002   0.0000000000000000     
  -1.0710552376362549E-002   3.5531070857572900E-002   0.0000000000000000     
  -8.9776392727964824E-003   1.9125603715648611E-002   0.0000000000000000     
  -1.0122534251004020E-002   2.2921494260961441E-002   0.0000000000000000     
  -1.1255990197815830E-002   2.6966581714454645E-002   0.0000000000000000     
  -1.2378007113231906E-002   3.1260866076128234E-002   0.0000000000000000     
  -1.3488584997252256E-002   3.5804347345982195E-002   0.0000000000000000     
  -1.0898955572771587E-002   1.9414819853288402E-002   0.0000000000000000     
  -1.2285512075868296E-002   2.3230151768737474E-002   0.0000000000000000     
  -1.3653889092432685E-002   2.7289655764031057E-002   0.0000000000000000     
  -1.5004086622464751E-002   3.1593331839169132E-002   0.0000000000000000     
  -1.6336104665964499E-002   3.6141179994151708E-002   0.0000000000000000     
  -1.2884096143906471E-002   1.9765857364973723E-002   0.0000000000000000     
  -1.4520143305972863E-002   2.3604611702527312E-002   0.0000000000000000     
  -1.6126994899760459E-002   2.7680148387896467E-002   0.0000000000000000     
  -1.7704650925269266E-002   3.1992467421081174E-002   0.0000000000000000     
  -1.9253111382499282E-002   3.6541568802081432E-002   0.0000000000000000     
  -1.4933060986201138E-002   2.0178716250704554E-002   0.0000000000000000     
  -1.6826427941317720E-002   2.4044874062330954E-002   0.0000000000000000     
  -1.8675307619799155E-002   2.8138059586050888E-002   0.0000000000000000     
  -2.0479700021645446E-002   3.2458272821864358E-002   0.0000000000000000     
  -2.2239605146856592E-002   3.7005513769771355E-002   0.0000000000000000     
  -1.0710552376362549E-002   3.5531070857572900E-002   0.0000000000000000     
  -1.1582624315202619E-002   4.0299166896797141E-002   0.0000000000000000     
  -1.2439534377008208E-002   4.5279596730417884E-002   0.0000000000000000     
  -1.3281282561779318E-002   5.0472360358435095E-002   0.0000000000000000     
  -1.4107868869515943E-002   5.5877457780848808E-002   0.0000000000000000     
  -1.3488584997252256E-002   3.5804347345982195E-002   0.0000000000000000     
  -1.4590387711366854E-002   4.0576859913656158E-002   0.0000000000000000     
  -1.5686079117065672E-002   4.5558238168789712E-002   0.0000000000000000     
  -1.6775659214348714E-002   5.0748482111382894E-002   0.0000000000000000     
  -1.7859128003215975E-002   5.6147591741435667E-002   0.0000000000000000     
  -1.6336104665964499E-002   3.6141179994151708E-002   0.0000000000000000     
  -1.7654975221711826E-002   4.0914261675080874E-002   0.0000000000000000     
  -1.8965730288486624E-002   4.5893638328058747E-002   0.0000000000000000     
  -2.0268369866288900E-002   5.1079309953085274E-002   0.0000000000000000     
  -2.1562893955118654E-002   5.6471276550160515E-002   0.0000000000000000     
  -1.9253111382499282E-002   3.6541568802081432E-002   0.0000000000000000     
  -2.0776386846237536E-002   4.1311372181071324E-002   0.0000000000000000     
  -2.2278487891271070E-002   4.6285797208224934E-002   0.0000000000000000     
  -2.3759414517599883E-002   5.1464843883542270E-002   0.0000000000000000     
  -2.5219166725223983E-002   5.6848512207023326E-002   0.0000000000000000     
  -2.2239605146856592E-002   3.7005513769771355E-002   0.0000000000000000     
  -2.3954622584943980E-002   4.1768191431627480E-002   0.0000000000000000     
  -2.5624351925419002E-002   4.6734714809288314E-002   0.0000000000000000     
  -2.7248793168281660E-002   5.1905083902753855E-002   0.0000000000000000     
  -2.8827946313531957E-002   5.7279298712024113E-002   0.0000000000000000     
  -1.4107868869515943E-002   5.5877457780848808E-002   0.0000000000000000     
  -1.4918074988344727E-002   6.1489159960678517E-002   0.0000000000000000     
  -1.5710682606392294E-002   6.7301737860943733E-002   0.0000000000000000     
  -1.6485691723658658E-002   7.3315191481644421E-002   0.0000000000000000     
  -1.7243102340143805E-002   7.9529520822780655E-002   0.0000000000000000     
  -1.7859128003215975E-002   5.6147591741435667E-002   0.0000000000000000     
  -1.8926264455337221E-002   6.1752190606430925E-002   0.0000000000000000     
  -1.9966847542382208E-002   6.7558902253851472E-002   0.0000000000000000     
  -2.0980877264350932E-002   7.3567726683697335E-002   0.0000000000000000     
  -2.1968353621243407E-002   7.9778663895968521E-002   0.0000000000000000     
  -2.1562893955118654E-002   5.6471276550160515E-002   0.0000000000000000     
  -2.2837159054725265E-002   6.2067338910937457E-002   0.0000000000000000     
  -2.4079021664858129E-002   6.7865297827069113E-002   0.0000000000000000     
  -2.5288481785517236E-002   7.3865153298555503E-002   0.0000000000000000     
  -2.6465539416702592E-002   8.0066905325396620E-002   0.0000000000000000     
  -2.5219166725223983E-002   5.6848512207023326E-002   0.0000000000000000     
  -2.6650758786508869E-002   6.2434604874198121E-002   0.0000000000000000     
  -2.8047204973820062E-002   6.8220924580596642E-002   0.0000000000000000     
  -2.9408505287157570E-002   7.4207471326218924E-002   0.0000000000000000     
  -3.0734659726521372E-002   8.0394245111064952E-002   0.0000000000000000     
  -2.8827946313531957E-002   5.7279298712024113E-002   0.0000000000000000     
  -3.0367063650688024E-002   6.2853988496212904E-002   0.0000000000000000     
  -3.1871397469268009E-002   6.8625782514434061E-002   0.0000000000000000     
  -3.3340947769271913E-002   7.4594680766687599E-002   0.0000000000000000     
  -3.4775714550699735E-002   8.0760683252973489E-002   0.0000000000000000     
  -1.7243102340143805E-002   7.9529520822780655E-002   0.0000000000000000     
  -1.7976995235480180E-002   8.5925889467727390E-002   0.0000000000000000     
  -1.8681451189300223E-002   9.2485460999859687E-002   0.0000000000000000     
  -1.9356470201603929E-002   9.9208235419177546E-002   0.0000000000000000     
  -2.0002052272391307E-002  0.10609421272568095        0.0000000000000000     
  -2.1968353621243407E-002   7.9778663895968521E-002   0.0000000000000000     
  -2.2923523600474106E-002   8.6171335760393764E-002   0.0000000000000000     
  -2.3840634189457529E-002   9.2725364146701780E-002   0.0000000000000000     
  -2.4719685388193663E-002   9.9440749054892585E-002   0.0000000000000000     
  -2.5560677196682518E-002  0.10631749048496619        0.0000000000000000     
  -2.6465539416702592E-002   8.0066905325396620E-002   0.0000000000000000     
  -2.7603047475553102E-002   8.6449757870642838E-002   0.0000000000000000     
  -2.8693858879207675E-002   9.2992914897344542E-002   0.0000000000000000     
  -2.9737973627666312E-002   9.9696376405501719E-002   0.0000000000000000     
  -3.0735391720929001E-002  0.10656014239511434        0.0000000000000000     
  -3.0734659726521372E-002   8.0394245111064952E-002   0.0000000000000000     
  -3.2015566860717180E-002   8.6761155798474654E-002   0.0000000000000000     
  -3.3241125258550684E-002   9.3288113251787957E-002   0.0000000000000000     
  -3.4411334920021866E-002   9.9975117471004918E-002   0.0000000000000000     
  -3.5526195845130754E-002  0.10682216845612544        0.0000000000000000     
  -3.4775714550699735E-002   8.0760683252973489E-002   0.0000000000000000     
  -3.6161081755966322E-002   8.7105529543889171E-002   0.0000000000000000     
  -3.7482433327486527E-002   9.3610959210032041E-002   0.0000000000000000     
  -3.8739769265260342E-002  0.10027697225140214        0.0000000000000000     
  -3.9933089569287768E-002  0.10710356866799944        0.0000000000000000     
  -2.0002052272391307E-002  0.10609421272568095        0.0000000000000000     
  -2.0618584374773173E-002  0.11313525422214682        0.0000000000000000     
  -2.1206453481860371E-002  0.12032322121135204        0.0000000000000000     
  -2.1765659593652901E-002  0.12765811369329666        0.0000000000000000     
  -2.2296202710150755E-002  0.13513993166798066        0.0000000000000000     
  -2.5560677196682518E-002  0.10631749048496619        0.0000000000000000     
  -2.6374626301405947E-002  0.11334842689746011        0.0000000000000000     
  -2.7172549388845790E-002  0.12052639675291189        0.0000000000000000     
  -2.7954446459002046E-002  0.12785140005132153        0.0000000000000000     
  -2.8720317511874718E-002  0.13532343679268904        0.0000000000000000     
  -3.0735391720929001E-002  0.10656014239511434        0.0000000000000000     
  -3.1700493731023939E-002  0.11357696528278791        0.0000000000000000     
  -3.2647660229979322E-002  0.12073959748512778        0.0000000000000000     
  -3.3576891217795134E-002  0.12804803900213399        0.0000000000000000     
  -3.4488186694471387E-002  0.13550228983380649        0.0000000000000000     
  -3.5526195845130754E-002  0.10682216845612544        0.0000000000000000     
  -3.6596186663627177E-002  0.11382086937813017        0.0000000000000000     
  -3.7631786005260986E-002  0.12096282340799969        0.0000000000000000     
  -3.8632993870032176E-002  0.12824803054573394        0.0000000000000000     
  -3.9599810257940758E-002  0.13567649079133295        0.0000000000000000     
  -3.9933089569287768E-002  0.10710356866799944        0.0000000000000000     
  -4.1061705099215633E-002  0.11408013918348696        0.0000000000000000     
  -4.2124926714690758E-002  0.12119607452152761        0.0000000000000000     
  -4.3122754415713158E-002  0.12845137468212145        0.0000000000000000     
  -4.4055188202282825E-002  0.13584603966526845        0.0000000000000000     
  -2.2296202710150755E-002  0.13513993166798066        0.0000000000000000     
  -2.2791049278123920E-002  0.14277248582968818        0.0000000000000000     
  -2.3243165744342376E-002  0.15055958687270340        0.0000000000000000     
  -2.3652552108806110E-002  0.15850123479702630        0.0000000000000000     
  -2.4019208371515138E-002  0.16659742960265689        0.0000000000000000     
  -2.8720317511874718E-002  0.13532343679268904        0.0000000000000000     
  -2.9471330398556178E-002  0.14295143741987984        0.0000000000000000     
  -3.0208652970138770E-002  0.15074433237575929        0.0000000000000000     
  -3.0932285226622509E-002  0.15870212166032735        0.0000000000000000     
  -3.1642227168007381E-002  0.16682480527358412        0.0000000000000000     
  -3.4488186694471387E-002  0.13550228983380649        0.0000000000000000     
  -3.5381703192384928E-002  0.14310708193592855        0.0000000000000000     
  -3.6257597243912622E-002  0.15086714726428338        0.0000000000000000     
  -3.7115868849054469E-002  0.15878248581887092        0.0000000000000000     
  -3.7956518007810434E-002  0.16685309759969125        0.0000000000000000     
  -3.9599810257940758E-002  0.13567649079133295        0.0000000000000000     
  -4.0522167659610177E-002  0.14323941937783433        0.0000000000000000     
  -4.1389998565663909E-002  0.15092803153827572        0.0000000000000000     
  -4.2203302976101954E-002  0.15874232727265700        0.0000000000000000     
  -4.2962080890924306E-002  0.16668230658097824        0.0000000000000000     
  -4.4055188202282825E-002  0.13584603966526845        0.0000000000000000     
  -4.4892723800231925E-002  0.14334844974559721        0.0000000000000000     
  -4.5605856935392652E-002  0.15092698519773623        0.0000000000000000     
  -4.6194587607765007E-002  0.15858164602168554        0.0000000000000000     
  -4.6658915817348975E-002  0.16631243221744513        0.0000000000000000     
   0.0000000000000000        0.0000000000000000        0.0000000000000000     
  -1.7979276254458758E-003   1.2766196046918043E-003   0.0000000000000000     
  -3.6200301775577187E-003   2.9389092641062590E-003   0.0000000000000000     
  -5.4663076563355286E-003   4.9868689782433641E-003   0.0000000000000000     
  -7.3367600617793060E-003   7.4204987471031183E-003   0.0000000000000000     
   0.0000000000000000        0.0000000000000000        0.0000000000000000     
  -2.0690041435480486E-003   1.3539617126789472E-003   0.0000000000000000     
  -4.1627047022834247E-003   3.0922403170788883E-003   0.0000000000000000     
  -6.2811016762061274E-003   5.2148358131998244E-003   0.0000000000000000     
  -8.4241950653161576E-003   7.7217482010417541E-003   0.0000000000000000     
   0.0000000000000000        0.0000000000000000        0.0000000000000000     
  -2.3398077354583806E-003   1.4574336865402033E-003   0.0000000000000000     
  -4.7191531441537352E-003   3.2969122473701824E-003   0.0000000000000000     
  -7.1380362260860660E-003   5.5184356824899382E-003   0.0000000000000000     
  -9.5964569812553718E-003   8.1220039918994697E-003   0.0000000000000000     
   0.0000000000000000        0.0000000000000000        0.0000000000000000     
  -2.6103384011768702E-003   1.5870355262755723E-003   0.0000000000000000     
  -5.2893755031686515E-003   3.5529250549801413E-003   0.0000000000000000     
  -8.0371113059753436E-003   5.8976685861137062E-003   0.0000000000000000     
  -1.0853545809596949E-002   8.6212661196762661E-003   0.0000000000000000     
   0.0000000000000000        0.0000000000000000        0.0000000000000000     
  -2.8805961407035183E-003   1.7427672318850551E-003   0.0000000000000000     
  -5.8733717793281719E-003   3.8602787399087636E-003   0.0000000000000000     
  -8.9783269158739600E-003   6.3525345240711267E-003   0.0000000000000000     
  -1.2195461550340885E-002   9.2195345843721441E-003   0.0000000000000000     
  -7.3367600617793060E-003   7.4204987471031183E-003   0.0000000000000000     
  -9.2234337711382414E-003   1.0187735938244019E-002   0.0000000000000000     
  -1.1118375161661524E-002   1.3236517919224556E-002   0.0000000000000000     
  -1.3021584233349159E-002   1.6566844690044734E-002   0.0000000000000000     
  -1.4933060986201138E-002   2.0178716250704554E-002   0.0000000000000000     
  -8.4241950653161576E-003   7.7217482010417541E-003   0.0000000000000000     
  -1.0582971636676887E-002   1.0555646012811070E-002   0.0000000000000000     
  -1.2748418157351690E-002   1.3659197780714153E-002   0.0000000000000000     
  -1.4920534627340568E-002   1.7032403504751013E-002   0.0000000000000000     
  -1.7099321046643520E-002   2.0675263184921647E-002   0.0000000000000000     
  -9.5964569812553718E-003   8.1220039918994697E-003   0.0000000000000000     
  -1.2070092318281602E-002   1.1040157104950677E-002   0.0000000000000000     
  -1.4534619145784706E-002   1.4205434950995459E-002   0.0000000000000000     
  -1.6990037463764689E-002   1.7617837530033813E-002   0.0000000000000000     
  -1.9436347272221540E-002   2.1277364842065744E-002   0.0000000000000000     
  -1.0853545809596949E-002   8.6212661196762661E-003   0.0000000000000000     
  -1.3684795815952380E-002   1.1641269214662847E-002   0.0000000000000000     
  -1.6476978126960577E-002   1.4875229430068471E-002   0.0000000000000000     
  -1.9230092742621521E-002   1.8323146765893136E-002   0.0000000000000000     
  -2.1944139662935215E-002   2.1985021222136844E-002   0.0000000000000000     
  -1.2195461550340885E-002   9.2195345843721441E-003   0.0000000000000000     
  -1.5427082129689230E-002   1.2358982341947575E-002   0.0000000000000000     
  -1.8575495100879288E-002   1.5668581217933186E-002   0.0000000000000000     
  -2.1640700463911058E-002   1.9148331212328982E-002   0.0000000000000000     
  -2.4622698218784538E-002   2.2798232325134955E-002   0.0000000000000000     
  -1.4933060986201138E-002   2.0178716250704554E-002   0.0000000000000000     
  -1.6826427941317720E-002   2.4044874062330954E-002   0.0000000000000000     
  -1.8675307619799155E-002   2.8138059586050888E-002   0.0000000000000000     
  -2.0479700021645446E-002   3.2458272821864358E-002   0.0000000000000000     
  -2.2239605146856592E-002   3.7005513769771355E-002   0.0000000000000000     
  -1.7099321046643520E-002   2.0675263184921647E-002   0.0000000000000000     
  -1.9251532416266315E-002   2.4562074715441324E-002   0.0000000000000000     
  -2.1343923737214734E-002   2.8667135990525321E-002   0.0000000000000000     
  -2.3376495009488775E-002   3.2990447010173639E-002   0.0000000000000000     
  -2.5349246233088433E-002   3.7532007774386276E-002   0.0000000000000000     
  -1.9436347272221540E-002   2.1277364842065744E-002   0.0000000000000000     
  -2.1842623165182089E-002   2.5167349529151357E-002   0.0000000000000000     
  -2.4177939736673152E-002   2.9271124233350761E-002   0.0000000000000000     
  -2.6442296986694716E-002   3.3588688954663971E-002   0.0000000000000000     
  -2.8635694915246788E-002   3.8120043693090959E-002   0.0000000000000000     
  -2.1944139662935215E-002   2.1985021222136844E-002   0.0000000000000000     
  -2.4599700188065055E-002   2.5860698503461056E-002   0.0000000000000000     
  -2.7177355618174404E-002   2.9950024314527222E-002   0.0000000000000000     
  -2.9677105953263280E-002   3.4252998655335341E-002   0.0000000000000000     
  -3.2098951193331671E-002   3.8769621525885409E-002   0.0000000000000000     
  -2.4622698218784538E-002   2.2798232325134955E-002   0.0000000000000000     
  -2.7522763484915197E-002   2.6642121638370417E-002   0.0000000000000000     
  -3.0342171381718502E-002   3.0703836234054684E-002   0.0000000000000000     
  -3.3080921909194455E-002   3.4983376112187756E-002   0.0000000000000000     
  -3.5739015067343068E-002   3.9480741272769633E-002   0.0000000000000000     
  -2.2239605146856592E-002   3.7005513769771355E-002   0.0000000000000000     
  -2.3954622584943980E-002   4.1768191431627480E-002   0.0000000000000000     
  -2.5624351925419002E-002   4.6734714809288314E-002   0.0000000000000000     
  -2.7248793168281660E-002   5.1905083902753855E-002   0.0000000000000000     
  -2.8827946313531957E-002   5.7279298712024113E-002   0.0000000000000000     
  -2.5349246233088433E-002   3.7532007774386276E-002   0.0000000000000000     
  -2.7257214580576668E-002   4.2284605279486111E-002   0.0000000000000000     
  -2.9095437224516435E-002   4.7241026521796042E-002   0.0000000000000000     
  -3.0863914164907722E-002   5.2401271501316064E-002   0.0000000000000000     
  -3.2562645401750537E-002   5.7765340218046170E-002   0.0000000000000000     
  -2.8635694915246788E-002   3.8120043693090959E-002   0.0000000000000000     
  -3.0751694975881098E-002   4.2860499577383998E-002   0.0000000000000000     
  -3.2783858622149345E-002   4.7805367736295304E-002   0.0000000000000000     
  -3.4732185854051544E-002   5.2954648169824897E-002   0.0000000000000000     
  -3.6596676671587690E-002   5.8308340877972757E-002   0.0000000000000000     
  -3.2098951193331671E-002   3.8769621525885409E-002   0.0000000000000000     
  -3.4438063770857272E-002   4.3495874325321107E-002   0.0000000000000000     
  -3.6689616118317760E-002   4.8427738452786091E-002   0.0000000000000000     
  -3.8853608235713141E-002   5.3565213908280361E-002   0.0000000000000000     
  -4.0930040123043410E-002   5.8908300691803916E-002   0.0000000000000000     
  -3.5739015067343068E-002   3.9480741272769633E-002   0.0000000000000000     
  -3.8316320965505177E-002   4.4190729523297459E-002   0.0000000000000000     
  -4.0812709713021658E-002   4.9108138671268398E-002   0.0000000000000000     
  -4.3228181309892498E-002   5.4232968716682456E-002   0.0000000000000000     
  -4.5562735756117689E-002   5.9565219659539634E-002   0.0000000000000000     
  -2.8827946313531957E-002   5.7279298712024113E-002   0.0000000000000000     
  -3.0367063650688024E-002   6.2853988496212904E-002   0.0000000000000000     
  -3.1871397469268009E-002   6.8625782514434061E-002   0.0000000000000000     
  -3.3340947769271913E-002   7.4594680766687599E-002   0.0000000000000000     
  -3.4775714550699735E-002   8.0760683252973489E-002   0.0000000000000000     
  -3.2562645401750537E-002   5.7765340218046170E-002   0.0000000000000000     
  -3.4209241556313254E-002   6.3327945438468258E-002   0.0000000000000000     
  -3.5821313249864220E-002   6.9083799929064285E-002   0.0000000000000000     
  -3.7398860482403450E-002   7.5032903689834257E-002   0.0000000000000000     
  -3.8941883253930921E-002   8.1175256720778133E-002   0.0000000000000000     
  -3.6596676671587690E-002   5.8308340877972757E-002   0.0000000000000000     
  -3.8400460412435056E-002   6.3858931362450647E-002   0.0000000000000000     
  -4.0166666414270927E-002   6.9598905124970273E-002   0.0000000000000000     
  -4.1895294677095275E-002   7.5528262165531657E-002   0.0000000000000000     
  -4.3586345200908150E-002   8.1647002484134784E-002   0.0000000000000000     
  -4.0930040123043410E-002   5.8908300691803916E-002   0.0000000000000000     
  -4.2940720219053458E-002   6.4446946268160041E-002   0.0000000000000000     
  -4.4907456962488122E-002   7.0171098102151996E-002   0.0000000000000000     
  -4.6830250353347459E-002   7.6080756193779797E-002   0.0000000000000000     
  -4.8709100391631413E-002   8.2175920543043429E-002   0.0000000000000000     
  -4.5562735756117689E-002   5.9565219659539634E-002   0.0000000000000000     
  -4.7830020976168425E-002   6.5091990155596455E-002   0.0000000000000000     
  -5.0043684894515841E-002   7.0800378860609456E-002   0.0000000000000000     
  -5.2203727511159939E-002   7.6690385774578679E-002   0.0000000000000000     
  -5.4310148826100739E-002   8.2762010897504096E-002   0.0000000000000000     
  -3.4775714550699735E-002   8.0760683252973489E-002   0.0000000000000000     
  -3.6161081755966322E-002   8.7105529543889171E-002   0.0000000000000000     
  -3.7482433327486527E-002   9.3610959210032041E-002   0.0000000000000000     
  -3.8739769265260342E-002  0.10027697225140214        0.0000000000000000     
  -3.9933089569287768E-002  0.10710356866799944        0.0000000000000000     
  -3.8941883253930921E-002   8.1175256720778133E-002   0.0000000000000000     
  -4.0431596300625879E-002   8.7495021735582740E-002   0.0000000000000000     
  -4.1849214358667536E-002   9.3976361447934906E-002   0.0000000000000000     
  -4.3194737428055886E-002  0.10061927585783462        0.0000000000000000     
  -4.4468165508790965E-002  0.10742376496528190        0.0000000000000000     
  -4.3586345200908150E-002   8.1647002484134784E-002   0.0000000000000000     
  -4.5219114634021174E-002   8.7941775002251740E-002   0.0000000000000000     
  -4.6772899624746025E-002   9.4399228641354638E-002   0.0000000000000000     
  -4.8247700173082719E-002  0.10101936340144348        0.0000000000000000     
  -4.9643516279031248E-002  0.10780217928251823        0.0000000000000000     
  -4.8709100391631413E-002   8.2175920543043429E-002   0.0000000000000000     
  -5.0523636756152207E-002   8.8445789343896172E-002   0.0000000000000000     
  -5.2253489125722009E-002   9.4879560790291265E-002   0.0000000000000000     
  -5.3898657500340820E-002  0.10147723488222872        0.0000000000000000     
  -5.5459141880008639E-002  0.10823881161970851        0.0000000000000000     
  -5.4310148826100739E-002   8.2762010897504096E-002   0.0000000000000000     
  -5.6345162667019000E-002   8.9007064760516022E-002   0.0000000000000000     
  -5.8290982861595488E-002   9.5417357894744773E-002   0.0000000000000000     
  -6.0147609409830195E-002  0.10199289030019033        0.0000000000000000     
  -6.1915042311723123E-002  0.10873366197685272        0.0000000000000000     
  -3.9933089569287768E-002  0.10710356866799944        0.0000000000000000     
  -4.1061705099215633E-002  0.11408013918348696        0.0000000000000000     
  -4.2124926714690758E-002  0.12119607452152761        0.0000000000000000     
  -4.3122754415713158E-002  0.12845137468212145        0.0000000000000000     
  -4.4055188202282825E-002  0.13584603966526845        0.0000000000000000     
  -4.4468165508790965E-002  0.10742376496528190        0.0000000000000000     
  -4.5657285763514396E-002  0.11437701634508139        0.0000000000000000     
  -4.6749885354867869E-002  0.12146621757203784        0.0000000000000000     
  -4.7745964282851397E-002  0.12869136864615119        0.0000000000000000     
  -4.8645522547464966E-002  0.13605246956742148        0.0000000000000000     
  -4.9643516279031248E-002  0.10780217928251823        0.0000000000000000     
  -5.0943165382248530E-002  0.11473374250913668        0.0000000000000000     
  -5.2129464922391525E-002  0.12180011930585652        0.0000000000000000     
  -5.3202414899460176E-002  0.12900130967267781        0.0000000000000000     
  -5.4162015313454541E-002  0.13633731360960052        0.0000000000000000     
  -5.5459141880008639E-002  0.10823881161970851        0.0000000000000000     
  -5.6919343955418061E-002  0.11515031767565281        0.0000000000000000     
  -5.8263665417261690E-002  0.12219777972298376        0.0000000000000000     
  -5.9492106265539531E-002  0.12938119776170132        0.0000000000000000     
  -6.0604666500251571E-002  0.13670057179180556        0.0000000000000000     
  -6.1915042311723123E-002  0.10873366197685272        0.0000000000000000     
  -6.3585821483022970E-002  0.11562674184462982        0.0000000000000000     
  -6.5152486839478399E-002  0.12265919882341948        0.0000000000000000     
  -6.6615038381089439E-002  0.12983103291322173        0.0000000000000000     
  -6.7973476107856035E-002  0.13714224411403655        0.0000000000000000     
  -4.4055188202282825E-002  0.13584603966526845        0.0000000000000000     
  -4.4892723800231925E-002  0.14334844974559721        0.0000000000000000     
  -4.5605856935392652E-002  0.15092698519773623        0.0000000000000000     
  -4.6194587607765007E-002  0.15858164602168554        0.0000000000000000     
  -4.6658915817348975E-002  0.16631243221744513        0.0000000000000000     
  -4.8645522547464966E-002  0.13605246956742148        0.0000000000000000     
  -4.9402047319751778E-002  0.14349754560354985        0.0000000000000000     
  -4.9969025770755071E-002  0.15097462202223746        0.0000000000000000     
  -5.0346457900474831E-002  0.15848369882348429        0.0000000000000000     
  -5.0534343708911064E-002  0.16602477600729032        0.0000000000000000     
  -5.4162015313454541E-002  0.13633731360960052        0.0000000000000000     
  -5.4958813923671364E-002  0.14375007951602506        0.0000000000000000     
  -5.5543358489407398E-002  0.15118155579135184        0.0000000000000000     
  -5.5915649010662670E-002  0.15863174243558095        0.0000000000000000     
  -5.6075685487437153E-002  0.16610063944871231        0.0000000000000000     
  -6.0604666500251571E-002  0.13670057179180556        0.0000000000000000     
  -6.1563023611990661E-002  0.14410605148302277        0.0000000000000000     
  -6.2328855091349632E-002  0.15154778650507944        0.0000000000000000     
  -6.2902160938328497E-002  0.15902577685797559        0.0000000000000000     
  -6.3282941152927250E-002  0.16654002254171105        0.0000000000000000     
  -6.7973476107856035E-002  0.13714224411403655        0.0000000000000000     
  -6.9214676384709670E-002  0.14456546150454302        0.0000000000000000     
  -7.0325515576581760E-002  0.15207331416342021        0.0000000000000000     
  -7.1305993683472318E-002  0.15966580209066805        0.0000000000000000     
  -7.2156110705381346E-002  0.16734292528628664        0.0000000000000000     
   0.0000000000000000        0.0000000000000000        0.0000000000000000     
  -2.8805961407035183E-003   1.7427672318850551E-003   0.0000000000000000     
  -5.8733717793281719E-003   3.8602787399087636E-003   0.0000000000000000     
  -8.9783269158739600E-003   6.3525345240711267E-003   0.0000000000000000     
  -1.2195461550340885E-002   9.2195345843721441E-003   0.0000000000000000     
   0.0000000000000000        0.0000000000000000        0.0000000000000000     
  -3.2840508226527655E-003   1.9971320085979270E-003   0.0000000000000000     
  -6.6784522163086139E-003   4.3261401987852817E-003   0.0000000000000000     
  -1.0183204180967546E-002   6.9870245705620643E-003   0.0000000000000000     
  -1.3798306716629559E-002   9.9797851239282719E-003   0.0000000000000000     
   0.0000000000000000        0.0000000000000000        0.0000000000000000     
  -3.9541723156390519E-003   2.4226330616434646E-003   0.0000000000000000     
  -7.9119270577862957E-003   5.0576763282389244E-003   0.0000000000000000     
  -1.1873264226441728E-002   7.9051297997863798E-003   0.0000000000000000     
  -1.5838183821605352E-002   1.0964993476285829E-002   0.0000000000000000     
   0.0000000000000000        0.0000000000000000        0.0000000000000000     
  -4.8909606196623785E-003   3.0192703910216683E-003   0.0000000000000000     
  -9.5737963037612148E-003   6.0548871282696945E-003   0.0000000000000000     
  -1.4048507052296509E-002   9.1068502117440768E-003   0.0000000000000000     
  -1.8315092865268265E-002   1.2175159641444815E-002   0.0000000000000000     
   0.0000000000000000        0.0000000000000000        0.0000000000000000     
  -6.0944157347227459E-003   3.7870439967325376E-003   0.0000000000000000     
  -1.1664059954233374E-002   7.3177725988775883E-003   0.0000000000000000     
  -1.6708932658531888E-002   1.0592185806435152E-002   0.0000000000000000     
  -2.1229033847618286E-002   1.3610283619405228E-002   0.0000000000000000     
  -1.2195461550340885E-002   9.2195345843721441E-003   0.0000000000000000     
  -1.5427082129689230E-002   1.2358982341947575E-002   0.0000000000000000     
  -1.8575495100879288E-002   1.5668581217933186E-002   0.0000000000000000     
  -2.1640700463911058E-002   1.9148331212328982E-002   0.0000000000000000     
  -2.4622698218784538E-002   2.2798232325134955E-002   0.0000000000000000     
  -1.3798306716629559E-002   9.9797851239282719E-003   0.0000000000000000     
  -1.7407253445656246E-002   1.3206111702192507E-002   0.0000000000000000     
  -2.0893537990409192E-002   1.6567694148663367E-002   0.0000000000000000     
  -2.4257160350888398E-002   2.0064532463340848E-002   0.0000000000000000     
  -2.7498120527093859E-002   2.3696626646224954E-002   0.0000000000000000     
  -1.5838183821605352E-002   1.0964993476285829E-002   0.0000000000000000     
  -1.9735611950017530E-002   1.4195472510785286E-002   0.0000000000000000     
  -2.3494474718418618E-002   1.7554772056332754E-002   0.0000000000000000     
  -2.7114772126808614E-002   2.1042892112928240E-002   0.0000000000000000     
  -3.0596504175187535E-002   2.4659832680571737E-002   0.0000000000000000     
  -1.8315092865268265E-002   1.2175159641444815E-002   0.0000000000000000     
  -2.2412157642773080E-002   1.5327064767725907E-002   0.0000000000000000     
  -2.6378305284907567E-002   1.8629814940941354E-002   0.0000000000000000     
  -3.0213535791671731E-002   2.2083410161091149E-002   0.0000000000000000     
  -3.3917849163065561E-002   2.5687850428175302E-002   0.0000000000000000     
  -2.1229033847618286E-002   1.3610283619405228E-002   0.0000000000000000     
  -2.5436890523922895E-002   1.6600888473014379E-002   0.0000000000000000     
  -2.9545029689876042E-002   1.9792822802489167E-002   0.0000000000000000     
  -3.3553451345477728E-002   2.3186086607829587E-002   0.0000000000000000     
  -3.7462155490727955E-002   2.6780679889035645E-002   0.0000000000000000     
  -2.4622698218784538E-002   2.2798232325134955E-002   0.0000000000000000     
  -2.7522763484915197E-002   2.6642121638370417E-002   0.0000000000000000     
  -3.0342171381718502E-002   3.0703836234054684E-002   0.0000000000000000     
  -3.3080921909194455E-002   3.4983376112187756E-002   0.0000000000000000     
  -3.5739015067343068E-002   3.9480741272769633E-002   0.0000000000000000     
  -2.7498120527093859E-002   2.3696626646224954E-002   0.0000000000000000     
  -3.0637205772026527E-002   2.7507057663167564E-002   0.0000000000000000     
  -3.3695203338687335E-002   3.1538906480020550E-002   0.0000000000000000     
  -3.6672113227076308E-002   3.5792173096783918E-002   0.0000000000000000     
  -3.9567935437193426E-002   4.0266857513457668E-002   0.0000000000000000     
  -3.0596504175187535E-002   2.4659832680571737E-002   0.0000000000000000     
  -3.3968419765693043E-002   2.8450945307140606E-002   0.0000000000000000     
  -3.7259267800462806E-002   3.2461581540512201E-002   0.0000000000000000     
  -4.0469048279496857E-002   3.6691741380686531E-002   0.0000000000000000     
  -4.3597761202795168E-002   4.1141424827663586E-002   0.0000000000000000     
  -3.3917849163065561E-002   2.5687850428175302E-002   0.0000000000000000     
  -3.7516405465914747E-002   2.9473784570289548E-002   0.0000000000000000     
  -4.1034364767044924E-002   3.3471861415529651E-002   0.0000000000000000     
  -4.4471727066456114E-002   3.7682080963895588E-002   0.0000000000000000     
  -4.7828492364148295E-002   4.2104443215387373E-002   0.0000000000000000     
  -3.7462155490727955E-002   2.6780679889035645E-002   0.0000000000000000     
  -4.1281162872691637E-002   3.0575575452614391E-002   0.0000000000000000     
  -4.5020494238433677E-002   3.4569746105072865E-002   0.0000000000000000     
  -4.8680149587954073E-002   3.8763191846411089E-002   0.0000000000000000     
  -5.2260128921252834E-002   4.3155912676629049E-002   0.0000000000000000     
  -3.5739015067343068E-002   3.9480741272769633E-002   0.0000000000000000     
  -3.8316320965505177E-002   4.4190729523297459E-002   0.0000000000000000     
  -4.0812709713021658E-002   4.9108138671268398E-002   0.0000000000000000     
  -4.3228181309892498E-002   5.4232968716682456E-002   0.0000000000000000     
  -4.5562735756117689E-002   5.9565219659539634E-002   0.0000000000000000     
  -3.9567935437193426E-002   4.0266857513457668E-002   0.0000000000000000     
  -4.2387071227993275E-002   4.4957344217850283E-002   0.0000000000000000     
  -4.5133921858430459E-002   4.9858017697770249E-002   0.0000000000000000     
  -4.7808487328504942E-002   5.4968877953217567E-002   0.0000000000000000     
  -5.0410767638216766E-002   6.0289924984192236E-002   0.0000000000000000     
  -4.3597761202795168E-002   4.1141424827663586E-002   0.0000000000000000     
  -4.6650919226489986E-002   4.5807997455516808E-002   0.0000000000000000     
  -4.9634035006713526E-002   5.0688824838319622E-002   0.0000000000000000     
  -5.2547108543465816E-002   5.5783906976072051E-002   0.0000000000000000     
  -5.5390139836746830E-002   6.1093243868774079E-002   0.0000000000000000     
  -4.7828492364148295E-002   4.2104443215387373E-002   0.0000000000000000     
  -5.1107864960995300E-002   4.6742689236297028E-002   0.0000000000000000     
  -5.4313049157870892E-002   5.1600560092916546E-002   0.0000000000000000     
  -5.7444044954775092E-002   5.6678055785245908E-002   0.0000000000000000     
  -6.0500852351707893E-002   6.1975176313285169E-002   0.0000000000000000     
  -5.2260128921252834E-002   4.3155912676629049E-002   0.0000000000000000     
  -5.5757908431509240E-002   4.7761419560190935E-002   0.0000000000000000     
  -5.9170964311902545E-002   5.2593223461560971E-002   0.0000000000000000     
  -6.2499296562432791E-002   5.7651324380739159E-002   0.0000000000000000     
  -6.5742905183099942E-002   6.2935722317725484E-002   0.0000000000000000     
  -4.5562735756117689E-002   5.9565219659539634E-002   0.0000000000000000     
  -4.7830020976168425E-002   6.5091990155596455E-002   0.0000000000000000     
  -5.0043684894515841E-002   7.0800378860609456E-002   0.0000000000000000     
  -5.2203727511159939E-002   7.6690385774578679E-002   0.0000000000000000     
  -5.4310148826100739E-002   8.2762010897504096E-002   0.0000000000000000     
  -5.0410767638216766E-002   6.0289924984192236E-002   0.0000000000000000     
  -5.2945049083491708E-002   6.5804773032858754E-002   0.0000000000000000     
  -5.5415617960255556E-002   7.1497036341381631E-002   0.0000000000000000     
  -5.7822474268508325E-002   7.7366714909760881E-002   0.0000000000000000     
  -6.0165618008250023E-002   8.3413808737996475E-002   0.0000000000000000     
  -5.5390139836746830E-002   6.1093243868774079E-002   0.0000000000000000     
  -5.8162490940735015E-002   6.6596004908045833E-002   0.0000000000000000     
  -6.0863523909608801E-002   7.2271359485507475E-002   0.0000000000000000     
  -6.3493238743368194E-002   7.8119307601158927E-002   0.0000000000000000     
  -6.6051635442013187E-002   8.4139849255000274E-002   0.0000000000000000     
  -6.0500852351707893E-002   6.1975176313285169E-002   0.0000000000000000     
  -6.3482346547898361E-002   6.7465685781157705E-002   0.0000000000000000     
  -6.6387402742575582E-002   7.3123348292986917E-002   0.0000000000000000     
  -6.9216020935739531E-002   7.8948163848772873E-002   0.0000000000000000     
  -7.1968201127390233E-002   8.4940132448515490E-002   0.0000000000000000     
  -6.5742905183099942E-002   6.2935722317725484E-002   0.0000000000000000     
  -6.8904615904981731E-002   6.8413815652194315E-002   0.0000000000000000     
  -7.1987254459155867E-002   7.4053002763820042E-002   0.0000000000000000     
  -7.4990820845622322E-002   7.9853283652602636E-002   0.0000000000000000     
  -7.7915315064381152E-002   8.5814658318542125E-002   0.0000000000000000     
  -5.4310148826100739E-002   8.2762010897504096E-002   0.0000000000000000     
  -5.6345162667019000E-002   8.9007064760516022E-002   0.0000000000000000     
  -5.8290982861595488E-002   9.5417357894744773E-002   0.0000000000000000     
  -6.0147609409830195E-002  0.10199289030019033        0.0000000000000000     
  -6.1915042311723123E-002  0.10873366197685272        0.0000000000000000     
  -6.0165618008250023E-002   8.3413808737996475E-002   0.0000000000000000     
  -6.2430592886460419E-002   8.9632901893630143E-002   0.0000000000000000     
  -6.4602942610119327E-002   9.6018578444203556E-002   0.0000000000000000     
  -6.6682667179226732E-002  0.10257083838971669        0.0000000000000000     
  -6.8669766593782641E-002  0.10928968173016960        0.0000000000000000     
  -6.6051635442013187E-002   8.4139849255000274E-002   0.0000000000000000     
  -6.8526827934315401E-002   9.0330601384757347E-002   0.0000000000000000     
  -7.0906930149046449E-002   9.6689180928155941E-002   0.0000000000000000     
  -7.3191942086206357E-002  0.10321558788519615        0.0000000000000000     
  -7.5381863745795086E-002  0.10990982225587791        0.0000000000000000     
  -7.1968201127390233E-002   8.4940132448515490E-002   0.0000000000000000     
  -7.4633867810583940E-002   9.1100163233897594E-002   0.0000000000000000     
  -7.7202945478376889E-002   9.7429165346602009E-002   0.0000000000000000     
  -7.9675434130769066E-002  0.10392713878662869        0.0000000000000000     
  -8.2051333767760498E-002  0.11059408355397762        0.0000000000000000     
  -7.7915315064381152E-002   8.5814658318542125E-002   0.0000000000000000     
  -8.0751712515266000E-002   9.1941587441050979E-002   0.0000000000000000     
  -8.3490988598110563E-002   9.8238531699541720E-002   0.0000000000000000     
  -8.6133143312914842E-002  0.10470549109401431        0.0000000000000000     
  -8.8678176659678837E-002  0.11134246562446876        0.0000000000000000     
  -6.1915042311723123E-002  0.10873366197685272        0.0000000000000000     
  -6.3585821483022970E-002  0.11562674184462982        0.0000000000000000     
  -6.5152486839478399E-002  0.12265919882341948        0.0000000000000000     
  -6.6615038381089439E-002  0.12983103291322173        0.0000000000000000     
  -6.7973476107856035E-002  0.13714224411403655        0.0000000000000000     
  -6.8669766593782641E-002  0.10928968173016960        0.0000000000000000     
  -7.0565616347649782E-002  0.11616403103333225        0.0000000000000000     
  -7.2371591934690935E-002  0.12318280886697459        0.0000000000000000     
  -7.4087693354906087E-002  0.13034601523109665        0.0000000000000000     
  -7.5713920608295265E-002  0.13765365012569847        0.0000000000000000     
  -7.5381863745795086E-002  0.10990982225587791        0.0000000000000000     
  -7.7481746931885059E-002  0.11676320125902469        0.0000000000000000     
  -7.9496643448548621E-002  0.12376704211346000        0.0000000000000000     
  -8.1426553295785770E-002  0.13092134481918377        0.0000000000000000     
  -8.3271476473596562E-002  0.13822610937619600        0.0000000000000000     
  -8.2051333767760498E-002  0.11059408355397762        0.0000000000000000     
  -8.4334213235728747E-002  0.11742425252170718        0.0000000000000000     
  -8.6527641381051429E-002  0.12441189856287563        0.0000000000000000     
  -8.8631618203728474E-002  0.13155702167748298        0.0000000000000000     
  -9.0646143703759938E-002  0.13885962186552930        0.0000000000000000     
  -8.8678176659678837E-002  0.11134246562446876        0.0000000000000000     
  -9.1123015259180887E-002  0.11814718482137965        0.0000000000000000     
  -9.3464585732199332E-002  0.12511737821522154        0.0000000000000000     
  -9.5702888078734158E-002  0.13225304580599442        0.0000000000000000     
  -9.7837922298785393E-002  0.13955418759369828        0.0000000000000000     
  -6.7973476107856035E-002  0.13714224411403655        0.0000000000000000     
  -6.9214676384709670E-002  0.14456546150454302        0.0000000000000000     
  -7.0325515576581760E-002  0.15207331416342021        0.0000000000000000     
  -7.1305993683472318E-002  0.15966580209066805        0.0000000000000000     
  -7.2156110705381346E-002  0.16734292528628664        0.0000000000000000     
  -7.5713920608295265E-002  0.13765365012569847        0.0000000000000000     
  -7.7257472322227710E-002  0.14509523779881556        0.0000000000000000     
  -7.8725547124072717E-002  0.15266030249848364        0.0000000000000000     
  -8.0118145013830341E-002  0.16034884422470266        0.0000000000000000     
  -8.1435265991500499E-002  0.16816086297747268        0.0000000000000000     
  -8.3271476473596562E-002  0.13822610937619600        0.0000000000000000     
  -8.5035111504944083E-002  0.14566230858407009        0.0000000000000000     
  -8.6721156912791447E-002  0.15321091524237923        0.0000000000000000     
  -8.8329612697138668E-002  0.16087192935112352        0.0000000000000000     
  -8.9860478857985732E-002  0.16864535091030292        0.0000000000000000     
  -9.0646143703759938E-002  0.13885962186552930        0.0000000000000000     
  -9.2547593932858774E-002  0.14626667386030659        0.0000000000000000     
  -9.4312344942737894E-002  0.15372515239510709        0.0000000000000000     
  -9.5940396733397340E-002  0.16123505746993066        0.0000000000000000     
  -9.7431749304837098E-002  0.16879638908477734        0.0000000000000000     
  -9.7837922298785393E-002  0.13955418759369828        0.0000000000000000     
  -9.9794919605971782E-002  0.14690833362752517        0.0000000000000000     
 -0.10149911121391210       0.15420301395666708        0.0000000000000000     
 -0.10295049712260634       0.16143822858112400        0.0000000000000000     
 -0.10414907733205454       0.16861397750089602        0.0000000000000000     
 </DataArray>
 <DataArray  type="Float64" Name="stress" NumberOfComponents="3" format="ascii">
   13412152599.269470        4023645779.7808409        2891225866.3265014     
   11764805177.683329        1891025405.0296462        1714779898.2167566     
   10314285616.264242        414497897.50197697        810912038.48487175     
   9060593915.0122147       -405936742.80216837        179622287.13084492     
   8003730073.9272432       -570278515.88278818       -179089355.84532064     
   10538949810.982943        3161684943.2948828        2223579483.9501376     
   9668015497.1759033        1590570151.4397252        1445406907.9720812     
   8945425109.3789673        513935112.95157290        862318864.31639040     
   8371178647.5921297       -68220172.169573784        474315352.98306489     
   7945276111.8154001       -155895703.92371225        281396373.97210562     
   8339089798.5709620        2501726939.5712886        1710592954.4072444     
   8023158375.2416172        1425694665.4217448        1274129180.7110939     
   7807086943.7654190        682529030.78268719        955256363.28181589     
   7690875504.1423664        272230035.65411806        753974502.11940992     
   7674524056.3724594        194797680.03603315        670283597.22387540     
   6812572562.0335302        2043771768.6100590        1352266277.6978209     
   6830233811.8804693        1396398946.9757061        1200946716.4337947     
   6899271119.4235973        920279650.99532008        1089724535.3811481     
   7019684484.6629152        615413880.66890264        1018599734.5398785     
   7191473907.5984249        481801635.99645257        987572313.90998900     
   5959398101.3706465        1787819430.4111941        1148599453.8218675     
   6089241807.0924578        1502682996.1016088        1225859515.1401846     
   6221977636.3535042        1227186973.5894716        1265723380.6143863     
   6357605589.1537838        961331362.87478352        1268191050.2444727     
   6496125665.4932976        705116163.95754361        1233262524.0304453     
   8003730073.9272432       -570278515.88278818       -179089355.84532064     
   7921616370.8329983       -205798793.41566563       -79426621.900674835     
   7798540601.5170956        22140708.312603474       -11499512.727569019     
   7634502765.9795408        113539989.30202055        24691971.674001679     
   7429502864.2203245        68399049.552580357        29147831.304034464     
   7945276111.8154001       -155895703.92371225        281396373.97210562     
   7744971566.9984465        14292146.279352188        278169867.87148839     
   7521719130.0192642        107987022.60831738        260599540.35510764     
   7275518800.8778515        125188925.06318569        228685391.42296398     
   7006370579.5742073        65897853.643945217        182427421.07505727     
   7674524056.3724594        194797680.03603315        670283597.22387540     
   7405719536.5635834        185600917.99427795        585184387.48066008     
   7131981298.6519032        159958428.94317436        503133159.67745376     
   6853309342.6374216        117870212.88272619        424129913.81426084     
   6569703668.5201340        59336269.812927485        348174649.89107996     
   7191473907.5984249        481801635.99645257        987572313.90998900     
   6903860279.5284128        308127521.72911072        841616936.92683697     
   6629327107.4150209        178054927.31717539        716101345.23947167     
   6367874391.2582521        91583852.760645866        611025538.84789348     
   6119502131.0581055        48714298.059522390        526389517.75210077     
   6496125665.4932976        705116163.95754361        1233262524.0304453     
   6239393795.8929329        381871957.48385143        1047467516.2100219     
   6013756556.3086138        162276517.73031831        899504097.04115915     
   5819213946.7403431        46329844.696944952        789372266.52385771     
   5655765967.1881189        34031938.383728743        717072024.65811682     
   7429502864.2203245        68399049.552580357        29147831.304034464     
   7251247894.1966362       -15857680.366119385        15795580.028002303     
   7082874153.2364216       -67176980.073250771        1596903.2085431826     
   6924381641.3396702       -85558849.568827629       -13448199.154333288     
   6775770358.5063944       -71003288.852825642       -29339727.060643762     
   7006370579.5742073        65897853.643945217        182427421.07505727     
   6835122525.6194639        10891817.916210175        174006601.92945644     
   6670282793.8182621       -22753143.966379642        165071983.56701392     
   6511851384.1706104       -35037032.003814220        155623565.98773065     
   6359828296.6764975       -25959846.196108103        145661349.19160759     
   6569703668.5201340        59336269.812927485        348174649.89107996     
   6406412891.5674229        33866036.556072474        340633538.14766729     
   6246057529.8583384        18180520.777960777        332911253.51399189     
   6088637583.3928690        12279722.478577614        325007795.99006057     
   5934153052.1710243        16163641.657937050        316923165.57586879     
   6119502131.0581055        48714298.059522390        526389517.75210077     
   5965118992.0405254        53064975.553484678        515676388.68262857     
   5810198361.3566399        55624014.159769058        505114713.04947937     
   5654740239.0064554        56391413.878377914        494704490.85265565     
   5498744624.9899664        55367174.709309578        484445722.09215766     
   5655765967.1881189        34031938.383728743        717072024.65811682     
   5511240827.0387621        68488634.908434391        699135153.53434241     
   5362705288.3131762        89577336.179046631        681682362.17347503     
   5210159351.0113649        97298042.195568562        664713650.57551444     
   5053603015.1333256        91650752.958002567        648229018.74045825     
   6775770358.5063944       -71003288.852825642       -29339727.060643762     
   6619132097.5211525       -50899594.286100864       -20630360.200823557     
   6457858471.6238527       -46247116.092894316       -1782088.7521784285     
   6291949480.8145056       -57045854.273186922        27205087.285282332     
   6121405125.0931025       -83295808.826994658        66331167.911563531     
   6359828296.6764975       -25959846.196108103        145661349.19160759     
   6222625226.8400497       -8497652.6623589993        143677909.77151439     
   6081610979.3085718       -3739384.7787251472        147115289.96160024     
   5936785554.0820532       -11685042.545209169        155973489.76185688     
   5788148951.1605034       -32334625.961817980        170252509.17228040     
   5934153052.1710243        16163641.657937050        316923165.57586879     
   5802904930.6872416        26940261.319885969        305208471.62905574     
   5668669818.7254381        27760246.055092335        294196512.31376815     
   5531447716.2856216        18623595.863574982        283887287.63000309     
   5391238623.3677797       -469689.25466895103        274280797.57776624     
   5498744624.9899664        55367174.709309578        484445722.09215766     
   5359971209.0627136        55414147.660597563        463961325.37180448     
   5219034989.8744612        48251776.408552885        439461578.30433029     
   5075935967.4252052        33880060.953167915        410946480.88973689     
   4930674141.7149534        12299001.294445753        378416033.12801689     
   5053603015.1333256        91650752.958002567        648229018.74045825     
   4893824061.9664707        76924006.359804392        619936470.99975681     
   4732706492.7556324        57735206.281656981        582910487.93328285     
   4570250307.5008078        34084352.723561764        537151069.54104257     
   4406455506.2019997        5971445.6855213642        482658215.82303518     
   6121405125.0931025       -83295808.826994658        66331167.911563531     
   5962482624.5653782       -106975603.31061149        62890331.932330824     
   5807591271.4851475       -117218239.63590598        60476929.411782481     
   5656731065.8524208       -114023717.80286264        59090960.349931307     
   5509902007.6671925       -97392037.811488867        58732424.746770889     
   5788148951.1605034       -32334625.961817980        170252509.17228040     
   5634680089.5912552       -54694287.840327978        149925051.82262045     
   5484850712.8373032       -64922333.667843580        132460621.91961266     
   5338660820.8986578       -63018763.444347620        117859219.46325272     
   5196110413.7753115       -48983577.169855833        106120844.45354784     
   5391238623.3677797       -469689.25466895103        274280797.57776624     
   5248467955.0083284       -19935852.252686739        236609779.12011290     
   5108945108.8319826       -28575941.307017326        203637382.09707773     
   4972670084.8387337       -26389956.417684555        175363606.50865138     
   4839642883.0285921       -13377897.584663630        151788452.35484388     
   4930674141.7149534        12299001.294445753        378416033.12801689     
   4803846220.8166113       -2700296.5476801395        322944513.82481343     
   4679874459.4691763       -8179062.5534532070        274007209.94418085     
   4558758857.6726513       -4137296.7228665352        231604121.48612666     
   4440499415.4270267        9425000.9440693855        195735248.45065010     
   4406455506.2019997        5971445.6855213642        482658215.82303518     
   4300814887.0160933       -2987620.7253117561        408929255.93670940     
   4197638764.7488971       -3731697.4071207047        343570105.46092415     
   4096927139.4004097        3739215.6401076317        286580764.39567292     
   3998680010.9706287        19425118.416355610        237961232.74096259     
   5509902007.6671925       -97392037.811488867        58732424.746770889     
   5326692186.8142738       -86514685.572208881        65493837.611919366     
   5142853351.0731182       -77734049.627040386        72291553.265748143     
   4958385500.4437361       -71050129.975960255        79125571.708271936     
   4773288634.9261246       -66462926.618989468        85995892.939474747     
   5196110413.7753115       -48983577.169855833        106120844.45354784     
   5012517135.3194637       -42791473.720137358        97531686.012316033     
   4828231478.8010340       -38907297.145677090        89692468.654662281     
   4643253444.2200441       -37331047.446431637        82603192.380579844     
   4457583031.5764694       -38062724.622456074        76263857.190078661     
   4839642883.0285921       -13377897.584663630        151788452.35484388     
   4657705113.5266485       -11259352.957469225        127774798.90382445     
   4475011602.7877913       -11659945.786654472        105224724.83128209     
   4291562350.8120198       -14579676.072215796        84138230.137205929     
   4107357357.5993366       -20018543.814162731        64515314.821603648     
   4440499415.4270267        9425000.9440693855        195735248.45065010     
   4262256121.4358344        8081676.7158133984        156223176.28644878     
   4083193723.0333858        4008004.4500260353        118888321.79561783     
   3903312220.2196732       -2796015.8532900810        83730684.978149146     
   3722611612.9947085       -12330384.194122791        50750265.834044725     
   3998680010.9706287        19425118.416355610        237961232.74096259     
   3826170159.0470185        15231615.299678802        182876818.16018423     
   3652777839.5378060        8096553.5643341541        130683259.54766566     
   3478503052.4429975       -1980066.7896728516        81380556.903402045     
   3303345797.7625895       -14998245.762333632        34968710.227400146     
   4773288634.9261246       -66462926.618989468        85995892.939474747     
   4572221941.5223627       -75769228.729627132        96359196.792915851     
   4365782577.0056591       -102984434.55008554        120378780.71081570     
   4153970541.3760028       -148108544.08036828        158054644.69316593     
   3936785834.6334004       -211141557.32048702        209386788.73997620     
   4457583031.5764694       -38062724.622456074        76263857.190078661     
   4284250597.4587264       -43349040.864833117        65186466.429328479     
   4106167003.4096322       -64472556.878369570        60859152.162232034     
   3923332249.4291883       -101433272.66307139        63281914.388792217     
   3735746335.5173955       -154231188.21893597        72454753.108992696     
   4107357357.5993366       -20018543.814162731        64515314.821603648     
   3942027172.5653028       -27204477.248967171        32722325.825191814     
   3772567338.7815242       -48155906.516259193        773209.75162329467     
   3598977856.2479892       -82872831.616063356       -31332033.399096303     
   3421258724.9647088       -131355252.54836941       -63593403.626976110     
   3722611612.9947085       -12330384.194122791        50750265.834044725     
   3545551666.8420954       -27335537.882026911       -1033225.0195042217     
   3364983583.1213293       -54034483.463771105       -59879046.521012038     
   3180907361.8324013       -92427220.939385414       -125787198.67047796     
   2993323002.9753246       -142513750.30882883       -198757681.46791291     
   3303345797.7625895       -14998245.762333632        34968710.227400146     
   3094824080.2890959       -43742222.764024258       -36080186.104752421     
   2883415736.4290385       -82108287.720930815       -121097616.65566941     
   2669120766.1824274       -130096440.63301110       -220083581.42535496     
   2451939169.5492606       -187706681.50028539       -333038080.41380429     
   3936785834.6334004       -211141557.32048702        209386788.73997620     
   3444400571.4357176       -234469293.07466030        154830193.00763875     
   3038002558.0910406        28827137.347852588        207058770.59207320     
   2717591794.5993962        578747733.94711316        366072521.49328333     
   2483168280.9607348        1415292496.7230396        631871445.71125770     
   3735746335.5173955       -154231188.21893597        72454753.108992696     
   3473294482.1656671       -154195696.74324012        39035972.767320625     
   3265237649.5343928        27156530.467292070        70312358.860426992     
   3111575837.6235867        389825493.41273308        166283911.38829771     
   3012309046.4332519        933811192.09307921        326950630.35091865     
   3421258724.9647088       -131355252.54836941       -63593403.626976110     
   3268483118.9388862       -144033682.59886909       -112731969.23258318     
   3138510304.5009818       -80702807.356311083       -139265375.28544658     
   3031340281.6510124        58637373.179363728       -143193621.78555092     
   2946973050.3889618        273986859.00809014       -124516708.73291866     
   2993323002.9753246       -142513750.30882883       -198757681.46791291     
   2829966481.7553840       -203983250.64150620       -300473632.99210405     
   2657820522.9908128       -294750876.12294126       -421674431.84555429     
   2476885126.6816373       -414816626.75309265       -562360078.02827942     
   2287160292.8278198       -564180502.53197479       -722530571.54025686     
   2451939169.5492606       -187706681.50028539       -333038080.41380429     
   2157744570.6151595       -334044400.87115681       -524189018.51121831     
   1823168305.0038943       -614987675.83258486       -776914810.81991625     
   1448210372.7154691       -1030536506.3845438       -1091215457.3398802     
   1032870773.7498764       -1580690892.5270667       -1467090958.0711241     
   5959398101.3706465        1787819430.4111941        1148599453.8218675     
   6089241807.0924578        1502682996.1016088        1225859515.1401846     
   6221977636.3535042        1227186973.5894716        1265723380.6143863     
   6357605589.1537838        961331362.87478352        1268191050.2444727     
   6496125665.4932976        705116163.95754361        1233262524.0304453     
   5435053821.4832888        1630516146.4449866        1032080141.5047909     
   5489697167.0932245        1372988946.5878236        1112173532.1289699     
   5546651031.6798773        1123163476.6530471        1165445325.9452622     
   5605915415.2432451        881039736.64065707        1191895522.9536679     
   5667490317.7833281        646617726.55065441        1191524123.1541865     
   4895027127.2724371        1468508138.1817310        935195999.47199845     
   4904683252.8740063        1247654114.8080428        1017444180.7457677     
   4916068292.8897724        1032563139.4816794        1083445364.2478783     
   4929182247.3197384        823235212.20264113        1133199549.9783311     
   4944025116.1639013        619670332.97092724        1166706737.9371254     
   4339318018.7380886        1301795405.6214266        857947027.72348964     
   4334200064.4348040        1126678500.7622671        941671460.99057758     
   4330229419.9831944        955385962.07536960        1019723495.5222353     
   4327406085.3832655        787917789.56073487        1092103131.3184633     
   4325730060.6350145        624273983.21836293        1158810368.3792610     
   3767926495.8802471        1130377948.7640741        800333226.25926507     
   3778247601.7756124        1010062104.4504946        884855372.86339986     
   3789134412.9601383        891631944.43411613        974279719.76833284     
   3800586929.4338245        775087468.71493828        1068606266.9740644     
   3812605151.1966715        660428677.29296112        1167835014.4805939     
   6496125665.4932976        705116163.95754361        1233262524.0304453     
   6239393795.8929329        381871957.48385143        1047467516.2100219     
   6013756556.3086138        162276517.73031831        899504097.04115915     
   5819213946.7403431        46329844.696944952        789372266.52385771     
   5655765967.1881189        34031938.383728743        717072024.65811682     
   5667490317.7833281        646617726.55065441        1191524123.1541865     
   5515025666.4741077        388435472.42108417        1069651753.3700930     
   5386921895.3850222        211456152.35863256        975139050.77129042     
   5283179004.5160723        115679766.36329865        907986015.35778189     
   5203796993.8672590        101106314.43508434        868192647.12956417     
   4944025116.1639013        619670332.97092724        1166706737.9371254     
   4865907907.5279150        417574098.50010705        1100900964.7607958     
   4805417829.3161545        274234965.44336462        1051982937.3034905     
   4762554881.5286140        189652933.80069852        1019952655.5652082     
   4737319064.1653023        163828003.57211280        1004810119.5459504     
   4325730060.6350145        624273983.21836293        1158810368.3792610     
   4292040519.0543542        469287835.72091913        1141215150.3821318     
   4269244358.1020055        350612956.98451197        1130035756.6377597     
   4257341577.7779684        268249347.00914288        1125272187.1461401     
   4256332178.0822411        222197005.79480934        1126924441.9072778     
   3812605151.1966715        660428677.29296112        1167835014.4805939     
   3793423501.0534272        543576684.08352160        1190594310.2341020     
   3778401481.7425804        440590126.98207676        1209297508.7740958     
   3767539093.2641339        351469005.98862815        1223944610.1005762     
   3760836335.6180854        276213321.10317767        1234535614.2135434     
   5655765967.1881189        34031938.383728743        717072024.65811682     
   5511240827.0387621        68488634.908434391        699135153.53434241     
   5362705288.3131762        89577336.179046631        681682362.17347503     
   5210159351.0113649        97298042.195568562        664713650.57551444     
   5053603015.1333256        91650752.958002567        648229018.74045825     
   5203796993.8672590        101106314.43508434        868192647.12956417     
   5054014230.3755865        100423044.29080153        843641638.99181426     
   4902954371.9188080        95482790.929490328        822671448.52068365     
   4750617418.4969177        86285554.351143837        805282075.71616971     
   4597003370.1099195        72831334.555768013        791473520.57827485     
   4737319064.1653023        163828003.57211280        1004810119.5459504     
   4591126499.9133482        130659113.53345227        976833828.60719585     
   4446390144.3074064        102344252.31481957        955535093.23877251     
   4303109997.3474712        78883419.916216612        940913913.44067943     
   4161286059.0335455        60276616.337641001        932970289.21291542     
   4256332178.0822411        222197005.79480934        1126924441.9072778     
   4122577635.6520438        159196842.63638258        1098711722.3804903     
   3993012605.4789724        110161720.33504200        1080273296.3277438     
   3867637087.5630283        75091638.890790224        1071609163.7490405     
   3746451081.9042096        53986598.303627014        1072719324.6443790     
   3760836335.6180854        276213321.10317767        1234535614.2135434     
   3648367637.5916753        186036231.59959328        1209275320.3116944     
   3542821755.4335074        118935194.99015391        1196886057.7875977     
   3444198689.1435857        74910211.274865746        1197367826.6412537     
   3352498438.7219076        53961280.453720927        1210720626.8726664     
   5053603015.1333256        91650752.958002567        648229018.74045825     
   4893824061.9664707        76924006.359804392        619936470.99975681     
   4732706492.7556324        57735206.281656981        582910487.93328285     
   4570250307.5008078        34084352.723561764        537151069.54104257     
   4406455506.2019997        5971445.6855213642        482658215.82303518     
   4597003370.1099195        72831334.555768013        791473520.57827485     
   4421903410.5498495        49550275.078078747        772981268.95657837     
   4245851271.4513392        23095283.805588245        753411135.33036602     
   4068846952.8143840       -6533639.2617216110        732763119.69963896     
   3890890454.6389875       -39336494.123831511        711037222.06439877     
   4161286059.0335455        60276616.337641001        932970289.21291542     
   3992738102.5695624        35003146.827258587        924729176.30002213     
   3823624403.0726743        7843867.2072079182        923065734.70386851     
   3653944960.5428858       -21201222.522518873        927979964.42445469     
   3483699774.9801950       -52132122.361918688        939471865.46177745     
   3746451081.9042096        53986598.303627014        1072719324.6443790     
   3606328138.0256014        33282621.607336998        1075180193.0300882     
   3466025887.6196351        11980956.486515284        1091874286.0537925     
   3325544330.6863060       -9918397.0588467121        1122801603.7154837     
   3184883467.2256184       -32415439.028738379        1167962146.0151725     
   3352498438.7219076        53961280.453720927        1210720626.8726664     
   3262673516.9179735        44388699.418309569        1224334319.1467764     
   3173055725.0922222        35506551.643509030        1259836789.3801334     
   3083645063.2446513        27314837.129306793        1317228037.5727360     
   2994441531.3752575        19813555.875699759        1396508063.7245820     
   4406455506.2019997        5971445.6855213642        482658215.82303518     
   4300814887.0160933       -2987620.7253117561        408929255.93670940     
   4197638764.7488971       -3731697.4071207047        343570105.46092415     
   4096927139.4004097        3739215.6401076317        286580764.39567292     
   3998680010.9706287        19425118.416355610        237961232.74096259     
   3890890454.6389875       -39336494.123831511        711037222.06439877     
   3805713443.3251143       -42022408.717411280        676887450.56104445     
   3722993948.3914928       -36516602.043490410        648661456.05242729     
   3642731969.8381233       -22819074.102061272        626359238.53854835     
   3564927507.6649985       -929824.89314317703        609980798.01940477     
   3483699774.9801950       -52132122.361918688        939471865.46177745     
   3411997707.4932127       -50641484.351786613        944893138.37985706     
   3342746175.8480229       -40982393.535680056        953792155.87687743     
   3275945180.0446239       -23154849.913604259        966168917.95283282     
   3211594720.0830202        2841146.5144518614        982023424.60772693     
   3184883467.2256184       -32415439.028738379        1167962146.0151725     
   3119667679.5203857       -28844847.628439188        1212946319.3931522     
   3056895447.1184888       -17129071.883687019        1258962204.9342704     
   2996566770.0199246        2731888.2055027485        1306009802.6385286     
   2938681648.2246919        30738032.639137745        1354089112.5059223     
   2994441531.3752575        19813555.875699759        1396508063.7245820     
   2928723359.4066334        23367501.452631593        1481046993.6009264     
   2865441762.2028875        35043362.912482977        1564171603.2246130     
   2804596739.7640119        54841140.255241156        1645881892.5956340     
   2746188292.0900168        82760833.480926156        1726177861.7139952     
   3998680010.9706287        19425118.416355610        237961232.74096259     
   3826170159.0470185        15231615.299678802        182876818.16018423     
   3652777839.5378060        8096553.5643341541        130683259.54766566     
   3478503052.4429975       -1980066.7896728516        81380556.903402045     
   3303345797.7625895       -14998245.762333632        34968710.227400146     
   3564927507.6649985       -929824.89314317703        609980798.01940477     
   3401988719.0225844       -2081552.5464355946        582495585.42463017     
   3238240318.0077705       -5931988.1077303886        558779925.04789031     
   3073682304.6205559       -12481131.577032208        538833816.88918269     
   2908314678.8609343       -21728982.954345584        522657260.94851351     
   3211594720.0830202        2841146.5144518614        982023424.60772693     
   3060737555.4354534        5484362.5386379957        982222411.74767983     
   2909143633.6286874        5671721.3654872179        987069647.35544837     
   2756812954.6627140        3403222.9949785471        996565131.43102860     
   2603745518.5375385       -1321132.5728679895        1010708863.9744253     
   2938681648.2246919        30738032.639137745        1354089112.5059223     
   2802416668.2856278        37929360.554903150        1382057297.1293390     
   2665487786.4005604        42907681.983991742        1415552426.4703441     
   2527895002.5694847        45672996.926380515        1454574500.5289435     
   2389638316.7923985        46225305.382075429        1499123519.3051343     
   2746188292.0900168        82760833.480926156        1726177861.7139952     
   2627026057.5731044        95253441.502362013        1782000241.5696018     
   2507272776.3233871        105775893.74778330        1844228262.3925769     
   2386928448.3408566        114328190.21715558        1912861924.1829205     
   2265993073.6255183        120910330.91050696        1987901226.9406412     
   3303345797.7625895       -14998245.762333632        34968710.227400146     
   3094824080.2890959       -43742222.764024258       -36080186.104752421     
   2883415736.4290385       -82108287.720930815       -121097616.65566941     
   2669120766.1824274       -130096440.63301110       -220083581.42535496     
   2451939169.5492606       -187706681.50028539       -333038080.41380429     
   2908314678.8609343       -21728982.954345584        522657260.94851351     
   2675998667.1056705       -54479761.856911540        486022890.73769176     
   2442238369.8811188       -92044825.657104492        445978398.04447800     
   2207033787.1872759       -134424174.35494101        402523782.86886966     
   1970384919.0241408       -181617807.95040739        355659045.21086287     
   2603745518.5375385       -1321132.5728679895        1010708863.9744253     
   2377802103.1758547       -29028646.173699260        1010171750.9550806     
   2151856743.2621536       -56742641.614599109        1016782927.1897168     
   1925909438.7964289       -84463118.895569682        1030542392.6783283     
   1699960189.7786818       -112190078.01662087        1051450147.4209229     
   2389638316.7923985        46225305.382075429        1499123519.3051343     
   2200234388.4996490        32611124.285597920        1536366394.5474114     
   2012270856.5721431        23798264.406593084        1591315970.7800426     
   1825747721.0098829        19786725.745076895        1663972248.0030241     
   1640664981.8128705        20576508.301051676        1754335226.2163558     
   2265993073.6255183        120910330.91050696        1987901226.9406412     
   2143295523.0770447        130439549.52096033        2064606821.5146887     
   2023480709.8110909        149577892.40648103        2169577528.8154612     
   1906548633.8276455        178325359.56703168        2302813348.8429565     
   1792499295.1267180        216681951.00263500        2464314281.5971684     
   2451939169.5492606       -187706681.50028539       -333038080.41380429     
   2157744570.6151595       -334044400.87115681       -524189018.51121831     
   1823168305.0038943       -614987675.83258486       -776914810.81991625     
   1448210372.7154691       -1030536506.3845438       -1091215457.3398802     
   1032870773.7498764       -1580690892.5270667       -1467090958.0711241     
   1970384919.0241408       -181617807.95040739        355659045.21086287     
   1560869269.0414326       -314505927.25191259        218345443.62073386     
   1130489475.1916373       -516941192.77703172        50794441.573095985     
   679245537.47476840       -788923604.52574253       -146993960.93205622     
   207137455.89080852       -1130453162.4980741       -375019763.89471537     
   1699960189.7786818       -112190078.01662087        1051450147.4209229     
   1264659070.9009814       -204767922.60267091        990744325.61650062     
   828011330.96627903       -301834504.04539484        931138557.10833597     
   390016969.97457230       -403389822.34478784        872632841.89642870     
  -49324012.074128911       -509433877.50084209        815227179.98077857     
   1640664981.8128705        20576508.301051676        1754335226.2163558     
   1269113976.1937912       -4830386.9234582782        1793007627.4760776     
   915733872.32778907        30332390.362282038        1864117535.7858202     
   580524670.21487403        126064840.15831518        1967664951.1455853     
   263486369.85503855        282366962.46461785        2103649873.5553808     
   1792499295.1267180        216681951.00263500        2464314281.5971684     
   1574233984.9198747        285306679.78573644        2625135349.1994629     
   1393657099.2761965        479559490.44605154        2849731377.6055450     
   1250768638.1956828        799440382.98357940        3138102366.8154149     
   1145568601.6783297        1244949357.3983216        3490248316.8290734     
   3767926495.8802471        1130377948.7640741        800333226.25926507     
   3778247601.7756124        1010062104.4504946        884855372.86339986     
   3789134412.9601383        891631944.43411613        974279719.76833284     
   3800586929.4338245        775087468.71493828        1068606266.9740644     
   3812605151.1966715        660428677.29296112        1167835014.4805939     
   3207727765.0574613        962318329.51723838        757060419.76708686     
   3235130312.3764715        869327986.14723110        853573050.60510993     
   3262227798.4358339        775320771.91173124        952017166.63508320     
   3289020223.2355475        680296686.81073809        1052392767.8570054     
   3315507586.7756143        584255730.84425259        1154699854.2708781     
   2685597032.6282873        805679109.78848612        722834432.93471777     
   2721593263.9170876        737467940.12589443        830321653.69968665     
   2756413667.3974333        665337344.43511701        936769644.54775703     
   2790058243.0693226        589287322.71615362        1042178405.4789282     
   2822526990.9327559        509317874.96900403        1146547936.4932008     
   2201534298.5927229        660460289.57781696        697655265.76215827     
   2237636456.3974628        614481966.38648558        815101182.14713001     
   2271692019.8449378        561681662.00427473        928537153.50635445     
   2303700988.9351487        502059376.43118459        1037963179.8398317     
   2333663363.6680975        435615109.66721553        1143379261.1475620     
   1755539562.9507692        526661868.88523078        681522918.24940777     
   1783259889.8175941        500370064.92900348        807911635.94743979     
   1808062855.7783470        464353724.61920387        927319693.51087642     
   1829948460.8330288        418612847.95583147        1039747090.9397173     
   1848916704.9816382        363147434.93888652        1145193828.2339628     
   3812605151.1966715        660428677.29296112        1167835014.4805939     
   3793423501.0534272        543576684.08352160        1190594310.2341020     
   3778401481.7425804        440590126.98207676        1209297508.7740958     
   3767539093.2641339        351469005.98862815        1223944610.1005762     
   3760836335.6180854        276213321.10317767        1234535614.2135434     
   3315507586.7756143        584255730.84425259        1154699854.2708781     
   3290997084.6293917        478381199.48163402        1184346626.0193722     
   3270395457.5734258        385536251.75319946        1211417117.6298237     
   3253702705.6077142        305720887.65894532        1235911329.1022327     
   3240918828.7322569        238935107.19887459        1257829260.4366000     
   2822526990.9327559        509317874.96900403        1146547936.4932008     
   2796915685.5706177        415689220.08932596        1182789635.8708470     
   2774962499.5565910        334254296.37001669        1217934872.1859210     
   2756667432.8906736        265013103.81107533        1251983645.4384232     
   2742030485.5728660        207965642.41250253        1284935955.6283536     
   2333663363.6680975        435615109.66721553        1143379261.1475620     
   2311179303.8771014        355500745.90659499        1185923339.7885251     
   2292102607.6920733        286744260.83252937        1228850772.4423871     
   2276433275.1130099        229345654.44501811        1272161559.1091478     
   2264171306.1399145        183304926.74406147        1315855699.7888074     
   1848916704.9816382        363147434.93888652        1145193828.2339628     
   1833787939.5488451        297815776.93344182        1193747737.7724068     
   1821815781.9798751        243006145.14073849        1244164818.3992214     
   1813000232.2747271        198718539.56077605        1296445070.1144056     
   1807341290.4334002        164952960.19355333        1350588492.9179604     
   3760836335.6180854        276213321.10317767        1234535614.2135434     
   3648367637.5916753        186036231.59959328        1209275320.3116944     
   3542821755.4335074        118935194.99015391        1196886057.7875977     
   3444198689.1435857        74910211.274865746        1197367826.6412537     
   3352498438.7219076        53961280.453720927        1210720626.8726664     
   3240918828.7322569        238935107.19887459        1257829260.4366000     
   3163233829.5763116        166836747.12921059        1245553904.2412982     
   3090974740.2144308        112824753.03976548        1242992193.6223094     
   3024141560.6466160        76899124.930542588        1250144128.5796366     
   2962734290.8728704        59059862.801543474        1267009709.1132772     
   2742030485.5728660        207965642.41250253        1284935955.6283536     
   2690108082.9975572        151239681.08980942        1283899146.7197258     
   2642114684.1421380        107610398.83341300        1289418597.5859721     
   2598050289.0066061        77077795.643310785        1301494308.2270944     
   2557914897.5909615        59641871.519501686        1320126278.6430912     
   2264171306.1399145        183304926.74406147        1315855699.7888074     
   2228990397.8554163        139245033.48139358        1324311047.7469788     
   2196241587.2166286        103292132.37109530        1336165269.6785860     
   2165924874.2235513        75446223.413162112        1351418365.5836294     
   2138040258.8761857        55707306.607602000        1370070335.4621062     
   1807341290.4334002        164952960.19355333        1350588492.9179604     
   1779880774.1498857        130852804.30395973        1366789607.3230569     
   1753355449.4379051        99869953.652813017        1383232209.9001501     
   1727765316.2974553        72004408.240103185        1399916300.6492395     
   1703110374.7285392        47256168.065838695        1416841879.5703251     
   3352498438.7219076        53961280.453720927        1210720626.8726664     
   3262673516.9179735        44388699.418309569        1224334319.1467764     
   3173055725.0922222        35506551.643509030        1259836789.3801334     
   3083645063.2446513        27314837.129306793        1317228037.5727360     
   2994441531.3752575        19813555.875699759        1396508063.7245820     
   2962734290.8728704        59059862.801543474        1267009709.1132772     
   2921351294.7161093        56632822.272469163        1271845308.1507447     
   2880743447.7860479        56789612.499062300        1290406178.0714812     
   2840910750.0826893        59530233.481333971        1322692318.8754933     
   2801853201.6060348        64854685.219274044        1368703730.5627730     
   2557914897.5909615        59641871.519501686        1320126278.6430912     
   2541649521.1500163        57363079.717354894        1316846473.5671895     
   2526727313.1842942        59561516.165946722        1319128432.2985835     
   2513148273.6937938        66237180.865284204        1326972154.8372750     
   2500912402.6785150        77390073.815356493        1340377641.1832616     
   2138040258.8761857        55707306.607602000        1370070335.4621062     
   2123568196.2197001        46579471.752972841        1359337815.3961098     
   2111007321.2869582        43822262.644155502        1346003552.0614347     
   2100357634.0779605        47435679.281150699        1330067545.4580824     
   2091619134.5927060        57419721.663956046        1311529795.5860498     
   1703110374.7285392        47256168.065838695        1416841879.5703251     
   1667107319.9251599        24281998.379326940        1399319333.6375067     
   1633583472.0940411        9571851.9336879253        1371031537.3600361     
   1602538831.2351892        3125728.7289386392        1331978490.7379129     
   1573973397.3485992        4943628.7650595307        1282160193.7711387     
   2994441531.3752575        19813555.875699759        1396508063.7245820     
   2928723359.4066334        23367501.452631593        1481046993.6009264     
   2865441762.2028875        35043362.912482977        1564171603.2246130     
   2804596739.7640119        54841140.255241156        1645881892.5956340     
   2746188292.0900168        82760833.480926156        1726177861.7139952     
   2801853201.6060348        64854685.219274044        1368703730.5627730     
   2734463337.9316092        65155399.628489971        1418772102.4894605     
   2668590164.9627523        70511749.722936988        1469719623.6261270     
   2604233682.6994634        80923735.502603292        1521546293.9727736     
   2541393891.1417398        96391356.967495322        1574252113.5293968     
   2500912402.6785150        77390073.815356493        1340377641.1832616     
   2438403617.1915498        76403388.024841666        1354902257.0911009     
   2376491638.3508425        77406057.721858740        1372599491.6715565     
   2315176466.1563950        80398082.906407833        1393469344.9246335     
   2254458100.6082087        85379463.578489900        1417511816.8503282     
   2091619134.5927060        57419721.663956046        1311529795.5860498     
   2040544197.1864541        57111466.641682386        1289437457.4058444     
   1989146182.3671536        55726286.909248471        1272811207.3609009     
   1937425090.1348078        53264182.466657877        1261651045.4512177     
   1885380920.4894116        49725153.313907266        1255956971.6767910     
   1573973397.3485992        4943628.7650595307        1282160193.7711387     
   1540885077.9163222        7279635.4790096283        1222377703.4337010     
   1506553797.0116894        5472437.2851052284        1170354770.6941619     
   1470979554.6347032       -477965.81664597988        1126091395.5525219     
   1434162350.7853575       -10571573.826255858        1089587578.0087869     
   2746188292.0900168        82760833.480926156        1726177861.7139952     
   2627026057.5731044        95253441.502362013        1782000241.5696018     
   2507272776.3233871        105775893.74778330        1844228262.3925769     
   2386928448.3408566        114328190.21715558        1912861924.1829205     
   2265993073.6255183        120910330.91050696        1987901226.9406412     
   2541393891.1417398        96391356.967495322        1574252113.5293968     
   2436642492.5573430        101451941.56805849        1600923271.0964739     
   2331802828.7027750        106218308.60139036        1633989128.4337058     
   2226874899.5780244        110690458.06744862        1673449685.5410831     
   2121858705.1831098        114868389.96628582        1719304942.4186106     
   2254458100.6082087        85379463.578489900        1417511816.8503282     
   2164086277.3928375        82998646.589143276        1415618330.5019557     
   2074128970.3699267        81999550.241332889        1420108602.7265120     
   1984586179.5394728        82382174.535045385        1430982633.5239942     
   1895457904.9014809        84146519.470295310        1448240422.8944080     
   1885380920.4894116        49725153.313907266        1255956971.6767910     
   1809357412.0795789        39893556.565601230        1226085419.7860398     
   1734251201.3248391        33119618.667603910        1202586685.2709966     
   1660062288.2251911        29403339.619915068        1185460768.1316569     
   1586790672.7806377        28744719.422537148        1174707668.3680301     
   1434162350.7853575       -10571573.826255858        1089587578.0087869     
   1372455896.6175709       -27863328.502575397        1032324538.9487287     
   1312169521.5675125       -40421486.119800091        981423376.06715763     
   1253303225.6351814       -48246046.677936256        936884089.36407125     
   1195857008.8205791       -51337010.176975727        898706678.83947217     
   2265993073.6255183        120910330.91050696        1987901226.9406412     
   2143295523.0770447        130439549.52096033        2064606821.5146887     
   2023480709.8110909        149577892.40648103        2169577528.8154612     
   1906548633.8276455        178325359.56703168        2302813348.8429565     
   1792499295.1267180        216681951.00263500        2464314281.5971684     
   2121858705.1831098        114868389.96628582        1719304942.4186106     
   2062035680.1515152        135563759.87101501        1764717629.9928849     
   2004252230.6298125        163057714.80870813        1827653420.3239701     
   1948508356.6180015        197350254.77938336        1908112313.4118721     
   1894804058.1160891        238441379.78304797        2006094309.2565897     
   1895457904.9014809        84146519.470295310        1448240422.8944080     
   1867817948.3298824        106800603.55221981        1461376514.7341797     
   1841374405.4955554        133442733.42505091        1481293699.3608589     
   1816127276.3985016        164072909.08879167        1507991976.7744403     
   1792076561.0387192        198691130.54343534        1541471346.9749298     
   1586790672.7806377        28744719.422537148        1174707668.3680301     
   1560642327.6121521        44150080.564594746        1154583475.7385726     
   1534847234.4083223        60732948.255501151        1130498365.9261191     
   1509405393.1691399        78493322.495234787        1102452338.9306622     
   1484316803.8946087        97431203.283798754        1070445394.7522019     
   1195857008.8205791       -51337010.176975727        898706678.83947217     
   1140508817.9983299       -52387809.091839373        844338513.00607014     
   1084670717.3681071       -55071640.699949086        775267420.01975572     
   1028342706.9299190       -59388505.001277208        691493399.88052928     
   971524786.68375909       -65338401.995849550        593016452.58839881     
   1792499295.1267180        216681951.00263500        2464314281.5971684     
   1574233984.9198747        285306679.78573644        2625135349.1994629     
   1393657099.2761965        479559490.44605154        2849731377.6055450     
   1250768638.1956828        799440382.98357940        3138102366.8154149     
   1145568601.6783297        1244949357.3983216        3490248316.8290734     
   1894804058.1160891        238441379.78304797        2006094309.2565897     
   1812161365.9892733        311935312.52949214        2119576664.9492047     
   1754567664.8340585        468925881.84794915        2272485488.2157393     
   1722022954.6504469        709413087.73841143        2464820779.0562015     
   1714527235.4384313        1033396930.2008662        2696582537.4705839     
   1792076561.0387192        198691130.54343534        1541471346.9749298     
   1775489363.4780328        256184130.19906294        1592868984.9010456     
   1771311723.2973843        355042321.12148595        1659344597.1712186     
   1779543640.4967773        495265703.31071150        1740898183.7854533     
   1800185115.0762064        676854276.76672626        1837529744.7437475     
   1484316803.8946087        97431203.283798754        1070445394.7522019     
   1464217977.3861587        118053132.79445022        1045012309.0549924     
   1443889274.6661770        137908808.26666945        1010308704.4719778     
   1423330695.7346764        156998229.70048314        966334581.00315928     
   1402542240.5916493        175321397.09587997        913089938.64853525     
   971524786.68375909       -65338401.995849550        593016452.58839881     
   878347207.71363854       -102457679.68436956        476006637.41104168     
   772300318.94043124       -182474656.71652120        325377810.11801839     
   653384120.36414135       -305389333.09227526        141129970.70932230     
   521598611.98476338       -471201708.81166494       -76736880.815039173     
   1755539562.9507692        526661868.88523078        681522918.24940777     
   1783259889.8175941        500370064.92900348        807911635.94743979     
   1808062855.7783470        464353724.61920387        927319693.51087642     
   1829948460.8330288        418612847.95583147        1039747090.9397173     
   1848916704.9816382        363147434.93888652        1145193828.2339628     
   1325597787.9285662        397679336.37856990        671365097.77766395     
   1338766261.6481559        375673951.98569483        793578155.88012314     
   1349746714.6879106        346375165.32670361        910588967.18160796     
   1358539147.0478299        309782976.40159589        1022397531.6821181     
   1365143558.7279148        265897385.21037248        1129003849.3816535     
   889693935.75225532        266908180.72567660        664109511.72812390     
   893391737.27781236        250713570.18211451        782997807.16561997     
   895630858.34977150        229656691.45989278        898462269.13576257     
   896411298.96813285        203737544.55901110        1010502897.6385520     
   895733059.13289618        172956129.47946978        1119119692.6739879     
   447828006.42183596        134348401.92655078        659756160.10078764     
   447136316.70656407        125488919.51826274        776170589.80393052     
   445715286.76393098        114198303.01877119        890939599.37334108     
   443564916.59393704        100476552.42807674        1004063188.8090192     
   440685206.19658190        84323667.746178418        1115541358.1109653     
  -6.2691724522290701E-002  -1.8807517356687210E-002   658305042.89565539     
  -6.5589561026014612E-002  -5.8605764472133056E-003   773096503.79505467     
  -6.9611449731788386E-002   3.3394804206741888E-003   888020957.89434242     
  -7.4757560775952914E-002   8.7922379141430473E-003   1003078405.1935194     
  -8.1027538158937734E-002   1.0498427333515754E-002   1118268845.6925852     
   1848916704.9816382        363147434.93888652        1145193828.2339628     
   1833787939.5488451        297815776.93344182        1193747737.7724068     
   1821815781.9798751        243006145.14073849        1244164818.3992214     
   1813000232.2747271        198718539.56077605        1296445070.1144056     
   1807341290.4334002        164952960.19355333        1350588492.9179604     
   1365143558.7279148        265897385.21037248        1129003849.3816535     
   1358710661.4296072        218372744.73928401        1185233793.4875486     
   1354645220.0289273        178739623.92695546        1242180384.1005950     
   1352947234.5258751        146998022.77338576        1299843621.2207923     
   1353616704.9204507        123147941.27857625        1358223504.8481431     
   895733059.13289618        172956129.47946978        1119119692.6739879     
   894720245.45130706        142255771.18740675        1182104994.0534396     
   895285735.70115149        116816426.00012285        1244660417.3588243     
   897429529.88242984        96638093.917618245        1306785962.5901432     
   901151627.99514174        81720774.939891517        1368481629.7473950     
   440685206.19658190        84323667.746178418        1115541358.1109653     
   441816691.61394566        69464856.277811915        1184361339.4700799     
   443737328.99654841        57236551.360242829        1251604918.1739101     
   446447118.34439093        47638752.993471548        1317272094.2224557     
   449946059.65747255        40671461.177498981        1381362867.6157181     
  -8.1027538158937734E-002   1.0498427333515754E-002   1118268845.6925852     
  -8.2477465791107971E-002   1.0497580940962647E-002   1192002829.7374701     
  -8.4882119934039310E-002   7.3144429501332507E-003   1263013886.5458524     
  -8.8241736133632259E-002   9.4811978780849279E-004   1331302016.1177323     
  -9.2556251124902969E-002  -8.6013728191229703E-003   1396867218.4531093     
   1807341290.4334002        164952960.19355333        1350588492.9179604     
   1779880774.1498857        130852804.30395973        1366789607.3230569     
   1753355449.4379051        99869953.652813017        1383232209.9001501     
   1727765316.2974553        72004408.240103185        1399916300.6492395     
   1703110374.7285392        47256168.065838695        1416841879.5703251     
   1353616704.9204507        123147941.27857625        1358223504.8481431     
   1329988558.2582531        96662996.522486985        1376173943.9237537     
   1307061805.2736478        72516030.691705585        1395073515.0437260     
   1284836445.9666357        50707043.786236763        1414922218.2080595     
   1263312480.3372166        31236035.806074440        1435720053.4167566     
   901151627.99514174        81720774.939891517        1368481629.7473950     
   883377690.58959031        63457593.207901210        1387908629.2839229     
   866071348.96769249        46753064.088089705        1408992404.7371783     
   849232603.12944746        31607187.580454648        1431732956.1071620     
   832861453.07485628        18019963.684999228        1456130283.3938723     
   449946059.65747255        40671461.177498981        1381362867.6157181     
   440048171.14389908        31236594.360209748        1401993663.4035661     
   430384080.52003890        22581053.841964260        1424988878.9805086     
   420953787.78589261        14704839.622765854        1450348514.3465440     
   411757292.94145960        7607951.7026112676        1478072569.5016739     
  -9.2556251124902969E-002  -8.6013728191229703E-003   1396867218.4531093     
  -7.8821736225887923E-002  -2.0592713660656809E-002   1418429046.2826834     
  -6.9313453786103346E-002  -4.6671669505306462E-002   1443062937.7737157     
  -6.4030751854528598E-002  -8.6835546765960350E-002   1470768892.9262078     
  -6.2973618993426461E-002 -0.14108517467856577        1501546911.7401605     
   1703110374.7285392        47256168.065838695        1416841879.5703251     
   1667107319.9251599        24281998.379326940        1399319333.6375067     
   1633583472.0940411        9571851.9336879253        1371031537.3600361     
   1602538831.2351892        3125728.7289386392        1331978490.7379129     
   1573973397.3485992        4943628.7650595307        1282160193.7711387     
   1263312480.3372166        31236035.806074440        1435720053.4167566     
   1207243690.4400787        5285458.8885174394        1427390859.6245217     
   1153034305.7727673       -14467100.596284926        1415078598.5427494     
   1100684326.3352823       -28021642.648330927        1398783270.1714439     
   1050193752.1276226       -35378167.267626107        1378504874.5106015     
   832861453.07485628        18019963.684999228        1456130283.3938723     
   776104593.95572591       -5093720.7020709515        1456271339.7093756     
   720587338.32398415       -24075393.464513808        1459211511.7904601     
   666309686.17963147       -38925054.602324665        1464950799.6371274     
   613271637.52266824       -49642704.115505934        1473489203.2493770     
   411757292.94145960        7607951.7026112676        1478072569.5016739     
   373690030.47210133       -6855540.3924422562        1485960773.8920708     
   336242569.74769455       -19253026.670992106        1503430277.1031673     
   299414910.76823932       -29584507.133036941        1530481079.1349635     
   263207053.53373390       -37849981.778581023        1567113179.9874599     
  -6.2973618993426461E-002 -0.14108517467856577        1501546911.7401605     
  -1.0795393882852417E-002 -0.18259514779304975        1516459162.1726081     
   4.3896434106674834E-002 -0.21572609769966125        1547734894.4808724     
  0.10110241970540967      -0.24047634876989984        1595374108.6649554     
  0.16082231700200222      -0.25684758807000319        1659376804.7248561     
   1573973397.3485992        4943628.7650595307        1282160193.7711387     
   1540885077.9163222        7279635.4790096283        1222377703.4337010     
   1506553797.0116894        5472437.2851052284        1170354770.6941619     
   1470979554.6347032       -477965.81664597988        1126091395.5525219     
   1434162350.7853575       -10571573.826255858        1089587578.0087869     
   1050193752.1276226       -35378167.267626107        1378504874.5106015     
   1035043091.7236323       -30726488.487321913        1346726012.4839113     
   1018960210.2162983       -29182213.384827256        1320451406.2503817     
   1001945107.6056223       -30745341.960140169        1299681055.8100142     
   983997783.89160144       -35415874.213271916        1284414961.1628067     
   613271637.52266824       -49642704.115505934        1473489203.2493770     
   609614916.70485497       -44608469.101471722        1470076499.9639471     
   605336715.15270925       -41645836.535213888        1469912750.6669397     
   600437032.86623359       -40754806.416723281        1472997955.3583550     
   594915869.84542227       -41935378.746016592        1479332114.0381906     
   263207053.53373390       -37849981.778581023        1567113179.9874599     
   264600552.85998720       -34366306.363452658        1592429165.8738062     
   265683311.82091719       -31918432.166069075        1618738803.9438336     
   266455330.41653126       -30506359.186405540        1646042094.1975446     
   266916608.64682096       -30130087.424488738        1674339036.6349416     
  0.16082231700200222      -0.25684758807000319        1659376804.7248561     
  0.18903056775554253      -0.27326021482217999        1713784010.2134879     
  0.22092874690854353      -0.27737273329812590        1766929566.0810640     
  0.25652015996705729      -0.26917447208902928        1818813472.3275864     
  0.29579836748503785      -0.24868724295973860        1869435728.9530523     
   1434162350.7853575       -10571573.826255858        1089587578.0087869     
   1372455896.6175709       -27863328.502575397        1032324538.9487287     
   1312169521.5675125       -40421486.119800091        981423376.06715763     
   1253303225.6351814       -48246046.677936256        936884089.36407125     
   1195857008.8205791       -51337010.176975727        898706678.83947217     
   983997783.89160144       -35415874.213271916        1284414961.1628067     
   939705151.61326671       -47788527.711527109        1249748673.7268753     
   896477578.67399287       -56610983.412914515        1220980580.5247917     
   854315065.07378125       -61883241.317429721        1198110681.5565569     
   813217610.81262469       -63605301.425088525        1181138976.8221674     
   594915869.84542227       -41935378.746016592        1479332114.0381906     
   566712253.90043366       -49786372.733029187        1466848388.4846072     
   539218677.51583338       -55270568.185414135        1459799175.2202303     
   512435140.69162679       -58387965.103152841        1458184474.2450643     
   486361643.42781150       -59138563.486255527        1462004285.5591042     
   266916608.64682096       -30130087.424488738        1674339036.6349416     
   253477203.47906569       -33856863.567099229        1683623683.2219224     
   240392818.09303427       -36400240.437299058        1697879160.1534755     
   227663452.48872286       -37760218.035099134        1717105467.4295983     
   215289106.66613385       -37936796.360486910        1741302605.0502918     
  0.29579836748503785      -0.24868724295973860        1869435728.9530523     
  0.34916854206514047      -0.21372301822081943        1900074557.9388223     
  0.40558655335353205      -0.16859933778760380        1935220535.3245234     
  0.46506584069142748      -0.11327157732838924        1974873661.1101553     
  0.52759847772694435       -4.7765637599074873E-002   2019033935.2957213     
   1195857008.8205791       -51337010.176975727        898706678.83947217     
   1140508817.9983299       -52387809.091839373        844338513.00607014     
   1084670717.3681071       -55071640.699949086        775267420.01975572     
   1028342706.9299190       -59388505.001277208        691493399.88052928     
   971524786.68375909       -65338401.995849550        593016452.58839881     
   813217610.81262469       -63605301.425088525        1181138976.8221674     
   728860988.27115846       -77247044.416942775        1150793534.7177615     
   644136933.37956500       -92113561.909218967        1115742444.0000226     
   559045446.13784420       -108204853.90192154        1075985704.6689456     
   473586526.54600167       -125520920.39502847        1031523316.7245333     
   486361643.42781150       -59138563.486255527        1462004285.5591042     
   401560242.13733792       -76802154.664046794        1455824457.5511839     
   316513885.95458460       -95282262.149437413        1454936259.4695039     
   231222574.87955111       -114578885.94242814        1459339691.3140626     
   145686308.91223812       -134692026.04301754        1469034753.0848608     
   215289106.66613385       -37936796.360486910        1741302605.0502918     
   158606579.59687436       -51053139.833132461        1759431281.5063393     
   101801575.09317416       -64577741.420579642        1792848866.4282048     
   44874093.155044973       -78510601.122790307        1841555359.8158817     
  -12175866.217523418       -92851718.939798519        1905550761.6693766     
  0.52759847772694435       -4.7765637599074873E-002   2019033935.2957213     
  0.64975932143875603        7.5773110313731851E-002   2061614006.5832298     
  0.79533243544152255       0.27735206530699785        2129480264.8761256     
  0.96431544068590547       0.55696468499504226        2222632710.1744084     
   1.1567101672098574       0.91461568172559304        2341071342.4780879     
   971524786.68375909       -65338401.995849550        593016452.58839881     
   878347207.71363854       -102457679.68436956        476006637.41104168     
   772300318.94043124       -182474656.71652120        325377810.11801839     
   653384120.36414135       -305389333.09227526        141129970.70932230     
   521598611.98476338       -471201708.81166494       -76736880.815039173     
   473586526.54600167       -125520920.39502847        1031523316.7245333     
   314758385.96643585       -180043865.45066836        971266307.58956528     
   146278263.05598605       -266740084.94259351        898144109.49387324     
  -31853842.185351819       -385609578.87081158        812156722.43745506     
  -219637929.75758204       -536652347.23533618        713304146.42032385     
   145686308.91223812       -134692026.04301754        1469034753.0848608     
  -19495755.691198893       -188829647.19007674        1469284098.7098403     
  -191112475.15333486       -264416117.86612898        1477422078.5290475     
  -369163849.47416061       -361451438.07114434        1493448692.5424762     
  -553649878.65367830       -479935607.80513930        1517363940.7501287     
  -12175866.217523418       -92851718.939798519        1905550761.6693766     
  -124415217.25927988       -128815024.90263234        1970060010.7718697     
  -239871895.68753231       -175502755.48712057        2063211717.2235329     
  -358545901.50228095       -232914910.69326308        2185005881.0243678     
  -480437234.70352703       -301051490.52106476        2335442502.1743689     
   1.1567101672098574       0.91461568172559304        2341071342.4780879     
   1.2622020644787451        1.4116876166205437        2473594043.7756524     
   1.4533876849273621        2.1944039076691446        2655513025.5773396     
   1.7302800675761216        3.2628111407750291        2886828287.8831391     
   2.0928723955336492        4.6168841643540848        3167539830.6930599     
  -6.2691724522290701E-002  -1.8807517356687210E-002   658305042.89565539     
  -6.5589561026014612E-002  -5.8605764472133056E-003   773096503.79505467     
  -6.9611449731788386E-002   3.3394804206741888E-003   888020957.89434242     
  -7.4757560775952914E-002   8.7922379141430473E-003   1003078405.1935194     
  -8.1027538158937734E-002   1.0498427333515754E-002   1118268845.6925852     
  -447828006.54517472       -134348401.96355242        659756160.11255717     
  -447136316.83600044       -125488919.52998258        776170589.81460178     
  -445715286.90147525       -114198303.01190937        890939599.38282287     
  -443564916.74159932       -100476552.40933311        1004063188.8172204     
  -440685206.35637200       -84323667.722252846        1115541358.1177952     
  -889693935.86945975       -266908180.76083794        664109511.75132346     
  -893391737.40167749       -250713570.19268441        782997807.18690097     
  -895630858.48206913       -229656691.45177731        898462269.15494299     
  -896411299.11063457       -203737544.53811637        1010502897.6554490     
  -895733059.28737402       -172956129.45170176        1119119692.6884191     
  -1325597788.0355475       -397679336.41066420        671365097.81195414     
  -1338766261.7626207       -375673951.99396610        793578155.91195238     
  -1349746714.8113928       -346375165.31626397        910588967.21070254     
  -1358539147.1818638       -309782976.37755781        1022397531.7082044     
  -1365143558.8740335       -265897385.17784759        1129003849.4044585     
  -1755539563.0434370       -526661868.91303110        681522918.29444921     
  -1783259889.9188297       -500370064.93382752        807911635.98975563     
  -1808062855.8894463       -464353724.60536987        927319693.55010164     
  -1829948460.9552865       -418612847.92765743        1039747090.9754872     
  -1848916705.1163504       -363147434.90069109        1145193828.2659125     
  -8.1027538158937734E-002   1.0498427333515754E-002   1118268845.6925852     
  -8.2477465791107971E-002   1.0497580940962647E-002   1192002829.7374701     
  -8.4882119934039310E-002   7.3144429501332507E-003   1263013886.5458524     
  -8.8241736133632259E-002   9.4811978780849279E-004   1331302016.1177323     
  -9.2556251124902969E-002  -8.6013728191229703E-003   1396867218.4531093     
  -440685206.35637200       -84323667.722252846        1115541358.1177952     
  -441816691.77643001       -69464856.251796842        1184361339.4755945     
  -443737329.16362280       -57236551.338456288        1251604918.1777852     
  -446447118.51794982       -47638752.982230157        1317272094.2243667     
  -449946059.83941144       -40671461.183119401        1381362867.6153393     
  -895733059.28737402       -172956129.45170176        1119119692.6884191     
  -894720245.60920095       -142255771.15573680        1182104994.0652573     
  -895285735.86434269       -116816425.97082034        1244660417.3673797     
  -897429530.05279791       -96638093.896950871        1306785962.5947866     
  -901151628.17456830       -81720774.934129179        1368481629.7474787     
  -1365143558.8740335       -265897385.17784759        1129003849.4044585     
  -1358710661.5807905       -218372744.70132309        1185233793.5064585     
  -1354645220.1870418       -178739623.88977841        1242180384.1146362     
  -1352947234.6927874       -146998022.74321455        1299843621.2289932     
  -1353616705.0980263       -123147941.26162988        1358223504.8495281     
  -1848916705.1163504       -363147434.90069109        1145193828.2659125     
  -1833787939.6911983       -297815776.88855350        1193747737.7991979     
  -1821815782.1317203       -243006145.09533000        1244164818.4195552     
  -1813000232.4379163       -198718539.52101839        1296445070.1269844     
  -1807341290.6097856       -164952960.16561896        1350588492.9214859     
  -9.2556251124902969E-002  -8.6013728191229703E-003   1396867218.4531093     
  -7.8821736225887923E-002  -2.0592713660656809E-002   1418429046.2826834     
  -6.9313453786103346E-002  -4.6671669505306462E-002   1443062937.7737157     
  -6.4030751854528598E-002  -8.6835546765960350E-002   1470768892.9262078     
  -6.2973618993426461E-002 -0.14108517467856577        1501546911.7401605     
  -449946059.83941144       -40671461.183119401        1381362867.6153393     
  -440048171.29960680       -31236594.385026962        1401993663.3932111     
  -430384080.65600866       -22581053.907620758        1424988878.9581203     
  -420953787.90861470       -14704839.750896230        1450348514.3100655     
  -411757293.05742639       -7607951.9148578793        1478072569.4490464     
  -901151628.17456830       -81720774.934129179        1368481629.7474787     
  -883377690.74990189       -63457593.218315661        1387908629.2663395     
  -866071349.11342072       -46753064.129786521        1408992404.6978147     
  -849232603.26512361       -31607187.668536901        1431732956.0419030     
  -832861453.20501184       -18019963.834571689        1456130283.2986062     
  -1353616705.0980263       -123147941.26162988        1358223504.8495281     
  -1329988558.4297059       -96662996.520457983        1376173943.9020684     
  -1307061805.4415498       -72516030.713166177        1395073514.9928000     
  -1284836446.1335585       -50707043.839757442        1414922218.1217237     
  -1263312480.5057304       -31236035.900226414        1435720053.2888379     
  -1807341290.6097856       -164952960.16561896        1350588492.9214859     
  -1779880774.3390183       -130852804.29145008        1366789607.3003969     
  -1753355449.6403959       -99869953.657762051        1383232209.8430765     
  -1727765316.5139155       -72004408.264548004        1399916300.5495243     
  -1703110374.9595799       -47256168.111816287        1416841879.4197412     
  -6.2973618993426461E-002 -0.14108517467856577        1501546911.7401605     
  -1.0795393882852417E-002 -0.18259514779304975        1516459162.1726081     
   4.3896434106674834E-002 -0.21572609769966125        1547734894.4808724     
  0.10110241970540967      -0.24047634876989984        1595374108.6649554     
  0.16082231700200222      -0.25684758807000319        1659376804.7248561     
  -411757293.05742639       -7607951.9148578793        1478072569.4490464     
  -373690030.48547816        6855540.1163901389        1485960773.8315611     
  -336242569.65755415        19253026.334224448        1503430277.0289824     
  -299414910.57365870        29584506.738629967        1530481079.0413120     
  -263207053.23378599        37849981.329626933        1567113179.8685486     
  -832861453.20501184       -18019963.834571689        1456130283.2986062     
  -776104594.00160742        5093720.5029431581        1456271339.5935574     
  -720587338.28876746        24075393.205242753        1459211511.6425059     
  -666309686.06649470        38925054.272318751        1464950799.4454520     
  -613271637.33478546        49642703.704183221        1473489203.0023952     
  -1263312480.5057304       -31236035.900226414        1435720053.2888379     
  -1207243690.5591846       -5285459.0229407549        1427390859.4585958     
  -1153034305.8497429        14467100.397334218        1415078598.3214424     
  -1100684326.3774087        28021642.360583425        1398783269.8773763     
  -1050193752.1421775        35378166.866819680        1378504874.1263959     
  -1703110374.9595799       -47256168.111816287        1416841879.4197412     
  -1667107320.1582081       -24281998.461254299        1399319333.4266775     
  -1633583472.3404803       -9571852.0895045400        1371031537.0657914     
  -1602538831.5063980       -3125728.9965741038        1331978490.3370812     
  -1573973397.6559601       -4943629.1824560165        1282160193.2405491     
  0.16082231700200222      -0.25684758807000319        1659376804.7248561     
  0.18903056775554253      -0.27326021482217999        1713784010.2134879     
  0.22092874690854353      -0.27737273329812590        1766929566.0810640     
  0.25652015996705729      -0.26917447208902928        1818813472.3275864     
  0.29579836748503785      -0.24868724295973860        1869435728.9530523     
  -263207053.23378599        37849981.329626933        1567113179.8685486     
  -264600552.51111841        34366305.859352946        1592429165.7330053     
  -265683311.41328666        31918431.639629140        1618738803.7805283     
  -266455329.94028974        30506358.670454875        1646042094.0111208     
  -266916608.09213096        30130086.951819450        1674339036.4247799     
  -613271637.33478546        49642703.704183221        1473489203.0023952     
  -609614916.47730708        44608468.612154186        1470076499.6760600     
  -605336714.87319064        41645836.008919239        1469912750.3369169     
  -600437032.52243543        40754805.894480079        1472997954.9849653     
  -594915869.42504251        41935378.268833131        1479332113.6202054     
  -1050193752.1421775        35378166.866819680        1378504874.1263959     
  -1035043091.7095340        30726487.985145569        1346726012.0426569     
  -1018960210.1587813        29182212.830502629        1320451405.7502332     
  -1001945107.4899124        30745341.402912557        1299681055.2491255     
  -983997783.70293581        35415873.702349782        1284414960.5393314     
  -1573973397.6559601       -4943629.1824560165        1282160193.2405491     
  -1540885078.2078016       -7279636.0216767788        1222377702.8327918     
  -1506553797.2700570       -5472437.8956128955        1170354770.0204742     
  -1470979554.8427267        477965.19573891163        1126091394.8035929     
  -1434162350.9258118        10571573.252371609        1089587577.1821520     
  0.29579836748503785      -0.24868724295973860        1869435728.9530523     
  0.34916854206514047      -0.21372301822081943        1900074557.9388223     
  0.40558655335353205      -0.16859933778760380        1935220535.3245234     
  0.46506584069142748      -0.11327157732838924        1974873661.1101553     
  0.52759847772694435       -4.7765637599074873E-002   2019033935.2957213     
  -266916608.09213096        30130086.951819450        1674339036.4247799     
  -253477202.82341349        33856863.174118236        1683623682.9835434     
  -240392817.32672381        36400240.156324178        1697879159.8801804     
  -227663451.60206103        37760217.898441449        1717105467.1146920     
  -215289105.64942870        37936796.400455475        1741302604.6870754     
  -594915869.42504251        41935378.268833131        1479332113.6202054     
  -566712253.40399659        49786372.339573354        1466848388.0143652     
  -539218676.93006623        55270567.919928491        1459799174.6843402     
  -512435140.00324208        58387965.009928316        1458184473.6301322     
  -486361642.62353122        59138563.609552354        1462004284.8517385     
  -983997783.70293581        35415873.702349782        1284414960.5393314     
  -939705151.39258564        47788527.282621264        1249748673.0312884     
  -896477578.40443552        56610983.122229517        1220980579.7370062     
  -854315064.73847485        61883241.221202970        1198110680.6564796     
  -813217610.39471042        63605301.579523623        1181138975.7897108     
  -1434162350.9258118        10571573.252371609        1089587577.1821520     
  -1372455896.7891815        27863328.003267169        1032324538.0343139     
  -1312169521.7498336        40421485.763219476        981423375.03817427     
  -1253303225.8077571        48246046.532267153        936884088.19373310     
  -1195857008.9629624        51337010.310376465        898706677.50099289     
  0.52759847772694435       -4.7765637599074873E-002   2019033935.2957213     
  0.64975932143875603        7.5773110313731851E-002   2061614006.5832298     
  0.79533243544152255       0.27735206530699785        2129480264.8761256     
  0.96431544068590547       0.55696468499504226        2222632710.1744084     
   1.1567101672098574       0.91461568172559304        2341071342.4780879     
  -215289105.64942870        37936796.400455475        1741302604.6870754     
  -158606578.34796682        51053140.153158017        1759431281.1234181     
  -101801573.57380545        64577742.148193039        1792848866.0086441     
  -44874091.326929003        78510602.385609120        1841555359.3427486     
   12175868.392647531        92851720.865361616        1905550761.1257370     
  -486361642.62353122        59138563.609552354        1462004284.8517385     
  -401560241.16136813        76802155.085828722        1455824456.7944274     
  -316513884.77720523        95282262.968772084        1454936258.6294937     
  -231222573.47104201        114578887.25838304        1459339690.3569281     
  -145686307.24287885        134692027.95466009        1469034751.9767370     
  -813217610.39471042        63605301.579523623        1181138975.7897108     
  -728860987.79043829        77247044.873809606        1150793533.5962601     
  -644136932.81487679        92113562.739061296        1115742442.7386734     
  -559045445.46801925        108204855.17529929        1075985703.2169464     
  -473586525.74986869        125520922.18251374        1031523315.0310886     
  -1195857008.9629624        51337010.310376465        898706677.50099289     
  -1140508818.2351837        52387809.517076254        844338511.52891076     
  -1084670717.6868153        55071641.459072113        775267418.33618069     
  -1028342707.3178582        59388506.136365831        691493397.92280626     
  -971524787.12831426        65338403.548947275        593016450.28878713     
   1.1567101672098574       0.91461568172559304        2341071342.4780879     
   1.2622020644787451        1.4116876166205437        2473594043.7756524     
   1.4533876849273621        2.1944039076691446        2655513025.5773396     
   1.7302800675761216        3.2628111407750291        2886828287.8831391     
   2.0928723955336492        4.6168841643540848        3167539830.6930599     
   12175868.392647531        92851720.865361616        1905550761.1257370     
   124415219.60884580        128815027.74371165        1970060010.2894218     
   239871898.37406117        175502759.78545168        2063211716.7923152     
   358545904.68829674        232914916.99059409        2185005880.6344161     
   480437238.55155098        301051499.35912901        2335442501.8157167     
  -145686307.24287885        134692027.95466009        1469034751.9767370     
   19495757.469998389        188829649.93009502        1469284097.7137461     
   191112477.19520915        264416121.94664139        1477422077.6250482     
   369163851.93275863        361451444.00431550        1493448691.7106459     
   553649881.68264151        479935616.10310411        1517363939.9705472     
  -473586525.74986869        125520922.18251374        1031523315.0310886     
  -314758385.15434611        180043867.97081926        971266306.04862356     
  -146278262.08317024        266740088.67796642        898144108.07554018     
   31853843.463660046        385609584.30396295        812156721.11184573     
   219637931.48614323        536652354.84880251        713304145.15753460     
  -971524787.12831426        65338403.548947275        593016450.28878713     
  -878347208.26417708        102457681.86591417        476006635.29405427     
  -772300319.46107399        182474659.97943503        325377808.14379120     
  -653384120.71899211        305389337.88955283        141129968.83800253     
  -521598612.03794539        471201715.59621722       -76736882.623305529     
  -1755539563.0434370       -526661868.91303110        681522918.29444921     
  -1783259889.9188297       -500370064.93382752        807911635.98975563     
  -1808062855.8894463       -464353724.60536987        927319693.55010164     
  -1829948460.9552865       -418612847.92765743        1039747090.9754872     
  -1848916705.1163504       -363147434.90069109        1145193828.2659125     
  -2201534298.6677241       -660460289.60031724        697655265.81713855     
  -2237636456.4823380       -614481966.38929391        815101182.19920301     
  -2271692019.9406881       -561681661.99072552        928537153.55563807     
  -2303700989.0427742       -502059376.40461147        1037963179.8864435     
  -2333663363.7885971       -435615109.63095266        1143379261.1916199     
  -2685597032.6830039       -805679109.80490112        722834432.99835253     
  -2721593263.9816070       -737467940.12548852        830321653.76057696     
  -2756413667.4724593       -665337344.42023993        936769644.60650265     
  -2790058243.1555605       -589287322.68915510        1042178405.5361302     
  -2822526991.0309110       -509317874.93223423        1146547936.5494595     
  -3207727765.0892763       -962318329.52678287        757060419.83809114     
  -3235130312.4166374       -869327986.14241171        853573050.67387676     
  -3262227798.4847593       -775320771.89391339        952017166.70269537     
  -3289020223.2936449       -680296686.78128803        1052392767.9245464     
  -3315507586.8432908       -584255730.80453551        1154699854.3394303     
  -3767926495.8865414       -1130377948.7659624        800333226.33635390     
  -3778247601.7874289       -1010062104.4400630        884855372.93910313     
  -3789134412.9775906       -891631944.41174555        974279719.84421599     
  -3800586929.4570270       -775087468.68101025        1068606267.0516930     
  -3812605151.2257380       -660428677.24785745        1167835014.5615330     
  -1848916705.1163504       -363147434.90069109        1145193828.2659125     
  -1833787939.6911983       -297815776.88855350        1193747737.7991979     
  -1821815782.1317203       -243006145.09533000        1244164818.4195552     
  -1813000232.4379163       -198718539.52101839        1296445070.1269844     
  -1807341290.6097856       -164952960.16561896        1350588492.9214859     
  -2333663363.7885971       -435615109.63095266        1143379261.1916199     
  -2311179304.0081472       -355500745.86357051        1185923339.8285513     
  -2292102607.8350558       -286744260.78738010        1228850772.4774292     
  -2276433275.2693200       -229345654.40238041        1272161559.1382530     
  -2264171306.3109431       -183304926.70857096        1315855699.8110247     
  -2822526991.0309110       -509317874.93223423        1146547936.5494595     
  -2796915685.6812363       -415689220.04542857        1182789635.9247386     
  -2774962499.6806026       -334254296.32209361        1217934872.2368395     
  -2756667433.0290093       -265013103.76222754        1251983645.4857612     
  -2742030485.7264576       -207965642.36583066        1284935955.6715043     
  -3315507586.8432908       -584255730.80453551        1154699854.3394303     
  -3290997084.7104640       -478381199.43412948        1184346626.0877609     
  -3270395457.6683617       -385536251.69947028        1211417117.6977870     
  -3253702705.7169838       -305720887.60056055        1235911329.1695085     
  -3240918828.8563304       -238935107.13739741        1257829260.5029266     
  -3812605151.2257380       -660428677.24785745        1167835014.5615330     
  -3793423501.0958314       -543576684.02967072        1190594310.3176167     
  -3778401481.7983327       -440590126.91951203        1209297508.8602710     
  -3767539093.3332419       -351469005.91737902        1223944610.1894953     
  -3760836335.7005582       -276213321.02327132        1234535614.3052897     
  -1807341290.6097856       -164952960.16561896        1350588492.9214859     
  -1779880774.3390183       -130852804.29145008        1366789607.3003969     
  -1753355449.6403959       -99869953.657762051        1383232209.8430765     
  -1727765316.5139155       -72004408.264548004        1399916300.5495243     
  -1703110374.9595799       -47256168.111816287        1416841879.4197412     
  -2264171306.3109431       -183304926.70857096        1315855699.8110247     
  -2228990398.0566454       -139245033.46024442        1324311047.7481031     
  -2196241587.4483476       -103292132.36525309        1336165269.6531701     
  -2165924874.4860487       -75446223.423590541        1351418365.5262256     
  -2138040259.1697519       -55707306.635267138        1370070335.3672681     
  -2742030485.7264576       -207965642.36583066        1284935955.6715043     
  -2690108083.1908574       -151239681.05401456        1283899146.7472520     
  -2642114684.3751144       -107610398.80838704        1289418597.5952075     
  -2598050289.2792277       -77077795.628948092        1301494308.2153714     
  -2557914897.9031973       -59641871.515698791        1320126278.6077425     
  -3240918828.8563304       -238935107.13739741        1257829260.5029266     
  -3163233829.7416573       -166836747.07276094        1245553904.2978427     
  -3090974740.4206963       -112824752.98716605        1242992193.6691871     
  -3024141560.8934503       -76899124.880619645        1250144128.6169600     
  -2962734291.1599169       -59059862.753111601        1267009709.1411593     
  -3760836335.7005582       -276213321.02327132        1234535614.3052897     
  -3648367637.7090425       -186036231.51648295        1209275320.3998761     
  -3542821755.5850949       -118935194.90159082        1196886057.8751109     
  -3444198689.3287172       -74910211.178599477        1197367826.7309916     
  -3352498438.9399099       -53961280.347508073        1210720626.9675210     
  -1703110374.9595799       -47256168.111816287        1416841879.4197412     
  -1667107320.1582081       -24281998.461254299        1399319333.4266775     
  -1633583472.3404803       -9571852.0895045400        1371031537.0657914     
  -1602538831.5063980       -3125728.9965741038        1331978490.3370812     
  -1573973397.6559601       -4943629.1824560165        1282160193.2405491     
  -2138040259.1697519       -55707306.635267138        1370070335.3672681     
  -2123568196.5661139       -46579471.817450762        1359337815.2486086     
  -2111007321.6945240       -43822262.773133874        1346003551.8455338     
  -2100357634.5549874       -47435679.502324224        1330067545.1580446     
  -2091619135.1474991       -57419722.005010605        1311529795.1861401     
  -2557914897.9031973       -59641871.515698791        1320126278.6077425     
  -2541649521.5446944       -57363079.744848609        1316846473.4903440     
  -2526727313.6666489       -59561516.242187619        1319128432.1719406     
  -2513148274.2690601       -66237181.007714391        1326972154.6525302     
  -2500912403.3519268       -77390074.041431665        1340377640.9321148     
  -2962734291.1599169       -59059862.753111601        1267009709.1411593     
  -2921351295.0939555       -56632822.243450880        1271845308.1518841     
  -2880743448.2568574       -56789612.496665716        1290406178.0450120     
  -2840910750.6486201       -59530233.512754083        1322692318.8205404     
  -2801853202.2692490       -64854685.291722059        1368703730.4784729     
  -3352498438.9399099       -53961280.347508073        1210720626.9675210     
  -3262673517.2138934       -44388699.313256502        1224334319.2332280     
  -3173055725.4651451       -35506551.536568761        1259836789.4647453     
  -3083645063.6936641       -27314837.017438054        1317228037.6620736     
  -2994441531.8994565       -19813555.755876184        1396508063.8252149     
  -1573973397.6559601       -4943629.1824560165        1282160193.2405491     
  -1540885078.2078016       -7279636.0216767788        1222377702.8327918     
  -1506553797.2700570       -5472437.8956128955        1170354770.0204742     
  -1470979554.8427267        477965.19573891163        1126091394.8035929     
  -1434162350.9258118        10571573.252371609        1089587577.1821520     
  -2091619135.1474991       -57419722.005010605        1311529795.1861401     
  -2040544197.7197869       -57111467.067350745        1289437456.9976344     
  -1989146182.8670888       -55726287.379740953        1272811206.9417584     
  -1937425090.5894094       -53264182.942187786        1261651045.0185144     
  -1885380920.8867426       -49725153.754683375        1255956971.2278991     
  -2500912403.3519268       -77390074.041431665        1340377640.9321148     
  -2438403617.8383961       -76403388.295006037        1354902256.8874898     
  -2376491638.9644866       -77406058.013978601        1372599491.5126879     
  -2315176466.7301903       -80398083.198338985        1393469344.8077097     
  -2254458101.1355152       -85379463.848096132        1417511816.7725513     
  -2801853202.2692490       -64854685.291722059        1368703730.4784729     
  -2734463338.5636377       -65155399.704658031        1418772102.5023606     
  -2668590165.5622458       -70511749.798326612        1469719623.7332633     
  -2604233683.2650733       -80923735.572721720        1521546294.1711824     
  -2541393891.6721210       -96391357.027854562        1574252113.8161123     
  -2994441531.8994565       -19813555.755876184        1396508063.8252149     
  -2928723359.8954997       -23367501.296286106        1481046993.8422475     
  -2865441762.6603689       -35043362.732778549        1564171603.6034851     
  -2804596740.1940579       -54841140.065336108        1645881893.1089306     
  -2746188292.4965701       -82760833.293972492        1726177862.3585835     
  -1434162350.9258118        10571573.252371609        1089587577.1821520     
  -1372455896.7891815        27863328.003267169        1032324538.0343139     
  -1312169521.7498336        40421485.763219476        981423375.03817427     
  -1253303225.8077571        48246046.532267153        936884088.19373310     
  -1195857008.9629624        51337010.310376465        898706677.50099289     
  -1885380920.8867426       -49725153.754683375        1255956971.2278991     
  -1809357412.5779204       -39893556.974542856        1226085419.3207376     
  -1734251201.9067461       -33119618.986569464        1202586684.7722001     
  -1660062288.8732243       -29403339.790770292        1185460767.5822861     
  -1586790673.4773521       -28744719.387130320        1174707667.7509966     
  -2254458101.1355152       -85379463.848096132        1417511816.7725513     
  -2164086278.0632811       -82998646.861334562        1415618330.4756339     
  -2074128971.1690733       -81999550.467989922        1420108602.7442639     
  -1984586180.4528878       -82382174.668056607        1430982633.5784426     
  -1895457905.9147272       -84146519.461537659        1448240422.9781685     
  -2541393891.6721210       -96391357.027854562        1574252113.8161123     
  -2436642493.2452698       -101451941.65711856        1600923271.4990017     
  -2331802829.5368123       -106218308.68103361        1633989128.9543655     
  -2226874900.5467539       -110690458.09960890        1673449686.1822002     
  -2121858706.2750924       -114868389.91284299        1719304943.1825066     
  -2746188292.4965701       -82760833.293972492        1726177862.3585835     
  -2627026058.1238813       -95253441.361882925        1782000242.3908436     
  -2507272777.0099621       -105775893.62569654        1844228263.4025025     
  -2386928449.1548162       -114328190.08541882        1912861925.3935573     
  -2265993074.5584416       -120910330.74104011        1987901228.3640089     
  -1195857008.9629624        51337010.310376465        898706677.50099289     
  -1140508818.2351837        52387809.517076254        844338511.52891076     
  -1084670717.6868153        55071641.459072113        775267418.33618069     
  -1028342707.3178582        59388506.136365831        691493397.92280626     
  -971524787.12831426        65338403.548947275        593016450.28878713     
  -1586790673.4773521       -28744719.387130320        1174707667.7509966     
  -1560642328.5847228       -44150080.359963536        1154583475.0873599     
  -1534847235.6536789       -60732947.871412158        1130498365.1972244     
  -1509405394.6842141       -78493321.921455681        1102452338.0805857     
  -1484316805.6763287       -97431202.510102868        1070445393.7374454     
  -1895457905.9147272       -84146519.461537659        1448240422.9781685     
  -1867817949.7311273       -106800603.47607547        1461376514.8771148     
  -1841374407.2912774       -133442733.30311424        1481293699.5437062     
  -1816127278.5951772       -164072908.94265288        1507991976.9779403     
  -1792076563.6428344       -198691130.39470536        1541471347.1798129     
  -2121858706.2750924       -114868389.91284299        1719304943.1825066     
  -2062035681.6743915       -135563759.83123726        1764717630.8981712     
  -2004252232.5996113       -163057714.83603495        1827653421.3756227     
  -1948508359.0507557       -197350254.92724800        1908112314.6148589     
  -1894804061.0278170       -238441380.10485512        2006094310.6158834     
  -2265993074.5584416       -120910330.74104011        1987901228.3640089     
  -2143295524.4145181       -130439549.42546284        2064606823.1505301     
  -2023480711.5786822       -149577892.47018164        2169577530.6929770     
  -1906548636.0509374       -178325359.87520206        2302813350.9913559     
  -1792499297.8312857       -216681951.64053416        2464314284.0456653     
  -971524787.12831426        65338403.548947275        593016450.28878713     
  -878347208.26417708        102457681.86591417        476006635.29405427     
  -772300319.46107399        182474659.97943503        325377808.14379120     
  -653384120.71899211        305389337.88955283        141129968.83800253     
  -521598612.03794539        471201715.59621722       -76736882.623305529     
  -1484316805.6763287       -97431202.510102868        1070445393.7374454     
  -1464217979.4904001       -118053131.85637134        1045012308.4833955     
  -1443889277.1084085       -137908807.21576720        1010308704.3239275     
  -1423330698.5303493       -156998228.58827180        966334581.25902319     
  -1402542243.7562294       -175321395.97389758        913089939.28870523     
  -1792076563.6428344       -198691130.39470536        1541471347.1798129     
  -1775489366.5633907       -256184130.33268875        1592868985.6330566     
  -1771311727.0307922       -355042322.09348786        1659344598.4309833     
  -1779543645.0450344       -495265705.67708176        1740898185.5735807     
  -1800185120.6061170       -676854281.08349347        1837529747.0608594     
  -1894804061.0278170       -238441380.10485512        2006094310.6158834     
  -1812161369.4831438       -311935313.56303418        2119576666.7430344     
  -1754567669.2282197       -468925884.65371996        2272485490.4649639     
  -1722022960.2630465       -709413093.37690306        2464820781.7816663     
  -1714527242.5876188       -1033396939.7325736        2696582540.6931567     
  -1792499297.8312857       -216681951.64053416        2464314284.0456653     
  -1574233988.2496614       -285306681.54740560        2625135351.8133268     
  -1393657103.7006943       -479559494.89646178        2849731380.4258676     
  -1250768644.1843803       -799440391.68770480        3138102369.8832903     
  -1145568609.7007251       -1244949371.9211349        3490248320.1855936     
  -3767926495.8865414       -1130377948.7659624        800333226.33635390     
  -3778247601.7874289       -1010062104.4400630        884855372.93910313     
  -3789134412.9775906       -891631944.41174555        974279719.84421599     
  -3800586929.4570270       -775087468.68101025        1068606267.0516930     
  -3812605151.2257380       -660428677.24785745        1167835014.5615330     
  -4339318018.7169447       -1301795405.6150835        857947027.80439389     
  -4334200064.4173069       -1126678500.7507288        941671461.07066488     
  -4330229419.9689512       -955385962.05731845        1019723495.6030253     
  -4327406085.3718786       -787917789.53485191        1092103131.4014752     
  -4325730060.6260900       -624273983.18332958        1158810368.4660141     
  -4895027127.2226315       -1468508138.1667895        935195999.55346334     
  -4904683252.8261070       -1247654114.7950718        1017444180.8275795     
  -4916068292.8428764       -1032563139.4676605        1083445364.3315110     
  -4929182247.2729368       -823235212.18455482        1133199550.0652575     
  -4944025116.1162901       -619670332.94575536        1166706738.0288186     
  -5435053821.4035997       -1630516146.4210799        1032080141.5835627     
  -5489697167.0138330       -1372988946.5730922        1112173532.2098472     
  -5546651031.5993671       -1123163476.6427722        1165445326.0296724     
  -5605915415.1601992       -881039736.63011956        1191895523.0430388     
  -5667490317.6963329       -646617726.53513408        1191524123.2499464     
  -5959398101.2598515       -1787819430.3779554        1148599453.8946915     
  -6089241806.9804821       -1502682996.0847893        1225859515.2174680     
  -6221977636.2384205       -1227186973.5826530        1265723380.6975107     
  -6357605589.0336676       -961331362.87154591        1268191050.3348205     
  -6496125665.3662252       -705116163.95146871        1233262524.1293964     
  -3812605151.2257380       -660428677.24785745        1167835014.5615330     
  -3793423501.0958314       -543576684.02967072        1190594310.3176167     
  -3778401481.7983327       -440590126.91951203        1209297508.8602710     
  -3767539093.3332419       -351469005.91737902        1223944610.1894953     
  -3760836335.7005582       -276213321.02327132        1234535614.3052897     
  -4325730060.6260900       -624273983.18332958        1158810368.4660141     
  -4292040519.0577965       -469287835.67894614        1141215150.4722605     
  -4269244358.1177063       -350612956.93524623        1130035756.7323432     
  -4257341577.8058219       -268249346.95222998        1125272187.2462618     
  -4256332178.1221442       -222197005.72989964        1126924442.0140173     
  -4944025116.1162901       -619670332.94575536        1166706738.0288186     
  -4865907907.4888468       -417574098.46894670        1100900964.8567975     
  -4805417829.2854061       -274234965.40547895        1051982937.4058787     
  -4762554881.5059690       -189652933.75535178        1019952655.6760619     
  -4737319064.1505318       -163828003.51856613        1004810119.6673480     
  -5667490317.6963329       -646617726.53513408        1191524123.2499464     
  -5515025666.3889837       -388435472.39967322        1069651753.4712269     
  -5386921895.3014317       -211456152.33020878        975139050.88087654     
  -5283179004.4336796       -115679766.32674360        907986015.47889459     
  -5203796993.7857294       -101106314.38927770        868192647.26528120     
  -6496125665.3662252       -705116163.95146871        1233262524.1293964     
  -6239393795.7582054       -381871957.47112584        1047467516.3155500     
  -6013756556.1657848       -162276517.70943737        899504097.15733850     
  -5819213946.5889578       -46329844.666403532        789372266.65476108     
  -5655765967.0277281       -34031938.342027187        717072024.80781758     
  -3760836335.7005582       -276213321.02327132        1234535614.3052897     
  -3648367637.7090425       -186036231.51648295        1209275320.3998761     
  -3542821755.5850949       -118935194.90159082        1196886057.8751109     
  -3444198689.3287172       -74910211.178599477        1197367826.7309916     
  -3352498438.9399099       -53961280.347508073        1210720626.9675210     
  -4256332178.1221442       -222197005.72989964        1126924442.0140173     
  -4122577635.7187834       -159196842.56804967        1098711722.4883583     
  -3993012605.5727420       -110161720.26394439        1080273296.4399965     
  -3867637087.6840277       -75091638.817584038        1071609163.8689296     
  -3746451082.0526347       -53986598.228971958        1072719324.7751610     
  -4737319064.1505318       -163828003.51856613        1004810119.6673480     
  -4591126499.9163275       -130659113.47595596        976833828.73339665     
  -4446390144.3292007       -102344252.25693774        955535093.37339067     
  -4303109997.3891506       -78883419.861515045        940913913.58733165     
  -4161286059.0961800       -60276616.289682865        932970289.37521529     
  -5203796993.7857294       -101106314.38927770        868192647.26528120     
  -5054014230.3016844       -100423044.24020624        843641639.13499153     
  -4902954371.8544712       -95482790.880578756        822671448.67529643     
  -4750617418.4440918       -86285554.310389042        805282075.88619518     
  -4597003370.0705414       -72831334.529639721        791473520.76768899     
  -5655765967.0277281       -34031938.342027187        717072024.80781758     
  -5511240826.8748484       -68488634.860799313        699135153.69314396     
  -5362705288.1485538       -89577336.134860277        681682362.34571135     
  -5210159350.8488464       -97298042.164207935        664713650.76552355     
  -5053603014.9757223       -91650752.948840380        648229018.95257807     
  -3352498438.9399099       -53961280.347508073        1210720626.9675210     
  -3262673517.2138934       -44388699.313256502        1224334319.2332280     
  -3173055725.4651451       -35506551.536568761        1259836789.4647453     
  -3083645063.6936641       -27314837.017438054        1317228037.6620736     
  -2994441531.8994565       -19813555.755876184        1396508063.8252149     
  -3746451082.0526347       -53986598.228971958        1072719324.7751610     
  -3606328138.2340684       -33282621.543968201        1075180193.1591337     
  -3466025887.8898888       -11980956.440258026        1091874286.1906211     
  -3325544331.0200953        9918397.0821659565        1122801603.8696246     
  -3184883467.6246891        32415439.023297191        1167962146.1961427     
  -4161286059.0961800       -60276616.289682865        932970289.37521529     
  -3992738102.6659079       -35003146.798182487        924729176.46415031     
  -3823624403.2071404       -7843867.2116985321        923065734.88230371     
  -3653944960.7198830        21201222.469762802        927979964.62967730     
  -3483699775.2041273        52132122.246208668        939471865.70627081     
  -4597003370.0705414       -72831334.529639721        791473520.76768899     
  -4421903410.5094118       -49550275.075896025        772981269.14827955     
  -4245851271.4169025       -23095283.850892544        753411135.53979361     
  -4068846952.7930183        6533639.1453611851        732763119.94222987     
  -3890890454.6377621        39336493.912860394        711037222.35559261     
  -5053603014.9757223       -91650752.948840380        648229018.95257807     
  -4893824061.7645769       -76924006.377105474        619936471.21152008     
  -4732706492.5191717       -57735206.357837200        582910488.16308928     
  -4570250307.2395153       -34084352.891060352        537151069.80728734     
  -4406455505.9255943       -5971445.9767456055        482658216.14411360     
  -2994441531.8994565       -19813555.755876184        1396508063.8252149     
  -2928723359.8954997       -23367501.296286106        1481046993.8422475     
  -2865441762.6603689       -35043362.732778549        1564171603.6034851     
  -2804596740.1940579       -54841140.065336108        1645881893.1089306     
  -2746188292.4965701       -82760833.293972492        1726177862.3585835     
  -3184883467.6246891        32415439.023297191        1167962146.1961427     
  -3119667679.9040241        28844847.617022514        1212946319.7308700     
  -3056895447.4858837        17129071.868997693        1258962205.4263656     
  -2996566770.3702655       -2731888.2207767963        1306009803.2826309     
  -2938681648.5571771       -30738032.652303338        1354089113.2996695     
  -3483699775.2041273        52132122.246208668        939471865.70627081     
  -3411997707.7194219        50641484.188273668        944893138.80270183     
  -3342746176.0709457        40982393.342909813        953792156.47646701     
  -3275945180.2586994        23154849.710116148        966168918.72756529     
  -3211594720.2826796       -2841146.7101078033        982023425.55600107     
  -3890890454.6377621        39336493.912860394        711037222.35559261     
  -3805713443.3416924        42022408.417464495        676887451.05774224     
  -3722993948.4155593        36516601.688955069        648661456.75378978     
  -3642731969.8593545        22819073.727345228        626359239.44373488     
  -3564927507.6730881        929824.53261852264        609980799.12757945     
  -4406455505.9255943       -5971445.9767456055        482658216.14411360     
  -4300814886.7708368        2987620.3045926094        408929256.49599212     
  -4197638764.5197201        3731696.9071402550        343570106.25833440     
  -4096927139.1722355       -3739216.1690979004        286580765.43113679     
  -3998680010.7283893       -19425118.924126148        237961234.01440293     
  -2746188292.4965701       -82760833.293972492        1726177862.3585835     
  -2627026058.1238813       -95253441.361882925        1782000242.3908436     
  -2507272777.0099621       -105775893.62569654        1844228263.4025025     
  -2386928449.1548162       -114328190.08541882        1912861925.3935573     
  -2265993074.5584416       -120910330.74104011        1987901228.3640089     
  -2938681648.5571771       -30738032.652303338        1354089113.2996695     
  -2802416668.7238784       -37929360.589081883        1382057298.1299446     
  -2665487786.9361668       -42907682.011156917        1415552427.6894889     
  -2527895003.1940475       -45672996.918532968        1454574501.9783065     
  -2389638317.4975195       -46225305.311221838        1499123520.9964011     
  -3211594720.2826796       -2841146.7101078033        982023425.55600107     
  -3060737555.7034073       -5484362.7301286459        982222412.93299580     
  -2909143633.9565482       -5671721.5248578787        987069648.78913915     
  -2756812955.0421004       -3403223.0942971706        996565133.12442899     
  -2603745518.9600658        1321132.5615507364        1010708865.9388677     
  -3564927507.6730881        929824.53261852264        609980799.12757945     
  -3401988719.0624804        2081552.2149622440        582495586.80000377     
  -3238240318.0711069        5931987.8331916332        558779926.70145106     
  -3073682304.6989708        12481131.387298346        538833818.83192050     
  -2908314678.9460735        21728982.877285838        522657263.19141489     
  -3998680010.7283893       -19425118.924126148        237961234.01440293     
  -3826170158.8010921       -15231615.753818512        182876819.73096365     
  -3652777839.2798548       -8096553.9370355606        130683261.42642626     
  -3478503052.1646676        1980066.5262427330        81380559.100783750     
  -3303345797.4555426        14998245.635982513        34968712.754041865     
  -2265993074.5584416       -120910330.74104011        1987901228.3640089     
  -2143295524.4145181       -130439549.42546284        2064606823.1505301     
  -2023480711.5786822       -149577892.47018164        2169577530.6929770     
  -1906548636.0509374       -178325359.87520206        2302813350.9913559     
  -1792499297.8312857       -216681951.64053416        2464314284.0456653     
  -2389638317.4975195       -46225305.311221838        1499123520.9964011     
  -2200234389.5018864       -32611124.226830006        1536366396.4515803     
  -2012270857.8865855       -23798264.410212994        1591315972.9362645     
  -1825747722.6516201       -19786725.861384392        1663972250.4504504     
  -1640664983.7969894       -20576508.580328345        1754335228.9941471     
  -2603745518.9600658        1321132.5615507364        1010708865.9388677     
  -2377802103.7596526        29028646.220677972        1010171753.1450926     
  -2151856744.0118146        56742641.704553366        1016782929.6543922     
  -1925909439.7165544        84463119.013170958        1030542395.4667739     
  -1699960190.8738725        112190078.14652848        1051450150.5822328     
  -2908314678.9460735        21728982.877285838        522657263.19141489     
  -2675998667.1878133        54479761.917070508        486022893.23106414     
  -2442238369.9543686        92044825.874127984        445978400.84736896     
  -2207033787.2457485        134424174.74844146        402523786.04032493     
  -1970384919.0619445        181617808.54003632        355659048.80993432     
  -3303345797.4555426        14998245.635982513        34968712.754041865     
  -3094824079.7863650        43742222.862343907       -36080183.290498465     
  -2883415735.7142477        82108288.098497748       -121097613.48481095     
  -2669120765.2391930        130096441.34444368       -220083577.82889783     
  -2451939168.3612056        187706682.60017395       -333038076.32275498     
  -1792499297.8312857       -216681951.64053416        2464314284.0456653     
  -1574233988.2496614       -285306681.54740560        2625135351.8133268     
  -1393657103.7006943       -479559494.89646178        2849731380.4258676     
  -1250768644.1843803       -799440391.68770480        3138102369.8832903     
  -1145568609.7007251       -1244949371.9211349        3490248320.1855936     
  -1640664983.7969894       -20576508.580328345        1754335228.9941471     
  -1269113978.5442660        4830386.0474767089        1793007630.0467231     
  -915733875.31079137       -30332392.722209513        1864117538.1857255     
  -580524674.09655571       -126064844.88935889        1967664953.4111502     
  -263486374.90155727       -282366970.45397037        2103649875.7230008     
  -1699960190.8738725        112190078.14652848        1051450150.5822328     
  -1264659072.1170750        204767922.65888274        990744328.43537974     
  -828011332.36610579        301834503.81848043        931138559.61649680     
  -390016971.62096250        403389821.62533408        872632844.12558389     
   49324010.118362054        509433876.07943302        815227181.96263170     
  -1970384919.0619445        181617808.54003632        355659048.80993432     
  -1560869268.9680922        314505928.28683031        218345446.97929826     
  -1130489474.8666401        516941194.72560632        50794444.718177654     
  -679245536.75760472        788923607.85634816       -146993957.97343472     
  -207137454.64097458        1130453167.6790564       -375019761.09552914     
  -2451939168.3612056        187706682.60017395       -333038076.32275498     
  -2157744569.0973029        334044402.93133342       -524189014.32151717     
  -1823168302.8123987        614987679.99915814       -776914806.50922537     
  -1448210369.5064819        1030536513.8036983       -1091215452.8858731     
  -1032870769.1795676        1580690904.3448961       -1467090953.4514656     
  -5959398101.2598515       -1787819430.3779554        1148599453.8946915     
  -6089241806.9804821       -1502682996.0847893        1225859515.2174680     
  -6221977636.2384205       -1227186973.5826530        1265723380.6975107     
  -6357605589.0336676       -961331362.87154591        1268191050.3348205     
  -6496125665.3662252       -705116163.95146871        1233262524.1293964     
  -6812572561.9014826       -2043771768.5704448        1352266277.7623730     
  -6830233811.7426891       -1396398946.9547334        1200946716.4983683     
  -6899271119.2781334       -920279650.98648572        1089724535.4483740     
  -7019684484.5078192       -615413880.66570282        1018599734.6123899     
  -7191473907.4317446       -481801635.99238324        987572313.99041605     
  -8339089798.4385920       -2501726939.5315776        1710592954.4621298     
  -8023158375.0953922       -1425694665.4018261        1274129180.7615914     
  -7807086943.6033602       -682529030.77597213        955256363.33180785     
  -7690875503.9624996       -272230035.65401793        753974502.17277777     
  -7674524056.1728067       -194797680.03596163        670283597.28450274     
  -10538949810.871174       -3161684943.2613521        2223579483.9939618     
  -9668015497.0385857       -1590570151.4260659        1445406908.0071387     
  -8945425109.2141018       -513935112.95111418        862318864.34781325     
  -8371178647.3977108        68220172.163507938        474315353.01598585     
  -7945276111.5894203        155895703.91779518        281396374.01165676     
  -13412152599.199234       -4023645779.7597704        2891225866.3578691     
  -11764805177.572275       -1891025405.0274541        1714779898.2350087     
  -10314285616.110348       -414497897.51190615        810912038.49639034     
  -9060593914.8134518        405936742.78687477        179622287.14201283     
  -8003730073.6815825        570278515.86888790       -179089355.82812190     
  -6496125665.3662252       -705116163.95146871        1233262524.1293964     
  -6239393795.7582054       -381871957.47112584        1047467516.3155500     
  -6013756556.1657848       -162276517.70943737        899504097.15733850     
  -5819213946.5889578       -46329844.666403532        789372266.65476108     
  -5655765967.0277281       -34031938.342027187        717072024.80781758     
  -7191473907.4317446       -481801635.99238324        987572313.99041605     
  -6903860279.3441591       -308127521.71904731        841616937.01173973     
  -6629327107.2129526       -178054927.30030227        716101345.33255827     
  -6367874391.0381241       -91583852.736150980        611025538.95287192     
  -6119502130.8196716       -48714298.026590586        526389517.87267858     
  -7674524056.1728067       -194797680.03596163        670283597.28450274     
  -7405719536.3374882       -185600917.98917961        585184387.54341960     
  -7131981298.3993263       -159958428.93292809        503133159.74568975     
  -6853309342.3583202       -117870212.86720443        424129913.89131492     
  -6569703668.2144766       -59336269.792011499        348174649.98029530     
  -7945276111.5894203        155895703.91779518        281396374.01165676     
  -7744971566.7381935       -14292146.281528473        278169867.91058725     
  -7521719129.7249022       -107987022.60731649        260599540.39673197     
  -7275518800.5495520       -125188925.05957079        228685391.47009161     
  -7006370579.2121410       -65897853.638290882        182427421.13066730     
  -8003730073.6815825        570278515.86888790       -179089355.82812190     
  -7921616370.5462723        205798793.40391397       -79426621.886755198     
  -7798540601.1896820       -22140708.323464394       -11499512.714311196     
  -7634502765.6118126       -113539989.31324434        24691971.689204462     
  -7429502863.8126640       -68399049.565425873        29147831.323796220     
  -5655765967.0277281       -34031938.342027187        717072024.80781758     
  -5511240826.8748484       -68488634.860799313        699135153.69314396     
  -5362705288.1485538       -89577336.134860277        681682362.34571135     
  -5210159350.8488464       -97298042.164207935        664713650.76552355     
  -5053603014.9757223       -91650752.948840380        648229018.95257807     
  -6119502130.8196716       -48714298.026590586        526389517.87267858     
  -5965118991.7845364       -53064975.515979052        515676388.80655468     
  -5810198361.0857420       -55624014.126503706        505114713.18352544     
  -5654740238.7232885       -56391413.858162403        494704491.00358963     
  -5498744624.6971712       -55367174.710952044        484445722.26674938     
  -6569703668.2144766       -59336269.792011499        348174649.98029530     
  -6406412891.2232275       -33866036.529859781        340633538.23467577     
  -6246057529.4780731       -18180520.754696131        332911253.60800219     
  -6088637582.9790106       -12279722.466502428        325007796.10027474     
  -5934153051.7260437       -16163641.665292263        316923165.71149033     
  -7006370579.2121410       -65897853.638290882        182427421.13066730     
  -6835122525.1909161       -10891817.902439594        174006601.97750714     
  -6670282793.3255405        22753143.980581284        165071983.61914137     
  -6511851383.6160107        35037032.010776043        155623566.05557641     
  -6359828296.0623312        25959846.188145876        145661349.28680378     
  -7429502863.8126640       -68399049.565425873        29147831.323796220     
  -7251247893.6876059        15857680.366277218        15795580.035048269     
  -7082874152.6281490        67176980.079304218        1596903.2169452757     
  -6924381640.6342907        85558849.573666096       -13448199.130505193     
  -6775770357.7060356        71003288.849357605       -29339727.007310782     
  -5053603014.9757223       -91650752.948840380        648229018.95257807     
  -4893824061.7645769       -76924006.377105474        619936471.21152008     
  -4732706492.5191717       -57735206.357837200        582910488.16308928     
  -4570250307.2395153       -34084352.891060352        537151069.80728734     
  -4406455505.9255943       -5971445.9767456055        482658216.14411360     
  -5498744624.6971712       -55367174.710952044        484445722.26674938     
  -5359971208.6905203       -55414147.676587582        463961325.53641057     
  -5219034989.4290714       -48251776.459553719        439461578.46476662     
  -5075935966.9128122       -33880061.059836388        410946481.05181628     
  -4930674141.1417570       -12299001.477452993        378416033.29755950     
  -5934153051.7260437       -16163641.665292263        316923165.71149033     
  -5802904930.1636992       -26940261.340243578        305208471.74917597     
  -5668669818.1260042       -27760246.097367048        294196512.41162038     
  -5531447715.6129694       -18623595.936673403        283887287.69882047     
  -5391238622.6245852        469689.14183425903        274280797.61078119     
  -6359828296.0623312        25959846.188145876        145661349.28680378     
  -6222625226.1841040        8497652.6319406033        143677909.84980959     
  -6081610978.6099892        3739384.7287008762        147115290.00364342     
  -5936785553.3399801        11685042.478435755        155973489.74830177     
  -5788148950.3740864        32334625.881124020        170252509.08378303     
  -6775770357.7060356        71003288.849357605       -29339727.007310782     
  -6619132096.7517462        50899594.239942551       -20630360.161679227     
  -6457858470.8810177        46247116.018646955       -1782088.7591536182     
  -6291949480.0938559        57045854.185474157        27205087.200258356     
  -6121405124.3902569        83295808.740412951        66331167.716561824     
  -4406455505.9255943       -5971445.9767456055        482658216.14411360     
  -4300814886.7708368        2987620.3045926094        408929256.49599212     
  -4197638764.5197201        3731696.9071402550        343570106.25833440     
  -4096927139.1722355       -3739216.1690979004        286580765.43113679     
  -3998680010.7283893       -19425118.924126148        237961234.01440293     
  -4930674141.1417570       -12299001.477452993        378416033.29755950     
  -4803846220.2767239        2700296.2683920860        322944514.19919360     
  -4679874458.9509296        8179062.2167854309        274007210.51415014     
  -4558758857.1643705        4137296.3677222729        231604122.24243480     
  -4440499414.9170465       -9425001.2787930965        195735249.38404000     
  -5391238622.6245852        469689.14183425903        274280797.61078119     
  -5248467954.3268147        19935852.068933487        236609779.32063630     
  -5108945108.2038765        28575941.079915047        203637382.44667646     
  -4972670084.2557802        26389956.174762726        175363606.98890656     
  -4839642882.4825191        13377897.353496313        151788452.94732380     
  -5788148950.3740864        32334625.881124020        170252509.08378303     
  -5634680088.9211102        54694287.706217289        149925051.86032364     
  -5484850712.2785683        64922333.496522188        132460622.05591497     
  -5338660820.4464664        63018763.252023697        117859219.67055830     
  -5196110413.4248028        48983576.972736120        106120844.70424497     
  -6121405124.3902569        83295808.740412951        66331167.716561824     
  -5962482624.0596142        106975603.18022132        62890331.818255410     
  -5807591271.1750031        117218239.46659303        60476929.341862775     
  -5656731065.7364311        114023717.59949160        59090960.287385501     
  -5509902007.7438984        97392037.578937769        58732424.654813677     
  -3998680010.7283893       -19425118.924126148        237961234.01440293     
  -3826170158.8010921       -15231615.753818512        182876819.73096365     
  -3652777839.2798548       -8096553.9370355606        130683261.42642626     
  -3478503052.1646676        1980066.5262427330        81380559.100783750     
  -3303345797.4555426        14998245.635982513        34968712.754041865     
  -4440499414.9170465       -9425001.2787930965        195735249.38404000     
  -4262256120.8934488       -8081676.9963881969        156223177.44393316     
  -4083193722.4541011       -4008004.6614954472        118888323.18852541     
  -3903312219.5990105        2796015.7258715630        83730686.617809430     
  -3722611612.3281798        12330384.165715933        50750267.731794477     
  -4839642882.4825191        13377897.353496313        151788452.94732380     
  -4657705112.9174814        11259352.781529665        127774799.64264931     
  -4475011602.1148939        11659945.668070078        105224725.72846858     
  -4291562350.0747628        14579676.013073683        84138231.204786003     
  -4107357356.7970872        20018543.816566706        64515316.071594141     
  -5196110413.4248028        48983576.972736120        106120844.70424497     
  -5012517134.8731871        42791473.579955578        97531686.327110857     
  -4828231478.2622337        38907297.051646709        89692469.046260729     
  -4643253443.5919218        37331047.387847424        82603192.861708522     
  -4457583030.8622646        38062724.588548899        76263857.773448631     
  -5509902007.7438984        97392037.578937769        58732424.654813677     
  -5326692186.7605734        86514685.398870707        65493837.497311048     
  -5142853350.8960953        77734049.489321709        72291553.141904250     
  -4958385500.1504765        71050129.850224733        79125571.588571697     
  -4773288634.5237160        66462926.481625319        85995892.837343618     
  -3303345797.4555426        14998245.635982513        34968712.754041865     
  -3094824079.7863650        43742222.862343907       -36080183.290498465     
  -2883415735.7142477        82108288.098497748       -121097613.48481095     
  -2669120765.2391930        130096441.34444368       -220083577.82889783     
  -2451939168.3612056        187706682.60017395       -333038076.32275498     
  -3722611612.3281798        12330384.165715933        50750267.731794477     
  -3545551665.8530226        27335538.063183784       -1033222.9133833351     
  -3364983581.7960410        54034483.900069475       -59879044.174443983     
  -3180907360.1572318        92427221.676381707       -125787196.05138923     
  -2993323000.9365988        142513751.39209914       -198757678.54421636     
  -4107357356.7970872        20018543.816566706        64515316.071594141     
  -3942027171.4191298        27204477.414182663        32722327.201151095     
  -3772567337.2804527        48155906.880849600        773211.24871180556     
  -3598977854.3810635        82872832.216568947       -31332031.785719804     
  -3421258722.7209568        131355253.42133832       -63593401.902150057     
  -4457583030.8622646        38062724.588548899        76263857.773448631     
  -4284250596.4846778        43349040.915345669        65186467.053104185     
  -4106167002.1674848        64472557.040833235        60859152.784659140     
  -3923332247.9106750        101433272.96504188        63281914.968108438     
  -3735746333.7142777        154231188.68787718        72454753.603453249     
  -4773288634.5237160        66462926.481625319        85995892.837343618     
  -4572221941.0496693        75769228.566685677        96359196.642475948     
  -4365782576.4571238        102984434.38006520        120378780.43339722     
  -4153970540.7460885        148108543.92175198        158054644.21010348     
  -3936785833.9165616        211141557.19174027        209386787.97258234     
  -2451939168.3612056        187706682.60017395       -333038076.32275498     
  -2157744569.0973029        334044402.93133342       -524189014.32151717     
  -1823168302.8123987        614987679.99915814       -776914806.50922537     
  -1448210369.5064819        1030536513.8036983       -1091215452.8858731     
  -1032870769.1795676        1580690904.3448961       -1467090953.4514656     
  -2993323000.9365988        142513751.39209914       -198757678.54421636     
  -2829966479.3874507        203983252.52973580       -300473629.82740033     
  -2657820519.9981380        294750879.80125284       -421674428.42679155     
  -2476885122.7686644        414816633.20664287       -562360074.34239459     
  -2287160287.6990213        564180512.74592817       -722530567.57419598     
  -3421258722.7209568        131355253.42133832       -63593401.902150057     
  -3268483116.3930287        144033684.11350584       -112731967.18073155     
  -3138510301.4057755        80702810.336764932       -139265372.90279129     
  -3031340277.7592058       -58637367.908917189       -143193619.06831816     
  -2946973045.4532924       -273986850.62347829       -124516705.67732058     
  -3735746333.7142777        154231188.68787718        72454753.603453249     
  -3473294480.1140471        154195697.68264556        39035973.618482873     
  -3265237647.0353165       -27156528.394267440        70312360.062779561     
  -3111575834.4781137       -389825489.54295528        166283912.93634316     
  -3012309042.4424343       -933811185.76334620        326950632.23916399     
  -3936785833.9165616        211141557.19174027        209386787.97258234     
  -3444400570.5504818        234469293.23718667        154830192.57025272     
  -3038002556.8867631       -28827136.391903400        207058770.46992409     
  -2717591792.9254198       -578747731.69556737        366072521.67159444     
  -2483168278.6664009       -1415292492.6736679        631871446.17526090     
 </DataArray>
 <DataArray  type="Float64" Name="VM" NumberOfComponents="1" format="ascii">
   12930095611.934122     
   11338451515.664444     
   10210474111.480408     
   9275449704.0159073     
   8309361406.4007235     
   10128069560.774235     
   9321501143.8962955     
   8827127114.4756641     
   8445548789.3102951     
   8039148097.5075951     
   7982187389.1321955     
   7735329146.5343952     
   7669773992.7054205     
   7670425056.6291246     
   7667406761.6467991     
   6492355253.5766335     
   6587193005.2717943     
   6757225502.1183319     
   6960411589.5953779     
   7170109002.7848034     
   5658112621.9923840     
   5890239086.9917870     
   6114706100.7733259     
   6329017837.7537460     
   6532926114.4031010     
   8309361406.4007235     
   8027673630.9991817     
   7787519324.4146719     
   7578491375.6591330     
   7395712886.0635233     
   8039148097.5075951     
   7752820905.8812656     
   7481938797.8987532     
   7224605368.8542385     
   6980809819.3755531     
   7667406761.6467991     
   7384574700.8652325     
   7106993200.2659922     
   6834734804.8900051     
   6567981587.6794491     
   7170109002.7848034     
   6910565619.1203518     
   6658656058.6906958     
   6410543972.3673153     
   6163102298.1344175     
   6532926114.4031010     
   6323351658.9175329     
   6135391835.5796461     
   5955259848.1936302     
   5773988832.2690105     
   7395712886.0635233     
   7259241280.0185032     
   7116700974.7065525     
   6967593998.0061560     
   6811739121.3227777     
   6980809819.3755531     
   6836329903.8657570     
   6687802811.0171413     
   6535001765.2147436     
   6377839895.0727787     
   6567981587.6794491     
   6416728672.3397598     
   6263585101.7674093     
   6108500784.6487637     
   5951456717.9018927     
   6163102298.1344175     
   6005554762.1249018     
   5848395941.9106216     
   5691624193.9199409     
   5535239018.6438932     
   5773988832.2690105     
   5609579188.7232914     
   5447965471.8724022     
   5289028434.3488073     
   5132712670.2949448     
   6811739121.3227777     
   6644824186.2903519     
   6481106517.6588869     
   6320841121.4102726     
   6164545868.0949173     
   6377839895.0727787     
   6231849216.4767275     
   6088815672.6733570     
   5948774162.4374466     
   5811869681.1647425     
   5951456717.9018927     
   5813566570.5734844     
   5677753009.7380590     
   5544007684.4958887     
   5412363272.1123724     
   5535239018.6438932     
   5392691738.6430397     
   5250543418.2070971     
   5108907105.6760540     
   4967962607.7440357     
   5132712670.2949448     
   4973121995.6076765     
   4811232090.2045221     
   4647383070.8607664     
   4482125582.4089727     
   6164545868.0949173     
   6017669697.2741289     
   5868013675.3994865     
   5715512618.4031935     
   5560168560.4792833     
   5811869681.1647425     
   5668176828.1660719     
   5522366250.8652830     
   5374325903.3448715     
   5224009169.1435089     
   5412363272.1123724     
   5274409782.8462439     
   5135419571.4870882     
   4995160651.3435946     
   4853471505.3282661     
   4967962607.7440357     
   4837643754.0655861     
   4707951645.1113491     
   4578436609.2568426     
   4448731171.9552288     
   4482125582.4089727     
   4360222039.1892748     
   4241458557.4636841     
   4125032397.0628428     
   4010239516.2261987     
   5560168560.4792833     
   5371670119.4196091     
   5183670147.3717489     
   4996169672.3142023     
   4809171896.0764332     
   5224009169.1435089     
   5036882907.7805014     
   4850290779.3544016     
   4664225930.5452948     
   4478684130.1388187     
   4853471505.3282661     
   4668593539.9380245     
   4484557940.3383465     
   4301340173.9564819     
   4118919178.1200275     
   4448731171.9552288     
   4266809513.5111694     
   4086382860.7320695     
   3907403269.6779189     
   3729828046.8967800     
   4010239516.2261987     
   3831691940.6463232     
   3655750392.2915306     
   3482347406.5660629     
   3311424350.8148313     
   4809171896.0764332     
   4613593336.3345280     
   4423092143.0650282     
   4238819380.5129790     
   4062709814.7487926     
   4478684130.1388187     
   4307568722.7960052     
   4140122071.3121009     
   3976530507.8780093     
   3817264152.8595729     
   4118919178.1200275     
   3956105579.1243334     
   3796874571.3581495     
   3641526066.1987557     
   3490529778.1747737     
   3729828046.8967800     
   3559298613.2722173     
   3393908644.9835510     
   3235457327.9983220     
   3086324076.3140059     
   3311424350.8148313     
   3117551810.9268236     
   2932844064.5871205     
   2762912269.3402100     
   2615382943.8962779     
   4062709814.7487926     
   3577484378.5756025     
   3044886472.9653649     
   2559195436.3984332     
   2419204972.3868694     
   3817264152.8595729     
   3553546025.7211051     
   3254024176.7382321     
   2950228387.7632976     
   2730159588.0387454     
   3490529778.1747737     
   3348525757.8978891     
   3188766376.0965877     
   3012677489.0991564     
   2828215038.0109739     
   3086324076.3140059     
   2983025046.6475492     
   2909933146.7496448     
   2878060539.6329708     
   2899297219.7301745     
   2615382943.8962779     
   2512479286.9753103     
   2575687950.4623137     
   2867752771.0129495     
   3413959987.4589396     
   5658112621.9923840     
   5890239086.9917870     
   6114706100.7733259     
   6329017837.7537460     
   6532926114.4031010     
   5150924013.1240072     
   5309931261.3267345     
   5465512458.0685940     
   5614742134.0821133     
   5756131556.0104656     
   4642541785.2620773     
   4753818290.7786999     
   4866140643.1473465     
   4976856548.9431095     
   5084026339.2234240     
   4133239309.8703227     
   4222757396.9336467     
   4318114957.6824856     
   4417656095.9289618     
   4519927238.1217079     
   3624561101.8529196     
   3718604948.6388435     
   3823832731.2422867     
   3940202069.8214135     
   4067638892.8735847     
   6532926114.4031010     
   6323351658.9175329     
   6135391835.5796461     
   5955259848.1936302     
   5773988832.2690105     
   5756131556.0104656     
   5644167187.3178101     
   5547723131.0972691     
   5457794527.2301435     
   5368879242.6978464     
   5084026339.2234240     
   5045344347.7174196     
   5016914992.2388458     
   4993553342.8597775     
   4972107816.0995235     
   4519927238.1217079     
   4531529161.5890131     
   4547907967.4227419     
   4566574034.1428814     
   4585833288.2071295     
   4067638892.8735847     
   4108048847.8695097     
   4146433699.3107805     
   4181845201.2352252     
   4213505096.2302599     
   5773988832.2690105     
   5609579188.7232914     
   5447965471.8724022     
   5289028434.3488073     
   5132712670.2949448     
   5368879242.6978464     
   5213520766.1313295     
   5060661587.7653828     
   4910329832.1762486     
   4762586429.5592966     
   4972107816.0995235     
   4833037844.8437061     
   4697333193.3970022     
   4565029155.2039146     
   4436260516.9212732     
   4585833288.2071295     
   4470591795.3055754     
   4360892032.4262218     
   4256626221.2316895     
   4157972145.2495503     
   4213505096.2302599     
   4129589293.4590268     
   4054870414.8297353     
   3988882003.1936364     
   3931766244.5716844     
   5132712670.2949448     
   4973121995.6076765     
   4811232090.2045221     
   4647383070.8607664     
   4482125582.4089727     
   4762586429.5592966     
   4596637749.2798405     
   4430870375.8773966     
   4265321554.2143579     
   4100042886.6975636     
   4436260516.9212732     
   4285883400.9400115     
   4140812015.9832010     
   4001583662.7298374     
   3868890887.7484732     
   4157972145.2495503     
   4044096890.4885440     
   3943161302.9729767     
   3856731499.9863262     
   3786842956.8590631     
   3931766244.5716844     
   3872875750.1000724     
   3836462601.2000103     
   3825003636.9442258     
   3841672349.8193283     
   4482125582.4089727     
   4360222039.1892748     
   4241458557.4636841     
   4125032397.0628428     
   4010239516.2261987     
   4100042886.6975636     
   4002458719.7743530     
   3906437449.1488252     
   3811839237.4397249     
   3718635970.3091345     
   3868890887.7484732     
   3807302282.8849101     
   3747236811.5495152     
   3688990935.5751605     
   3632951159.3838854     
   3786842956.8590631     
   3773176528.5941935     
   3761943973.7894597     
   3753427553.4168200     
   3747951085.2818208     
   3841672349.8193283     
   3884588807.1282334     
   3930835563.5012150     
   3980168935.2736259     
   4032392923.5673838     
   4010239516.2261987     
   3831691940.6463232     
   3655750392.2915306     
   3482347406.5660629     
   3311424350.8148313     
   3718635970.3091345     
   3549438873.4864144     
   3382624685.4506269     
   3218239793.4776449     
   3056382334.9390793     
   3632951159.3838854     
   3499377211.0925832     
   3371879070.1320643     
   3251164927.1046195     
   3138077371.0762792     
   3747951085.2818208     
   3671366375.6816902     
   3606059112.4676461     
   3553061153.2520123     
   3513425718.7814674     
   4032392923.5673838     
   4023267383.0169759     
   4029383320.9596810     
   4051509270.1198306     
   4090307544.6331730     
   3311424350.8148313     
   3117551810.9268236     
   2932844064.5871205     
   2762912269.3402100     
   2615382943.8962779     
   3056382334.9390793     
   2831674315.9974642     
   2606623506.5282416     
   2381558917.6794515     
   2157020819.6526747     
   3138077371.0762792     
   2963975502.4921050     
   2803096817.8003693     
   2658003456.0044174     
   2531760684.6399617     
   3513425718.7814674     
   3442616421.7854166     
   3405696897.8866653     
   3406469082.8225465     
   3448408629.5643892     
   4090307544.6331730     
   4137506937.1707196     
   4235018265.5566740     
   4385839670.4831066     
   4592399937.0625916     
   2615382943.8962779     
   2512479286.9753103     
   2575687950.4623137     
   2867752771.0129495     
   3413959987.4589396     
   2157020819.6526747     
   1780211697.6200380     
   1461975189.2287424     
   1297871128.1908469     
   1406025938.6843927     
   2531760684.6399617     
   2201130853.6095824     
   1904648592.0159745     
   1660310119.2661910     
   1493524179.8933315     
   3448408629.5643892     
   3355805862.2818766     
   3352091100.0780873     
   3448888743.7541251     
   3653872561.2988739     
   4592399937.0625916     
   4773309111.5298061     
   5085943639.1276684     
   5544968128.5768757     
   6162917439.6958418     
   3624561101.8529196     
   3718604948.6388435     
   3823832731.2422867     
   3940202069.8214135     
   4067638892.8735847     
   3138174659.7605076     
   3255022399.9738812     
   3381270410.6761127     
   3516466929.1393323     
   3660168885.3274679     
   2695420129.6682930     
   2830572949.8669872     
   2973072020.4735818     
   3121849785.4144735     
   3276006162.2763748     
   2299805141.9984093     
   2450058684.9381676     
   2605119365.6943541     
   2763079779.8840723     
   2922518537.3361573     
   1956562444.2871776     
   2120438587.6874156     
   2285804101.9532027     
   2449720430.6471324     
   2610238762.1266732     
   4067638892.8735847     
   4108048847.8695097     
   4146433699.3107805     
   4181845201.2352252     
   4213505096.2302599     
   3660168885.3274679     
   3700431061.6347775     
   3739767765.8551078     
   3777267811.3291054     
   3812175087.4466486     
   3276006162.2763748     
   3321123476.7875538     
   3366703986.0231719     
   3411932507.1756945     
   3456141488.8554306     
   2922518537.3361573     
   2977506858.4510942     
   3034622221.9760690     
   3093192994.8515019     
   3152692073.8169250     
   2610238762.1266732     
   2679634760.2961807     
   2753032979.4135628     
   2829927843.8299870     
   2909954218.6866584     
   4213505096.2302599     
   4129589293.4590268     
   4054870414.8297353     
   3988882003.1936364     
   3931766244.5716844     
   3812175087.4466486     
   3763024409.0817842     
   3721989332.0700569     
   3688817268.6149473     
   3663638174.5382094     
   3456141488.8554306     
   3434806385.7542524     
   3419916950.2451615     
   3411336483.6357050     
   3409124098.5285883     
   3152692073.8169250     
   3152587950.2491126     
   3156470304.1482339     
   3164254515.3576069     
   3175923985.3441000     
   2909954218.6866584     
   2925155915.1637268     
   2940937920.4192157     
   2957236522.5492258     
   2973997034.1173043     
   3931766244.5716844     
   3872875750.1000724     
   3836462601.2000103     
   3825003636.9442258     
   3841672349.8193283     
   3663638174.5382094     
   3636595627.5923939     
   3624052411.4803028     
   3626808868.6362238     
   3645946227.2904491     
   3409124098.5285883     
   3394072755.8525448     
   3384922782.3369765     
   3381775133.2833452     
   3384795848.6294785     
   3175923985.3441000     
   3155343837.9154267     
   3130645280.2001085     
   3101831631.4776430     
   3068940966.2332940     
   2973997034.1173043     
   2934900258.4121838     
   2879623689.1023679     
   2808136655.0611539     
   2720558737.1600008     
   3841672349.8193283     
   3884588807.1282334     
   3930835563.5012150     
   3980168935.2736259     
   4032392923.5673838     
   3645946227.2904491     
   3652685691.0289350     
   3663114211.9479632     
   3677383143.1406775     
   3695648109.4295015     
   3384795848.6294785     
   3357473418.9745603     
   3334941895.9857240     
   3317475036.4463172     
   3305360163.3770213     
   3068940966.2332940     
   3006408278.6821432     
   2951119335.3990326     
   2903196130.2960119     
   2862807484.7956066     
   2720558737.1600008     
   2616445008.8452401     
   2524020728.4309587     
   2443098370.9136667     
   2373541242.5754633     
   4032392923.5673838     
   4023267383.0169759     
   4029383320.9596810     
   4051509270.1198306     
   4090307544.6331730     
   3695648109.4295015     
   3659123253.0514078     
   3634648266.9015284     
   3622986605.4537482     
   3624882491.0125904     
   3305360163.3770213     
   3243835342.9496555     
   3191987249.3273339     
   3150398148.4916062     
   3119702884.5722919     
   2862807484.7956066     
   2777236109.5290956     
   2699987149.3673577     
   2631313679.5629778     
   2571562436.3049970     
   2373541242.5754633     
   2262683054.2268729     
   2160101414.5745301     
   2065627985.1521761     
   1979172120.1965396     
   4090307544.6331730     
   4137506937.1707196     
   4235018265.5566740     
   4385839670.4831066     
   4592399937.0625916     
   3624882491.0125904     
   3651508771.7602267     
   3706448044.7164211     
   3791275658.6715469     
   3907503058.1056933     
   3119702884.5722919     
   3115690954.8709936     
   3121769001.9744158     
   3138372241.1641269     
   3165967243.7790523     
   2571562436.3049970     
   2523457989.9807391     
   2469880238.4715209     
   2410848621.7810144     
   2346407993.2692895     
   1979172120.1965396     
   1871356774.7316790     
   1744246761.3219597     
   1598929898.2915964     
   1437571888.3239043     
   4592399937.0625916     
   4773309111.5298061     
   5085943639.1276684     
   5544968128.5768757     
   6162917439.6958418     
   3907503058.1056933     
   4036554353.5699883     
   4238892292.3456421     
   4524713116.0532446     
   4904120493.9045649     
   3165967243.7790523     
   3220999130.5972490     
   3300754932.0864186     
   3409236895.7800670     
   3551039545.6629710     
   2346407993.2692895     
   2293723498.2378216     
   2228650053.9005342     
   2151386966.9049768     
   2062320627.8366463     
   1437571888.3239043     
   1245685259.9522624     
   1043207638.2540586     
   882872018.00651598     
   870367719.02693093     
   1956562444.2871776     
   2120438587.6874156     
   2285804101.9532027     
   2449720430.6471324     
   2610238762.1266732     
   1655411968.3261058     
   1822027792.7901490     
   1990424580.0771532     
   2157923062.6619143     
   2322774058.8467207     
   1395869985.7657335     
   1573619190.4536865     
   1752401939.5801897     
   1930227418.0576959     
   2105852718.6358092     
   1210069837.5746977     
   1402458575.0775797     
   1594403822.4628172     
   1785134773.7880802     
   1974196369.1494536     
   1140217781.1740844     
   1339042423.7269001     
   1538097417.2589839     
   1737382761.7703366     
   1936898457.2609587     
   2610238762.1266732     
   2679634760.2961807     
   2753032979.4135628     
   2829927843.8299870     
   2909954218.6866584     
   2322774058.8467207     
   2410687324.4697647     
   2500783690.7776046     
   2592677069.8649731     
   2686086699.2998433     
   2105852718.6358092     
   2210339013.4640336     
   2314765044.1587853     
   2418896744.2153764     
   2522565290.5693488     
   1974196369.1494536     
   2092240896.6360383     
   2207787457.8696194     
   2320761428.2646484     
   2431109988.6144252     
   1936898457.2609587     
   2064609463.8711722     
   2187604222.1624498     
   2305882732.1347928     
   2419444993.7881994     
   2909954218.6866584     
   2925155915.1637268     
   2940937920.4192157     
   2957236522.5492258     
   2973997034.1173043     
   2686086699.2998433     
   2707621981.0779872     
   2730856374.9590859     
   2755764919.2168732     
   2782328063.7602062     
   2522565290.5693488     
   2550920829.4165268     
   2582160477.3991814     
   2616281893.6705332     
   2653284943.7292409     
   2431109988.6144252     
   2465285218.4290152     
   2503557818.4490018     
   2545930223.9109612     
   2592405231.0087504     
   2419444993.7881994     
   2456791175.0930743     
   2499458326.7436810     
   2547446448.7400217     
   2600755541.0820985     
   2973997034.1173043     
   2934900258.4121838     
   2879623689.1023679     
   2808136655.0611539     
   2720558737.1600008     
   2782328063.7602062     
   2750166981.4227085     
   2711774472.6916852     
   2667005454.1175213     
   2615748368.8424168     
   2653284943.7292409     
   2639790937.0561519     
   2631552558.6323395     
   2628623676.9004364     
   2631068653.2629771     
   2592405231.0087504     
   2601248036.8169875     
   2626939517.0504632     
   2669550444.3981547     
   2729139811.9191370     
   2600755541.0820985     
   2626584316.4862890     
   2680755473.8881259     
   2763269013.2876139     
   2874124934.6847501     
   2720558737.1600008     
   2616445008.8452401     
   2524020728.4309587     
   2443098370.9136667     
   2373541242.5754633     
   2615748368.8424168     
   2558334305.0828509     
   2509908917.6049981     
   2470456832.2802186     
   2439983697.0698962     
   2631068653.2629771     
   2623773808.3910770     
   2622080691.3633208     
   2625990329.2268329     
   2635507920.9485593     
   2729139811.9191370     
   2772684580.7316494     
   2817983773.8068366     
   2865034273.9111738     
   2913833925.8942294     
   2874124934.6847501     
   2968360978.8889008     
   3060411781.8480325     
   3150277343.5621500     
   3237957664.0312471     
   2373541242.5754633     
   2262683054.2268729     
   2160101414.5745301     
   2065627985.1521761     
   1979172120.1965396     
   2439983697.0698962     
   2369778868.0537548     
   2308681022.5538950     
   2256758553.1201158     
   2214127664.7634044     
   2635507920.9485593     
   2608982290.7669477     
   2591651102.3849149     
   2583568240.9769883     
   2584797349.8507991     
   2913833925.8942294     
   2928778763.0865850     
   2952328736.4931102     
   2984494372.9381695     
   3025286807.2350135     
   3237957664.0312471     
   3291025672.5190144     
   3351900291.0327158     
   3420581519.5723495     
   3497069358.1379223     
   1979172120.1965396     
   1871356774.7316790     
   1744246761.3219597     
   1598929898.2915964     
   1437571888.3239043     
   2214127664.7634044     
   2136933569.8318095     
   2053624758.4579656     
   1964170879.0314195     
   1868583895.6601884     
   2584797349.8507991     
   2560520346.4262099     
   2547535370.8820577     
   2545997334.8780332     
   2556008322.3478475     
   3025286807.2350135     
   3053302333.0639849     
   3108702162.4352670     
   3191501076.3829293     
   3301667799.6455927     
   3497069358.1379223     
   3570820204.9977918     
   3688368012.4806800     
   3849712780.5865865     
   4054854509.3155279     
   1437571888.3239043     
   1245685259.9522624     
   1043207638.2540586     
   882872018.00651598     
   870367719.02693093     
   1868583895.6601884     
   1737306441.6766057     
   1597358570.8056583     
   1454723992.1405818     
   1320899605.3206909     
   2556008322.3478475     
   2551223751.7794847     
   2569870548.7175946     
   2612405266.6721640     
   2679240577.2561574     
   3301667799.6455927     
   3414594448.2096548     
   3580051582.7474694     
   3797636887.9623961     
   4066901847.0713849     
   4054854509.3155279     
   4284390561.1191835     
   4599483480.4609041     
   5000133267.3406706     
   5486339921.7584991     
   1140217781.1740844     
   1339042423.7269001     
   1538097417.2589839     
   1737382761.7703366     
   1936898457.2609587     
   1210069837.6300089     
   1402458575.1299541     
   1594403822.5127048     
   1785134773.8357277     
   1974196369.1949363     
   1395869985.8578618     
   1573619190.5445917     
   1752401939.6696484     
   1930227418.1455381     
   2105852718.7218058     
   1655411968.4355028     
   1822027792.9027095     
   1990424580.1917984     
   2157923062.7778702     
   2322774058.9633226     
   1956562444.3999310     
   2120438587.8080869     
   2285804102.0801973     
   2449720430.7792683     
   2610238762.2629890     
   1936898457.2609587     
   2064609463.8711722     
   2187604222.1624498     
   2305882732.1347928     
   2419444993.7881994     
   1974196369.1949363     
   2092240896.6789010     
   2207787457.9092488     
   2320761428.3003592     
   2431109988.6455045     
   2105852718.7218058     
   2210339013.5461984     
   2314765044.2357740     
   2418896744.2857151     
   2522565290.6315188     
   2322774058.9633226     
   2410687324.5832777     
   2500783690.8859382     
   2592677069.9658380     
   2686086699.3908534     
   2610238762.2629890     
   2679634760.4318647     
   2753032979.5459290     
   2829927843.9560361     
   2909954218.8032103     
   2419444993.7881994     
   2456791175.0930743     
   2499458326.7436810     
   2547446448.7400217     
   2600755541.0820985     
   2431109988.6455045     
   2465285218.4362550     
   2503557818.4284825     
   2545930223.8587031     
   2592405230.9207492     
   2522565290.6315188     
   2550920829.4398036     
   2582160477.3760648     
   2616281893.5933852     
   2653284943.5903482     
   2686086699.3908534     
   2707621981.1265054     
   2730856374.9546056     
   2755764919.1486859     
   2782328063.6174326     
   2909954218.8032103     
   2925155915.2460613     
   2940937920.4546618     
   2957236522.5248995     
   2973997034.0201244     
   2600755541.0820985     
   2626584316.4862890     
   2680755473.8881259     
   2763269013.2876139     
   2874124934.6847501     
   2592405230.9207492     
   2601248036.6946726     
   2626939516.8872032     
   2669550444.1876893     
   2729139811.6554112     
   2653284943.5903482     
   2639790936.8483520     
   2631552558.3385410     
   2628623676.5037422     
   2631068652.7467580     
   2782328063.6174326     
   2750166981.1872759     
   2711774472.3348103     
   2667005453.6100330     
   2615748368.1550469     
   2973997034.0201244     
   2934900258.2194457     
   2879623688.7777996     
   2808136654.5693293     
   2720558736.4673834     
   2874124934.6847501     
   2968360978.8889008     
   3060411781.8480325     
   3150277343.5621500     
   3237957664.0312471     
   2729139811.6554112     
   2772684580.4232950     
   2817983773.4538937     
   2865034273.5135436     
   2913833925.4517260     
   2631068652.7467580     
   2623773807.7872081     
   2622080690.6724386     
   2625990328.4494066     
   2635507920.0850163     
   2615748368.1550469     
   2558334304.2726078     
   2509908916.6729698     
   2470456831.2274046     
   2439983695.8974051     
   2720558736.4673834     
   2616445008.0159917     
   2524020727.4668765     
   2443098369.8162866     
   2373541241.3462934     
   3237957664.0312471     
   3291025672.5190144     
   3351900291.0327158     
   3420581519.5723495     
   3497069358.1379223     
   2913833925.4517260     
   2928778762.5934014     
   2952328735.9395709     
   2984494372.3144464     
   3025286806.5310268     
   2635507920.0850163     
   2608982289.8109841     
   2591651101.3179612     
   2583568239.7801042     
   2584797348.5043907     
   2439983695.8974051     
   2369778866.7698398     
   2308681021.1324573     
   2256758551.5341830     
   2214127662.9843955     
   2373541241.3462934     
   2262683052.9228673     
   2160101413.1694827     
   2065627983.6188540     
   1979172118.5048406     
   3497069358.1379223     
   3570820204.9977918     
   3688368012.4806800     
   3849712780.5865865     
   4054854509.3155279     
   3025286806.5310268     
   3053302332.3403687     
   3108702161.6708527     
   3191501075.5556631     
   3301667798.7323484     
   2584797348.5043907     
   2560520345.0134411     
   2547535369.3560734     
   2545997333.1915407     
   2556008320.4532871     
   2214127662.9843955     
   2136933567.9417145     
   2053624756.3796597     
   1964170876.6874437     
   1868583892.9737394     
   1979172118.5048406     
   1871356773.0213907     
   1744246759.5402806     
   1598929896.4154904     
   1437571886.3839738     
   4054854509.3155279     
   4284390561.1191835     
   4599483480.4609041     
   5000133267.3406706     
   5486339921.7584991     
   3301667798.7323484     
   3414594447.4713168     
   3580051582.1827960     
   3797636887.5813594     
   4066901846.8978662     
   2556008320.4532871     
   2551223750.1985908     
   2569870547.4733858     
   2612405265.8245935     
   2679240576.9153185     
   1868583892.9737394     
   1737306439.3924055     
   1597358569.0376935     
   1454723991.1596322     
   1320899605.6714082     
   1437571886.3839738     
   1245685258.8847859     
   1043207638.6162677     
   882872020.86764383     
   870367725.25745916     
   1956562444.3999310     
   2120438587.8080869     
   2285804102.0801973     
   2449720430.7792683     
   2610238762.2629890     
   2299805142.1051641     
   2450058685.0564342     
   2605119365.8232117     
   2763079780.0228052     
   2922518537.4841805     
   2695420129.7625566     
   2830572949.9742918     
   2973072020.5938420     
   3121849785.5476632     
   3276006162.4225049     
   3138174659.8375864     
   3255022400.0636449     
   3381270410.7793260     
   3516466929.2567677     
   3660168885.4598989     
   3624561101.9091539     
   3718604948.7057524     
   3823832731.3214169     
   3940202069.9143605     
   4067638892.9819980     
   2610238762.2629890     
   2679634760.4318647     
   2753032979.5459290     
   2829927843.9560361     
   2909954218.8032103     
   2922518537.4841805     
   2977506858.6043782     
   3034622222.1326656     
   3093192995.0091820     
   3152692073.9732804     
   3276006162.4225049     
   3321123476.9443583     
   3366703986.1894836     
   3411932507.3501401     
   3456141489.0365005     
   3660168885.4598989     
   3700431061.7822866     
   3739767766.0172348     
   3777267811.5052652     
   3812175087.6361737     
   4067638892.9819980     
   4108048847.9962111     
   4146433699.4558778     
   4181845201.3987637     
   4213505096.4122357     
   2909954218.8032103     
   2925155915.2460613     
   2940937920.4546618     
   2957236522.5248995     
   2973997034.0201244     
   3152692073.9732804     
   3152587950.3949037     
   3156470304.2752352     
   3164254515.4572864     
   3175923985.4075909     
   3456141489.0365005     
   3434806385.9446959     
   3419916950.4408121     
   3411336483.8319788     
   3409124098.7204270     
   3812175087.6361737     
   3763024409.2944818     
   3721989332.3054385     
   3688817268.8721023     
   3663638174.8157558     
   4213505096.4122357     
   4129589293.6705098     
   4054870415.0735440     
   3988882003.4723139     
   3931766244.8875232     
   2973997034.0201244     
   2934900258.2194457     
   2879623688.7777996     
   2808136654.5693293     
   2720558736.4673834     
   3175923985.4075909     
   3155343837.9346309     
   3130645280.1519237     
   3101831631.3395381     
   3068940965.9836679     
   3409124098.7204270     
   3394072756.0454903     
   3384922782.5176187     
   3381775133.4376082     
   3384795848.7426291     
   3663638174.8157558     
   3636595627.9053826     
   3624052411.8234987     
   3626808869.0029640     
   3645946227.6727314     
   3931766244.8875232     
   3872875750.4727082     
   3836462601.6333117     
   3825003637.4411988     
   3841672350.3823962     
   2720558736.4673834     
   2616445008.0159917     
   2524020727.4668765     
   2443098369.8162866     
   2373541241.3462934     
   3068940965.9836679     
   3006408278.3774571     
   2951119335.0392795     
   2903196129.8811469     
   2862807484.3255358     
   3384795848.7426291     
   3357473419.0985222     
   3334941896.1224232     
   3317475036.5976725     
   3305360163.5448222     
   3645946227.6727314     
   3652685691.4843259     
   3663114212.4818730     
   3677383143.7579999     
   3695648110.1345348     
   3841672350.3823962     
   3884588807.8293524     
   3930835564.3488469     
   3980168936.2747588     
   4032392924.7277126     
   2373541241.3462934     
   2262683052.9228673     
   2160101413.1694827     
   2065627983.6188540     
   1979172118.5048406     
   2862807484.3255358     
   2777236109.1065855     
   2699987148.9725337     
   2631313679.1736984     
   2571562435.8959455     
   3305360163.5448222     
   3243835343.2700658     
   3191987249.7922244     
   3150398149.0908456     
   3119702885.2933269     
   3695648110.1345348     
   3659123254.0011206     
   3634648268.1033983     
   3622986606.9138713     
   3624882492.7354012     
   4032392924.7277126     
   4023267384.5038705     
   4029383322.7993813     
   4051509272.3377299     
   4090307547.2534294     
   1979172118.5048406     
   1871356773.0213907     
   1744246759.5402806     
   1598929896.4154904     
   1437571886.3839738     
   2571562435.8959455     
   2523457989.7395506     
   2469880238.3391275     
   2410848621.6996689     
   2346407993.1831737     
   3119702885.2933269     
   3115690955.9083457     
   3121769003.2862773     
   3138372242.7058783     
   3165967245.5034060     
   3624882492.7354012     
   3651508773.9142251     
   3706448047.2877831     
   3791275661.6445870     
   3907503061.4639711     
   4090307547.2534294     
   4137506940.3130374     
   4235018269.2425656     
   4385839674.7340260     
   4592399941.9016771     
   1437571886.3839738     
   1245685258.8847859     
   1043207638.6162677     
   882872020.86764383     
   870367725.25745916     
   2346407993.1831737     
   2293723498.9968133     
   2228650055.4812865     
   2151386969.2840781     
   2062320630.9907401     
   3165967245.5034060     
   3220999133.2350674     
   3300754935.6327786     
   3409236900.2892346     
   3551039551.2649946     
   3907503061.4639711     
   4036554357.6771870     
   4238892297.2685828     
   4524713122.0144539     
   4904120501.3089819     
   4592399941.9016771     
   4773309116.6558256     
   5085943644.6821690     
   5544968134.9779215     
   6162917447.6634092     
   3624561101.9091539     
   3718604948.7057524     
   3823832731.3214169     
   3940202069.9143605     
   4067638892.9819980     
   4133239309.9031668     
   4222757396.9744434     
   4318114957.7320709     
   4417656095.9884481     
   4519927238.1924334     
   4642541785.2698221     
   4753818290.7913828     
   4866140643.1649141     
   4976856548.9659691     
   5084026339.2523232     
   5150924013.1049309     
   5309931261.3095446     
   5465512458.0522614     
   5614742134.0662355     
   5756131555.9950609     
   5658112621.9445448     
   5890239086.9429674     
   6114706100.7214909     
   6329017837.6976547     
   6532926114.3420057     
   4067638892.9819980     
   4108048847.9962111     
   4146433699.4558778     
   4181845201.3987637     
   4213505096.4122357     
   4519927238.1924334     
   4531529161.6757193     
   4547907967.5267057     
   4566574034.2652321     
   4585833288.3488665     
   5084026339.2523232     
   5045344347.7566471     
   5016914992.2907162     
   4993553342.9264402     
   4972107816.1830378     
   5756131555.9950609     
   5644167187.3040485     
   5547723131.0881977     
   5457794527.2286243     
   5368879242.7067671     
   6532926114.3420057     
   6323351658.8466148     
   6135391835.5023174     
   5955259848.1130304     
   5773988832.1883287     
   4213505096.4122357     
   4129589293.6705098     
   4054870415.0735440     
   3988882003.4723139     
   3931766244.8875232     
   4585833288.3488665     
   4470591795.4745359     
   4360892032.6250725     
   4256626221.4630775     
   4157972145.5162077     
   4972107816.1830378     
   4833037844.9487724     
   4697333193.5256815     
   4565029155.3583593     
   4436260517.1038389     
   5368879242.7067671     
   5213520766.1534548     
   5060661587.8018312     
   4910329832.2282543     
   4762586429.6282320     
   5773988832.1883287     
   5609579188.6454468     
   5447965471.7973843     
   5289028434.2767172     
   5132712670.2258921     
   3931766244.8875232     
   3872875750.4727082     
   3836462601.6333117     
   3825003637.4411988     
   3841672350.3823962     
   4157972145.5162077     
   4044096890.8042455     
   3943161303.3439727     
   3856731500.4193101     
   3786842957.3615184     
   4436260517.1038389     
   4285883401.1489177     
   4140812016.2245054     
   4001583663.0103364     
   3868890888.0760746     
   4762586429.6282320     
   4596637749.3388939     
   4430870375.9298487     
   4265321554.2633095     
   4100042886.7457643     
   5132712670.2258921     
   4973121995.4815111     
   4811232090.0203123     
   4647383070.6159573     
   4482125582.0983782     
   3841672350.3823962     
   3884588807.8293524     
   3930835564.3488469     
   3980168936.2747588     
   4032392924.7277126     
   3786842957.3615184     
   3773176529.2337403     
   3761943974.5768495     
   3753427554.3626518     
   3747951086.3964119     
   3868890888.0760746     
   3807302283.3285179     
   3747236812.1193485     
   3688990936.2830305     
   3632951160.2429657     
   4100042886.7457643     
   4002458719.8964548     
   3906437449.3489990     
   3811839237.7250075     
   3718635970.6893225     
   4482125582.0983782     
   4360222038.8968544     
   4241458557.1827044     
   4125032396.7899251     
   4010239515.9612417     
   4032392924.7277126     
   4023267384.5038705     
   4029383322.7993813     
   4051509272.3377299     
   4090307547.2534294     
   3747951086.3964119     
   3671366377.1312695     
   3606059114.2863660     
   3553061155.4750943     
   3513425721.4444871     
   3632951160.2429657     
   3499377212.2413964     
   3371879071.6052518     
   3251164928.9413271     
   3138077373.3203669     
   3718635970.6893225     
   3549438874.0427527     
   3382624686.1988845     
   3218239794.4371734     
   3056382336.1338291     
   4010239515.9612417     
   3831691940.4012108     
   3655750392.0501828     
   3482347406.3102970     
   3311424350.5242887     
   4090307547.2534294     
   4137506940.3130374     
   4235018269.2425656     
   4385839674.7340260     
   4592399941.9016771     
   3513425721.4444871     
   3442616424.9888091     
   3405696901.6801643     
   3406469087.2537131     
   3448408634.6771941     
   3138077373.3203669     
   2963975505.2217870     
   2803096821.1018744     
   2658003459.9754238     
   2531760689.3876810     
   3056382336.1338291     
   2831674317.3893366     
   2606623508.1461730     
   2381558919.5479212     
   2157020821.7880421     
   3311424350.5242887     
   3117551810.3767018     
   2932844063.6777673     
   2762912267.9244857     
   2615382941.7715096     
   4592399941.9016771     
   4773309116.6558256     
   5085943644.6821690     
   5544968134.9779215     
   6162917447.6634092     
   3448408634.6771941     
   3355805867.1260676     
   3352091104.5823092     
   3448888747.9889770     
   3653872565.5410395     
   2531760689.3876810     
   2201130858.1926231     
   1904648596.3287027     
   1660310123.1084678     
   1493524182.9462605     
   2157020821.7880421     
   1780211699.4215918     
   1461975190.6901693     
   1297871129.4883721     
   1406025940.3051796     
   2615382941.7715096     
   2512479284.1070719     
   2575687947.2181778     
   2867752768.2708492     
   3413959986.3219728     
   5658112621.9445448     
   5890239086.9429674     
   6114706100.7214909     
   6329017837.6976547     
   6532926114.3420057     
   6492355253.5075064     
   6587193005.1852808     
   6757225502.0155468     
   6960411589.4789829     
   7170109002.6582270     
   7982187389.0582323     
   7735329146.4278164     
   7669773992.5691700     
   7670425056.4677553     
   7667406761.4654312     
   10128069560.711220     
   9321501143.7866516     
   8827127114.3228035     
   8445548789.1192942     
   8039148097.2831764     
   12930095611.897608     
   11338451515.567528     
   10210474111.326206     
   9275449703.8099079     
   8309361406.1469088     
   6532926114.3420057     
   6323351658.8466148     
   6135391835.5023174     
   5955259848.1130304     
   5773988832.1883287     
   7170109002.6582270     
   6910565618.9759836     
   6658656058.5302000     
   6410543972.1920595     
   6163102297.9455976     
   7667406761.4654312     
   7384574700.6586800     
   7106993200.0347719     
   6834734804.6344118     
   6567981587.3995523     
   8039148097.2831764     
   7752820905.6246414     
   7481938797.6097889     
   7224605368.5327024     
   6980809819.0210152     
   8309361406.1469088     
   8027673630.7060547     
   7787519324.0817938     
   7578491375.2861042     
   7395712885.6497850     
   5773988832.1883287     
   5609579188.6454468     
   5447965471.7973843     
   5289028434.2767172     
   5132712670.2258921     
   6163102297.9455976     
   6005554761.9219856     
   5848395941.6937218     
   5691624193.6892099     
   5535239018.3995342     
   6567981587.3995523     
   6416728672.0238285     
   6263585101.4152822     
   6108500784.2602520     
   5951456717.4768286     
   6980809819.0210152     
   6836329903.4481573     
   6687802810.5358620     
   6535001764.6689739     
   6377839894.4616156     
   7395712885.6497850     
   7259241279.5096016     
   7116700974.1013756     
   6967593997.3031464     
   6811739120.5200233     
   5132712670.2258921     
   4973121995.4815111     
   4811232090.0203123     
   4647383070.6159573     
   4482125582.0983782     
   5535239018.3995342     
   5392691738.3097210     
   5250543417.7818317     
   5108907105.1554956     
   4967962607.1242304     
   5951456717.4768286     
   5813566570.0609684     
   5677753009.1353636     
   5544007683.8002415     
   5412363271.3208590     
   6377839894.4616156     
   6231849215.8114929     
   6088815671.9534197     
   5948774161.6616230     
   5811869680.3309393     
   6811739120.5200233     
   6644824185.4972658     
   6481106516.8785515     
   6320841120.6441202     
   6164545867.3417902     
   4482125582.0983782     
   4360222038.8968544     
   4241458557.1827044     
   4125032396.7899251     
   4010239515.9612417     
   4967962607.1242304     
   4837643753.4654732     
   4707951644.5273466     
   4578436608.6881628     
   4448731171.4035902     
   5412363271.3208590     
   5274409782.1016607     
   5135419570.7878323     
   4995160650.6901093     
   4853471504.7226925     
   5811869680.3309393     
   5668176827.4316931     
   5522366250.2297745     
   5374325902.8088894     
   5224009168.7086248     
   6164545867.3417902     
   6017669696.6980162     
   5868013675.0001097     
   5715512618.1806021     
   5560168560.4337549     
   4010239515.9612417     
   3831691940.4012108     
   3655750392.0501828     
   3482347406.3102970     
   3311424350.5242887     
   4448731171.4035902     
   4266809512.9574084     
   4086382860.1696510     
   3907403269.0993581     
   3729828046.2936349     
   4853471504.7226925     
   4668593539.3020172     
   4484557939.6696873     
   4301340173.2525959     
   4118919177.3780274     
   5224009168.7086248     
   5036882907.2818317     
   4850290778.7900600     
   4664225929.9134159     
   4478684129.4375830     
   5560168560.4337549     
   5371670119.2729988     
   5183670147.1192293     
   4996169671.9512072     
   4809171895.5986996     
   3311424350.5242887     
   3117551810.3767018     
   2932844063.6777673     
   2762912267.9244857     
   2615382941.7715096     
   3729828046.2936349     
   3559298612.3729525     
   3393908643.7580423     
   3235457326.4053354     
   3086324074.3001251     
   4118919177.3780274     
   3956105578.0958915     
   3796874570.0438356     
   3641526064.6011658     
   3490529776.2997322     
   4478684129.4375830     
   4307568721.8762751     
   4140122070.1810136     
   3976530506.5447698     
   3817264151.3351007     
   4809171895.5986996     
   4613593335.7693491     
   4423092142.4066963     
   4238819379.7473698     
   4062709813.8478246     
   2615382941.7715096     
   2512479284.1070719     
   2575687947.2181778     
   2867752768.2708492     
   3413959986.3219728     
   3086324074.3001251     
   2983025044.3886237     
   2909933144.4308553     
   2878060537.5299711     
   2899297218.2363706     
   3490529776.2997322     
   3348525755.9552665     
   3188766374.2409883     
   3012677487.3826284     
   2828215036.2596183     
   3817264151.3351007     
   3553546024.1992145     
   3254024175.3416967     
   2950228386.4447474     
   2730159586.3233252     
   4062709813.8478246     
   3577484377.7263913     
   3044886472.2124357     
   2559195435.5729232     
   2419204970.7758117     
 </DataArray>
 <DataArray  type="Float64" Name="strain" NumberOfComponents="3" format="ascii">
  0.20341764775558696        0.0000000000000000       0.12528645420748172     
  0.18662495926957390       -2.7306935804589202E-002   7.4307128922726118E-002
  0.16983227078356083       -4.4663129789621600E-002   3.5139521667677774E-002
  0.15303958229754777       -5.2068581955097212E-002   7.7836324423366139E-003
  0.13624689381153468       -4.9523292301016028E-002  -7.7605387532972275E-003
  0.15984073879990796        0.0000000000000000        9.6355110971172636E-002
  0.15318074086239977       -2.1830574961884099E-002   6.2634299345456848E-002
  0.14652074292489159       -3.6161540331035288E-002   3.7367150787043585E-002
  0.13986074498738338       -4.2992896107453549E-002   2.0553665295932812E-002
  0.13320074704987522       -4.2324642291138873E-002   1.2193842872124577E-002
  0.12647619527832626        0.0000000000000000        7.4125694690980598E-002
  0.12659083292691822       -1.6354214119179006E-002   5.5212264497480741E-002
  0.12670547057551021       -2.7659950872448970E-002   4.1394442408878691E-002
  0.12682010822410220       -3.3917210259809871E-002   3.2672228425174428E-002
  0.12693474587269415       -3.5125992281261738E-002   2.9045622546367934E-002
  0.10332401719084187        0.0000000000000000        5.8598205366905576E-002
  0.10685523546312929       -1.0877853276473910E-002   5.2041024378797776E-002
  0.11038645373541668       -1.9158361413862648E-002   4.7221396533183080E-002
  0.11391767200770408       -2.4841524412166201E-002   4.4139321830061404E-002
  0.11744889027999149       -2.7927342271384586E-002   4.2794800269432859E-002
   9.0384204537454813E-002   0.0000000000000000        4.9772642998947590E-002
   9.3973948471032923E-002  -5.4014924337688133E-003   5.3120578989408002E-002
   9.7563692404611047E-002  -1.0656771955276326E-002   5.4848013159956736E-002
  0.10115343633818916       -1.5765838564522530E-002   5.4954945510593822E-002
  0.10474318027176725       -2.0728692261507430E-002   5.3441376041319294E-002
  0.13624689381153468       -4.9523292301016028E-002  -7.7605387532972275E-003
  0.13305593348096165       -4.3038061744426093E-002  -3.4418202823625760E-003
  0.12986497315038859       -3.8623691202375424E-002  -4.9831221819465754E-004
  0.12667401281981558       -3.6280180674864028E-002   1.0699854392067394E-003
  0.12348305248924252       -3.6007530161891954E-002   1.2630726898414935E-003
  0.13320074704987522       -4.2324642291138873E-002   1.2193842872124577E-002
  0.12901139871857734       -3.8486655397003022E-002   1.2054027607764497E-002
  0.12482205038727948       -3.5808811939957691E-002   1.1292646748721331E-002
  0.12063270205598160       -3.4291111920002830E-002   9.9097002949951052E-003
  0.11644335372468373       -3.3933555337138613E-002   7.9051882465858148E-003
  0.12693474587269415       -3.5125992281261738E-002   2.9045622546367934E-002
  0.12250065435275501       -3.3935249049579952E-002   2.5357990124161935E-002
  0.11806656283281586       -3.2993932677539951E-002   2.1802436919356329E-002
  0.11363247131287674       -3.2302043165141674E-002   1.8378962931951303E-002
  0.10919837979293760       -3.1859580512385216E-002   1.5087568161946799E-002
  0.11744889027999149       -2.7927342271384586E-002   4.2794800269432859E-002
  0.11352370038349466       -2.9383842702156882E-002   3.6470067266829602E-002
  0.10959851048699781       -3.0179053415122181E-002   3.1031058293710442E-002
  0.10567332059050097       -3.0312974410280493E-002   2.6477773350075385E-002
  0.10174813069400414       -2.9785605687631819E-002   2.2810212435924366E-002
  0.10474318027176725       -2.0728692261507430E-002   5.3441376041319294E-002
  0.10208053681079628       -2.4832436354733801E-002   4.5390259035767613E-002
   9.9417893349825301E-002  -2.7364174152704430E-002   3.8978510871783563E-002
   9.6755249888854339E-002  -2.8323905655419302E-002   3.4206131549367171E-002
   9.4092606427883335E-002  -2.7711630862878450E-002   3.1073121068518395E-002
  0.12348305248924252       -3.6007530161891954E-002   1.2630726898414935E-003
  0.12093341997177454       -3.6520534143751837E-002   6.8447513454676645E-004
  0.11838378745430661       -3.6533987100736284E-002   6.9199139036871249E-005
  0.11583415493683864       -3.6047889032845476E-002  -5.8275529668777581E-004
  0.11328452241937070       -3.5062239940079065E-002  -1.2713881726278964E-003
  0.11644335372468373       -3.3933555337138613E-002   7.9051882465858148E-003
  0.11386424967074335       -3.3994082329493816E-002   7.5402860836097790E-003
  0.11128514561680294       -3.3730633035197646E-002   7.1531192879039363E-003
  0.10870604156286258       -3.3143207454249958E-002   6.7436878594683280E-003
  0.10612693750892216       -3.2231805586650952E-002   6.3119917983029961E-003
  0.10919837979293760       -3.1859580512385216E-002   1.5087568161946799E-002
  0.10660421801001002       -3.1467630515235906E-002   1.4760786653065582E-002
  0.10401005622708251       -3.0927278969659015E-002   1.4426154318939649E-002
  0.10141589444415493       -3.0238525875654718E-002   1.4083671159569291E-002
   9.8821732661227388E-002  -2.9401371233222839E-002   1.3733337174954313E-002
  0.10174813069400414       -2.9785605687631819E-002   2.2810212435924366E-002
   9.9153324989574673E-002  -2.8941178700977885E-002   2.2345976842913905E-002
   9.6558519285145153E-002  -2.8123924904120381E-002   2.1888304232144107E-002
   9.3963713580715702E-002  -2.7333844297059311E-002   2.1437194603615078E-002
   9.1368907876286223E-002  -2.6570936879794671E-002   2.0992647957326832E-002
   9.4092606427883335E-002  -2.7711630862878450E-002   3.1073121068518395E-002
   9.1511570609437196E-002  -2.6414726886719905E-002   3.0295856653154839E-002
   8.8930534790991028E-002  -2.5320570838581767E-002   2.9539569027517254E-002
   8.6349498972544902E-002  -2.4429162718464015E-002   2.8804258191605626E-002
   8.3768463154098749E-002  -2.3740502526366586E-002   2.8089924145419859E-002
  0.11328452241937070       -3.5062239940079065E-002  -1.2713881726278964E-003
  0.11057336626344971       -3.3943987059040781E-002  -8.9398227536902075E-004
  0.10786221010752869       -3.3060077626334172E-002  -7.7223845927731904E-005
  0.10515105395160769       -3.2410511641958975E-002   1.1788871156955677E-003
  0.10243989779568669       -3.1995289105915425E-002   2.8743506095010862E-003
  0.10612693750892216       -3.2231805586650952E-002   6.3119917983029961E-003
  0.10375290871064596       -3.1254753678572902E-002   6.2260427567656235E-003
  0.10137887991236982       -3.0470377976188276E-002   6.3749958983360111E-003
   9.9004851114093601E-002  -2.9878678479497083E-002   6.7588512230137981E-003
   9.6630822315817488E-002  -2.9479655188499487E-002   7.3776087307988181E-003
   9.8821732661227388E-002  -2.9401371233222839E-002   1.3733337174954313E-002
   9.6580380871521265E-002  -2.8565520298104774E-002   1.3225700437259083E-002
   9.4339029081815184E-002  -2.7880678326042324E-002   1.2748515533596620E-002
   9.2097677292109145E-002  -2.7346845317035191E-002   1.2301782463966800E-002
   8.9856325502403009E-002  -2.6964021271083383E-002   1.1885501228369871E-002
   9.1368907876286223E-002  -2.6570936879794671E-002   2.0992647957326832E-002
   8.9055782746075562E-002  -2.5876286917636937E-002   2.0104990766111528E-002
   8.6742657615864929E-002  -2.5290978675896428E-002   1.9043335059854314E-002
   8.4429532485654255E-002  -2.4815012154573230E-002   1.7807680838555266E-002
   8.2116407355443649E-002  -2.4448387353667334E-002   1.6398028102214066E-002
   8.3768463154098749E-002  -2.3740502526366586E-002   2.8089924145419859E-002
   8.1179114334308827E-002  -2.3187053537168947E-002   2.6863913743322795E-002
   7.8589765514518919E-002  -2.2701279025750545E-002   2.5259454477108922E-002
   7.6000416694728984E-002  -2.2283178992111342E-002   2.3276546346778511E-002
   7.3411067874939062E-002  -2.1932753436251312E-002   2.0915189352331526E-002
  0.10243989779568669       -3.1995289105915425E-002   2.8743506095010862E-003
   9.9909588425976026E-002  -3.1595339844670417E-002   2.7252477170676692E-003
   9.7379279056265339E-002  -3.0991593684690844E-002   2.6206669411772410E-003
   9.4848969686554666E-002  -3.0184050625976483E-002   2.5606082818303566E-003
   9.2318660316843992E-002  -2.9172710668527446E-002   2.5450717390267386E-003
   9.6630822315817488E-002  -2.9479655188499487E-002   7.3776087307988181E-003
   9.4184806265722565E-002  -2.9084971911961743E-002   6.4967522456468862E-003
   9.1738790215627614E-002  -2.8506292458650578E-002   5.7399602831832153E-003
   8.9292774165532704E-002  -2.7743616828565749E-002   5.1072328434076178E-003
   8.6846758115437794E-002  -2.6796945021707486E-002   4.5985699263204061E-003
   8.9856325502403009E-002  -2.6964021271083383E-002   1.1885501228369871E-002
   8.7574145178068899E-002  -2.6574603979253084E-002   1.0253090428538225E-002
   8.5291964853734803E-002  -2.6020991232610202E-002   8.8242865575400356E-003
   8.3009784529400638E-002  -2.5303183031155072E-002   7.5990896153748932E-003
   8.0727604205066528E-002  -2.4421179374887358E-002   6.5774996020432352E-003
   8.2116407355443649E-002  -2.4448387353667334E-002   1.6398028102214066E-002
   8.0077605163015250E-002  -2.4064236046544389E-002   1.3994262265741915E-002
   7.8038802970586879E-002  -2.3535690006570104E-002   1.1873645764247837E-002
   7.6000000778158522E-002  -2.2862749233744366E-002   1.0036178597732155E-002
   7.3961198585730109E-002  -2.2045413728067315E-002   8.4818607661948375E-003
   7.3411067874939062E-002  -2.1932753436251312E-002   2.0915189352331526E-002
   7.1695186220561452E-002  -2.1553868113835667E-002   1.7720267757257407E-002
   6.9979304566183897E-002  -2.1050388780529831E-002   1.4888037903306714E-002
   6.8263422911806301E-002  -2.0422315436333591E-002   1.2418499790479161E-002
   6.6547541257428705E-002  -1.9669648081247215E-002   1.0311653418775046E-002
   9.2318660316843992E-002  -2.9172710668527446E-002   2.5450717390267386E-003
   8.9210776541432280E-002  -2.8075372360274853E-002   2.8380662965165060E-003
   8.6102892766020511E-002  -2.7009834249149600E-002   3.1326339748490861E-003
   8.2995008990608743E-002  -2.5976096335151355E-002   3.4287747740251173E-003
   7.9887125215197030E-002  -2.4974158618280451E-002   3.7264886940439057E-003
   8.6846758115437794E-002  -2.6796945021707486E-002   4.5985699263204061E-003
   8.3755909623925096E-002  -2.5775776905266279E-002   4.2263730605336947E-003
   8.0665061132412286E-002  -2.4789612346433121E-002   3.8866736417020320E-003
   7.7574212640899559E-002  -2.3838451345207415E-002   3.5794716698251267E-003
   7.4483364149386777E-002  -2.2922293901589952E-002   3.3047671449034088E-003
   8.0727604205066528E-002  -2.4421179374887358E-002   6.5774996020432352E-003
   7.7684715323564829E-002  -2.3476181450257733E-002   5.5369079524990594E-003
   7.4641826442063131E-002  -2.2569390443716530E-002   4.5597380760222239E-003
   7.1598937560561404E-002  -2.1700806355263697E-002   3.6459899726122569E-003
   6.8556048679059761E-002  -2.0870429184899397E-002   2.7956636422694914E-003
   7.3961198585730109E-002  -2.2045413728067315E-002   8.4818607661948375E-003
   7.0997193640351508E-002  -2.1176585995248950E-002   6.7696709724127807E-003
   6.8033188694972963E-002  -2.0349168540999829E-002   5.1518272778101060E-003
   6.5069183749594334E-002  -1.9563161365319867E-002   3.6283296823864629E-003
   6.2105178804215760E-002  -1.8818564468208926E-002   2.1991781861419382E-003
   6.6547541257428705E-002  -1.9669648081247215E-002   1.0311653418775046E-002
   6.3693344574285243E-002  -1.8876990540240446E-002   7.9246621202746503E-003
   6.0839147891141768E-002  -1.8128946638283461E-002   5.6629412470655116E-003
   5.7984951207998327E-002  -1.7425516375376204E-002   3.5264907991474220E-003
   5.5130754524854830E-002  -1.6766699751518510E-002   1.5153107765206730E-003
   7.9887125215197030E-002  -2.4974158618280451E-002   3.7264886940439057E-003
   7.6582545169020855E-002  -2.4123930186438935E-002   4.1755651943596872E-003
   7.3277965122844735E-002  -2.3545320127529717E-002   5.2164138308020136E-003
   6.9973385076668559E-002  -2.3238328441552818E-002   6.8490346033705241E-003
   6.6668805030492440E-002  -2.3202955128508451E-002   9.0734275120656349E-003
   7.4483364149386777E-002  -2.2922293901589952E-002   3.3047671449034088E-003
   7.1620921828636275E-002  -2.2143737001707520E-002   2.8247468786042340E-003
   6.8758479507885717E-002  -2.1605377631687656E-002   2.6372299270300548E-003
   6.5896037187135159E-002  -2.1307215791530464E-002   2.7422162901809960E-003
   6.3033594866384601E-002  -2.1249251481235909E-002   3.1397059680563499E-003
   6.8556048679059761E-002  -2.0870429184899397E-002   2.7956636422694914E-003
   6.5836475262333216E-002  -2.0163543816975965E-002   1.4179674524249786E-003
   6.3116901845606699E-002  -1.9665435135845274E-002   3.3505755903676104E-005
   6.0397328428880140E-002  -1.9376103141507669E-002  -1.3577214472941732E-003
   5.7677755012153664E-002  -1.9295547833963034E-002  -2.7557141571689647E-003
   6.2105178804215760E-002  -1.8818564468208926E-002   2.1991781861419382E-003
   5.9229205470111720E-002  -1.8183350632244258E-002  -4.4773084178516276E-005
   5.6353232136007680E-002  -1.7725492640002831E-002  -2.5947586825771883E-003
   5.3477258801903613E-002  -1.7444990491485096E-002  -5.4507786090540449E-003
   5.0601285467799552E-002  -1.7341844186690436E-002  -8.6128328636095597E-003
   5.5130754524854830E-002  -1.6766699751518510E-002   1.5153107765206730E-003
   5.1799112451971718E-002  -1.6203157447512551E-002  -1.5634747312059383E-003
   4.8467470379088634E-002  -1.5785550144160707E-002  -5.2475633884123407E-003
   4.5135828306205508E-002  -1.5513877841462322E-002  -9.5369551950987147E-003
   4.1804186233322438E-002  -1.5388140539417727E-002  -1.4431650151264852E-002
   6.6668805030492440E-002  -2.3202955128508451E-002   9.0734275120656349E-003
   5.8579022655968593E-002  -2.1129824408422926E-002   6.7093083636643458E-003
   5.0489240281444747E-002  -1.4709560501324326E-002   8.9725467256565050E-003
   4.2399457906921040E-002  -3.9421634072117628E-003   1.5863142598042279E-002
   3.4309675532397055E-002   1.1172366873913653E-002   2.7381095980821168E-002
   6.3033594866384601E-002  -2.1249251481235909E-002   3.1397059680563499E-003
   5.8659219853143985E-002  -1.9936400689882339E-002   1.6915588199172271E-003
   5.4284844839903423E-002  -1.5873579406550431E-002   3.0468688839518365E-003
   4.9910469826662779E-002  -9.0607876312390478E-003   7.2056361601595675E-003
   4.5536094813422134E-002   5.0197463605172743E-004   1.4167860648539810E-002
   5.7677755012153664E-002  -1.9295547833963034E-002  -2.7557141571689647E-003
   5.5194887061975784E-002  -1.8742976971342251E-002  -4.8850520000786046E-003
   5.2712019111797917E-002  -1.7037598311776758E-002  -6.0348329290360186E-003
   5.0229151161620057E-002  -1.4179411855265667E-002  -6.2050569440405406E-003
   4.7746283211442253E-002  -1.0168417601809976E-002  -5.3957240450931421E-003
   5.0601285467799552E-002  -1.7341844186690436E-002  -8.6128328636095597E-003
   4.8186024282463935E-002  -1.7549553252802025E-002  -1.3020524096324509E-002
   4.5770763097128256E-002  -1.8201617217003085E-002  -1.8272558713307352E-002
   4.3355501911792750E-002  -1.9298036079293063E-002  -2.4368936714558774E-002
   4.0940240726456870E-002  -2.0838809839672012E-002  -3.1309658100077797E-002
   4.1804186233322438E-002  -1.5388140539417727E-002  -1.4431650151264852E-002
   3.7632631514608439E-002  -1.6356129534261743E-002  -2.2714857468819460E-002
   3.3461076795894495E-002  -1.9365636122229218E-002  -3.3666308468863038E-002
   2.9289522077180538E-002  -2.4416660303319744E-002  -4.7286003151394806E-002
   2.5117967358466609E-002  -3.1509202077533827E-002  -6.3573941516415378E-002
   9.0384204537454813E-002   0.0000000000000000        4.9772642998947590E-002
   9.3973948471032923E-002  -5.4014924337688133E-003   5.3120578989408002E-002
   9.7563692404611047E-002  -1.0656771955276326E-002   5.4848013159956736E-002
  0.10115343633818916       -1.5765838564522530E-002   5.4954945510593822E-002
  0.10474318027176725       -2.0728692261507430E-002   5.3441376041319294E-002
   8.2431649625829884E-002   0.0000000000000000        4.4723472798540942E-002
   8.4630008051947966E-002  -4.5653367256690645E-003   4.8194186392255367E-002
   8.6828366478066049E-002  -9.0138638808485994E-003   5.0502630790961359E-002
   8.9026724904184132E-002  -1.3345581465538605E-002   5.1648805994658945E-002
   9.1225083330302201E-002  -1.7560489479739070E-002   5.1632712003348083E-002
   7.4241244763631961E-002   0.0000000000000000        4.0525159977119932E-002
   7.5506450307193218E-002  -3.7291810175693156E-003   4.4089247832316603E-002
   7.6771655850754489E-002  -7.3709558064208747E-003   4.6949299117408062E-002
   7.8036861394315774E-002  -1.0925324366554676E-002   4.9105313832394352E-002
   7.9302066937877044E-002  -1.4392286697970718E-002   5.0557291977275431E-002
   6.5812989950861017E-002   0.0000000000000000        3.7177704534684552E-002
   6.6603275236768719E-002  -2.8930253094695659E-003   4.0805763309591694E-002
   6.7393560522676393E-002  -5.7280477319931475E-003   4.4188018139296861E-002
   6.8183845808584082E-002  -8.5050672675707466E-003   4.7324469023800074E-002
   6.8974131094491770E-002  -1.1224083916202360E-002   5.0215115963101312E-002
   5.7146885187517080E-002   0.0000000000000000        3.4681106471234818E-002
   5.7920482840674400E-002  -2.0568696013698179E-003   3.8343732824080663E-002
   5.8694080493831728E-002  -4.0851396575654238E-003   4.2218787856627756E-002
   5.9467678146989056E-002  -6.0848101685868211E-003   4.6306271568876123E-002
   6.0241275800146390E-002  -8.0558811344340064E-003   5.0606183960825737E-002
  0.10474318027176725       -2.0728692261507430E-002   5.3441376041319294E-002
  0.10208053681079628       -2.4832436354733801E-002   4.5390259035767613E-002
   9.9417893349825301E-002  -2.7364174152704430E-002   3.8978510871783563E-002
   9.6755249888854339E-002  -2.8323905655419302E-002   3.4206131549367171E-002
   9.4092606427883335E-002  -2.7711630862878450E-002   3.1073121068518395E-002
   9.1225083330302201E-002  -1.7560489479739070E-002   5.1632712003348083E-002
   8.9974917079129704E-002  -2.1101203792019133E-002   4.6351575979370695E-002
   8.8724750827957208E-002  -2.3410340270947905E-002   4.2256025533422586E-002
   8.7474584576784711E-002  -2.4487898916525384E-002   3.9346060665503883E-002
   8.6224418325612229E-002  -2.4333879728751555E-002   3.7621681375614446E-002
   7.9302066937877044E-002  -1.4392286697970718E-002   5.0557291977275431E-002
   7.9010594632964712E-002  -1.7369971229304455E-002   4.7705708472967817E-002
   7.8719122328052421E-002  -1.9456506389191362E-002   4.5585927283151258E-002
   7.8427650023140075E-002  -2.0651892177631425E-002   4.4197948407825691E-002
   7.8136177718227798E-002  -2.0956128594624632E-002   4.3541771846991185E-002
   6.8974131094491770E-002  -1.1224083916202360E-002   5.0215115963101312E-002
   6.9187569472301313E-002  -1.3638738666589788E-002   4.9452656516559043E-002
   6.9401007850110871E-002  -1.5502672507434831E-002   4.8968216120969590E-002
   6.9614446227920429E-002  -1.6815885438737462E-002   4.8761794776332738E-002
   6.9827884605729973E-002  -1.7578377460497716E-002   4.8833392482648702E-002
   6.0241275800146390E-002  -8.0558811344340064E-003   5.0606183960825737E-002
   6.0505841597139509E-002  -9.9075061038751099E-003   5.1592420110144421E-002
   6.0770407394132628E-002  -1.1548838625678289E-002   5.2402892046877488E-002
   6.1034973191125760E-002  -1.2979878699843534E-002   5.3037599771024971E-002
   6.1299538988118872E-002  -1.4200626326370799E-002   5.3496543282586878E-002
   9.4092606427883335E-002  -2.7711630862878450E-002   3.1073121068518395E-002
   9.1511570609437196E-002  -2.6414726886719905E-002   3.0295856653154839E-002
   8.8930534790991028E-002  -2.5320570838581767E-002   2.9539569027517254E-002
   8.6349498972544902E-002  -2.4429162718464015E-002   2.8804258191605626E-002
   8.3768463154098749E-002  -2.3740502526366586E-002   2.8089924145419859E-002
   8.6224418325612229E-002  -2.4333879728751555E-002   3.7621681375614446E-002
   8.3731455284805772E-002  -2.3596353747031239E-002   3.6557804356311951E-002
   8.1238492243999344E-002  -2.2923392010769199E-002   3.5649096102562956E-002
   7.8745529203192915E-002  -2.2314994519965527E-002   3.4895556614367357E-002
   7.6252566162386487E-002  -2.1771161274620129E-002   3.4297185891725243E-002
   7.8136177718227798E-002  -2.0956128594624632E-002   4.3541771846991185E-002
   7.5865479430888533E-002  -2.0777980607342532E-002   4.2329465906311821E-002
   7.3594781143549337E-002  -2.0526213182956703E-002   4.1406520707013478E-002
   7.1324082856210114E-002  -2.0200826321467080E-002   4.0772936249096108E-002
   6.9053384568870890E-002  -1.9801820022873715E-002   4.0428712532559669E-002
   6.9827884605729973E-002  -1.7578377460497716E-002   4.8833392482648702E-002
   6.7913643047685490E-002  -1.7959607467653845E-002   4.7610841303154579E-002
   6.5999401489640994E-002  -1.8129034355144159E-002   4.6811842840868895E-002
   6.4085159931596525E-002  -1.8086658122968641E-002   4.6436397095791754E-002
   6.2170918373552021E-002  -1.7832478771127265E-002   4.6484504067923094E-002
   6.1299538988118872E-002  -1.4200626326370799E-002   5.3496543282586878E-002
   5.9875946135196617E-002  -1.5141234327965152E-002   5.2401930546840086E-002
   5.8452353282274355E-002  -1.5731855527331640E-002   5.1865062504129228E-002
   5.7028760429352100E-002  -1.5972489924470167E-002   5.1885939154454330E-002
   5.5605167576429859E-002  -1.5863137519380857E-002   5.2464560497815546E-002
   8.3768463154098749E-002  -2.3740502526366586E-002   2.8089924145419859E-002
   8.1179114334308827E-002  -2.3187053537168947E-002   2.6863913743322795E-002
   7.8589765514518919E-002  -2.2701279025750545E-002   2.5259454477108922E-002
   7.6000416694728984E-002  -2.2283178992111342E-002   2.3276546346778511E-002
   7.3411067874939062E-002  -2.1932753436251312E-002   2.0915189352331526E-002
   7.6252566162386487E-002  -2.1771161274620129E-002   3.4297185891725243E-002
   7.3450638800440435E-002  -2.1283679134781269E-002   3.3495854988118398E-002
   7.0648711438494383E-002  -2.0844334960496893E-002   3.2647815864315859E-002
   6.7846784076548344E-002  -2.0453128751767281E-002   3.1753068520317687E-002
   6.5044856714602278E-002  -2.0110060508592126E-002   3.0811612956123946E-002
   6.9053384568870890E-002  -1.9801820022873715E-002   4.0428712532559669E-002
   6.6370619308689746E-002  -1.9380304732393501E-002   4.0071597639667625E-002
   6.3687854048508533E-002  -1.8987390895243240E-002   3.9999515170500967E-002
   6.1005088788327354E-002  -1.8623078511423079E-002   4.0212465125059701E-002
   5.8322323528146175E-002  -1.8287367580932953E-002   4.0710447503343690E-002
   6.2170918373552021E-002  -1.7832478771127265E-002   4.6484504067923094E-002
   5.9939055859056671E-002  -1.7476930330005722E-002   4.6591141697970490E-002
   5.7707193344561342E-002  -1.7130446829989588E-002   4.7314552395664344E-002
   5.5475330830066005E-002  -1.6793028271078977E-002   4.8654736161004290E-002
   5.3243468315570662E-002  -1.6464674653273732E-002   5.0611692993990806E-002
   5.5605167576429859E-002  -1.5863137519380857E-002   5.2464560497815546E-002
   5.4155948451541341E-002  -1.5573555927618041E-002   5.3054487163026978E-002
   5.2706729326652824E-002  -1.5273502764735960E-002   5.4592927539805776E-002
   5.1257510201764327E-002  -1.4962978030734812E-002   5.7079881628151891E-002
   4.9808291076875788E-002  -1.4641981725614622E-002   6.0515349428065218E-002
   7.3411067874939062E-002  -2.1932753436251312E-002   2.0915189352331526E-002
   7.1695186220561452E-002  -2.1553868113835667E-002   1.7720267757257407E-002
   6.9979304566183897E-002  -2.1050388780529831E-002   1.4888037903306714E-002
   6.8263422911806301E-002  -2.0422315436333591E-002   1.2418499790479161E-002
   6.6547541257428705E-002  -1.9669648081247215E-002   1.0311653418775046E-002
   6.5044856714602278E-002  -2.0110060508592126E-002   3.0811612956123946E-002
   6.3638669432338965E-002  -1.9728940695249095E-002   2.9331789524311924E-002
   6.2232482150075666E-002  -1.9223579776015638E-002   2.8108663095605183E-002
   6.0826294867812367E-002  -1.8593977750891638E-002   2.7142233670003763E-002
   5.9420107585549026E-002  -1.7840134619877379E-002   2.6432501247507539E-002
   5.8322323528146175E-002  -1.8287367580932953E-002   4.0710447503343690E-002
   5.7119835879979146E-002  -1.7904013276662509E-002   4.0945369329793806E-002
   5.5917348231812117E-002  -1.7396770771501448E-002   4.1330993421331355E-002
   5.4714860583645088E-002  -1.6765640065449859E-002   4.1867319777956089E-002
   5.3512372935478079E-002  -1.6010621158507571E-002   4.2554348399668165E-002
   5.3243468315570662E-002  -1.6464674653273732E-002   5.0611692993990806E-002
   5.2138685563481960E-002  -1.6079085858075916E-002   5.2561007173703267E-002
   5.1033902811393250E-002  -1.5569961766987229E-002   5.4555028880485051E-002
   4.9929120059304562E-002  -1.4937302380007910E-002   5.6593758114336236E-002
   4.8824337307215845E-002  -1.4181107697137832E-002   5.8677194875256633E-002
   4.9808291076875788E-002  -1.4641981725614622E-002   6.0515349428065218E-002
   4.8695218482847399E-002  -1.4254158439489309E-002   6.4178703056040148E-002
   4.7582145888819052E-002  -1.3743152762473058E-002   6.7780769473066563E-002
   4.6469073294790664E-002  -1.3108964694566043E-002   7.1321548679144142E-002
   4.5356000700762317E-002  -1.2351594235767982E-002   7.4801040674273123E-002
   6.6547541257428705E-002  -1.9669648081247215E-002   1.0311653418775046E-002
   6.3693344574285243E-002  -1.8876990540240446E-002   7.9246621202746503E-003
   6.0839147891141768E-002  -1.8128946638283461E-002   5.6629412470655116E-003
   5.7984951207998327E-002  -1.7425516375376204E-002   3.5264907991474220E-003
   5.5130754524854830E-002  -1.6766699751518510E-002   1.5153107765206730E-003
   5.9420107585549026E-002  -1.7840134619877379E-002   2.6432501247507539E-002
   5.6710219746441914E-002  -1.7044636137553512E-002   2.5241475368400643E-002
   5.4000331907334831E-002  -1.6290068058501028E-002   2.4213796752075245E-002
   5.1290444068227761E-002  -1.5576430382719983E-002   2.3349465398531249E-002
   4.8580556229120636E-002  -1.4903723110210432E-002   2.2648481307768920E-002
   5.3512372935478079E-002  -1.6010621158507571E-002   4.2554348399668165E-002
   5.0984870777897699E-002  -1.5212281734866634E-002   4.2562971175732794E-002
   4.8457368620317354E-002  -1.4451189478718651E-002   4.2773018052069428E-002
   4.5929866462737008E-002  -1.3727344390063928E-002   4.3184489028677907E-002
   4.3402364305156649E-002  -1.3040746468902159E-002   4.3797384105558432E-002
   4.8824337307215845E-002  -1.4181107697137832E-002   5.8677194875256633E-002
   4.6517297668652619E-002  -1.3379927332179756E-002   5.9889149542271355E-002
   4.4210258030089385E-002  -1.2612310898936274E-002   6.1340605147048241E-002
   4.1903218391526179E-002  -1.1878258397407748E-002   6.3031561689587554E-002
   3.9596178752962924E-002  -1.1177769827594067E-002   6.4962019169889154E-002
   4.5356000700762317E-002  -1.2351594235767982E-002   7.4801040674273123E-002
   4.3307500418706596E-002  -1.1547572929492822E-002   7.7220010468016076E-002
   4.1259000136650875E-002  -1.0773432319153883E-002   7.9916558037011670E-002
   3.9210499854595161E-002  -1.0029172404751690E-002   8.2890683381259891E-002
   3.7161999572539434E-002  -9.3147931862858080E-003   8.6142386500761114E-002
   5.5130754524854830E-002  -1.6766699751518510E-002   1.5153107765206730E-003
   5.1799112451971718E-002  -1.6203157447512551E-002  -1.5634747312059383E-003
   4.8467470379088634E-002  -1.5785550144160707E-002  -5.2475633884123407E-003
   4.5135828306205508E-002  -1.5513877841462322E-002  -9.5369551950987147E-003
   4.1804186233322438E-002  -1.5388140539417727E-002  -1.4431650151264852E-002
   4.8580556229120636E-002  -1.4903723110210432E-002   2.2648481307768920E-002
   4.4872376594379065E-002  -1.4287989366476878E-002   2.1060991931966644E-002
   4.1164196959637508E-002  -1.3745272277024004E-002   1.9325730581927381E-002
   3.7456017324895972E-002  -1.3275571841852064E-002   1.7442697257651019E-002
   3.3747837690154381E-002  -1.2878888060960825E-002   1.5411891959137392E-002
   4.3402364305156649E-002  -1.3040746468902159E-002   4.3797384105558432E-002
   3.9775178283799409E-002  -1.2372821285440927E-002   4.3774109208053497E-002
   3.6147992262442218E-002  -1.1704994409887419E-002   4.4060593511554398E-002
   3.2520806241084999E-002  -1.1037265842241640E-002   4.4656837016060894E-002
   2.8893620219727800E-002  -1.0369635582503756E-002   4.5562839721573323E-002
   3.9596178752962924E-002  -1.1177769827594067E-002   6.4962019169889154E-002
   3.6507517520232832E-002  -1.0457653204404949E-002   6.6575877097054495E-002
   3.3418856287502754E-002  -9.6647165427508307E-003   6.8957025400468511E-002
   3.0330195054772663E-002  -8.7989598426314666E-003   7.2105464080131049E-002
   2.7241533822042582E-002  -7.8603831040468253E-003   7.6021193136042081E-002
   3.7161999572539434E-002  -9.3147931862858080E-003   8.6142386500761114E-002
   3.5069394303679280E-002  -8.5424851233692201E-003   8.9466295598969847E-002
   3.2976789034819112E-002  -7.6244386756141036E-003   9.4015026248669975E-002
   3.0884183765958938E-002  -6.5606538430210345E-003   9.9788578449861443E-002
   2.8791578497098791E-002  -5.3511306255896729E-003  0.10678695220254397     
   4.1804186233322438E-002  -1.5388140539417727E-002  -1.4431650151264852E-002
   3.7632631514608439E-002  -1.6356129534261743E-002  -2.2714857468819460E-002
   3.3461076795894495E-002  -1.9365636122229218E-002  -3.3666308468863038E-002
   2.9289522077180538E-002  -2.4416660303319744E-002  -4.7286003151394806E-002
   2.5117967358466609E-002  -3.1509202077533827E-002  -6.3573941516415378E-002
   3.3747837690154381E-002  -1.2878888060960825E-002   1.5411891959137392E-002
   2.7587017453616774E-002  -1.3046111799405707E-002   9.4616358902318010E-003
   2.1426197217079113E-002  -1.4268133922242049E-002   2.2010924681674926E-003
   1.5265376980541520E-002  -1.6544954429469551E-002  -6.3697383070557695E-003
   9.1045567440038444E-003  -1.9876573321088609E-002  -1.6250856435437666E-002
   2.8893620219727800E-002  -1.0369635582503756E-002   4.5562839721573323E-002
   2.2101490794696380E-002  -9.7360940645494221E-003   4.2932254110048362E-002
   1.5309361369664959E-002  -9.1706317222546435E-003   4.0349337474694560E-002
   8.5172319446334792E-003  -8.6732485556193263E-003   3.7814089815511910E-002
   1.7251025196020620E-003  -8.2439445646433906E-003   3.5326511132500404E-002
   2.7241533822042582E-002  -7.8603831040468253E-003   7.6021193136042081E-002
   2.1176051537847147E-002  -6.4260763296932616E-003   7.7696997190630029E-002
   1.5110569253651741E-002  -4.0731295222675781E-003   8.0778426550718874E-002
   9.0450869694563250E-003  -8.0154268176911743E-004   8.5265481216308697E-002
   2.9796046852608865E-003   3.3886841918017718E-003   9.1158161187399833E-002
   2.8791578497098791E-002  -5.3511306255896729E-003  0.10678695220254397     
   2.4810699683069232E-002  -3.1160585948371011E-003  0.11375586513197672     
   2.0829820869039686E-002   1.0243726777198758E-003  0.12348835969624028     
   1.6848942055010148E-002   7.0701631920812441E-003  0.13598443589533465     
   1.2868063240980554E-002   1.5021312948247045E-002  0.15124409372925984     
   5.7146885187517080E-002   0.0000000000000000        3.4681106471234818E-002
   5.7920482840674400E-002  -2.0568696013698179E-003   3.8343732824080663E-002
   5.8694080493831728E-002  -4.0851396575654238E-003   4.2218787856627756E-002
   5.9467678146989056E-002  -6.0848101685868211E-003   4.6306271568876123E-002
   6.0241275800146390E-002  -8.0558811344340064E-003   5.0606183960825737E-002
   4.8650537770038166E-002   0.0000000000000000        3.2805951523240430E-002
   4.9572198608871701E-002  -1.6868517927618393E-003   3.6988165526221431E-002
   5.0493859447705243E-002  -3.3891261269836485E-003   4.1254077220853606E-002
   5.1415520286538771E-002  -5.1068230026654372E-003   4.5603686607136901E-002
   5.2337181125372306E-002  -6.8399424198071941E-003   5.0036993685071383E-002
   4.0731554994862355E-002   0.0000000000000000        3.1322825427171103E-002
   4.1672548031321990E-002  -1.3168339841538642E-003   3.5980604993653090E-002
   4.2613541067781632E-002  -2.6931125964018802E-003   4.0593351263736137E-002
   4.3554534104241274E-002  -4.1288358367440534E-003   4.5161064237420223E-002
   4.4495527140700909E-002  -5.6240037051803783E-003   4.9683743914705369E-002
   3.3389936861989634E-002   0.0000000000000000        3.0231728183026857E-002
   3.4221531108025283E-002  -9.4681617554588648E-004   3.5321051226375633E-002
   3.5053125354060924E-002  -1.9970990658201102E-003   4.0236609985275361E-002
   3.5884719600096558E-002  -3.1508486708226677E-003   4.4978404459726042E-002
   3.6716313846132213E-002  -4.4080649905535625E-003   4.9546434649727689E-002
   2.6625683371420000E-002   0.0000000000000000        2.9532659790807672E-002
   2.7219147838981550E-002  -5.7679836693791137E-004   3.5009504224389060E-002
   2.7812612306543100E-002  -1.3010855352383385E-003   4.0183853385471313E-002
   2.8406076774104654E-002  -2.1728615049012856E-003   4.5055707274054418E-002
   2.8999541241666205E-002  -3.1921262759267485E-003   4.9625065890138390E-002
   6.0241275800146390E-002  -8.0558811344340064E-003   5.0606183960825737E-002
   6.0505841597139509E-002  -9.9075061038751099E-003   5.1592420110144421E-002
   6.0770407394132628E-002  -1.1548838625678289E-002   5.2402892046877488E-002
   6.1034973191125760E-002  -1.2979878699843534E-002   5.3037599771024971E-002
   6.1299538988118872E-002  -1.4200626326370799E-002   5.3496543282586878E-002
   5.2337181125372306E-002  -6.8399424198071941E-003   5.0036993685071383E-002
   5.2458045413081696E-002  -8.4819654317863924E-003   5.1321687127506128E-002
   5.2578909700791106E-002  -9.9263730919804741E-003   5.2494741763959026E-002
   5.2699773988500509E-002  -1.1173165400389483E-002   5.3556157594430082E-002
   5.2820638276209912E-002  -1.2222342357013374E-002   5.4505934618919331E-002
   4.4495527140700909E-002  -5.6240037051803783E-003   4.9683743914705369E-002
   4.4536815325730332E-002  -7.0564247596976559E-003   5.1254217554403368E-002
   4.4578103510759762E-002  -8.3039075582826746E-003   5.2777177794723247E-002
   4.4619391695789185E-002  -9.3664521009354466E-003   5.4252624635665006E-002
   4.4660679880818593E-002  -1.0244058387655956E-002   5.5680558077228659E-002
   3.6716313846132213E-002  -4.4080649905535625E-003   4.9546434649727689E-002
   3.6742151335085384E-002  -5.6308840876089237E-003   5.1390011390836085E-002
   3.6767988824038575E-002  -6.6814420245848776E-003   5.3250200139170104E-002
   3.6793826312991738E-002  -7.5597388014814132E-003   5.5127000894729737E-002
   3.6819663801944937E-002  -8.2657744182985486E-003   5.7020413657514993E-002
   2.8999541241666205E-002  -3.1921262759267485E-003   4.9625065890138390E-002
   2.9074053441146878E-002  -4.2053434155201958E-003   5.1729068636804300E-002
   2.9148565640627559E-002  -5.0589764908870669E-003   5.3913808797299595E-002
   2.9223077840108237E-002  -5.7530255020273677E-003   5.6179286371624240E-002
   2.9297590039588907E-002  -6.2874904489411132E-003   5.8525501359778284E-002
   6.1299538988118872E-002  -1.4200626326370799E-002   5.3496543282586878E-002
   5.9875946135196617E-002  -1.5141234327965152E-002   5.2401930546840086E-002
   5.8452353282274355E-002  -1.5731855527331640E-002   5.1865062504129228E-002
   5.7028760429352100E-002  -1.5972489924470167E-002   5.1885939154454330E-002
   5.5605167576429859E-002  -1.5863137519380857E-002   5.2464560497815546E-002
   5.2820638276209912E-002  -1.2222342357013374E-002   5.4505934618919331E-002
   5.1886380090625808E-002  -1.3035556695728048E-002   5.3974002517122921E-002
   5.0952121905041683E-002  -1.3574461150409396E-002   5.3862995056966748E-002
   5.0017863719457559E-002  -1.3839055721057371E-002   5.4172912238450915E-002
   4.9083605533873455E-002  -1.3829340407671961E-002   5.4903754061575341E-002
   4.4660679880818593E-002  -1.0244058387655956E-002   5.5680558077228659E-002
   4.4078936311176903E-002  -1.0929879063490962E-002   5.5635629691188120E-002
   4.3497192741535233E-002  -1.1417066773487139E-002   5.5874805895392121E-002
   4.2915449171893556E-002  -1.1705621517644520E-002   5.6398086689840761E-002
   4.2333705602251852E-002  -1.1795543295963114E-002   5.7205472074533956E-002
   3.6819663801944937E-002  -8.2657744182985486E-003   5.7020413657514993E-002
   3.6453614796849970E-002  -8.8242014312538541E-003   5.7386812069035745E-002
   3.6087565791755004E-002  -9.2596723965648886E-003   5.7900495019405390E-002
   3.5721516786660044E-002  -9.5721873142317216E-003   5.8561462508623943E-002
   3.5355467781565085E-002  -9.7617461842542282E-003   5.9369714536691272E-002
   2.9297590039588907E-002  -6.2874904489411132E-003   5.8525501359778284E-002
   2.9010415547644962E-002  -6.7185237990167665E-003   5.9227549650665803E-002
   2.8723241055701020E-002  -7.1022780196426417E-003   5.9940062429006506E-002
   2.8436066563757072E-002  -7.4387531108188890E-003   6.0663039694800386E-002
   2.8148892071813127E-002  -7.7279490725453842E-003   6.1396481448047421E-002
   5.5605167576429859E-002  -1.5863137519380857E-002   5.2464560497815546E-002
   5.4155948451541341E-002  -1.5573555927618041E-002   5.3054487163026978E-002
   5.2706729326652824E-002  -1.5273502764735960E-002   5.4592927539805776E-002
   5.1257510201764327E-002  -1.4962978030734812E-002   5.7079881628151891E-002
   4.9808291076875788E-002  -1.4641981725614622E-002   6.0515349428065218E-002
   4.9083605533873455E-002  -1.3829340407671961E-002   5.4903754061575341E-002
   4.8406024133906142E-002  -1.3662876102372726E-002   5.5113296686532268E-002
   4.7728442733938822E-002  -1.3457223697279200E-002   5.5917601049764183E-002
   4.7050861333971489E-002  -1.3212383192391215E-002   5.7316667151271372E-002
   4.6373279934004211E-002  -1.2928354587708940E-002   5.9310494991053495E-002
   4.2333705602251852E-002  -1.1795543295963114E-002   5.7205472074533956E-002
   4.2074009953913499E-002  -1.1752196277127501E-002   5.7063347187911548E-002
   4.1814314305575168E-002  -1.1640944629822359E-002   5.7162232066271954E-002
   4.1554618657236808E-002  -1.1461788354047566E-002   5.7502126709615249E-002
   4.1294923008898463E-002  -1.1214727449803299E-002   5.8083031117941337E-002
   3.5355467781565085E-002  -9.7617461842542282E-003   5.9369714536691272E-002
   3.5159905911563476E-002  -9.8415164518822866E-003   5.8904638667164756E-002
   3.4964344041561859E-002  -9.8246655623655324E-003   5.8326820589328837E-002
   3.4768782171560257E-002  -9.7111935157039569E-003   5.7636260303183570E-002
   3.4573220301558655E-002  -9.5011003118975965E-003   5.6832957808728823E-002
   2.8148892071813127E-002  -7.7279490725453842E-003   6.1396481448047421E-002
   2.7663712006856030E-002  -7.9308366266370167E-003   6.0637171124291955E-002
   2.7178531941898915E-002  -8.0083864949087417E-003   5.9411366618934904E-002
   2.6693351876941794E-002  -7.9605986773603025E-003   5.7719067931976231E-002
   2.6208171811984690E-002  -7.7874731739920044E-003   5.5560275063416015E-002
   4.9808291076875788E-002  -1.4641981725614622E-002   6.0515349428065218E-002
   4.8695218482847399E-002  -1.4254158439489309E-002   6.4178703056040148E-002
   4.7582145888819052E-002  -1.3743152762473058E-002   6.7780769473066563E-002
   4.6469073294790664E-002  -1.3108964694566043E-002   7.1321548679144142E-002
   4.5356000700762317E-002  -1.2351594235767982E-002   7.4801040674273123E-002
   4.6373279934004211E-002  -1.2928354587708940E-002   5.9310494991053495E-002
   4.5248611967384368E-002  -1.2586393362516546E-002   6.1480124441209955E-002
   4.4123944000764519E-002  -1.2167754996098144E-002   6.3687850357132175E-002
   4.2999276034144704E-002  -1.1672439488453928E-002   6.5933672738820184E-002
   4.1874608067524854E-002  -1.1100446839583777E-002   6.8217591586273857E-002
   4.1294923008898463E-002  -1.1214727449803299E-002   5.8083031117941337E-002
   4.0258043346401623E-002  -1.0918628285543720E-002   5.8712431140614370E-002
   3.9221163683904749E-002  -1.0592357229723234E-002   5.9479311305767446E-002
   3.8184284021407874E-002  -1.0235914282341843E-002   6.0383671613400788E-002
   3.7147404358911028E-002  -9.8492994433995451E-003   6.1425512063514223E-002
   3.4573220301558655E-002  -9.5011003118975965E-003   5.6832957808728823E-002
   3.3723512619899157E-002  -9.2508632085708982E-003   5.5875623154253255E-002
   3.2873804938239652E-002  -9.0169594633482935E-003   5.5155152318972375E-002
   3.2024097256580175E-002  -8.7993890762297425E-003   5.4671545302886100E-002
   3.1174389574920656E-002  -8.5981520472152712E-003   5.4424802105994277E-002
   2.6208171811984690E-002  -7.7874731739920044E-003   5.5560275063416015E-002
   2.5645019787876991E-002  -7.5830981315981177E-003   5.2969700482127041E-002
   2.5081867763769299E-002  -7.4415616969733603E-003   5.0715373396747018E-002
   2.4518715739661617E-002  -7.3628638701176159E-003   4.8797293807275953E-002
   2.3955563715553907E-002  -7.3470046510310527E-003   4.7215461713714102E-002
   4.5356000700762317E-002  -1.2351594235767982E-002   7.4801040674273123E-002
   4.3307500418706596E-002  -1.1547572929492822E-002   7.7220010468016076E-002
   4.1259000136650875E-002  -1.0773432319153883E-002   7.9916558037011670E-002
   3.9210499854595161E-002  -1.0029172404751690E-002   8.2890683381259891E-002
   3.7161999572539434E-002  -9.3147931862858080E-003   8.6142386500761114E-002
   4.1874608067524854E-002  -1.1100446839583777E-002   6.8217591586273857E-002
   4.0103448501448757E-002  -1.0492346769985741E-002   6.9373341747513875E-002
   3.8332288935372633E-002  -9.8887090001573696E-003   7.0806195565460583E-002
   3.6561129369296501E-002  -9.2895335300993143E-003   7.2516153040113607E-002
   3.4789969803220397E-002  -8.6948203598107843E-003   7.4503214171473126E-002
   3.7147404358911028E-002  -9.8492994433995451E-003   6.1425512063514223E-002
   3.5653111390268243E-002  -9.4371206104784666E-003   6.1343460988418086E-002
   3.4158818421625450E-002  -9.0039856811607519E-003   6.1538039451482181E-002
   3.2664525452982651E-002  -8.5498946554466073E-003   6.2009247452706417E-002
   3.1170232484339873E-002  -8.0748475333358161E-003   6.2757084992091011E-002
   3.1174389574920656E-002  -8.5981520472152712E-003   5.4424802105994277E-002
   2.9956489085164975E-002  -8.3818944509712057E-003   5.3130368190728389E-002
   2.8738588595409301E-002  -8.1192623621641306E-003   5.2112089695076518E-002
   2.7520688105653612E-002  -7.8102557807940383E-003   5.1369966619038469E-002
   2.6302787615897945E-002  -7.4548747068609034E-003   5.0903998962614640E-002
   2.3955563715553907E-002  -7.3470046510310527E-003   4.7215461713714102E-002
   2.3013581586139059E-002  -7.3266682914641112E-003   4.4734063354444908E-002
   2.2071599456724211E-002  -7.2345390431675649E-003   4.2528346296243497E-002
   2.1129617327309370E-002  -7.0706169061415108E-003   4.0598310539109755E-002
   2.0187635197894530E-002  -6.8349018803858241E-003   3.8943956083043796E-002
   3.7161999572539434E-002  -9.3147931862858080E-003   8.6142386500761114E-002
   3.5069394303679280E-002  -8.5424851233692201E-003   8.9466295598969847E-002
   3.2976789034819112E-002  -7.6244386756141036E-003   9.4015026248669975E-002
   3.0884183765958938E-002  -6.5606538430210345E-003   9.9788578449861443E-002
   2.8791578497098791E-002  -5.3511306255896729E-003  0.10678695220254397     
   3.4789969803220397E-002  -8.6948203598107843E-003   7.4503214171473126E-002
   3.3689442536503508E-002  -8.0507824029073249E-003   7.6471097299691676E-002
   3.2588915269786668E-002  -7.3036325730039264E-003   7.9198314880705376E-002
   3.1488388003069773E-002  -6.4533708701002834E-003   8.2684866914514460E-002
   3.0387860736352912E-002  -5.4999972941963127E-003   8.6930753401118888E-002
   3.1170232484339873E-002  -8.0748475333358161E-003   6.2757084992091011E-002
   3.0596296121070274E-002  -7.5590796824457490E-003   6.3326315638481123E-002
   3.0022359757800671E-002  -6.9828264703935966E-003   6.4189393638970554E-002
   2.9448423394531069E-002  -6.3460878971793137E-003   6.5346318993559083E-002
   2.8874487031261477E-002  -5.6488639628030080E-003   6.6797091702246958E-002
   2.6302787615897945E-002  -7.4548747068609034E-003   5.0903998962614640E-002
   2.5789955057379559E-002  -7.0673769619841800E-003   5.0031950615338147E-002
   2.5277122498861201E-002  -6.6620203677832598E-003   4.8988262523465165E-002
   2.4764289940342826E-002  -6.2388049242584533E-003   4.7772934686995359E-002
   2.4251457381824486E-002  -5.7977306314097310E-003   4.6385967105928752E-002
   2.0187635197894530E-002  -6.8349018803858241E-003   3.8943956083043796E-002
   1.9270419345431361E-002  -6.5756742415223057E-003   3.6588002230263039E-002
   1.8353203492968199E-002  -6.3412142651730202E-003   3.3594921534189415E-002
   1.7435987640505034E-002  -6.1315219513375478E-003   2.9964713994822936E-002
   1.6518771788041897E-002  -5.9465973000162875E-003   2.5697379612163951E-002
   2.8791578497098791E-002  -5.3511306255896729E-003  0.10678695220254397     
   2.4810699683069232E-002  -3.1160585948371011E-003  0.11375586513197672     
   2.0829820869039686E-002   1.0243726777198758E-003  0.12348835969624028     
   1.6848942055010148E-002   7.0701631920812441E-003  0.13598443589533465     
   1.2868063240980554E-002   1.5021312948247045E-002  0.15124409372925984     
   3.0387860736352912E-002  -5.4999972941963127E-003   8.6930753401118888E-002
   2.8643012870507092E-002  -3.8618849544548306E-003   9.1848322147798866E-002
   2.6898165004661231E-002  -9.5740696003780712E-004   9.8474371156015372E-002
   2.5153317138815391E-002   3.2134366890546225E-003  0.10680890042576874     
   2.3408469272969523E-002   8.6506459928222812E-003  0.11685190995705863     
   2.8874487031261477E-002  -5.6488639628030080E-003   6.6797091702246958E-002
   2.8310568740305235E-002  -4.6077113140724490E-003   6.9024322679045305E-002
   2.7746650449348976E-002  -2.9391865977954901E-003   7.1904932544086142E-002
   2.7182732158392731E-002  -6.4328981397202695E-004   7.5438921297369649E-002
   2.6618813867436475E-002   2.2799790373977391E-003   7.9626288938895728E-002
   2.4251457381824486E-002  -5.7977306314097310E-003   4.6385967105928752E-002
   2.3813367292463729E-002  -5.3535376736899565E-003   4.5283866725716340E-002
   2.3375277203102941E-002  -4.9209662355530620E-003   4.3780043860452374E-002
   2.2937187113742191E-002  -4.5000163169986625E-003   4.1874498510136901E-002
   2.2499097024381423E-002  -4.0906879180269140E-003   3.9567230674769860E-002
   1.6518771788041897E-002  -5.9465973000162875E-003   2.5697379612163951E-002
   1.5151408526982491E-002  -6.0993640333076860E-003   2.0626954287811805E-002
   1.3784045265923126E-002  -6.9027458733108421E-003   1.4099705105114130E-002
   1.2416682004863733E-002  -8.3567428200252945E-003   6.1156320640706335E-003
   1.1049318743804382E-002  -1.0461354873451567E-002  -3.3252648353183645E-003
   2.6625683371420000E-002   0.0000000000000000        2.9532659790807672E-002
   2.7219147838981550E-002  -5.7679836693791137E-004   3.5009504224389060E-002
   2.7812612306543100E-002  -1.3010855352383385E-003   4.0183853385471313E-002
   2.8406076774104654E-002  -2.1728615049012856E-003   4.5055707274054418E-002
   2.8999541241666205E-002  -3.1921262759267485E-003   4.9625065890138390E-002
   2.0104899783583256E-002   0.0000000000000000        2.9092487570365436E-002
   2.0434401267540789E-002  -4.3259877514586521E-004   3.4388386754805336E-002
   2.0763902751498323E-002  -9.7581415132782547E-004   3.9458855244536344E-002
   2.1093404235455852E-002  -1.6296461285458842E-003   4.4303893039558451E-002
   2.1422905719413386E-002  -2.3940947068000328E-003   4.8923500139871658E-002
   1.3493691358909207E-002   0.0000000000000000        2.8778078841552035E-002
   1.3636294437052967E-002  -2.8839918335381949E-004   3.3929904977176864E-002
   1.3778897515196729E-002  -6.5054276741731160E-004   3.8933364995883048E-002
   1.3921500593340491E-002  -1.0864307521904794E-003   4.3788458897670586E-002
   1.4064103671484255E-002  -1.5960631376733181E-003   4.8495186682539479E-002
   6.7920580973978451E-003   0.0000000000000000        2.8589433604367467E-002
   6.8248273475180867E-003  -1.4419959156177441E-004   3.3634058891503657E-002
   6.8575965976383265E-003  -3.2527138350680164E-004   3.8607382639511446E-002
   6.8903658477585663E-003  -5.4321537583507280E-004   4.3509404848390831E-002
   6.9231350978788070E-003  -7.9803156854660285E-004   4.8340125518141833E-002
  -9.5082448858807567E-013   0.0000000000000000        2.8526551858811734E-002
  -1.0638564681975105E-012   2.3027153100985132E-013   3.3500848497785701E-002
  -1.1768882309665107E-012   4.0371525567017841E-013   3.8480908175421505E-002
  -1.2899205358365973E-012   5.2032510244881536E-013   4.3466730891719173E-002
  -1.4029511059832078E-012   5.8011147968661803E-013   4.8458316646678691E-002
   2.8999541241666205E-002  -3.1921262759267485E-003   4.9625065890138390E-002
   2.9074053441146878E-002  -4.2053434155201958E-003   5.1729068636804300E-002
   2.9148565640627559E-002  -5.0589764908870669E-003   5.3913808797299595E-002
   2.9223077840108237E-002  -5.7530255020273677E-003   5.6179286371624240E-002
   2.9297590039588907E-002  -6.2874904489411132E-003   5.8525501359778284E-002
   2.1422905719413386E-002  -2.3940947068000328E-003   4.8923500139871658E-002
   2.1553313966797032E-002  -3.1540075614933023E-003   5.1360131051127106E-002
   2.1683722214180676E-002  -3.7942323680287111E-003   5.3827816644359122E-002
   2.1814130461564326E-002  -4.3147691264062800E-003   5.6326556919567672E-002
   2.1944538708947962E-002  -4.7156178366259821E-003   5.8856351876752873E-002
   1.4064103671484255E-002  -1.5960631376733181E-003   4.8495186682539479E-002
   1.4200725234918084E-002  -2.1026717074664231E-003   5.1224549742315717E-002
   1.4337346798351911E-002  -2.5294882451703769E-003   5.3935284752215713E-002
   1.4473968361785741E-002  -2.8765127507851792E-003   5.6627391712239537E-002
   1.4610589925219573E-002  -3.1437452243108510E-003   5.9300870622387120E-002
   6.9231350978788070E-003  -7.9803156854660285E-004   4.8340125518141833E-002
   7.0162872455100346E-003  -1.0513358534395298E-003   5.1322324710370133E-002
   7.1094393931412604E-003  -1.2647441223120285E-003   5.4236213120869445E-002
   7.2025915407724905E-003  -1.4382563751640953E-003   5.7081790749639753E-002
   7.2957436884037146E-003  -1.5718726119957130E-003   5.9859057596681114E-002
  -1.4029511059832078E-012   5.8011147968661803E-013   4.8458316646678691E-002
  -1.4271123345566128E-012   5.8734701130491729E-013   5.1653455955290375E-002
  -1.4512742136513213E-012   5.4631798217241734E-013   5.4730601750320275E-002
  -1.4754362011662470E-012   4.5701067713163623E-013   5.7689754031768396E-002
  -1.4995973213194347E-012   3.1942504197246535E-013   6.0530912799634740E-002
   2.9297590039588907E-002  -6.2874904489411132E-003   5.8525501359778284E-002
   2.9010415547644962E-002  -6.7185237990167665E-003   5.9227549650665803E-002
   2.8723241055701020E-002  -7.1022780196426417E-003   5.9940062429006506E-002
   2.8436066563757072E-002  -7.4387531108188890E-003   6.0663039694800386E-002
   2.8148892071813127E-002  -7.7279490725453842E-003   6.1396481448047421E-002
   2.1944538708947962E-002  -4.7156178366259821E-003   5.8856351876752873E-002
   2.1683160988358451E-002  -5.0388928492498160E-003   5.9634204236695992E-002
   2.1421783267768935E-002  -5.3267085148398126E-003   6.0453185651894795E-002
   2.1160405547179413E-002  -5.5790648333958999E-003   6.1313296122349252E-002
   2.0899027826589905E-002  -5.7959618049181760E-003   6.2214535648059455E-002
   1.4610589925219573E-002  -3.1437452243108510E-003   5.9300870622387120E-002
   1.4405673543786999E-002  -3.3592618994829314E-003   6.0142707268969989E-002
   1.4200757162354426E-002  -3.5511390100369678E-003   6.1056337538611061E-002
   1.3995840780921852E-002  -3.7193765559729937E-003   6.2041761431310349E-002
   1.3790924399489276E-002  -3.8639745372909609E-003   6.3098978947067799E-002
   7.2957436884037146E-003  -1.5718726119957130E-003   5.9859057596681114E-002
   7.1779532139306032E-003  -1.6796309497160000E-003   6.0753058747487862E-002
   7.0601627394574944E-003  -1.7755695052341239E-003   6.1749518089155374E-002
   6.9423722649843813E-003  -1.8596882785500322E-003   6.2848435621683574E-002
   6.8245817905112707E-003  -1.9319872696637770E-003   6.4049811345072538E-002
  -1.4995973213194347E-012   3.1942504197246535E-013   6.0530912799634740E-002
  -1.2107320354615148E-012   5.0896786785159520E-014   6.1465258672249612E-002
  -9.2186588224185684E-013  -4.3129388949125769E-013   6.2532727303527685E-002
  -6.3300146374567490E-013  -1.1271053534933628E-012   6.3733318693469002E-002
  -3.4413444316427899E-013  -2.0365514830089637E-012   6.5067032842073616E-002
   2.8148892071813127E-002  -7.7279490725453842E-003   6.1396481448047421E-002
   2.7663712006856030E-002  -7.9308366266370167E-003   6.0637171124291955E-002
   2.7178531941898915E-002  -8.0083864949087417E-003   5.9411366618934904E-002
   2.6693351876941794E-002  -7.9605986773603025E-003   5.7719067931976231E-002
   2.6208171811984690E-002  -7.7874731739920044E-003   5.5560275063416015E-002
   2.0899027826589905E-002  -5.7959618049181760E-003   6.2214535648059455E-002
   2.0094300879558723E-002  -5.9481274707251022E-003   6.1853603917062606E-002
   1.9289573932527546E-002  -6.0062898721352509E-003   6.1320072603519141E-002
   1.8484846985496361E-002  -5.9704490091485943E-003   6.0613941707429238E-002
   1.7680120038465176E-002  -5.8406048817652156E-003   5.9735211228792731E-002
   1.3790924399489276E-002  -3.8639745372909609E-003   6.3098978947067799E-002
   1.2960545169439121E-002  -3.9654183148131461E-003   6.3105091387406276E-002
   1.2130165939388971E-002  -4.0041932493618173E-003   6.3232498844253276E-002
   1.1299786709338814E-002  -3.9802993409369016E-003   6.3481201317608857E-002
   1.0469407479288668E-002  -3.8937365895384407E-003   6.3851198807473003E-002
   6.8245817905112707E-003  -1.9319872696637770E-003   6.4049811345072538E-002
   6.2624448764972331E-003  -1.9827091589012108E-003   6.4391633535323067E-002
   5.7003079624832025E-003  -2.0020966265883412E-003   6.5148645341137248E-002
   5.1381710484691735E-003  -1.9901496727251456E-003   6.6320846762515082E-002
   4.5760341344551368E-003  -1.9468682973116866E-003   6.7908237799456594E-002
  -3.4413444316427899E-013  -2.0365514830089637E-012   6.5067032842073616E-002
   7.3305250758437523E-013  -2.9892754938032340E-012   6.5713230360813016E-002
   1.8102377236095535E-012  -3.8149171321943953E-012   6.7068512094171140E-002
   2.8874220722729937E-012  -4.5134512446920461E-012   6.9132878042148072E-002
   3.9646098903833860E-012  -5.0849047195100638E-012   7.1906328204743769E-002
   2.6208171811984690E-002  -7.7874731739920044E-003   5.5560275063416015E-002
   2.5645019787876991E-002  -7.5830981315981177E-003   5.2969700482127041E-002
   2.5081867763769299E-002  -7.4415616969733603E-003   5.0715373396747018E-002
   2.4518715739661617E-002  -7.3628638701176159E-003   4.8797293807275953E-002
   2.3955563715553907E-002  -7.3470046510310527E-003   4.7215461713714102E-002
   1.7680120038465176E-002  -5.8406048817652156E-003   5.9735211228792731E-002
   1.7404350637830482E-002  -5.6873236000735267E-003   5.8358127207636154E-002
   1.7128581237195777E-002  -5.5811712741619460E-003   5.7219560937516546E-002
   1.6852811836561073E-002  -5.5221479040304475E-003   5.6319512418433956E-002
   1.6577042435926385E-002  -5.5102534896792066E-003   5.5657981650388294E-002
   1.0469407479288668E-002  -3.8937365895384407E-003   6.3851198807473003E-002
   1.0383290957254942E-002  -3.7915490685488037E-003   6.3703314998437705E-002
   1.0297174435221225E-002  -3.7207808513504449E-003   6.3696219195567394E-002
   1.0211057913187511E-002  -3.6814319379432229E-003   6.3829911398862058E-002
   1.0124941391153788E-002  -3.6735023283273882E-003   6.4104391608321598E-002
   4.5760341344551368E-003  -1.9468682973116866E-003   6.7908237799456594E-002
   4.5818407461503830E-003  -1.8957745370241467E-003   6.9005263854531609E-002
   4.5876473578456319E-003  -1.8603904285390705E-003   7.0145348170899458E-002
   4.5934539695408816E-003  -1.8407159718560819E-003   7.1328490748560264E-002
   4.5992605812361260E-003  -1.8367511669755837E-003   7.2554691587514139E-002
   3.9646098903833860E-012  -5.0849047195100638E-012   7.1906328204743769E-002
   4.5168105367032751E-012  -5.4994897524807129E-012   7.4263973775917813E-002
   5.0690094482996884E-012  -5.7275226228448162E-012   7.6566947863512771E-002
   5.6212083598961016E-012  -5.7688420013191077E-012   7.8815250467528741E-002
   6.1734090062159908E-012  -5.6237792200874992E-012   8.1008881587965598E-002
   2.3955563715553907E-002  -7.3470046510310527E-003   4.7215461713714102E-002
   2.3013581586139059E-002  -7.3266682914641112E-003   4.4734063354444908E-002
   2.2071599456724211E-002  -7.2345390431675649E-003   4.2528346296243497E-002
   2.1129617327309370E-002  -7.0706169061415108E-003   4.0598310539109755E-002
   2.0187635197894530E-002  -6.8349018803858241E-003   3.8943956083043796E-002
   1.6577042435926385E-002  -5.5102534896792066E-003   5.5657981650388294E-002
   1.5900695165445414E-002  -5.4950012199251191E-003   5.4155775861497932E-002
   1.5224347894964452E-002  -5.4259042835852062E-003   5.2909158489407637E-002
   1.4548000624483503E-002  -5.3029626806594017E-003   5.1918129534117466E-002
   1.3871653354002519E-002  -5.1261764111479313E-003   5.1182688995627251E-002
   1.0124941391153788E-002  -3.6735023283273882E-003   6.4104391608321598E-002
   9.6941360953390412E-003  -3.6633341483859883E-003   6.3563430167666315E-002
   9.2633307995242942E-003  -3.6172695240027364E-003   6.3257964259543317E-002
   8.8325255037095454E-003  -3.5353084551773481E-003   6.3187993883952784E-002
   8.4017202078948035E-003  -3.4174509419099830E-003   6.3353519040894521E-002
   4.5992605812361260E-003  -1.8367511669755837E-003   7.2554691587514139E-002
   4.3939043758199244E-003  -1.8316670768469823E-003   7.2957026272949976E-002
   4.1885481704037331E-003  -1.8086347644201556E-003   7.3574763606650606E-002
   3.9831919649875435E-003  -1.7676542296952667E-003   7.4407903588615931E-002
   3.7778357595713323E-003  -1.7087254726721179E-003   7.5456446218845979E-002
   6.1734090062159908E-012  -5.6237792200874992E-012   8.1008881587965598E-002
   6.8880907921897716E-012  -5.3078930140060265E-012   8.2336564177348970E-002
   7.6027725781635525E-012  -4.8379217298943900E-012   8.3859556530729351E-002
   8.3174552314990713E-012  -4.2131888255969585E-012   8.5577858648106728E-002
   9.0321361501111141E-012  -3.4340863486193030E-012   8.7491470529481252E-002
   2.0187635197894530E-002  -6.8349018803858241E-003   3.8943956083043796E-002
   1.9270419345431361E-002  -6.5756742415223057E-003   3.6588002230263039E-002
   1.8353203492968199E-002  -6.3412142651730202E-003   3.3594921534189415E-002
   1.7435987640505034E-002  -6.1315219513375478E-003   2.9964713994822936E-002
   1.6518771788041897E-002  -5.9465973000162875E-003   2.5697379612163951E-002
   1.3871653354002519E-002  -5.1261764111479313E-003   5.1182688995627251E-002
   1.2533918359937356E-002  -4.9317556816381725E-003   4.9867719837769664E-002
   1.1196183365872178E-002  -4.7559106987181410E-003   4.8348839240000982E-002
   9.8584483718070111E-003  -4.5986414623879132E-003   4.6626047202320976E-002
   8.5207133777418370E-003  -4.4599479726471492E-003   4.4699343724729779E-002
   8.4017202078948035E-003  -3.4174509419099830E-003   6.3353519040894521E-002
   7.0766814756091992E-003  -3.2878371217541363E-003   6.3085726493884636E-002
   5.7516427433235966E-003  -3.1706071322635462E-003   6.3047237910345166E-002
   4.4266040110379932E-003  -3.0657609734382248E-003   6.3238053290276042E-002
   3.1015652787523898E-003  -2.9732986452781496E-003   6.3658172633677304E-002
   3.7778357595713323E-003  -1.7087254726721179E-003   7.5456446218845979E-002
   2.8987086924469017E-003  -1.6439185618699129E-003   7.6242022198608039E-002
   2.0195816253224673E-003  -1.5853035658088648E-003   7.7690117545222204E-002
   1.1404545581980344E-003  -1.5328804844883968E-003   7.9800732258688209E-002
   2.6132749107360236E-004  -1.4866493179090251E-003   8.2573866339006319E-002
   9.0321361501111141E-012  -3.4340863486193030E-012   8.7491470529481252E-002
   1.0450456472410607E-011  -1.9859114352982488E-012   8.9336606951939956E-002
   1.1868780264157053E-011   6.4587224457568482E-013   9.2277478144632108E-002
   1.3287100586456546E-011   4.4611675464878431E-012   9.6314084107557707E-002
   1.4705424378202991E-011   9.4600438593772651E-012  0.10144642484071714     
   1.6518771788041897E-002  -5.9465973000162875E-003   2.5697379612163951E-002
   1.5151408526982491E-002  -6.0993640333076860E-003   2.0626954287811805E-002
   1.3784045265923126E-002  -6.9027458733108421E-003   1.4099705105114130E-002
   1.2416682004863733E-002  -8.3567428200252945E-003   6.1156320640706335E-003
   1.1049318743804382E-002  -1.0461354873451567E-002  -3.3252648353183645E-003
   8.5207133777418370E-003  -4.4599479726471492E-003   4.4699343724729779E-002
   6.1461924266939388E-003  -4.5745230206766518E-003   4.2088206662214495E-002
   3.7716714756460684E-003  -5.1770593976564888E-003   3.8919578078067840E-002
   1.3971505245981945E-003  -6.2675571035867676E-003   3.5193457972289718E-002
  -9.7737042644968630E-004  -7.8460161384676930E-003   3.0909846344880698E-002
   3.1015652787523898E-003  -2.9732986452781496E-003   6.3658172633677304E-002
   6.1921897443040219E-004  -3.0496820080452847E-003   6.3668977610759750E-002
  -1.8631273298916028E-003  -3.4513729220021425E-003   6.4021623402925387E-002
  -4.3454736342136216E-003  -4.1783713871482702E-003   6.4716110010173966E-002
  -6.8278199385356092E-003  -5.2306774034839298E-003   6.5752437432505584E-002
   2.6132749107360236E-004  -1.4866493179090251E-003   8.2573866339006319E-002
  -1.4295118298081697E-003  -1.5248409954141395E-003   8.5369267133447682E-002
  -3.1203511506899357E-003  -1.7256864463476816E-003   8.9405841079686424E-002
  -4.8111904715717000E-003  -2.0891856707096470E-003   9.4683588177722600E-002
  -6.5020297924534599E-003  -2.6153386685001112E-003  0.10120250842755599     
   1.4705424378202991E-011   9.4600438593772651E-012  0.10144642484071714     
   1.3978262991543033E-011   1.7217116621282003E-011  0.10718907523027826     
   1.3251108543776979E-011   2.9306460036515602E-011  0.11507223110835138     
   1.2523945422393545E-011   4.5728785341703215E-011  0.12509589247493602     
   1.1796785770457063E-011   6.6483707428233174E-011  0.13726005933003260     
  -9.5082448858807567E-013   0.0000000000000000        2.8526551858811734E-002
  -1.0638564681975105E-012   2.3027153100985132E-013   3.3500848497785701E-002
  -1.1768882309665107E-012   4.0371525567017841E-013   3.8480908175421505E-002
  -1.2899205358365973E-012   5.2032510244881536E-013   4.3466730891719173E-002
  -1.4029511059832078E-012   5.8011147968661803E-013   4.8458316646678691E-002
  -6.7920580992684833E-003   0.0000000000000000        2.8589433604877479E-002
  -6.8248273496167612E-003   1.4419959201362586E-004   3.3634058891966079E-002
  -6.8575965999650408E-003   3.2527138430888704E-004   3.8607382639922326E-002
  -6.8903658503133231E-003   5.4321537688577833E-004   4.3509404848746221E-002
  -6.9231351006616027E-003   7.9803156974431275E-004   4.8340125518437790E-002
  -1.3493691360686807E-002   0.0000000000000000        2.8778078842557352E-002
  -1.3636294439064537E-002   2.8839918379698062E-004   3.3929904978099043E-002
  -1.3778897517442266E-002   6.5054276821405708E-004   3.8933364996714195E-002
  -1.3921500595819996E-002   1.0864307532512342E-003   4.3788458898402792E-002
  -1.4064103674197725E-002   1.5960631389085075E-003   4.8495186683164833E-002
  -2.0104899785205802E-002   0.0000000000000000        2.9092487571851344E-002
  -2.0434401269407182E-002   4.3259877558033516E-004   3.4388386756184601E-002
  -2.0763902753608562E-002   9.7581415211923147E-004   3.9458855245797113E-002
  -2.1093404237809942E-002   1.6296461296166887E-003   4.4303893040688859E-002
  -2.1422905722011321E-002   2.3940947080727075E-003   4.8923500140859867E-002
  -2.6625683372825462E-002   0.0000000000000000        2.9532659792759465E-002
  -2.7219147840644692E-002   5.7679836736368971E-004   3.5009504226222746E-002
  -2.7812612308463922E-002   1.3010855360244006E-003   4.0183853387171072E-002
  -2.8406076776283155E-002   2.1728615059821415E-003   4.5055707275604449E-002
  -2.8999541244102384E-002   3.1921262772369001E-003   4.9625065891522879E-002
  -1.4029511059832078E-012   5.8011147968661803E-013   4.8458316646678691E-002
  -1.4271123345566128E-012   5.8734701130491729E-013   5.1653455955290375E-002
  -1.4512742136513213E-012   5.4631798217241734E-013   5.4730601750320275E-002
  -1.4754362011662470E-012   4.5701067713163623E-013   5.7689754031768396E-002
  -1.4995973213194347E-012   3.1942504197246535E-013   6.0530912799634740E-002
  -6.9231351006616027E-003   7.9803156974431275E-004   4.8340125518437790E-002
  -7.0162872483481827E-003   1.0513358546855359E-003   5.1322324710609095E-002
  -7.1094393960347653E-003   1.2647441235105093E-003   5.4236213121037359E-002
  -7.2025915437213470E-003   1.4382563762192465E-003   5.7081790749722555E-002
  -7.2957436914079269E-003   1.5718726128117338E-003   5.9859057596664704E-002
  -1.4064103674197725E-002   1.5960631389085075E-003   4.8495186683164833E-002
  -1.4200725237708000E-002   2.1026717087837253E-003   5.1224549742827814E-002
  -1.4337346801218277E-002   2.5294882464747077E-003   5.3935284752586451E-002
  -1.4473968364728544E-002   2.8765127519814753E-003   5.6627391712440758E-002
  -1.4610589928238826E-002   3.1437452253040218E-003   5.9300870622390742E-002
  -2.1422905722011321E-002   2.3940947080727075E-003   4.8923500140859867E-002
  -2.1553313969506559E-002   3.1540075628819003E-003   5.1360131051946534E-002
  -2.1683722217001804E-002   3.7942323694389025E-003   5.3827816644967573E-002
  -2.1814130464497049E-002   4.3147691277436936E-003   5.6326556919923040E-002
  -2.1944538711992288E-002   4.7156178377962994E-003   5.8856351876812880E-002
  -2.8999541244102384E-002   3.1921262772369001E-003   4.9625065891522879E-002
  -2.9074053443743871E-002   4.2053434169800992E-003   5.1729068637965246E-002
  -2.9148565643385357E-002   5.0589764924031016E-003   5.3913808798180723E-002
  -2.9223077843026846E-002   5.7530255035059411E-003   5.6179286372169325E-002
  -2.9297590042668332E-002   6.2874904502886117E-003   5.8525501359931058E-002
  -1.4995973213194347E-012   3.1942504197246535E-013   6.0530912799634740E-002
  -1.2107320354615148E-012   5.0896786785159520E-014   6.1465258672249612E-002
  -9.2186588224185684E-013  -4.3129388949125769E-013   6.2532727303527685E-002
  -6.3300146374567490E-013  -1.1271053534933628E-012   6.3733318693469002E-002
  -3.4413444316427899E-013  -2.0365514830089637E-012   6.5067032842073616E-002
  -7.2957436914079269E-003   1.5718726128117338E-003   5.9859057596664704E-002
  -7.1779532164016457E-003   1.6796309500809181E-003   6.0753058747039151E-002
  -7.0601627413953739E-003   1.7755695048196976E-003   6.1749518088185212E-002
  -6.9423722663890970E-003   1.8596882770281365E-003   6.2848435620102838E-002
  -6.8245817913828166E-003   1.9319872667061672E-003   6.4049811342792015E-002
  -1.4610589928238826E-002   3.1437452253040218E-003   5.9300870622390742E-002
  -1.4405673546406787E-002   3.3592619001109152E-003   6.0142707268208050E-002
  -1.4200757164574746E-002   3.5511390100706614E-003   6.1056337536905300E-002
  -1.3995840782742708E-002   3.7193765551833367E-003   6.2041761428482466E-002
  -1.3790924400910672E-002   3.8639745354488650E-003   6.3098978942939601E-002
  -2.1944538711992288E-002   4.7156178377962994E-003   5.8856351876812880E-002
  -2.1683160991226143E-002   5.0388928501408966E-003   5.9634204235756300E-002
  -2.1421783270459998E-002   5.3267085153216459E-003   6.0453185649688004E-002
  -2.1160405549693857E-002   5.5790648333385023E-003   6.1313296118608022E-002
  -2.0899027828927708E-002   5.7959618041915455E-003   6.2214535642516312E-002
  -2.9297590042668332E-002   6.2874904502886117E-003   5.8525501359931058E-002
  -2.9010415550859724E-002   6.7185238001709231E-003   5.9227549649683867E-002
  -2.8723241059051122E-002   7.1022780205726114E-003   5.9940062426533311E-002
  -2.8436066567242516E-002   7.4387531114937771E-003   6.0663039690479391E-002
  -2.8148892075433918E-002   7.7279490729342953E-003   6.1396481441522113E-002
  -3.4413444316427899E-013  -2.0365514830089637E-012   6.5067032842073616E-002
   7.3305250758437523E-013  -2.9892754938032340E-012   6.5713230360813016E-002
   1.8102377236095535E-012  -3.8149171321943953E-012   6.7068512094171140E-002
   2.8874220722729937E-012  -4.5134512446920461E-012   6.9132878042148072E-002
   3.9646098903833860E-012  -5.0849047195100638E-012   7.1906328204743769E-002
  -6.8245817913828166E-003   1.9319872667061672E-003   6.4049811342792015E-002
  -6.2624448753399202E-003   1.9827091543672265E-003   6.4391633532700984E-002
  -5.7003079592970254E-003   2.0020966205248451E-003   6.5148645337922570E-002
  -5.1381710432541290E-003   1.9901496651787932E-003   6.6320846758456856E-002
  -4.5760341272112343E-003   1.9468682883293786E-003   6.7908237794303772E-002
  -1.3790924400910672E-002   3.8639745354488650E-003   6.3098978942939601E-002
  -1.2960545169208172E-002   3.9654183117237563E-003   6.3105091382387485E-002
  -1.2130165937505672E-002   4.0041932448645502E-003   6.3232498837841919E-002
  -1.1299786705803174E-002   3.9802993348711201E-003   6.3481201309302918E-002
  -1.0469407474100675E-002   3.8937365817436481E-003   6.3851198796770453E-002
  -2.0899027828927708E-002   5.7959618041915455E-003   6.2214535642516312E-002
  -2.0094300880871708E-002   5.9481274690802444E-003   6.1853603909872483E-002
  -1.9289573932815718E-002   6.0062898692042838E-003   6.1320072593929173E-002
  -1.8484846984759728E-002   5.9704490045634339E-003   6.0613941694686313E-002
  -1.7680120036703724E-002   5.8406048751578829E-003   5.9735211212143827E-002
  -2.8148892075433918E-002   7.7279490729342953E-003   6.1396481441522113E-002
  -2.7663712010330528E-002   7.9308366264368019E-003   6.0637171115156027E-002
  -2.7178531945227152E-002   8.0083864935439932E-003   5.9411366606184297E-002
  -2.6693351880123763E-002   7.9605986742557547E-003   5.7719067914606847E-002
  -2.6208171815020390E-002   7.7874731685722010E-003   5.5560275040423796E-002
   3.9646098903833860E-012  -5.0849047195100638E-012   7.1906328204743769E-002
   4.5168105367032751E-012  -5.4994897524807129E-012   7.4263973775917813E-002
   5.0690094482996884E-012  -5.7275226228448162E-012   7.6566947863512771E-002
   5.6212083598961016E-012  -5.7688420013191077E-012   7.8815250467528741E-002
   6.1734090062159908E-012  -5.6237792200874992E-012   8.1008881587965598E-002
  -4.5760341272112343E-003   1.9468682883293786E-003   6.7908237794303772E-002
  -4.5818407378154045E-003   1.8957745268781412E-003   6.9005263848430226E-002
  -4.5876473484195903E-003   1.8603904177269190E-003   7.0145348163822896E-002
  -4.5934539590237701E-003   1.8407159608756964E-003   7.1328490740481906E-002
  -4.5992605696279464E-003   1.8367511563243122E-003   7.2554691578407132E-002
  -1.0469407474100675E-002   3.8937365817436481E-003   6.3851198796770453E-002
  -1.0383290951015889E-002   3.7915490592557721E-003   6.3703314985962600E-002
  -1.0297174427931106E-002   3.7207808411812739E-003   6.3696219181266403E-002
  -1.0211057904846324E-002   3.6814319275201785E-003   6.3829911382681834E-002
  -1.0124941381761541E-002   3.6735023182724313E-003   6.4104391590208906E-002
  -1.7680120036703724E-002   5.8406048751578829E-003   5.9735211212143827E-002
  -1.7404350635084630E-002   5.6873235916334308E-003   5.8358127188515137E-002
  -1.7128581233465535E-002   5.5811712646356166E-003   5.7219560915843438E-002
  -1.6852811831846438E-002   5.5221478941647716E-003   5.6319512394128773E-002
  -1.6577042430227347E-002   5.5102534802205089E-003   5.5657981623371031E-002
  -2.6208171815020390E-002   7.7874731685722010E-003   5.5560275040423796E-002
  -2.5645019790021643E-002   7.5830981240110618E-003   5.2969700456087648E-002
  -2.5081867765022886E-002   7.4415616880900703E-003   5.0715373367553884E-002
  -2.4518715740024139E-002   7.3628638608092822E-003   4.8797293774822365E-002
  -2.3955563715025389E-002   7.3470046421685864E-003   4.7215461677893256E-002
   6.1734090062159908E-012  -5.6237792200874992E-012   8.1008881587965598E-002
   6.8880907921897716E-012  -5.3078930140060265E-012   8.2336564177348970E-002
   7.6027725781635525E-012  -4.8379217298943900E-012   8.3859556530729351E-002
   8.3174552314990713E-012  -4.2131888255969585E-012   8.5577858648106728E-002
   9.0321361501111141E-012  -3.4340863486193030E-012   8.7491470529481252E-002
  -4.5992605696279464E-003   1.8367511563243122E-003   7.2554691578407132E-002
  -4.3939043629274829E-003   1.8316670670190383E-003   7.2957026262620212E-002
  -4.1885481562270177E-003   1.8086347559056887E-003   7.3574763594807815E-002
  -3.9831919495265577E-003   1.7676542229843294E-003   7.4407903574969986E-002
  -3.7778357428260891E-003   1.7087254682547348E-003   7.5456446203106597E-002
  -1.0124941381761541E-002   3.6735023182724313E-003   6.4104391590208906E-002
  -9.6941360850978098E-003   3.6633341393462054E-003   6.3563430147289157E-002
  -9.2633307884340804E-003   3.6172695166491395E-003   6.3257964236321407E-002
  -8.8325254917703440E-003   3.5353084501816828E-003   6.3187993857305724E-002
  -8.4017201951066146E-003   3.4174509399435282E-003   6.3353519010241999E-002
  -1.6577042430227347E-002   5.5102534802205089E-003   5.5657981623371031E-002
  -1.5900695159622866E-002   5.4950012116732824E-003   5.4155775831355835E-002
  -1.5224347889018407E-002   5.4259042773926701E-003   5.2909158455270264E-002
  -1.4548000618413930E-002   5.3029626773790908E-003   5.1918129495114117E-002
  -1.3871653347809459E-002   5.1261764116322800E-003   5.1182688950887470E-002
  -2.3955563715025389E-002   7.3470046421685864E-003   4.7215461677893256E-002
  -2.3013581586502692E-002   7.3266682840003594E-003   4.4734063314820272E-002
  -2.2071599457979992E-002   7.2345390381361591E-003   4.2528346251654220E-002
  -2.1129617329457288E-002   7.0706169045765717E-003   4.0598310488395101E-002
  -2.0187635200934591E-002   6.8349018833210873E-003   3.8943956025043025E-002
   9.0321361501111141E-012  -3.4340863486193030E-012   8.7491470529481252E-002
   1.0450456472410607E-011  -1.9859114352982488E-012   8.9336606951939956E-002
   1.1868780264157053E-011   6.4587224457568482E-013   9.2277478144632108E-002
   1.3287100586456546E-011   4.4611675464878431E-012   9.6314084107557707E-002
   1.4705424378202991E-011   9.4600438593772651E-012  0.10144642484071714     
  -3.7778357428260891E-003   1.7087254682547348E-003   7.5456446203106597E-002
  -2.8987086732319041E-003   1.6439185609591345E-003   7.6242022182014785E-002
  -2.0195816036377226E-003   1.5853035703389112E-003   7.7690117527041247E-002
  -1.1404545340435290E-003   1.5328804963947971E-003   7.9800732238185776E-002
  -2.6132746444934921E-004   1.4866493391261226E-003   8.2573866315448607E-002
  -8.4017201951066146E-003   3.4174509399435282E-003   6.3353519010241999E-002
  -7.0766814614519457E-003   3.2878371239039861E-003   6.3085726461091854E-002
  -5.7516427277972812E-003   3.1706071400322278E-003   6.3047237873944728E-002
  -4.4266039941426149E-003   3.0657609883282602E-003   6.3238053248800219E-002
  -3.1015652604879478E-003   2.9732986687920626E-003   6.3658172585658604E-002
  -1.3871653347809459E-002   5.1261764116322800E-003   5.1182688950887470E-002
  -1.2533918354209686E-002   4.9317556868490181E-003   4.9867719789171275E-002
  -1.1196183360609921E-002   4.7559107097254055E-003   4.8348839185342517E-002
  -9.8584483670101503E-003   4.5986414802617510E-003   4.6626047139401008E-002
  -8.5207133734103799E-003   4.4599479984579055E-003   4.4699343651347173E-002
  -2.0187635200934591E-002   6.8349018833210873E-003   3.8943956025043025E-002
  -1.9270419351505110E-002   6.5756742497938558E-003   3.6588002166252798E-002
  -1.8353203502075616E-002   6.3412142794186110E-003   3.3594921461234495E-002
  -1.7435987652646132E-002   6.1315219721953876E-003   2.9964713909988269E-002
  -1.6518771803216641E-002   5.9465973281240259E-003   2.5697379512514107E-002
   1.4705424378202991E-011   9.4600438593772651E-012  0.10144642484071714     
   1.3978262991543033E-011   1.7217116621282003E-011  0.10718907523027826     
   1.3251108543776979E-011   2.9306460036515602E-011  0.11507223110835138     
   1.2523945422393545E-011   4.5728785341703215E-011  0.12509589247493602     
   1.1796785770457063E-011   6.6483707428233174E-011  0.13726005933003260     
  -2.6132746444934921E-004   1.4866493391261226E-003   8.2573866315448607E-002
   1.4295118547622051E-003   1.5248410310176319E-003   8.5369267112541614E-002
   3.1203511739737611E-003   1.7256865045538888E-003   8.9405841061000330E-002
   4.8111904931853093E-003   2.0891857597350842E-003   9.4683588160824700E-002
   6.5020298123968714E-003   2.6153387965610619E-003  0.10120250841201439     
  -3.1015652604879478E-003   2.9732986687920626E-003   6.3658172585658604E-002
  -6.1921895848383521E-004   3.0496820448182582E-003   6.3668977567595667E-002
   1.8631273435202791E-003   3.4513729798013107E-003   6.4021623363752084E-002
   4.3454736455244003E-003   4.1783714737414646E-003   6.4716109974127994E-002
   6.8278199475285059E-003   5.2306775266385275E-003   6.5752437398723718E-002
  -8.5207133734103799E-003   4.4599479984579055E-003   4.4699343651347173E-002
  -6.1461924257598648E-003   4.5745230586187180E-003   4.2088206595440353E-002
  -3.7716714781093359E-003   5.1770594550486250E-003   3.8919578016606740E-002
  -1.3971505304588138E-003   6.2675571877477488E-003   3.5193457914846647E-002
   9.7737041719170824E-004   7.8460162567159930E-003   3.0909846290159831E-002
  -1.6518771803216641E-002   5.9465973281240259E-003   2.5697379512514107E-002
  -1.5151408547065856E-002   6.0993640724194553E-003   2.0626954196075686E-002
  -1.3784045290915075E-002   6.9027459302959532E-003   1.4099705019564285E-002
  -1.2416682034764299E-002   8.3567429017541751E-003   6.1156319829801103E-003
  -1.1049318778613509E-002   1.0461354986793348E-002  -3.3252649136765733E-003
  -2.6625683372825462E-002   0.0000000000000000        2.9532659792759465E-002
  -2.7219147840644692E-002   5.7679836736368971E-004   3.5009504226222746E-002
  -2.7812612308463922E-002   1.3010855360244006E-003   4.0183853387171072E-002
  -2.8406076776283155E-002   2.1728615059821415E-003   4.5055707275604449E-002
  -2.8999541244102384E-002   3.1921262772369001E-003   4.9625065891522879E-002
  -3.3389936863127148E-002   0.0000000000000000        3.0231728185409340E-002
  -3.4221531109425829E-002   9.4681617592345772E-004   3.5321051228632133E-002
  -3.5053125355724510E-002   1.9970990665246829E-003   4.0236609987410986E-002
  -3.5884719602023177E-002   3.1508486718036799E-003   4.4978404461745884E-002
  -3.6716313848321851E-002   4.4080649917604400E-003   4.9546434651636863E-002
  -4.0731554995692226E-002   0.0000000000000000        3.1322825429928612E-002
  -4.1672548032399337E-002   1.3168339844832249E-003   3.5980604996291667E-002
  -4.2613541069106455E-002   2.6931125970249643E-003   4.0593351266281781E-002
  -4.3554534105813565E-002   4.1288358376252192E-003   4.5161064239898976E-002
  -4.4495527142520676E-002   5.6240037062839834E-003   4.9683743917143239E-002
  -4.8650537770520690E-002   0.0000000000000000        3.2805951526317281E-002
  -4.9572198609565229E-002   1.6868517930429916E-003   3.6988165529201325E-002
  -5.0493859448609762E-002   3.3891261275252431E-003   4.1254077223783464E-002
  -5.1415520287654309E-002   5.1068230034467584E-003   4.5603686610063678E-002
  -5.2337181126698835E-002   6.8399424208075285E-003   5.0036993688041979E-002
  -5.7146885187612545E-002   0.0000000000000000        3.4681106474575334E-002
  -5.7920482840923500E-002   2.0568696016027600E-003   3.8343732827361136E-002
  -5.8694080494234448E-002   4.0851396580255262E-003   4.2218787859916028E-002
  -5.9467678147545396E-002   6.0848101692682968E-003   4.6306271572240029E-002
  -6.0241275800856350E-002   8.0558811353310666E-003   5.0606183964333092E-002
  -2.8999541244102384E-002   3.1921262772369001E-003   4.9625065891522879E-002
  -2.9074053443743871E-002   4.2053434169800992E-003   5.1729068637965246E-002
  -2.9148565643385357E-002   5.0589764924031016E-003   5.3913808798180723E-002
  -2.9223077843026846E-002   5.7530255035059411E-003   5.6179286372169325E-002
  -2.9297590042668332E-002   6.2874904502886117E-003   5.8525501359931058E-002
  -3.6716313848321851E-002   4.4080649917604400E-003   4.9546434651636863E-002
  -3.6742151337484603E-002   5.6308840889812278E-003   5.1390011392570559E-002
  -3.6767988826647363E-002   6.6814420260522776E-003   5.3250200140688597E-002
  -3.6793826315810102E-002   7.5597388029735946E-003   5.5127000895990964E-002
  -3.6819663804972862E-002   8.2657744197452004E-003   5.7020413658477737E-002
  -4.4495527142520676E-002   5.6240037062839834E-003   4.9683743917143239E-002
  -4.4536815327793459E-002   7.0564247609823712E-003   5.1254217556738674E-002
  -4.4578103513066243E-002   8.3039075597014528E-003   5.2777177796929711E-002
  -4.4619391698339020E-002   9.3664521024412542E-003   5.4252624637716317E-002
  -4.4660679883611810E-002   1.0244058389201779E-002   5.5680558079098517E-002
  -5.2337181126698835E-002   6.8399424208075285E-003   5.0036993688041979E-002
  -5.2458045414670418E-002   8.4819654329834956E-003   5.1321687130469640E-002
  -5.2578909702642007E-002   9.9263730933506367E-003   5.2494741766904107E-002
  -5.2699773990613596E-002   1.1173165401908911E-002   5.3556157597345368E-002
  -5.2820638278585186E-002   1.2222342358658362E-002   5.4505934621793484E-002
  -6.0241275800856350E-002   8.0558811353310666E-003   5.0606183964333092E-002
  -6.0505841598115499E-002   9.9075061049846442E-003   5.1592420113763394E-002
  -6.0770407395374655E-002   1.1548838626999796E-002   5.2402892050611743E-002
  -6.1034973192633804E-002   1.2979878701376560E-002   5.3037599774878132E-002
  -6.1299538989892953E-002   1.4200626328114939E-002   5.3496543286562552E-002
  -2.9297590042668332E-002   6.2874904502886117E-003   5.8525501359931058E-002
  -2.9010415550859724E-002   6.7185238001709231E-003   5.9227549649683867E-002
  -2.8723241059051122E-002   7.1022780205726114E-003   5.9940062426533311E-002
  -2.8436066567242516E-002   7.4387531114937771E-003   6.0663039690479391E-002
  -2.8148892075433918E-002   7.7279490729342953E-003   6.1396481441522113E-002
  -3.6819663804972862E-002   8.2657744197452004E-003   5.7020413658477737E-002
  -3.6453614800309536E-002   8.8242014326124878E-003   5.7386812069084470E-002
  -3.6087565795646197E-002   9.2596723978208527E-003   5.7900495018304042E-002
  -3.5721516790982857E-002   9.5721873153703993E-003   5.8561462506136440E-002
  -3.5355467786319532E-002   9.7617461852609749E-003   5.9369714532581622E-002
  -4.4660679883611810E-002   1.0244058389201779E-002   5.5680558079098517E-002
  -4.4078936314577551E-002   1.0929879065054044E-002   5.5635629692380922E-002
  -4.3497192745543305E-002   1.1417066775069120E-002   5.5874805895792322E-002
  -4.2915449176509059E-002   1.1705621519247006E-002   5.6398086689332758E-002
  -4.2333705607474799E-002   1.1795543297587675E-002   5.7205472073002181E-002
  -5.2820638278585186E-002   1.2222342358658362E-002   5.4505934621793484E-002
  -5.1886380093663816E-002   1.3035556697495603E-002   5.3974002519573190E-002
  -5.0952121908742445E-002   1.3574461152317382E-002   5.3862995058998102E-002
  -5.0017863723821075E-002   1.3839055723123592E-002   5.4172912240068267E-002
  -4.9083605538899726E-002   1.3829340409914393E-002   5.4903754062783569E-002
  -6.1299538989892953E-002   1.4200626328114939E-002   5.3496543286562552E-002
  -5.9875946137568289E-002   1.5141234329937161E-002   5.2401930550661301E-002
  -5.8452353285243633E-002   1.5731855529565630E-002   5.1865062507921472E-002
  -5.7028760432918955E-002   1.5972489927000261E-002   5.1885939158342970E-002
  -5.5605167580594292E-002   1.5863137522241083E-002   5.2464560501925911E-002
  -2.8148892075433918E-002   7.7279490729342953E-003   6.1396481441522113E-002
  -2.7663712010330528E-002   7.9308366264368019E-003   6.0637171115156027E-002
  -2.7178531945227152E-002   8.0083864935439932E-003   5.9411366606184297E-002
  -2.6693351880123763E-002   7.9605986742557547E-003   5.7719067914606847E-002
  -2.6208171815020390E-002   7.7874731685722010E-003   5.5560275040423796E-002
  -3.5355467786319532E-002   9.7617461852609749E-003   5.9369714532581622E-002
  -3.5159905917014643E-002   9.8415164525397225E-003   5.8904638660773043E-002
  -3.4964344047709733E-002   9.8246655622537225E-003   5.8326820579973133E-002
  -3.4768782178404838E-002   9.7111935144028674E-003   5.7636260290181929E-002
  -3.4573220309099935E-002   9.5011003089873203E-003   5.6832957791399408E-002
  -4.2333705607474799E-002   1.1795543297587675E-002   5.7205472073002181E-002
  -4.2074009960354000E-002   1.1752196278642664E-002   5.7063347184581573E-002
  -4.1814314313233208E-002   1.1640944630963450E-002   5.7162232060784093E-002
  -4.1554618666112431E-002   1.1461788354550060E-002   5.7502126701609639E-002
  -4.1294923018991625E-002   1.1214727449402440E-002   5.8083031107058314E-002
  -4.9083605538899726E-002   1.3829340409914393E-002   5.4903754062783569E-002
  -4.8406024140348669E-002   1.3662876104745595E-002   5.5113296686581645E-002
  -4.7728442741797626E-002   1.3457223699673192E-002   5.5917601048617184E-002
  -4.7050861343246562E-002   1.3212383194697199E-002   5.7316667148890083E-002
  -4.6373279944695540E-002   1.2928354589817545E-002   5.9310494987400500E-002
  -5.5605167580594292E-002   1.5863137522241083E-002   5.2464560501925911E-002
  -5.4155948456998608E-002   1.5573555930848526E-002   5.3054487166773218E-002
  -5.2706729333402910E-002   1.5273502768382914E-002   5.4592927543472294E-002
  -5.1257510209807212E-002   1.4962978034844353E-002   5.7079881632023190E-002
  -4.9808291086211556E-002   1.4641981730232678E-002   6.0515349432425980E-002
  -2.6208171815020390E-002   7.7874731685722010E-003   5.5560275040423796E-002
  -2.5645019790021643E-002   7.5830981240110618E-003   5.2969700456087648E-002
  -2.5081867765022886E-002   7.4415616880900703E-003   5.0715373367553884E-002
  -2.4518715740024139E-002   7.3628638608092822E-003   4.8797293774822365E-002
  -2.3955563715025389E-002   7.3470046421685864E-003   4.7215461677893256E-002
  -3.4573220309099935E-002   9.5011003089873203E-003   5.6832957791399408E-002
  -3.3723512626659694E-002   9.2508632041430894E-003   5.5875623136564162E-002
  -3.2873804944219445E-002   9.0169594580064294E-003   5.5155152300809529E-002
  -3.2024097261779218E-002   8.7993890705772501E-003   5.4671545284135627E-002
  -3.1174389579338959E-002   8.5981520418556556E-003   5.4424802086542295E-002
  -4.1294923018991625E-002   1.1214727449402440E-002   5.8083031107058314E-002
  -4.0258043355831573E-002   1.0918628284275214E-002   5.8712431131791226E-002
  -3.9221163692671548E-002   1.0592357227922788E-002   5.9479311298883147E-002
  -3.8184284029511475E-002   1.0235914280345301E-002   6.0383671608334091E-002
  -3.7147404366351444E-002   9.8492994415426416E-003   6.1425512060143891E-002
  -4.6373279944695540E-002   1.2928354589817545E-002   5.9310494987400500E-002
  -4.5248611977537337E-002   1.2586393364407221E-002   6.1480124441768959E-002
  -4.4123944010379133E-002   1.2167754997839120E-002   6.3687850361774739E-002
  -4.2999276043220944E-002   1.1672439490113339E-002   6.5933672747417904E-002
  -4.1874608076062747E-002   1.1100446841229697E-002   6.8217591598698196E-002
  -4.9808291086211556E-002   1.4641981730232678E-002   6.0515349432425980E-002
  -4.8695218491776895E-002   1.4254158444539394E-002   6.4178703066497395E-002
  -4.7582145897342255E-002   1.3743152767755534E-002   6.7780769489484360E-002
  -4.6469073302907615E-002   1.3108964699881355E-002   7.1321548701386989E-002
  -4.5356000708472968E-002   1.2351594240916641E-002   7.4801040702205279E-002
  -2.3955563715025389E-002   7.3470046421685864E-003   4.7215461677893256E-002
  -2.3013581586502692E-002   7.3266682840003594E-003   4.4734063314820272E-002
  -2.2071599457979992E-002   7.2345390381361591E-003   4.2528346251654220E-002
  -2.1129617329457288E-002   7.0706169045765717E-003   4.0598310488395101E-002
  -2.0187635200934591E-002   6.8349018833210873E-003   3.8943956025043025E-002
  -3.1174389579338959E-002   8.5981520418556556E-003   5.4424802086542295E-002
  -2.9956489091425960E-002   8.3818944466472201E-003   5.3130368170565295E-002
  -2.8738588603512923E-002   8.1192623597575730E-003   5.2112089673462009E-002
  -2.7520688115599889E-002   7.8102557811866175E-003   5.1369966595232394E-002
  -2.6302787627686886E-002   7.4548747109345892E-003   5.0903998935876521E-002
  -3.7147404366351444E-002   9.8492994415426416E-003   6.1425512060143891E-002
  -3.5653111400081351E-002   9.4371206092941640E-003   6.1343460987277471E-002
  -3.4158818433811272E-002   9.0039856813788691E-003   6.1538039452251440E-002
  -3.2664525467541179E-002   8.5498946577968280E-003   6.2009247455065850E-002
  -3.1170232501271097E-002   8.0748475385480079E-003   6.2757084995720636E-002
  -4.1874608076062747E-002   1.1100446841229697E-002   6.8217591598698196E-002
  -4.0103448512468901E-002   1.0492346771941038E-002   6.9373341764956742E-002
  -3.8332288948875040E-002   9.8887090030001686E-003   7.0806195588022508E-002
  -3.6561129385281187E-002   9.2895335344069553E-003   7.2516153067895342E-002
  -3.4789969821687326E-002   8.6948203661614126E-003   7.4503214204575285E-002
  -4.5356000708472968E-002   1.2351594240916641E-002   7.4801040702205279E-002
  -4.3307500428588608E-002   1.1547572934588024E-002   7.7220010503603220E-002
  -4.1259000148704227E-002   1.0773432324621537E-002   7.9916558080775107E-002
  -3.9210499868819845E-002   1.0029172411017102E-002   8.2890683433720816E-002
  -3.7161999588935499E-002   9.3147931937748729E-003   8.6142386562440387E-002
  -2.0187635200934591E-002   6.8349018833210873E-003   3.8943956025043025E-002
  -1.9270419351505110E-002   6.5756742497938558E-003   3.6588002166252798E-002
  -1.8353203502075616E-002   6.3412142794186110E-003   3.3594921461234495E-002
  -1.7435987652646132E-002   6.1315219721953876E-003   2.9964713909988269E-002
  -1.6518771803216641E-002   5.9465973281240259E-003   2.5697379512514107E-002
  -2.6302787627686886E-002   7.4548747109345892E-003   5.0903998935876521E-002
  -2.5789955074612229E-002   7.0673769702575551E-003   5.0031950587118929E-002
  -2.5277122521537590E-002   6.6620203804115263E-003   4.8988262491879722E-002
  -2.4764289968462954E-002   6.2388049413968083E-003   4.7772934650158715E-002
  -2.4251457415388297E-002   5.7977306532132622E-003   4.6385967061955968E-002
  -3.1170232501271097E-002   8.0748475385480079E-003   6.2757084995720636E-002
  -3.0596296144805080E-002   7.5590796907210461E-003   6.3326315644674974E-002
  -3.0022359788339052E-002   6.9828264814044833E-003   6.4189393646893939E-002
  -2.9448423431873021E-002   6.3460879105983366E-003   6.5346319002377418E-002
  -2.8874487075407046E-002   5.6488639783024153E-003   6.6797091711125231E-002
  -3.4789969821687326E-002   8.6948203661614126E-003   7.4503214204575285E-002
  -3.3689442562083671E-002   8.0507824111846690E-003   7.6471097338920754E-002
  -3.2588915302480016E-002   7.3036325823974749E-003   7.9198314926276991E-002
  -3.1488388042876354E-002   6.4533708797996445E-003   8.2684866966643886E-002
  -3.0387860783272675E-002   5.4999973033914989E-003   8.6930753460021618E-002
  -3.7161999588935499E-002   9.3147931937748729E-003   8.6142386562440387E-002
  -3.5069394326447983E-002   8.5424851316482087E-003   8.9466295669856311E-002
  -3.2976789063960461E-002   7.6244386833903832E-003   9.4015026330029006E-002
  -3.0884183801472950E-002   6.5606538490013203E-003   9.9788578542958750E-002
  -2.8791578538985424E-002   5.3511306284808602E-003  0.10678695230864549     
  -1.6518771803216641E-002   5.9465973281240259E-003   2.5697379512514107E-002
  -1.5151408547065856E-002   6.0993640724194553E-003   2.0626954196075686E-002
  -1.3784045290915075E-002   6.9027459302959532E-003   1.4099705019564285E-002
  -1.2416682034764299E-002   8.3567429017541751E-003   6.1156319829801103E-003
  -1.1049318778613509E-002   1.0461354986793348E-002  -3.3252649136765733E-003
  -2.4251457415388297E-002   5.7977306532132622E-003   4.6385967061955968E-002
  -2.3813367332224812E-002   5.3535376998458117E-003   4.5283866700947140E-002
  -2.3375277249061306E-002   4.9209662652792557E-003   4.3780043854036860E-002
  -2.2937187165897793E-002   4.5000163495138822E-003   4.1874498521224338E-002
  -2.2499097082734336E-002   4.0906879525495210E-003   3.9567230702510559E-002
  -2.8874487075407046E-002   5.6488639783024153E-003   6.6797091711125231E-002
  -2.8310568791059733E-002   4.6077113272721404E-003   6.9024322710765793E-002
  -2.7746650506712430E-002   2.9391866002624958E-003   7.1904932598675947E-002
  -2.7182732222365166E-002   6.4328979727380949E-004   7.5438921374855167E-002
  -2.6618813938017814E-002  -2.2799790816943055E-003   7.9626289039303910E-002
  -3.0387860783272675E-002   5.4999973033914989E-003   8.6930753460021618E-002
  -2.8643012923570559E-002   3.8618849546984829E-003   9.1848322225531492E-002
  -2.6898165063868398E-002   9.5740693524576717E-004   9.8474371253481768E-002
  -2.5153317204166262E-002  -3.2134367549664844E-003  0.10680890054387221     
  -2.3408469344464115E-002  -8.6506461159381320E-003  0.11685191009670347     
  -2.8791578538985424E-002   5.3511306284808602E-003  0.10678695230864549     
  -2.4810699729757330E-002   3.1160585821248810E-003  0.11375586524524417     
  -2.0829820920529263E-002  -1.0243727297708921E-003  0.12348835981845427     
  -1.6848942111301148E-002  -7.0701633072065111E-003  0.13598443602827592     
  -1.2868063302073074E-002  -1.5021313150181959E-002  0.15124409387470905     
  -5.7146885187612545E-002   0.0000000000000000        3.4681106474575334E-002
  -5.7920482840923500E-002   2.0568696016027600E-003   3.8343732827361136E-002
  -5.8694080494234448E-002   4.0851396580255262E-003   4.2218787859916028E-002
  -5.9467678147545396E-002   6.0848101692682968E-003   4.6306271572240029E-002
  -6.0241275800856350E-002   8.0558811353310666E-003   5.0606183964333092E-002
  -6.5812989950540329E-002   0.0000000000000000        3.7177704538190401E-002
  -6.6603275236534795E-002   2.8930253095743822E-003   4.0805763313062147E-002
  -6.7393560522529261E-002   5.7280477322227833E-003   4.4188018142797762E-002
  -6.8183845808523727E-002   8.5050672679451954E-003   4.7324469027397259E-002
  -6.8974131094518193E-002   1.1224083916741626E-002   5.0215115966860617E-002
  -7.4241244762876579E-002   0.0000000000000000        4.0525159980650080E-002
  -7.5506450306459763E-002   3.7291810175460061E-003   4.4089247835861781E-002
  -7.6771655850042975E-002   7.3709558064200403E-003   4.6949299121032143E-002
  -7.8036861393626172E-002   1.0925324366622103E-002   4.9105313836161166E-002
  -7.9302066937209384E-002   1.4392286698152193E-002   5.0557291981248809E-002
  -8.2431649624621267E-002   0.0000000000000000        4.4723472801954385E-002
  -8.4630008050698424E-002   4.5653367255176274E-003   4.8194186395760050E-002
  -8.6828366476775595E-002   9.0138638806173000E-003   5.0502630794619141E-002
  -8.9026724902852725E-002   1.3345581465299003E-002   5.1648805998531680E-002
  -9.1225083328929882E-002   1.7560489479562763E-002   5.1632712007497673E-002
  -9.0384204535774421E-002   0.0000000000000000        4.9772643002103302E-002
  -9.3973948469250751E-002   5.4014924334892522E-003   5.3120578992756948E-002
  -9.7563692402727081E-002   1.0656771954814553E-002   5.4848013163558799E-002
 -0.10115343633620340        1.5765838563975905E-002   5.4954945514508892E-002
 -0.10474318026967974        2.0728692260973312E-002   5.3441376045607177E-002
  -6.0241275800856350E-002   8.0558811353310666E-003   5.0606183964333092E-002
  -6.0505841598115499E-002   9.9075061049846442E-003   5.1592420113763394E-002
  -6.0770407395374655E-002   1.1548838626999796E-002   5.2402892050611743E-002
  -6.1034973192633804E-002   1.2979878701376560E-002   5.3037599774878132E-002
  -6.1299538989892953E-002   1.4200626328114939E-002   5.3496543286562552E-002
  -6.8974131094518193E-002   1.1224083916741626E-002   5.0215115966860617E-002
  -6.9187569472568544E-002   1.3638738667306546E-002   4.9452656520464620E-002
  -6.9401007850618882E-002   1.5502672508334432E-002   4.8968216125068201E-002
  -6.9614446228669219E-002   1.6815885439825280E-002   4.8761794780671351E-002
  -6.9827884606719570E-002   1.7578377461779059E-002   4.8833392487274085E-002
  -7.9302066937209384E-002   1.4392286698152193E-002   5.0557291981248809E-002
  -7.9010594632469372E-002   1.7369971229628453E-002   4.7705708477127892E-002
  -7.8719122327729374E-002   1.9456506389669049E-002   4.5585927287588077E-002
  -7.8427650022989390E-002   2.0651892178273980E-002   4.4197948412629348E-002
  -7.8136177718249364E-002   2.0956128595443223E-002   4.3541771852251748E-002
  -9.1225083328929882E-002   1.7560489479562763E-002   5.1632712007497673E-002
  -8.9974917077818031E-002   2.1101203791950365E-002   4.6351575983753168E-002
  -8.8724750826706153E-002   2.3410340271003680E-002   4.2256025538171316E-002
  -8.7474584575594289E-002   2.4487898916722674E-002   3.9346060670752102E-002
  -8.6224418324482438E-002   2.4333879729107354E-002   3.7621681381495520E-002
 -0.10474318026967974        2.0728692260973312E-002   5.3441376045607177E-002
 -0.10208053680861447        2.4832436354272264E-002   4.5390259040340497E-002
  -9.9417893347549219E-002   2.7364174152338296E-002   3.8978510876818001E-002
  -9.6755249886483943E-002   2.8323905655171396E-002   3.4206131555039647E-002
  -9.4092606425418668E-002   2.7711630862771522E-002   3.1073121075005428E-002
  -6.1299538989892953E-002   1.4200626328114939E-002   5.3496543286562552E-002
  -5.9875946137568289E-002   1.5141234329937161E-002   5.2401930550661301E-002
  -5.8452353285243633E-002   1.5731855529565630E-002   5.1865062507921472E-002
  -5.7028760432918955E-002   1.5972489927000261E-002   5.1885939158342970E-002
  -5.5605167580594292E-002   1.5863137522241083E-002   5.2464560501925911E-002
  -6.9827884606719570E-002   1.7578377461779059E-002   4.8833392487274085E-002
  -6.7913643049139466E-002   1.7959607469126417E-002   4.7610841307828861E-002
  -6.5999401491559306E-002   1.8129034356797968E-002   4.6811842845733177E-002
  -6.4085159933979202E-002   1.8086658124793736E-002   4.6436397100986952E-002
  -6.2170918376399049E-002   1.7832478773113641E-002   4.6484504073590310E-002
  -7.8136177718249364E-002   2.0956128595443223E-002   4.3541771852251748E-002
  -7.5865479431225680E-002   2.0777980608315705E-002   4.2329465911780523E-002
  -7.3594781144201996E-002   2.0526213184030376E-002   4.1406520712846930E-002
  -7.1324082857178270E-002   2.0200826322587170E-002   4.0772936255451038E-002
  -6.9053384570154586E-002   1.9801820023986186E-002   4.0428712539592661E-002
  -8.6224418324482438E-002   2.4333879729107354E-002   3.7621681381495520E-002
  -8.3731455283827055E-002   2.3596353747504989E-002   3.6557804362516301E-002
  -8.1238492243171631E-002   2.2923392011262714E-002   3.5649096109262847E-002
  -7.8745529202516248E-002   2.2314994520380639E-002   3.4895556621735123E-002
  -7.6252566161860824E-002   2.1771161274858709E-002   3.4297185899933191E-002
  -9.4092606425418668E-002   2.7711630862771522E-002   3.1073121075005428E-002
  -9.1511570606943482E-002   2.6414726886694252E-002   3.0295856660036237E-002
  -8.8930534788468268E-002   2.5320570838495100E-002   2.9539569034980825E-002
  -8.6349498969993069E-002   2.4429162718174101E-002   2.8804258199839353E-002
  -8.3768463151517841E-002   2.3740502525731275E-002   2.8089924154611715E-002
  -5.5605167580594292E-002   1.5863137522241083E-002   5.2464560501925911E-002
  -5.4155948456998608E-002   1.5573555930848526E-002   5.3054487166773218E-002
  -5.2706729333402910E-002   1.5273502768382914E-002   5.4592927543472294E-002
  -5.1257510209807212E-002   1.4962978034844353E-002   5.7079881632023190E-002
  -4.9808291086211556E-002   1.4641981730232678E-002   6.0515349432425980E-002
  -6.2170918376399049E-002   1.7832478773113641E-002   4.6484504073590310E-002
  -5.9939055862847972E-002   1.7476930332104207E-002   4.6591141703562461E-002
  -5.7707193349296859E-002   1.7130446832111811E-002   4.7314552401593588E-002
  -5.5475330835745754E-002   1.6793028273136577E-002   4.8654736167683732E-002
  -5.3243468322194634E-002   1.6464674655178396E-002   5.0611693001832853E-002
  -6.9053384570154586E-002   1.9801820023986186E-002   4.0428712539592661E-002
  -6.6370619310440887E-002   1.9380304733359832E-002   4.0071597646779845E-002
  -6.3687854050727188E-002   1.8987390895840731E-002   3.9999515178233164E-002
  -6.1005088791013538E-002   1.8623078511428796E-002   4.0212465133952685E-002
  -5.8322323531299833E-002   1.8287367580124114E-002   4.0710447513938403E-002
  -7.6252566161860824E-002   2.1771161274858709E-002   3.4297185899933191E-002
  -7.3450638799777382E-002   2.1283679134615457E-002   3.3495854996425448E-002
  -7.0648711437693912E-002   2.0844334959569638E-002   3.2647815873391058E-002
  -6.7846784075610456E-002   2.0453128749721116E-002   3.1753068530829959E-002
  -6.5044856713526999E-002   2.0110060505069818E-002   3.0811612968742345E-002
  -8.3768463151517841E-002   2.3740502525731275E-002   2.8089924154611715E-002
  -8.1179114330857421E-002   2.3187053535871124E-002   2.6863913752499205E-002
  -7.8589765510197016E-002   2.2701279023298573E-002   2.5259454487067200E-002
  -7.6000416689536610E-002   2.2283178988013234E-002   2.3276546358315785E-002
  -7.3411067868876190E-002   2.1932753430015550E-002   2.0915189366244924E-002
  -4.9808291086211556E-002   1.4641981730232678E-002   6.0515349432425980E-002
  -4.8695218491776895E-002   1.4254158444539394E-002   6.4178703066497395E-002
  -4.7582145897342255E-002   1.3743152767755534E-002   6.7780769489484360E-002
  -4.6469073302907615E-002   1.3108964699881355E-002   7.1321548701386989E-002
  -4.5356000708472968E-002   1.2351594240916641E-002   7.4801040702205279E-002
  -5.3243468322194634E-002   1.6464674655178396E-002   5.0611693001832853E-002
  -5.2138685569818856E-002   1.6079085859803832E-002   5.2561007188337699E-002
  -5.1033902817443050E-002   1.5569961768579381E-002   5.4555028901809174E-002
  -4.9929120065067209E-002   1.4937302381505048E-002   5.6593758142247340E-002
  -4.8824337312691438E-002   1.4181107698580830E-002   5.8677194909652342E-002
  -5.8322323531299833E-002   1.8287367580124114E-002   4.0710447513938403E-002
  -5.7119835882931735E-002   1.7904013275068340E-002   4.0945369348117079E-002
  -5.5917348234563652E-002   1.7396770769403228E-002   4.1330993447313571E-002
  -5.4714860586195568E-002   1.6765640063128768E-002   4.1867319811527831E-002
  -5.3512372937827457E-002   1.6010621156244936E-002   4.2554348440760045E-002
  -6.5044856713526999E-002   2.0110060505069818E-002   3.0811612968742345E-002
  -6.3638669431115527E-002   1.9728940690332868E-002   2.9331789545835499E-002
  -6.2232482148704096E-002   1.9223579770227046E-002   2.8108663125997555E-002
  -6.0826294866292631E-002   1.8593977744752528E-002   2.7142233709228511E-002
  -5.9420107583881228E-002   1.7840134613909084E-002   2.6432501295528443E-002
  -7.3411067868876190E-002   2.1932753430015550E-002   2.0915189366244924E-002
  -7.1695186214370252E-002   2.1553868105597396E-002   1.7720267781492993E-002
  -6.9979304559864369E-002   2.1050388771050935E-002   1.4888037937861157E-002
  -6.8263422905358431E-002   2.0422315426376212E-002   1.2418499835349261E-002
  -6.6547541250852521E-002   1.9669648071573176E-002   1.0311653473957461E-002
  -4.5356000708472968E-002   1.2351594240916641E-002   7.4801040702205279E-002
  -4.3307500428588608E-002   1.1547572934588024E-002   7.7220010503603220E-002
  -4.1259000148704227E-002   1.0773432324621537E-002   7.9916558080775107E-002
  -3.9210499868819845E-002   1.0029172411017102E-002   8.2890683433720816E-002
  -3.7161999588935499E-002   9.3147931937748729E-003   8.6142386562440387E-002
  -4.8824337312691438E-002   1.4181107698580830E-002   5.8677194909652342E-002
  -4.6517297675785899E-002   1.3379927333801361E-002   5.9889149585630935E-002
  -4.4210258038880325E-002   1.2612310901161550E-002   6.1340605199877857E-002
  -4.1903218401974793E-002   1.1878258400661354E-002   6.3031561752393286E-002
  -3.9596178765069212E-002   1.1177769832300566E-002   6.4962019243177377E-002
  -5.3512372937827457E-002   1.6010621156244936E-002   4.2554348440760045E-002
  -5.0984870781406150E-002   1.5212281733014893E-002   4.2562971227096486E-002
  -4.8457368624984849E-002   1.4451189477701777E-002   4.2773018114196031E-002
  -4.5929866468563521E-002   1.3727344390305549E-002   4.3184489102058590E-002
  -4.3402364312142186E-002   1.3040746470826176E-002   4.3797384190684269E-002
  -5.9420107583881228E-002   1.7840134613909084E-002   2.6432501295528443E-002
  -5.6710219745449486E-002   1.7044636132228438E-002   2.5241475428000162E-002
  -5.4000331907017744E-002   1.6290068054242064E-002   2.4213796823729546E-002
  -5.1290444068586002E-002   1.5576430379949827E-002   2.3349465482716554E-002
  -4.8580556230154323E-002   1.4903723109351799E-002   2.2648481404961313E-002
  -6.6547541250852521E-002   1.9669648071573176E-002   1.0311653473957461E-002
  -6.3693344567915783E-002   1.8876990531441817E-002   7.9246621883417578E-003
  -6.0839147884979072E-002   1.8128946630782017E-002   5.6629413284784713E-003
  -5.7984951202042348E-002   1.7425516369594052E-002   3.5264908943672957E-003
  -5.5130754519105624E-002   1.6766699747877423E-002   1.5153108860084807E-003
  -3.7161999588935499E-002   9.3147931937748729E-003   8.6142386562440387E-002
  -3.5069394326447983E-002   8.5424851316482087E-003   8.9466295669856311E-002
  -3.2976789063960461E-002   7.6244386833903832E-003   9.4015026330029006E-002
  -3.0884183801472950E-002   6.5606538490013203E-003   9.9788578542958750E-002
  -2.8791578538985424E-002   5.3511306284808602E-003  0.10678695230864549     
  -3.9596178765069212E-002   1.1177769832300566E-002   6.4962019243177377E-002
  -3.6507517537230631E-002   1.0457653210395601E-002   6.6575877179568477E-002
  -3.3418856309392023E-002   9.6647165492627085E-003   6.8957025493904797E-002
  -3.0330195081553414E-002   8.7989598489016940E-003   7.2105464186186186E-002
  -2.7241533853714847E-002   7.8603831093128074E-003   7.6021193256413044E-002
  -4.3402364312142186E-002   1.3040746470826176E-002   4.3797384190684269E-002
  -3.9775178293764264E-002   1.2372821289142896E-002   4.3774109302954015E-002
  -3.6147992275386349E-002   1.1704994415134964E-002   4.4060593618357000E-002
  -3.2520806257008428E-002   1.1037265848802286E-002   4.4656837136893536E-002
  -2.8893620238630520E-002   1.0369635590144838E-002   4.5562839858563423E-002
  -4.8580556230154323E-002   1.4903723109351799E-002   2.2648481404961313E-002
  -4.4872376596048903E-002   1.4287989367890240E-002   2.1060992040012778E-002
  -4.1164196961943456E-002   1.3745272281007311E-002   1.9325730703385988E-002
  -3.7456017327838022E-002   1.3275571848702769E-002   1.7442697395080746E-002
  -3.3747837693732588E-002   1.2878888070976993E-002   1.5411892115097154E-002
  -5.5130754519105624E-002   1.6766699747877423E-002   1.5153108860084807E-003
  -5.1799112444084472E-002   1.6203157446637556E-002  -1.5634746092549334E-003
  -4.8467470369063279E-002   1.5785550146879532E-002  -5.2475632510084746E-003
  -4.5135828294042106E-002   1.5513877848603360E-002  -9.5369550392522401E-003
  -4.1804186219020961E-002   1.5388140551808926E-002  -1.4431649973986049E-002
  -2.8791578538985424E-002   5.3511306284808602E-003  0.10678695230864549     
  -2.4810699729757330E-002   3.1160585821248810E-003  0.11375586524524417     
  -2.0829820920529263E-002  -1.0243727297708921E-003  0.12348835981845427     
  -1.6848942111301148E-002  -7.0701633072065111E-003  0.13598443602827592     
  -1.2868063302073074E-002  -1.5021313150181959E-002  0.15124409387470905     
  -2.7241533853714847E-002   7.8603831093128074E-003   7.6021193256413044E-002
  -2.1176051572641817E-002   6.4260763268459420E-003   7.7696997302024673E-002
  -1.5110569291568808E-002   4.0731294978504640E-003   8.0778426654714769E-002
  -9.0450870104957989E-003   8.0154262232679657E-004   8.5265481314483180E-002
  -2.9796047294227690E-003  -3.3886842997250533E-003   9.1158161281330030E-002
  -2.8893620238630520E-002   1.0369635590144838E-002   4.5562839858563423E-002
  -2.2101490815245664E-002   9.7360940715667532E-003   4.2932254232199790E-002
  -1.5309361391860832E-002   9.1706317254718686E-003   4.0349337583381530E-002
  -8.5172319684760443E-003   8.6732485518603800E-003   3.7814089912108634E-002
  -1.7251025450911311E-003   8.2439445507320741E-003   3.5326511218380707E-002
  -3.3747837693732588E-002   1.2878888070976993E-002   1.5411892115097154E-002
  -2.7587017457569023E-002   1.3046111816287634E-002   9.4616360357695911E-003
  -2.1426197221405364E-002   1.4268133953093304E-002   2.2010926044543650E-003
  -1.5265376985241819E-002   1.6544954481393825E-002  -6.3697381788488383E-003
  -9.1045567490781916E-003   1.9876573401189146E-002  -1.6250856314139597E-002
  -4.1804186219020961E-002   1.5388140551808926E-002  -1.4431649973986049E-002
  -3.7632631499611713E-002   1.6356129561008736E-002  -2.2714857287265744E-002
  -3.3461076780202437E-002   1.9365636180714629E-002  -3.3666308282066432E-002
  -2.9289522060793188E-002   2.4416660410927382E-002  -4.7286002958387835E-002
  -2.5117967341383940E-002   3.1509202251646107E-002  -6.3573941316230176E-002
  -9.0384204535774421E-002   0.0000000000000000        4.9772643002103302E-002
  -9.3973948469250751E-002   5.4014924334892522E-003   5.3120578992756948E-002
  -9.7563692402727081E-002   1.0656771954814553E-002   5.4848013163558799E-002
 -0.10115343633620340        1.5765838563975905E-002   5.4954945514508892E-002
 -0.10474318026967974        2.0728692260973312E-002   5.3441376045607177E-002
 -0.10332401718883916        0.0000000000000000        5.8598205369702824E-002
 -0.10685523546093782        1.0877853276134556E-002   5.2041024381595954E-002
 -0.11038645373303647        1.9158361413282574E-002   4.7221396536096208E-002
 -0.11391767200513515        2.4841524411444056E-002   4.4139321833203564E-002
 -0.11744889027723382        2.7927342270619000E-002   4.2794800272918029E-002
 -0.12647619527631865        0.0000000000000000        7.4125694693358959E-002
 -0.12659083292458073        1.6354214118779860E-002   5.5212264499668963E-002
 -0.12670547057284282        2.7659950871750598E-002   4.1394442411045007E-002
 -0.12682010822110490        3.3917210258912200E-002   3.2672228427487036E-002
 -0.12693474586936698        3.5125992280264674E-002   2.9045622548995117E-002
 -0.15984073879821281        0.0000000000000000        9.6355110973071673E-002
 -0.15318074086017944        2.1830574961425164E-002   6.2634299346976008E-002
 -0.14652074292214612        3.6161540330218608E-002   3.7367150788405239E-002
 -0.13986074498411272        4.2992896106380352E-002   2.0553665297359386E-002
 -0.13320074704607932        4.2324642289910355E-002   1.2193842873838460E-002
 -0.20341764775452173        0.0000000000000000       0.12528645420884099     
 -0.18662495926773398        2.7306935804070471E-002   7.4307128923517041E-002
 -0.16983227078094629        4.4663129788686647E-002   3.5139521668176917E-002
 -0.15303958229415857        5.2068581953848503E-002   7.7836324428205567E-003
 -0.13624689380737082        4.9523292299556043E-002  -7.7605387525519487E-003
 -0.10474318026967974        2.0728692260973312E-002   5.3441376045607177E-002
 -0.10208053680861447        2.4832436354272264E-002   4.5390259040340497E-002
  -9.9417893347549219E-002   2.7364174152338296E-002   3.8978510876818001E-002
  -9.6755249886483943E-002   2.8323905655171396E-002   3.4206131555039647E-002
  -9.4092606425418668E-002   2.7711630862771522E-002   3.1073121075005428E-002
 -0.11744889027723382        2.7927342270619000E-002   4.2794800272918029E-002
 -0.11352370038047409        2.9383842701403345E-002   3.6470067270508721E-002
 -0.10959851048371437        3.0179053414393059E-002   3.1031058297744191E-002
 -0.10567332058695465        3.0312974409588106E-002   2.6477773354624451E-002
 -0.10174813069019492        2.9785605686988521E-002   2.2810212441149405E-002
 -0.12693474586936698        3.5125992280264674E-002   2.9045622548995117E-002
 -0.12250065434901224        3.3935249048534441E-002   2.5357990126881516E-002
 -0.11806656282865746        3.2993932676447832E-002   2.1802436922313224E-002
 -0.11363247130830265        3.2302043164004861E-002   1.8378962935290313E-002
 -0.10919837978794789        3.1859580511205528E-002   1.5087568165812797E-002
 -0.13320074704607932        4.2324642289910355E-002   1.2193842873838460E-002
 -0.12901139871422893        3.8486655395665495E-002   1.2054027609458780E-002
 -0.12482205038237847        3.5808811938502570E-002   1.1292646750525052E-002
 -0.12063270205052801        3.4291111918421581E-002   9.9097002970373032E-003
 -0.11644335371867756        3.3933555335422520E-002   7.9051882489955833E-003
 -0.13624689380737082        4.9523292299556043E-002  -7.7605387525519487E-003
 -0.13305593347612410        4.3038061742796591E-002  -3.4418202817593918E-003
 -0.12986497314487738        3.8623691200557336E-002  -4.9831221762015182E-004
 -0.12667401281363067        3.6280180672838329E-002   1.0699854398655267E-003
 -0.12348305248238395        3.6007530159639561E-002   1.2630726906978362E-003
  -9.4092606425418668E-002   2.7711630862771522E-002   3.1073121075005428E-002
  -9.1511570606943482E-002   2.6414726886694252E-002   3.0295856660036237E-002
  -8.8930534788468268E-002   2.5320570838495100E-002   2.9539569034980825E-002
  -8.6349498969993069E-002   2.4429162718174101E-002   2.8804258199839353E-002
  -8.3768463151517841E-002   2.3740502525731275E-002   2.8089924154611715E-002
 -0.10174813069019492        2.9785605686988521E-002   2.2810212441149405E-002
  -9.9153324985495714E-002   2.8941178700323034E-002   2.2345976848284037E-002
  -9.6558519280796520E-002   2.8123924903320316E-002   2.1888304237952769E-002
  -9.3963713576097341E-002   2.7333844295980406E-002   2.1437194610155551E-002
  -9.1368907871398092E-002   2.6570936878303322E-002   2.0992647964892475E-002
 -0.10919837978794789        3.1859580511205528E-002   1.5087568165812797E-002
 -0.10660421800440449        3.1467630513951808E-002   1.4760786656835950E-002
 -0.10401005622086107        3.0927278968145431E-002   1.4426154323013429E-002
 -0.10141589443731767        3.0238525873786681E-002   1.4083671164345240E-002
  -9.8821732653774280E-002   2.9401371230875349E-002   1.3733337180831248E-002
 -0.11644335371867756        3.3933555335422520E-002   7.9051882489955833E-003
 -0.11386424966366974        3.3994082327580590E-002   7.5402860856919763E-003
 -0.11128514560866191        3.3730633032970719E-002   7.1531192901627934E-003
 -0.10870604155365406        3.3143207451592986E-002   6.7436878624083114E-003
 -0.10612693749864624        3.2231805583447418E-002   6.3119918024281641E-003
 -0.12348305248238395        3.6007530159639561E-002   1.2630726906978362E-003
 -0.12093341996329149        3.6520534141209315E-002   6.8447513485209166E-004
 -0.11838378744419900        3.6533987097795810E-002   6.9199139400961951E-005
 -0.11583415492510650        3.6047889029399219E-002  -5.8275529565522503E-004
 -0.11328452240601405        3.5062239936019479E-002  -1.2713881703168006E-003
  -8.3768463151517841E-002   2.3740502525731275E-002   2.8089924154611715E-002
  -8.1179114330857421E-002   2.3187053535871124E-002   2.6863913752499205E-002
  -7.8589765510197016E-002   2.2701279023298573E-002   2.5259454487067200E-002
  -7.6000416689536610E-002   2.2283178988013234E-002   2.3276546358315785E-002
  -7.3411067868876190E-002   2.1932753430015550E-002   2.0915189366244924E-002
  -9.1368907871398092E-002   2.6570936878303322E-002   2.0992647964892475E-002
  -8.9055782739792394E-002   2.5876286915509472E-002   2.0104990773244458E-002
  -8.6742657608186752E-002   2.5290978672819462E-002   1.9043335066806555E-002
  -8.4429532476581026E-002   2.4815012150233455E-002   1.7807680845578707E-002
  -8.2116407344975342E-002   2.4448387347751233E-002   1.6398028109560911E-002
  -9.8821732653774280E-002   2.9401371230875349E-002   1.3733337180831248E-002
  -9.6580380862693771E-002   2.8565520295147771E-002   1.3225700442464291E-002
  -9.4339029071613248E-002   2.7880678322340577E-002   1.2748515537836883E-002
  -9.2097677280532794E-002   2.7346845312453624E-002   1.2301782466948886E-002
  -8.9856325489452257E-002   2.6964021265486832E-002   1.1885501229800519E-002
 -0.10612693749864624        3.2231805583447418E-002   6.3119918024281641E-003
 -0.10375290869956144        3.1254753674786195E-002   6.2260427601584156E-003
 -0.10137887990047667        3.0470377971861633E-002   6.3749959001578819E-003
  -9.9004851101391844E-002   2.9878678474673830E-002   6.7588512224264104E-003
  -9.6630822302307059E-002   2.9479655183222500E-002   7.3776087269639308E-003
 -0.11328452240601405        3.5062239936019479E-002  -1.2713881703168006E-003
 -0.11057336625039549        3.3943987054424446E-002  -8.9398227367276650E-004
 -0.10786221009477687        3.3060077621382536E-002  -7.7223846229990123E-005
 -0.10515105393915830        3.2410511636893846E-002   1.1788871120111954E-003
 -0.10243989778353968        3.1995289100958169E-002   2.8743506010510123E-003
  -7.3411067868876190E-002   2.1932753430015550E-002   2.0915189366244924E-002
  -7.1695186214370252E-002   2.1553868105597396E-002   1.7720267781492993E-002
  -6.9979304559864369E-002   2.1050388771050935E-002   1.4888037937861157E-002
  -6.8263422905358431E-002   2.0422315426376212E-002   1.2418499835349261E-002
  -6.6547541250852521E-002   1.9669648071573176E-002   1.0311653473957461E-002
  -8.2116407344975342E-002   2.4448387347751233E-002   1.6398028109560911E-002
  -8.0077605152620690E-002   2.4064236039190154E-002   1.3994262281965056E-002
  -7.8038802960266079E-002   2.3535689998367734E-002   1.1873645788946507E-002
  -7.6000000767911441E-002   2.2862749225283887E-002   1.0036178630505509E-002
  -7.3961198575556802E-002   2.2045413719938678E-002   8.4818608066417334E-003
  -8.9856325489452257E-002   2.6964021265486832E-002   1.1885501229800519E-002
  -8.7574145165791581E-002   2.6574603972782967E-002   1.0253090437227573E-002
  -8.5291964842130863E-002   2.6020991225684638E-002   8.8242865726893133E-003
  -8.3009784518470159E-002   2.5303183024191614E-002   7.5990896361859510E-003
  -8.0727604194809482E-002   2.4421179368304208E-002   6.5774996277173647E-003
  -9.6630822302307059E-002   2.9479655183222500E-002   7.3776087269639308E-003
  -9.4184806253882911E-002   2.9084971906375837E-002   6.4967522472806905E-003
  -9.1738790205458748E-002   2.8506292453001545E-002   5.7399602890896486E-003
  -8.9292774157034571E-002   2.7743616823099400E-002   5.1072328523908599E-003
  -8.6846758108610395E-002   2.6796945016669613E-002   4.5985699371839488E-003
 -0.10243989778353968        3.1995289100958169E-002   2.8743506010510123E-003
  -9.9909588416894679E-002   3.1595339839968428E-002   2.7252477121244012E-003
  -9.7379279050249679E-002   3.0991593680318230E-002   2.6206669381473868E-003
  -9.4848969683604650E-002   3.0184050622007019E-002   2.5606082791200385E-003
  -9.2318660316959678E-002   2.9172710665035129E-002   2.5450717350419261E-003
  -6.6547541250852521E-002   1.9669648071573176E-002   1.0311653473957461E-002
  -6.3693344567915783E-002   1.8876990531441817E-002   7.9246621883417578E-003
  -6.0839147884979072E-002   1.8128946630782017E-002   5.6629413284784713E-003
  -5.7984951202042348E-002   1.7425516369594052E-002   3.5264908943672957E-003
  -5.5130754519105624E-002   1.6766699747877423E-002   1.5153108860084807E-003
  -7.3961198575556802E-002   2.2045413719938678E-002   8.4818608066417334E-003
  -7.0997193629908875E-002   2.1176585987860777E-002   6.7696710225704365E-003
  -6.8033188684260865E-002   2.0349168534578910E-002   5.1518273381694346E-003
  -6.5069183738612868E-002   1.9563161360092909E-002   3.6283297534384085E-003
  -6.2105178792964913E-002   1.8818564464402832E-002   2.1991782683777605E-003
  -8.0727604194809482E-002   2.4421179368304208E-002   6.5774996277173647E-003
  -7.7684715312532349E-002   2.3476181444279570E-002   5.5369079845148036E-003
  -7.4641826430255243E-002   2.2569390438375636E-002   4.5597381149003052E-003
  -7.1598937547978081E-002   2.1700806350591711E-002   3.6459900188740603E-003
  -6.8556048665700947E-002   2.0870429180928213E-002   2.7956636964357462E-003
  -8.6846758108610395E-002   2.6796945016669613E-002   4.5985699371839488E-003
  -8.3755909615786231E-002   2.5775776900698530E-002   4.2263730741748037E-003
  -8.0665061122962123E-002   2.4789612342171946E-002   3.8866736586712983E-003
  -7.7574212630137945E-002   2.3838451341090403E-002   3.5794716906740361E-003
  -7.4483364137313823E-002   2.2922293897453802E-002   3.3047671701827742E-003
  -9.2318660316959678E-002   2.9172710665035129E-002   2.5450717350419261E-003
  -8.9210776539670578E-002   2.8075372357117379E-002   2.8380662915501453E-003
  -8.6102892762381533E-002   2.7009834245969172E-002   3.1326339694825178E-003
  -8.2995008985092406E-002   2.5976096331589461E-002   3.4287747688381068E-003
  -7.9887125207803389E-002   2.4974158613979003E-002   3.7264886896182237E-003
  -5.5130754519105624E-002   1.6766699747877423E-002   1.5153108860084807E-003
  -5.1799112444084472E-002   1.6203157446637556E-002  -1.5634746092549334E-003
  -4.8467470369063279E-002   1.5785550146879532E-002  -5.2475632510084746E-003
  -4.5135828294042106E-002   1.5513877848603360E-002  -9.5369550392522401E-003
  -4.1804186219020961E-002   1.5388140551808926E-002  -1.4431649973986049E-002
  -6.2105178792964913E-002   1.8818564464402832E-002   2.1991782683777605E-003
  -5.9229205454532960E-002   1.8183350630318174E-002  -4.4772992913277854E-005
  -5.6353232116101028E-002   1.7725492640648030E-002  -2.5947585808925727E-003
  -5.3477258777669109E-002   1.7444990495392523E-002  -5.4507784955602004E-003
  -5.0601285439237143E-002   1.7341844194551315E-002  -8.6128327369160429E-003
  -6.8556048665700947E-002   2.0870429180928213E-002   2.7956636964357462E-003
  -6.5836475244056419E-002   2.0163543813998694E-002   1.4179675120498808E-003
  -6.3116901822411794E-002   1.9665435134416424E-002   3.3505820777511575E-005
  -6.0397328400767239E-002   1.9376103142181467E-002  -1.3577213773811915E-003
  -5.7677754979122642E-002   1.9295547837293758E-002  -2.7557140824265025E-003
  -7.4483364137313823E-002   2.2922293897453802E-002   3.3047671701827742E-003
  -7.1620921812654698E-002   2.2143736997679152E-002   2.8247469056345148E-003
  -6.8758479487995586E-002   2.1605377628184649E-002   2.6372299540018962E-003
  -6.5896037163336460E-002   2.1307215788970740E-002   2.7422163152846990E-003
  -6.3033594838677348E-002   2.1249251480036008E-002   3.1397059894829743E-003
  -7.9887125207803389E-002   2.4974158613979003E-002   3.7264886896182237E-003
  -7.6582545160327919E-002   2.4123930181359776E-002   4.1755651878406241E-003
  -7.3277965112852395E-002   2.3545320121953373E-002   5.2164138187805464E-003
  -6.9973385065376897E-002   2.3238328435759639E-002   6.8490345824378171E-003
  -6.6668805017901400E-002   2.3202955122778479E-002   9.0734274788119018E-003
  -4.1804186219020961E-002   1.5388140551808926E-002  -1.4431649973986049E-002
  -3.7632631499611713E-002   1.6356129561008736E-002  -2.2714857287265744E-002
  -3.3461076780202437E-002   1.9365636180714629E-002  -3.3666308282066432E-002
  -2.9289522060793188E-002   2.4416660410927382E-002  -4.7286002958387835E-002
  -2.5117967341383940E-002   3.1509202251646107E-002  -6.3573941316230176E-002
  -5.0601285439237143E-002   1.7341844194551315E-002  -8.6128327369160429E-003
  -4.8186024252439522E-002   1.7549553272432850E-002  -1.3020523959187347E-002
  -4.5770763065641901E-002   1.8201617263344905E-002  -1.8272558565160968E-002
  -4.3355501878844287E-002   1.9298036167287369E-002  -2.4368936554837101E-002
  -4.0940240692046659E-002   2.0838809984260576E-002  -3.1309657928215162E-002
  -5.7677754979122642E-002   1.9295547837293758E-002  -2.7557140824265025E-003
  -5.5194887027118007E-002   1.8742976983856907E-002  -4.8850519111650337E-003
  -5.2712019075113414E-002   1.7037598345974958E-002  -6.0348328257876227E-003
  -5.0229151123108849E-002   1.4179411923647411E-002  -6.2050568262937873E-003
  -4.7746283171104145E-002   1.0168417716875155E-002  -5.3957239126838918E-003
  -6.3033594838677348E-002   2.1249251480036008E-002   3.1397059894829743E-003
  -5.8659219823647343E-002   1.9936400695280992E-002   1.6915588568009246E-003
  -5.4284844808617269E-002   1.5873579428605455E-002   3.0468689360537808E-003
  -4.9910469793587119E-002   9.0607876800079812E-003   7.2056362272415377E-003
  -4.5536094778557176E-002  -5.0197455051026463E-004   1.4167860730363774E-002
  -6.6668805017901400E-002   2.3202955122778479E-002   9.0734274788119018E-003
  -5.8579022642027301E-002   2.1129824406705522E-002   6.7093083447109514E-003
  -5.0489240266153201E-002   1.4709560511235426E-002   8.9725467203633780E-003
  -4.2399457890279157E-002   3.9421634363676419E-003   1.5863142605769091E-002
  -3.4309675514405003E-002  -1.1172366817895796E-002   2.7381096000927974E-002
 </DataArray>
 </PointData>
 </Piece>
 <Piece  NumberOfPoints="          1600 "  NumberOfCells="         1024 ">
 <Points>
 <DataArray  type="Float64" NumberOfComponents="3"  format="ascii" >
  0.50000000000000000        0.0000000000000000        0.0000000000000000     
  0.53125000000000000        0.0000000000000000        0.0000000000000000     
  0.56250000000000000        0.0000000000000000        0.0000000000000000     
  0.59375000000000000        0.0000000000000000        0.0000000000000000     
  0.62500000000000000        0.0000000000000000        0.0000000000000000     
  0.50000000000000000        3.1250000000000000E-002   0.0000000000000000     
  0.53125000000000000        3.1250000000000000E-002   0.0000000000000000     
  0.56250000000000000        3.1250000000000000E-002   0.0000000000000000     
  0.59375000000000000        3.1250000000000000E-002   0.0000000000000000     
  0.62500000000000000        3.1250000000000000E-002   0.0000000000000000     
  0.50000000000000000        6.2500000000000000E-002   0.0000000000000000     
  0.53125000000000000        6.2500000000000000E-002   0.0000000000000000     
  0.56250000000000000        6.2500000000000000E-002   0.0000000000000000     
  0.59375000000000000        6.2500000000000000E-002   0.0000000000000000     
  0.62500000000000000        6.2500000000000000E-002   0.0000000000000000     
  0.50000000000000000        9.3750000000000000E-002   0.0000000000000000     
  0.53125000000000000        9.3750000000000000E-002   0.0000000000000000     
  0.56250000000000000        9.3750000000000000E-002   0.0000000000000000     
  0.59375000000000000        9.3750000000000000E-002   0.0000000000000000     
  0.62500000000000000        9.3750000000000000E-002   0.0000000000000000     
  0.50000000000000000       0.12500000000000000        0.0000000000000000     
  0.53125000000000000       0.12500000000000000        0.0000000000000000     
  0.56250000000000000       0.12500000000000000        0.0000000000000000     
  0.59375000000000000       0.12500000000000000        0.0000000000000000     
  0.62500000000000000       0.12500000000000000        0.0000000000000000     
  0.62500000000000000        0.0000000000000000        0.0000000000000000     
  0.65625000000000000        0.0000000000000000        0.0000000000000000     
  0.68750000000000000        0.0000000000000000        0.0000000000000000     
  0.71875000000000000        0.0000000000000000        0.0000000000000000     
  0.75000000000000000        0.0000000000000000        0.0000000000000000     
  0.62500000000000000        3.1250000000000000E-002   0.0000000000000000     
  0.65625000000000000        3.1250000000000000E-002   0.0000000000000000     
  0.68750000000000000        3.1250000000000000E-002   0.0000000000000000     
  0.71875000000000000        3.1250000000000000E-002   0.0000000000000000     
  0.75000000000000000        3.1250000000000000E-002   0.0000000000000000     
  0.62500000000000000        6.2500000000000000E-002   0.0000000000000000     
  0.65625000000000000        6.2500000000000000E-002   0.0000000000000000     
  0.68750000000000000        6.2500000000000000E-002   0.0000000000000000     
  0.71875000000000000        6.2500000000000000E-002   0.0000000000000000     
  0.75000000000000000        6.2500000000000000E-002   0.0000000000000000     
  0.62500000000000000        9.3750000000000000E-002   0.0000000000000000     
  0.65625000000000000        9.3750000000000000E-002   0.0000000000000000     
  0.68750000000000000        9.3750000000000000E-002   0.0000000000000000     
  0.71875000000000000        9.3750000000000000E-002   0.0000000000000000     
  0.75000000000000000        9.3750000000000000E-002   0.0000000000000000     
  0.62500000000000000       0.12500000000000000        0.0000000000000000     
  0.65625000000000000       0.12500000000000000        0.0000000000000000     
  0.68750000000000000       0.12500000000000000        0.0000000000000000     
  0.71875000000000000       0.12500000000000000        0.0000000000000000     
  0.75000000000000000       0.12500000000000000        0.0000000000000000     
  0.75000000000000000        0.0000000000000000        0.0000000000000000     
  0.78125000000000000        0.0000000000000000        0.0000000000000000     
  0.81250000000000000        0.0000000000000000        0.0000000000000000     
  0.84375000000000000        0.0000000000000000        0.0000000000000000     
  0.87500000000000000        0.0000000000000000        0.0000000000000000     
  0.75000000000000000        3.1250000000000000E-002   0.0000000000000000     
  0.78125000000000000        3.1250000000000000E-002   0.0000000000000000     
  0.81250000000000000        3.1250000000000000E-002   0.0000000000000000     
  0.84375000000000000        3.1250000000000000E-002   0.0000000000000000     
  0.87500000000000000        3.1250000000000000E-002   0.0000000000000000     
  0.75000000000000000        6.2500000000000000E-002   0.0000000000000000     
  0.78125000000000000        6.2500000000000000E-002   0.0000000000000000     
  0.81250000000000000        6.2500000000000000E-002   0.0000000000000000     
  0.84375000000000000        6.2500000000000000E-002   0.0000000000000000     
  0.87500000000000000        6.2500000000000000E-002   0.0000000000000000     
  0.75000000000000000        9.3750000000000000E-002   0.0000000000000000     
  0.78125000000000000        9.3750000000000000E-002   0.0000000000000000     
  0.81250000000000000        9.3750000000000000E-002   0.0000000000000000     
  0.84375000000000000        9.3750000000000000E-002   0.0000000000000000     
  0.87500000000000000        9.3750000000000000E-002   0.0000000000000000     
  0.75000000000000000       0.12500000000000000        0.0000000000000000     
  0.78125000000000000       0.12500000000000000        0.0000000000000000     
  0.81250000000000000       0.12500000000000000        0.0000000000000000     
  0.84375000000000000       0.12500000000000000        0.0000000000000000     
  0.87500000000000000       0.12500000000000000        0.0000000000000000     
  0.87500000000000000        0.0000000000000000        0.0000000000000000     
  0.90625000000000000        0.0000000000000000        0.0000000000000000     
  0.93750000000000000        0.0000000000000000        0.0000000000000000     
  0.96875000000000000        0.0000000000000000        0.0000000000000000     
   1.0000000000000000        0.0000000000000000        0.0000000000000000     
  0.87500000000000000        3.1250000000000000E-002   0.0000000000000000     
  0.90625000000000000        3.1250000000000000E-002   0.0000000000000000     
  0.93750000000000000        3.1250000000000000E-002   0.0000000000000000     
  0.96875000000000000        3.1250000000000000E-002   0.0000000000000000     
   1.0000000000000000        3.1250000000000000E-002   0.0000000000000000     
  0.87500000000000000        6.2500000000000000E-002   0.0000000000000000     
  0.90625000000000000        6.2500000000000000E-002   0.0000000000000000     
  0.93750000000000000        6.2500000000000000E-002   0.0000000000000000     
  0.96875000000000000        6.2500000000000000E-002   0.0000000000000000     
   1.0000000000000000        6.2500000000000000E-002   0.0000000000000000     
  0.87500000000000000        9.3750000000000000E-002   0.0000000000000000     
  0.90625000000000000        9.3750000000000000E-002   0.0000000000000000     
  0.93750000000000000        9.3750000000000000E-002   0.0000000000000000     
  0.96875000000000000        9.3750000000000000E-002   0.0000000000000000     
   1.0000000000000000        9.3750000000000000E-002   0.0000000000000000     
  0.87500000000000000       0.12500000000000000        0.0000000000000000     
  0.90625000000000000       0.12500000000000000        0.0000000000000000     
  0.93750000000000000       0.12500000000000000        0.0000000000000000     
  0.96875000000000000       0.12500000000000000        0.0000000000000000     
   1.0000000000000000       0.12500000000000000        0.0000000000000000     
   1.0000000000000000        0.0000000000000000        0.0000000000000000     
   1.0312500000000000        0.0000000000000000        0.0000000000000000     
   1.0625000000000000        0.0000000000000000        0.0000000000000000     
   1.0937500000000000        0.0000000000000000        0.0000000000000000     
   1.1250000000000000        0.0000000000000000        0.0000000000000000     
   1.0000000000000000        3.1250000000000000E-002   0.0000000000000000     
   1.0312500000000000        3.1250000000000000E-002   0.0000000000000000     
   1.0625000000000000        3.1250000000000000E-002   0.0000000000000000     
   1.0937500000000000        3.1250000000000000E-002   0.0000000000000000     
   1.1250000000000000        3.1250000000000000E-002   0.0000000000000000     
   1.0000000000000000        6.2500000000000000E-002   0.0000000000000000     
   1.0312500000000000        6.2500000000000000E-002   0.0000000000000000     
   1.0625000000000000        6.2500000000000000E-002   0.0000000000000000     
   1.0937500000000000        6.2500000000000000E-002   0.0000000000000000     
   1.1250000000000000        6.2500000000000000E-002   0.0000000000000000     
   1.0000000000000000        9.3750000000000000E-002   0.0000000000000000     
   1.0312500000000000        9.3750000000000000E-002   0.0000000000000000     
   1.0625000000000000        9.3750000000000000E-002   0.0000000000000000     
   1.0937500000000000        9.3750000000000000E-002   0.0000000000000000     
   1.1250000000000000        9.3750000000000000E-002   0.0000000000000000     
   1.0000000000000000       0.12500000000000000        0.0000000000000000     
   1.0312500000000000       0.12500000000000000        0.0000000000000000     
   1.0625000000000000       0.12500000000000000        0.0000000000000000     
   1.0937500000000000       0.12500000000000000        0.0000000000000000     
   1.1250000000000000       0.12500000000000000        0.0000000000000000     
   1.1250000000000000        0.0000000000000000        0.0000000000000000     
   1.1562500000000000        0.0000000000000000        0.0000000000000000     
   1.1875000000000000        0.0000000000000000        0.0000000000000000     
   1.2187500000000000        0.0000000000000000        0.0000000000000000     
   1.2500000000000000        0.0000000000000000        0.0000000000000000     
   1.1250000000000000        3.1250000000000000E-002   0.0000000000000000     
   1.1562500000000000        3.1250000000000000E-002   0.0000000000000000     
   1.1875000000000000        3.1250000000000000E-002   0.0000000000000000     
   1.2187500000000000        3.1250000000000000E-002   0.0000000000000000     
   1.2500000000000000        3.1250000000000000E-002   0.0000000000000000     
   1.1250000000000000        6.2500000000000000E-002   0.0000000000000000     
   1.1562500000000000        6.2500000000000000E-002   0.0000000000000000     
   1.1875000000000000        6.2500000000000000E-002   0.0000000000000000     
   1.2187500000000000        6.2500000000000000E-002   0.0000000000000000     
   1.2500000000000000        6.2500000000000000E-002   0.0000000000000000     
   1.1250000000000000        9.3750000000000000E-002   0.0000000000000000     
   1.1562500000000000        9.3750000000000000E-002   0.0000000000000000     
   1.1875000000000000        9.3750000000000000E-002   0.0000000000000000     
   1.2187500000000000        9.3750000000000000E-002   0.0000000000000000     
   1.2500000000000000        9.3750000000000000E-002   0.0000000000000000     
   1.1250000000000000       0.12500000000000000        0.0000000000000000     
   1.1562500000000000       0.12500000000000000        0.0000000000000000     
   1.1875000000000000       0.12500000000000000        0.0000000000000000     
   1.2187500000000000       0.12500000000000000        0.0000000000000000     
   1.2500000000000000       0.12500000000000000        0.0000000000000000     
   1.2500000000000000        0.0000000000000000        0.0000000000000000     
   1.2812500000000000        0.0000000000000000        0.0000000000000000     
   1.3125000000000000        0.0000000000000000        0.0000000000000000     
   1.3437500000000000        0.0000000000000000        0.0000000000000000     
   1.3750000000000000        0.0000000000000000        0.0000000000000000     
   1.2500000000000000        3.1250000000000000E-002   0.0000000000000000     
   1.2812500000000000        3.1250000000000000E-002   0.0000000000000000     
   1.3125000000000000        3.1250000000000000E-002   0.0000000000000000     
   1.3437500000000000        3.1250000000000000E-002   0.0000000000000000     
   1.3750000000000000        3.1250000000000000E-002   0.0000000000000000     
   1.2500000000000000        6.2500000000000000E-002   0.0000000000000000     
   1.2812500000000000        6.2500000000000000E-002   0.0000000000000000     
   1.3125000000000000        6.2500000000000000E-002   0.0000000000000000     
   1.3437500000000000        6.2500000000000000E-002   0.0000000000000000     
   1.3750000000000000        6.2500000000000000E-002   0.0000000000000000     
   1.2500000000000000        9.3750000000000000E-002   0.0000000000000000     
   1.2812500000000000        9.3750000000000000E-002   0.0000000000000000     
   1.3125000000000000        9.3750000000000000E-002   0.0000000000000000     
   1.3437500000000000        9.3750000000000000E-002   0.0000000000000000     
   1.3750000000000000        9.3750000000000000E-002   0.0000000000000000     
   1.2500000000000000       0.12500000000000000        0.0000000000000000     
   1.2812500000000000       0.12500000000000000        0.0000000000000000     
   1.3125000000000000       0.12500000000000000        0.0000000000000000     
   1.3437500000000000       0.12500000000000000        0.0000000000000000     
   1.3750000000000000       0.12500000000000000        0.0000000000000000     
   1.3750000000000000        0.0000000000000000        0.0000000000000000     
   1.4062500000000000        0.0000000000000000        0.0000000000000000     
   1.4375000000000000        0.0000000000000000        0.0000000000000000     
   1.4687500000000000        0.0000000000000000        0.0000000000000000     
   1.5000000000000000        0.0000000000000000        0.0000000000000000     
   1.3750000000000000        3.1250000000000000E-002   0.0000000000000000     
   1.4062500000000000        3.1250000000000000E-002   0.0000000000000000     
   1.4375000000000000        3.1250000000000000E-002   0.0000000000000000     
   1.4687500000000000        3.1250000000000000E-002   0.0000000000000000     
   1.5000000000000000        3.1250000000000000E-002   0.0000000000000000     
   1.3750000000000000        6.2500000000000000E-002   0.0000000000000000     
   1.4062500000000000        6.2500000000000000E-002   0.0000000000000000     
   1.4375000000000000        6.2500000000000000E-002   0.0000000000000000     
   1.4687500000000000        6.2500000000000000E-002   0.0000000000000000     
   1.5000000000000000        6.2500000000000000E-002   0.0000000000000000     
   1.3750000000000000        9.3750000000000000E-002   0.0000000000000000     
   1.4062500000000000        9.3750000000000000E-002   0.0000000000000000     
   1.4375000000000000        9.3750000000000000E-002   0.0000000000000000     
   1.4687500000000000        9.3750000000000000E-002   0.0000000000000000     
   1.5000000000000000        9.3750000000000000E-002   0.0000000000000000     
   1.3750000000000000       0.12500000000000000        0.0000000000000000     
   1.4062500000000000       0.12500000000000000        0.0000000000000000     
   1.4375000000000000       0.12500000000000000        0.0000000000000000     
   1.4687500000000000       0.12500000000000000        0.0000000000000000     
   1.5000000000000000       0.12500000000000000        0.0000000000000000     
  0.50000000000000000       0.12500000000000000        0.0000000000000000     
  0.53125000000000000       0.12500000000000000        0.0000000000000000     
  0.56250000000000000       0.12500000000000000        0.0000000000000000     
  0.59375000000000000       0.12500000000000000        0.0000000000000000     
  0.62500000000000000       0.12500000000000000        0.0000000000000000     
  0.50000000000000000       0.15625000000000000        0.0000000000000000     
  0.53125000000000000       0.15625000000000000        0.0000000000000000     
  0.56250000000000000       0.15625000000000000        0.0000000000000000     
  0.59375000000000000       0.15625000000000000        0.0000000000000000     
  0.62500000000000000       0.15625000000000000        0.0000000000000000     
  0.50000000000000000       0.18750000000000000        0.0000000000000000     
  0.53125000000000000       0.18750000000000000        0.0000000000000000     
  0.56250000000000000       0.18750000000000000        0.0000000000000000     
  0.59375000000000000       0.18750000000000000        0.0000000000000000     
  0.62500000000000000       0.18750000000000000        0.0000000000000000     
  0.50000000000000000       0.21875000000000000        0.0000000000000000     
  0.53125000000000000       0.21875000000000000        0.0000000000000000     
  0.56250000000000000       0.21875000000000000        0.0000000000000000     
  0.59375000000000000       0.21875000000000000        0.0000000000000000     
  0.62500000000000000       0.21875000000000000        0.0000000000000000     
  0.50000000000000000       0.25000000000000000        0.0000000000000000     
  0.53125000000000000       0.25000000000000000        0.0000000000000000     
  0.56250000000000000       0.25000000000000000        0.0000000000000000     
  0.59375000000000000       0.25000000000000000        0.0000000000000000     
  0.62500000000000000       0.25000000000000000        0.0000000000000000     
  0.62500000000000000       0.12500000000000000        0.0000000000000000     
  0.65625000000000000       0.12500000000000000        0.0000000000000000     
  0.68750000000000000       0.12500000000000000        0.0000000000000000     
  0.71875000000000000       0.12500000000000000        0.0000000000000000     
  0.75000000000000000       0.12500000000000000        0.0000000000000000     
  0.62500000000000000       0.15625000000000000        0.0000000000000000     
  0.65625000000000000       0.15625000000000000        0.0000000000000000     
  0.68750000000000000       0.15625000000000000        0.0000000000000000     
  0.71875000000000000       0.15625000000000000        0.0000000000000000     
  0.75000000000000000       0.15625000000000000        0.0000000000000000     
  0.62500000000000000       0.18750000000000000        0.0000000000000000     
  0.65625000000000000       0.18750000000000000        0.0000000000000000     
  0.68750000000000000       0.18750000000000000        0.0000000000000000     
  0.71875000000000000       0.18750000000000000        0.0000000000000000     
  0.75000000000000000       0.18750000000000000        0.0000000000000000     
  0.62500000000000000       0.21875000000000000        0.0000000000000000     
  0.65625000000000000       0.21875000000000000        0.0000000000000000     
  0.68750000000000000       0.21875000000000000        0.0000000000000000     
  0.71875000000000000       0.21875000000000000        0.0000000000000000     
  0.75000000000000000       0.21875000000000000        0.0000000000000000     
  0.62500000000000000       0.25000000000000000        0.0000000000000000     
  0.65625000000000000       0.25000000000000000        0.0000000000000000     
  0.68750000000000000       0.25000000000000000        0.0000000000000000     
  0.71875000000000000       0.25000000000000000        0.0000000000000000     
  0.75000000000000000       0.25000000000000000        0.0000000000000000     
  0.75000000000000000       0.12500000000000000        0.0000000000000000     
  0.78125000000000000       0.12500000000000000        0.0000000000000000     
  0.81250000000000000       0.12500000000000000        0.0000000000000000     
  0.84375000000000000       0.12500000000000000        0.0000000000000000     
  0.87500000000000000       0.12500000000000000        0.0000000000000000     
  0.75000000000000000       0.15625000000000000        0.0000000000000000     
  0.78125000000000000       0.15625000000000000        0.0000000000000000     
  0.81250000000000000       0.15625000000000000        0.0000000000000000     
  0.84375000000000000       0.15625000000000000        0.0000000000000000     
  0.87500000000000000       0.15625000000000000        0.0000000000000000     
  0.75000000000000000       0.18750000000000000        0.0000000000000000     
  0.78125000000000000       0.18750000000000000        0.0000000000000000     
  0.81250000000000000       0.18750000000000000        0.0000000000000000     
  0.84375000000000000       0.18750000000000000        0.0000000000000000     
  0.87500000000000000       0.18750000000000000        0.0000000000000000     
  0.75000000000000000       0.21875000000000000        0.0000000000000000     
  0.78125000000000000       0.21875000000000000        0.0000000000000000     
  0.81250000000000000       0.21875000000000000        0.0000000000000000     
  0.84375000000000000       0.21875000000000000        0.0000000000000000     
  0.87500000000000000       0.21875000000000000        0.0000000000000000     
  0.75000000000000000       0.25000000000000000        0.0000000000000000     
  0.78125000000000000       0.25000000000000000        0.0000000000000000     
  0.81250000000000000       0.25000000000000000        0.0000000000000000     
  0.84375000000000000       0.25000000000000000        0.0000000000000000     
  0.87500000000000000       0.25000000000000000        0.0000000000000000     
  0.87500000000000000       0.12500000000000000        0.0000000000000000     
  0.90625000000000000       0.12500000000000000        0.0000000000000000     
  0.93750000000000000       0.12500000000000000        0.0000000000000000     
  0.96875000000000000       0.12500000000000000        0.0000000000000000     
   1.0000000000000000       0.12500000000000000        0.0000000000000000     
  0.87500000000000000       0.15625000000000000        0.0000000000000000     
  0.90625000000000000       0.15625000000000000        0.0000000000000000     
  0.93750000000000000       0.15625000000000000        0.0000000000000000     
  0.96875000000000000       0.15625000000000000        0.0000000000000000     
   1.0000000000000000       0.15625000000000000        0.0000000000000000     
  0.87500000000000000       0.18750000000000000        0.0000000000000000     
  0.90625000000000000       0.18750000000000000        0.0000000000000000     
  0.93750000000000000       0.18750000000000000        0.0000000000000000     
  0.96875000000000000       0.18750000000000000        0.0000000000000000     
   1.0000000000000000       0.18750000000000000        0.0000000000000000     
  0.87500000000000000       0.21875000000000000        0.0000000000000000     
  0.90625000000000000       0.21875000000000000        0.0000000000000000     
  0.93750000000000000       0.21875000000000000        0.0000000000000000     
  0.96875000000000000       0.21875000000000000        0.0000000000000000     
   1.0000000000000000       0.21875000000000000        0.0000000000000000     
  0.87500000000000000       0.25000000000000000        0.0000000000000000     
  0.90625000000000000       0.25000000000000000        0.0000000000000000     
  0.93750000000000000       0.25000000000000000        0.0000000000000000     
  0.96875000000000000       0.25000000000000000        0.0000000000000000     
   1.0000000000000000       0.25000000000000000        0.0000000000000000     
   1.0000000000000000       0.12500000000000000        0.0000000000000000     
   1.0312500000000000       0.12500000000000000        0.0000000000000000     
   1.0625000000000000       0.12500000000000000        0.0000000000000000     
   1.0937500000000000       0.12500000000000000        0.0000000000000000     
   1.1250000000000000       0.12500000000000000        0.0000000000000000     
   1.0000000000000000       0.15625000000000000        0.0000000000000000     
   1.0312500000000000       0.15625000000000000        0.0000000000000000     
   1.0625000000000000       0.15625000000000000        0.0000000000000000     
   1.0937500000000000       0.15625000000000000        0.0000000000000000     
   1.1250000000000000       0.15625000000000000        0.0000000000000000     
   1.0000000000000000       0.18750000000000000        0.0000000000000000     
   1.0312500000000000       0.18750000000000000        0.0000000000000000     
   1.0625000000000000       0.18750000000000000        0.0000000000000000     
   1.0937500000000000       0.18750000000000000        0.0000000000000000     
   1.1250000000000000       0.18750000000000000        0.0000000000000000     
   1.0000000000000000       0.21875000000000000        0.0000000000000000     
   1.0312500000000000       0.21875000000000000        0.0000000000000000     
   1.0625000000000000       0.21875000000000000        0.0000000000000000     
   1.0937500000000000       0.21875000000000000        0.0000000000000000     
   1.1250000000000000       0.21875000000000000        0.0000000000000000     
   1.0000000000000000       0.25000000000000000        0.0000000000000000     
   1.0312500000000000       0.25000000000000000        0.0000000000000000     
   1.0625000000000000       0.25000000000000000        0.0000000000000000     
   1.0937500000000000       0.25000000000000000        0.0000000000000000     
   1.1250000000000000       0.25000000000000000        0.0000000000000000     
   1.1250000000000000       0.12500000000000000        0.0000000000000000     
   1.1562500000000000       0.12500000000000000        0.0000000000000000     
   1.1875000000000000       0.12500000000000000        0.0000000000000000     
   1.2187500000000000       0.12500000000000000        0.0000000000000000     
   1.2500000000000000       0.12500000000000000        0.0000000000000000     
   1.1250000000000000       0.15625000000000000        0.0000000000000000     
   1.1562500000000000       0.15625000000000000        0.0000000000000000     
   1.1875000000000000       0.15625000000000000        0.0000000000000000     
   1.2187500000000000       0.15625000000000000        0.0000000000000000     
   1.2500000000000000       0.15625000000000000        0.0000000000000000     
   1.1250000000000000       0.18750000000000000        0.0000000000000000     
   1.1562500000000000       0.18750000000000000        0.0000000000000000     
   1.1875000000000000       0.18750000000000000        0.0000000000000000     
   1.2187500000000000       0.18750000000000000        0.0000000000000000     
   1.2500000000000000       0.18750000000000000        0.0000000000000000     
   1.1250000000000000       0.21875000000000000        0.0000000000000000     
   1.1562500000000000       0.21875000000000000        0.0000000000000000     
   1.1875000000000000       0.21875000000000000        0.0000000000000000     
   1.2187500000000000       0.21875000000000000        0.0000000000000000     
   1.2500000000000000       0.21875000000000000        0.0000000000000000     
   1.1250000000000000       0.25000000000000000        0.0000000000000000     
   1.1562500000000000       0.25000000000000000        0.0000000000000000     
   1.1875000000000000       0.25000000000000000        0.0000000000000000     
   1.2187500000000000       0.25000000000000000        0.0000000000000000     
   1.2500000000000000       0.25000000000000000        0.0000000000000000     
   1.2500000000000000       0.12500000000000000        0.0000000000000000     
   1.2812500000000000       0.12500000000000000        0.0000000000000000     
   1.3125000000000000       0.12500000000000000        0.0000000000000000     
   1.3437500000000000       0.12500000000000000        0.0000000000000000     
   1.3750000000000000       0.12500000000000000        0.0000000000000000     
   1.2500000000000000       0.15625000000000000        0.0000000000000000     
   1.2812500000000000       0.15625000000000000        0.0000000000000000     
   1.3125000000000000       0.15625000000000000        0.0000000000000000     
   1.3437500000000000       0.15625000000000000        0.0000000000000000     
   1.3750000000000000       0.15625000000000000        0.0000000000000000     
   1.2500000000000000       0.18750000000000000        0.0000000000000000     
   1.2812500000000000       0.18750000000000000        0.0000000000000000     
   1.3125000000000000       0.18750000000000000        0.0000000000000000     
   1.3437500000000000       0.18750000000000000        0.0000000000000000     
   1.3750000000000000       0.18750000000000000        0.0000000000000000     
   1.2500000000000000       0.21875000000000000        0.0000000000000000     
   1.2812500000000000       0.21875000000000000        0.0000000000000000     
   1.3125000000000000       0.21875000000000000        0.0000000000000000     
   1.3437500000000000       0.21875000000000000        0.0000000000000000     
   1.3750000000000000       0.21875000000000000        0.0000000000000000     
   1.2500000000000000       0.25000000000000000        0.0000000000000000     
   1.2812500000000000       0.25000000000000000        0.0000000000000000     
   1.3125000000000000       0.25000000000000000        0.0000000000000000     
   1.3437500000000000       0.25000000000000000        0.0000000000000000     
   1.3750000000000000       0.25000000000000000        0.0000000000000000     
   1.3750000000000000       0.12500000000000000        0.0000000000000000     
   1.4062500000000000       0.12500000000000000        0.0000000000000000     
   1.4375000000000000       0.12500000000000000        0.0000000000000000     
   1.4687500000000000       0.12500000000000000        0.0000000000000000     
   1.5000000000000000       0.12500000000000000        0.0000000000000000     
   1.3750000000000000       0.15625000000000000        0.0000000000000000     
   1.4062500000000000       0.15625000000000000        0.0000000000000000     
   1.4375000000000000       0.15625000000000000        0.0000000000000000     
   1.4687500000000000       0.15625000000000000        0.0000000000000000     
   1.5000000000000000       0.15625000000000000        0.0000000000000000     
   1.3750000000000000       0.18750000000000000        0.0000000000000000     
   1.4062500000000000       0.18750000000000000        0.0000000000000000     
   1.4375000000000000       0.18750000000000000        0.0000000000000000     
   1.4687500000000000       0.18750000000000000        0.0000000000000000     
   1.5000000000000000       0.18750000000000000        0.0000000000000000     
   1.3750000000000000       0.21875000000000000        0.0000000000000000     
   1.4062500000000000       0.21875000000000000        0.0000000000000000     
   1.4375000000000000       0.21875000000000000        0.0000000000000000     
   1.4687500000000000       0.21875000000000000        0.0000000000000000     
   1.5000000000000000       0.21875000000000000        0.0000000000000000     
   1.3750000000000000       0.25000000000000000        0.0000000000000000     
   1.4062500000000000       0.25000000000000000        0.0000000000000000     
   1.4375000000000000       0.25000000000000000        0.0000000000000000     
   1.4687500000000000       0.25000000000000000        0.0000000000000000     
   1.5000000000000000       0.25000000000000000        0.0000000000000000     
  0.50000000000000000       0.25000000000000000        0.0000000000000000     
  0.53125000000000000       0.25000000000000000        0.0000000000000000     
  0.56250000000000000       0.25000000000000000        0.0000000000000000     
  0.59375000000000000       0.25000000000000000        0.0000000000000000     
  0.62500000000000000       0.25000000000000000        0.0000000000000000     
  0.50000000000000000       0.28125000000000000        0.0000000000000000     
  0.53125000000000000       0.28125000000000000        0.0000000000000000     
  0.56250000000000000       0.28125000000000000        0.0000000000000000     
  0.59375000000000000       0.28125000000000000        0.0000000000000000     
  0.62500000000000000       0.28125000000000000        0.0000000000000000     
  0.50000000000000000       0.31250000000000000        0.0000000000000000     
  0.53125000000000000       0.31250000000000000        0.0000000000000000     
  0.56250000000000000       0.31250000000000000        0.0000000000000000     
  0.59375000000000000       0.31250000000000000        0.0000000000000000     
  0.62500000000000000       0.31250000000000000        0.0000000000000000     
  0.50000000000000000       0.34375000000000000        0.0000000000000000     
  0.53125000000000000       0.34375000000000000        0.0000000000000000     
  0.56250000000000000       0.34375000000000000        0.0000000000000000     
  0.59375000000000000       0.34375000000000000        0.0000000000000000     
  0.62500000000000000       0.34375000000000000        0.0000000000000000     
  0.50000000000000000       0.37500000000000000        0.0000000000000000     
  0.53125000000000000       0.37500000000000000        0.0000000000000000     
  0.56250000000000000       0.37500000000000000        0.0000000000000000     
  0.59375000000000000       0.37500000000000000        0.0000000000000000     
  0.62500000000000000       0.37500000000000000        0.0000000000000000     
  0.62500000000000000       0.25000000000000000        0.0000000000000000     
  0.65625000000000000       0.25000000000000000        0.0000000000000000     
  0.68750000000000000       0.25000000000000000        0.0000000000000000     
  0.71875000000000000       0.25000000000000000        0.0000000000000000     
  0.75000000000000000       0.25000000000000000        0.0000000000000000     
  0.62500000000000000       0.28125000000000000        0.0000000000000000     
  0.65625000000000000       0.28125000000000000        0.0000000000000000     
  0.68750000000000000       0.28125000000000000        0.0000000000000000     
  0.71875000000000000       0.28125000000000000        0.0000000000000000     
  0.75000000000000000       0.28125000000000000        0.0000000000000000     
  0.62500000000000000       0.31250000000000000        0.0000000000000000     
  0.65625000000000000       0.31250000000000000        0.0000000000000000     
  0.68750000000000000       0.31250000000000000        0.0000000000000000     
  0.71875000000000000       0.31250000000000000        0.0000000000000000     
  0.75000000000000000       0.31250000000000000        0.0000000000000000     
  0.62500000000000000       0.34375000000000000        0.0000000000000000     
  0.65625000000000000       0.34375000000000000        0.0000000000000000     
  0.68750000000000000       0.34375000000000000        0.0000000000000000     
  0.71875000000000000       0.34375000000000000        0.0000000000000000     
  0.75000000000000000       0.34375000000000000        0.0000000000000000     
  0.62500000000000000       0.37500000000000000        0.0000000000000000     
  0.65625000000000000       0.37500000000000000        0.0000000000000000     
  0.68750000000000000       0.37500000000000000        0.0000000000000000     
  0.71875000000000000       0.37500000000000000        0.0000000000000000     
  0.75000000000000000       0.37500000000000000        0.0000000000000000     
  0.75000000000000000       0.25000000000000000        0.0000000000000000     
  0.78125000000000000       0.25000000000000000        0.0000000000000000     
  0.81250000000000000       0.25000000000000000        0.0000000000000000     
  0.84375000000000000       0.25000000000000000        0.0000000000000000     
  0.87500000000000000       0.25000000000000000        0.0000000000000000     
  0.75000000000000000       0.28125000000000000        0.0000000000000000     
  0.78125000000000000       0.28125000000000000        0.0000000000000000     
  0.81250000000000000       0.28125000000000000        0.0000000000000000     
  0.84375000000000000       0.28125000000000000        0.0000000000000000     
  0.87500000000000000       0.28125000000000000        0.0000000000000000     
  0.75000000000000000       0.31250000000000000        0.0000000000000000     
  0.78125000000000000       0.31250000000000000        0.0000000000000000     
  0.81250000000000000       0.31250000000000000        0.0000000000000000     
  0.84375000000000000       0.31250000000000000        0.0000000000000000     
  0.87500000000000000       0.31250000000000000        0.0000000000000000     
  0.75000000000000000       0.34375000000000000        0.0000000000000000     
  0.78125000000000000       0.34375000000000000        0.0000000000000000     
  0.81250000000000000       0.34375000000000000        0.0000000000000000     
  0.84375000000000000       0.34375000000000000        0.0000000000000000     
  0.87500000000000000       0.34375000000000000        0.0000000000000000     
  0.75000000000000000       0.37500000000000000        0.0000000000000000     
  0.78125000000000000       0.37500000000000000        0.0000000000000000     
  0.81250000000000000       0.37500000000000000        0.0000000000000000     
  0.84375000000000000       0.37500000000000000        0.0000000000000000     
  0.87500000000000000       0.37500000000000000        0.0000000000000000     
  0.87500000000000000       0.25000000000000000        0.0000000000000000     
  0.90625000000000000       0.25000000000000000        0.0000000000000000     
  0.93750000000000000       0.25000000000000000        0.0000000000000000     
  0.96875000000000000       0.25000000000000000        0.0000000000000000     
   1.0000000000000000       0.25000000000000000        0.0000000000000000     
  0.87500000000000000       0.28125000000000000        0.0000000000000000     
  0.90625000000000000       0.28125000000000000        0.0000000000000000     
  0.93750000000000000       0.28125000000000000        0.0000000000000000     
  0.96875000000000000       0.28125000000000000        0.0000000000000000     
   1.0000000000000000       0.28125000000000000        0.0000000000000000     
  0.87500000000000000       0.31250000000000000        0.0000000000000000     
  0.90625000000000000       0.31250000000000000        0.0000000000000000     
  0.93750000000000000       0.31250000000000000        0.0000000000000000     
  0.96875000000000000       0.31250000000000000        0.0000000000000000     
   1.0000000000000000       0.31250000000000000        0.0000000000000000     
  0.87500000000000000       0.34375000000000000        0.0000000000000000     
  0.90625000000000000       0.34375000000000000        0.0000000000000000     
  0.93750000000000000       0.34375000000000000        0.0000000000000000     
  0.96875000000000000       0.34375000000000000        0.0000000000000000     
   1.0000000000000000       0.34375000000000000        0.0000000000000000     
  0.87500000000000000       0.37500000000000000        0.0000000000000000     
  0.90625000000000000       0.37500000000000000        0.0000000000000000     
  0.93750000000000000       0.37500000000000000        0.0000000000000000     
  0.96875000000000000       0.37500000000000000        0.0000000000000000     
   1.0000000000000000       0.37500000000000000        0.0000000000000000     
   1.0000000000000000       0.25000000000000000        0.0000000000000000     
   1.0312500000000000       0.25000000000000000        0.0000000000000000     
   1.0625000000000000       0.25000000000000000        0.0000000000000000     
   1.0937500000000000       0.25000000000000000        0.0000000000000000     
   1.1250000000000000       0.25000000000000000        0.0000000000000000     
   1.0000000000000000       0.28125000000000000        0.0000000000000000     
   1.0312500000000000       0.28125000000000000        0.0000000000000000     
   1.0625000000000000       0.28125000000000000        0.0000000000000000     
   1.0937500000000000       0.28125000000000000        0.0000000000000000     
   1.1250000000000000       0.28125000000000000        0.0000000000000000     
   1.0000000000000000       0.31250000000000000        0.0000000000000000     
   1.0312500000000000       0.31250000000000000        0.0000000000000000     
   1.0625000000000000       0.31250000000000000        0.0000000000000000     
   1.0937500000000000       0.31250000000000000        0.0000000000000000     
   1.1250000000000000       0.31250000000000000        0.0000000000000000     
   1.0000000000000000       0.34375000000000000        0.0000000000000000     
   1.0312500000000000       0.34375000000000000        0.0000000000000000     
   1.0625000000000000       0.34375000000000000        0.0000000000000000     
   1.0937500000000000       0.34375000000000000        0.0000000000000000     
   1.1250000000000000       0.34375000000000000        0.0000000000000000     
   1.0000000000000000       0.37500000000000000        0.0000000000000000     
   1.0312500000000000       0.37500000000000000        0.0000000000000000     
   1.0625000000000000       0.37500000000000000        0.0000000000000000     
   1.0937500000000000       0.37500000000000000        0.0000000000000000     
   1.1250000000000000       0.37500000000000000        0.0000000000000000     
   1.1250000000000000       0.25000000000000000        0.0000000000000000     
   1.1562500000000000       0.25000000000000000        0.0000000000000000     
   1.1875000000000000       0.25000000000000000        0.0000000000000000     
   1.2187500000000000       0.25000000000000000        0.0000000000000000     
   1.2500000000000000       0.25000000000000000        0.0000000000000000     
   1.1250000000000000       0.28125000000000000        0.0000000000000000     
   1.1562500000000000       0.28125000000000000        0.0000000000000000     
   1.1875000000000000       0.28125000000000000        0.0000000000000000     
   1.2187500000000000       0.28125000000000000        0.0000000000000000     
   1.2500000000000000       0.28125000000000000        0.0000000000000000     
   1.1250000000000000       0.31250000000000000        0.0000000000000000     
   1.1562500000000000       0.31250000000000000        0.0000000000000000     
   1.1875000000000000       0.31250000000000000        0.0000000000000000     
   1.2187500000000000       0.31250000000000000        0.0000000000000000     
   1.2500000000000000       0.31250000000000000        0.0000000000000000     
   1.1250000000000000       0.34375000000000000        0.0000000000000000     
   1.1562500000000000       0.34375000000000000        0.0000000000000000     
   1.1875000000000000       0.34375000000000000        0.0000000000000000     
   1.2187500000000000       0.34375000000000000        0.0000000000000000     
   1.2500000000000000       0.34375000000000000        0.0000000000000000     
   1.1250000000000000       0.37500000000000000        0.0000000000000000     
   1.1562500000000000       0.37500000000000000        0.0000000000000000     
   1.1875000000000000       0.37500000000000000        0.0000000000000000     
   1.2187500000000000       0.37500000000000000        0.0000000000000000     
   1.2500000000000000       0.37500000000000000        0.0000000000000000     
   1.2500000000000000       0.25000000000000000        0.0000000000000000     
   1.2812500000000000       0.25000000000000000        0.0000000000000000     
   1.3125000000000000       0.25000000000000000        0.0000000000000000     
   1.3437500000000000       0.25000000000000000        0.0000000000000000     
   1.3750000000000000       0.25000000000000000        0.0000000000000000     
   1.2500000000000000       0.28125000000000000        0.0000000000000000     
   1.2812500000000000       0.28125000000000000        0.0000000000000000     
   1.3125000000000000       0.28125000000000000        0.0000000000000000     
   1.3437500000000000       0.28125000000000000        0.0000000000000000     
   1.3750000000000000       0.28125000000000000        0.0000000000000000     
   1.2500000000000000       0.31250000000000000        0.0000000000000000     
   1.2812500000000000       0.31250000000000000        0.0000000000000000     
   1.3125000000000000       0.31250000000000000        0.0000000000000000     
   1.3437500000000000       0.31250000000000000        0.0000000000000000     
   1.3750000000000000       0.31250000000000000        0.0000000000000000     
   1.2500000000000000       0.34375000000000000        0.0000000000000000     
   1.2812500000000000       0.34375000000000000        0.0000000000000000     
   1.3125000000000000       0.34375000000000000        0.0000000000000000     
   1.3437500000000000       0.34375000000000000        0.0000000000000000     
   1.3750000000000000       0.34375000000000000        0.0000000000000000     
   1.2500000000000000       0.37500000000000000        0.0000000000000000     
   1.2812500000000000       0.37500000000000000        0.0000000000000000     
   1.3125000000000000       0.37500000000000000        0.0000000000000000     
   1.3437500000000000       0.37500000000000000        0.0000000000000000     
   1.3750000000000000       0.37500000000000000        0.0000000000000000     
   1.3750000000000000       0.25000000000000000        0.0000000000000000     
   1.4062500000000000       0.25000000000000000        0.0000000000000000     
   1.4375000000000000       0.25000000000000000        0.0000000000000000     
   1.4687500000000000       0.25000000000000000        0.0000000000000000     
   1.5000000000000000       0.25000000000000000        0.0000000000000000     
   1.3750000000000000       0.28125000000000000        0.0000000000000000     
   1.4062500000000000       0.28125000000000000        0.0000000000000000     
   1.4375000000000000       0.28125000000000000        0.0000000000000000     
   1.4687500000000000       0.28125000000000000        0.0000000000000000     
   1.5000000000000000       0.28125000000000000        0.0000000000000000     
   1.3750000000000000       0.31250000000000000        0.0000000000000000     
   1.4062500000000000       0.31250000000000000        0.0000000000000000     
   1.4375000000000000       0.31250000000000000        0.0000000000000000     
   1.4687500000000000       0.31250000000000000        0.0000000000000000     
   1.5000000000000000       0.31250000000000000        0.0000000000000000     
   1.3750000000000000       0.34375000000000000        0.0000000000000000     
   1.4062500000000000       0.34375000000000000        0.0000000000000000     
   1.4375000000000000       0.34375000000000000        0.0000000000000000     
   1.4687500000000000       0.34375000000000000        0.0000000000000000     
   1.5000000000000000       0.34375000000000000        0.0000000000000000     
   1.3750000000000000       0.37500000000000000        0.0000000000000000     
   1.4062500000000000       0.37500000000000000        0.0000000000000000     
   1.4375000000000000       0.37500000000000000        0.0000000000000000     
   1.4687500000000000       0.37500000000000000        0.0000000000000000     
   1.5000000000000000       0.37500000000000000        0.0000000000000000     
  0.50000000000000000       0.37500000000000000        0.0000000000000000     
  0.53125000000000000       0.37500000000000000        0.0000000000000000     
  0.56250000000000000       0.37500000000000000        0.0000000000000000     
  0.59375000000000000       0.37500000000000000        0.0000000000000000     
  0.62500000000000000       0.37500000000000000        0.0000000000000000     
  0.50000000000000000       0.40625000000000000        0.0000000000000000     
  0.53125000000000000       0.40625000000000000        0.0000000000000000     
  0.56250000000000000       0.40625000000000000        0.0000000000000000     
  0.59375000000000000       0.40625000000000000        0.0000000000000000     
  0.62500000000000000       0.40625000000000000        0.0000000000000000     
  0.50000000000000000       0.43750000000000000        0.0000000000000000     
  0.53125000000000000       0.43750000000000000        0.0000000000000000     
  0.56250000000000000       0.43750000000000000        0.0000000000000000     
  0.59375000000000000       0.43750000000000000        0.0000000000000000     
  0.62500000000000000       0.43750000000000000        0.0000000000000000     
  0.50000000000000000       0.46875000000000000        0.0000000000000000     
  0.53125000000000000       0.46875000000000000        0.0000000000000000     
  0.56250000000000000       0.46875000000000000        0.0000000000000000     
  0.59375000000000000       0.46875000000000000        0.0000000000000000     
  0.62500000000000000       0.46875000000000000        0.0000000000000000     
  0.50000000000000000       0.50000000000000000        0.0000000000000000     
  0.53125000000000000       0.50000000000000000        0.0000000000000000     
  0.56250000000000000       0.50000000000000000        0.0000000000000000     
  0.59375000000000000       0.50000000000000000        0.0000000000000000     
  0.62500000000000000       0.50000000000000000        0.0000000000000000     
  0.62500000000000000       0.37500000000000000        0.0000000000000000     
  0.65625000000000000       0.37500000000000000        0.0000000000000000     
  0.68750000000000000       0.37500000000000000        0.0000000000000000     
  0.71875000000000000       0.37500000000000000        0.0000000000000000     
  0.75000000000000000       0.37500000000000000        0.0000000000000000     
  0.62500000000000000       0.40625000000000000        0.0000000000000000     
  0.65625000000000000       0.40625000000000000        0.0000000000000000     
  0.68750000000000000       0.40625000000000000        0.0000000000000000     
  0.71875000000000000       0.40625000000000000        0.0000000000000000     
  0.75000000000000000       0.40625000000000000        0.0000000000000000     
  0.62500000000000000       0.43750000000000000        0.0000000000000000     
  0.65625000000000000       0.43750000000000000        0.0000000000000000     
  0.68750000000000000       0.43750000000000000        0.0000000000000000     
  0.71875000000000000       0.43750000000000000        0.0000000000000000     
  0.75000000000000000       0.43750000000000000        0.0000000000000000     
  0.62500000000000000       0.46875000000000000        0.0000000000000000     
  0.65625000000000000       0.46875000000000000        0.0000000000000000     
  0.68750000000000000       0.46875000000000000        0.0000000000000000     
  0.71875000000000000       0.46875000000000000        0.0000000000000000     
  0.75000000000000000       0.46875000000000000        0.0000000000000000     
  0.62500000000000000       0.50000000000000000        0.0000000000000000     
  0.65625000000000000       0.50000000000000000        0.0000000000000000     
  0.68750000000000000       0.50000000000000000        0.0000000000000000     
  0.71875000000000000       0.50000000000000000        0.0000000000000000     
  0.75000000000000000       0.50000000000000000        0.0000000000000000     
  0.75000000000000000       0.37500000000000000        0.0000000000000000     
  0.78125000000000000       0.37500000000000000        0.0000000000000000     
  0.81250000000000000       0.37500000000000000        0.0000000000000000     
  0.84375000000000000       0.37500000000000000        0.0000000000000000     
  0.87500000000000000       0.37500000000000000        0.0000000000000000     
  0.75000000000000000       0.40625000000000000        0.0000000000000000     
  0.78125000000000000       0.40625000000000000        0.0000000000000000     
  0.81250000000000000       0.40625000000000000        0.0000000000000000     
  0.84375000000000000       0.40625000000000000        0.0000000000000000     
  0.87500000000000000       0.40625000000000000        0.0000000000000000     
  0.75000000000000000       0.43750000000000000        0.0000000000000000     
  0.78125000000000000       0.43750000000000000        0.0000000000000000     
  0.81250000000000000       0.43750000000000000        0.0000000000000000     
  0.84375000000000000       0.43750000000000000        0.0000000000000000     
  0.87500000000000000       0.43750000000000000        0.0000000000000000     
  0.75000000000000000       0.46875000000000000        0.0000000000000000     
  0.78125000000000000       0.46875000000000000        0.0000000000000000     
  0.81250000000000000       0.46875000000000000        0.0000000000000000     
  0.84375000000000000       0.46875000000000000        0.0000000000000000     
  0.87500000000000000       0.46875000000000000        0.0000000000000000     
  0.75000000000000000       0.50000000000000000        0.0000000000000000     
  0.78125000000000000       0.50000000000000000        0.0000000000000000     
  0.81250000000000000       0.50000000000000000        0.0000000000000000     
  0.84375000000000000       0.50000000000000000        0.0000000000000000     
  0.87500000000000000       0.50000000000000000        0.0000000000000000     
  0.87500000000000000       0.37500000000000000        0.0000000000000000     
  0.90625000000000000       0.37500000000000000        0.0000000000000000     
  0.93750000000000000       0.37500000000000000        0.0000000000000000     
  0.96875000000000000       0.37500000000000000        0.0000000000000000     
   1.0000000000000000       0.37500000000000000        0.0000000000000000     
  0.87500000000000000       0.40625000000000000        0.0000000000000000     
  0.90625000000000000       0.40625000000000000        0.0000000000000000     
  0.93750000000000000       0.40625000000000000        0.0000000000000000     
  0.96875000000000000       0.40625000000000000        0.0000000000000000     
   1.0000000000000000       0.40625000000000000        0.0000000000000000     
  0.87500000000000000       0.43750000000000000        0.0000000000000000     
  0.90625000000000000       0.43750000000000000        0.0000000000000000     
  0.93750000000000000       0.43750000000000000        0.0000000000000000     
  0.96875000000000000       0.43750000000000000        0.0000000000000000     
   1.0000000000000000       0.43750000000000000        0.0000000000000000     
  0.87500000000000000       0.46875000000000000        0.0000000000000000     
  0.90625000000000000       0.46875000000000000        0.0000000000000000     
  0.93750000000000000       0.46875000000000000        0.0000000000000000     
  0.96875000000000000       0.46875000000000000        0.0000000000000000     
   1.0000000000000000       0.46875000000000000        0.0000000000000000     
  0.87500000000000000       0.50000000000000000        0.0000000000000000     
  0.90625000000000000       0.50000000000000000        0.0000000000000000     
  0.93750000000000000       0.50000000000000000        0.0000000000000000     
  0.96875000000000000       0.50000000000000000        0.0000000000000000     
   1.0000000000000000       0.50000000000000000        0.0000000000000000     
   1.0000000000000000       0.37500000000000000        0.0000000000000000     
   1.0312500000000000       0.37500000000000000        0.0000000000000000     
   1.0625000000000000       0.37500000000000000        0.0000000000000000     
   1.0937500000000000       0.37500000000000000        0.0000000000000000     
   1.1250000000000000       0.37500000000000000        0.0000000000000000     
   1.0000000000000000       0.40625000000000000        0.0000000000000000     
   1.0312500000000000       0.40625000000000000        0.0000000000000000     
   1.0625000000000000       0.40625000000000000        0.0000000000000000     
   1.0937500000000000       0.40625000000000000        0.0000000000000000     
   1.1250000000000000       0.40625000000000000        0.0000000000000000     
   1.0000000000000000       0.43750000000000000        0.0000000000000000     
   1.0312500000000000       0.43750000000000000        0.0000000000000000     
   1.0625000000000000       0.43750000000000000        0.0000000000000000     
   1.0937500000000000       0.43750000000000000        0.0000000000000000     
   1.1250000000000000       0.43750000000000000        0.0000000000000000     
   1.0000000000000000       0.46875000000000000        0.0000000000000000     
   1.0312500000000000       0.46875000000000000        0.0000000000000000     
   1.0625000000000000       0.46875000000000000        0.0000000000000000     
   1.0937500000000000       0.46875000000000000        0.0000000000000000     
   1.1250000000000000       0.46875000000000000        0.0000000000000000     
   1.0000000000000000       0.50000000000000000        0.0000000000000000     
   1.0312500000000000       0.50000000000000000        0.0000000000000000     
   1.0625000000000000       0.50000000000000000        0.0000000000000000     
   1.0937500000000000       0.50000000000000000        0.0000000000000000     
   1.1250000000000000       0.50000000000000000        0.0000000000000000     
   1.1250000000000000       0.37500000000000000        0.0000000000000000     
   1.1562500000000000       0.37500000000000000        0.0000000000000000     
   1.1875000000000000       0.37500000000000000        0.0000000000000000     
   1.2187500000000000       0.37500000000000000        0.0000000000000000     
   1.2500000000000000       0.37500000000000000        0.0000000000000000     
   1.1250000000000000       0.40625000000000000        0.0000000000000000     
   1.1562500000000000       0.40625000000000000        0.0000000000000000     
   1.1875000000000000       0.40625000000000000        0.0000000000000000     
   1.2187500000000000       0.40625000000000000        0.0000000000000000     
   1.2500000000000000       0.40625000000000000        0.0000000000000000     
   1.1250000000000000       0.43750000000000000        0.0000000000000000     
   1.1562500000000000       0.43750000000000000        0.0000000000000000     
   1.1875000000000000       0.43750000000000000        0.0000000000000000     
   1.2187500000000000       0.43750000000000000        0.0000000000000000     
   1.2500000000000000       0.43750000000000000        0.0000000000000000     
   1.1250000000000000       0.46875000000000000        0.0000000000000000     
   1.1562500000000000       0.46875000000000000        0.0000000000000000     
   1.1875000000000000       0.46875000000000000        0.0000000000000000     
   1.2187500000000000       0.46875000000000000        0.0000000000000000     
   1.2500000000000000       0.46875000000000000        0.0000000000000000     
   1.1250000000000000       0.50000000000000000        0.0000000000000000     
   1.1562500000000000       0.50000000000000000        0.0000000000000000     
   1.1875000000000000       0.50000000000000000        0.0000000000000000     
   1.2187500000000000       0.50000000000000000        0.0000000000000000     
   1.2500000000000000       0.50000000000000000        0.0000000000000000     
   1.2500000000000000       0.37500000000000000        0.0000000000000000     
   1.2812500000000000       0.37500000000000000        0.0000000000000000     
   1.3125000000000000       0.37500000000000000        0.0000000000000000     
   1.3437500000000000       0.37500000000000000        0.0000000000000000     
   1.3750000000000000       0.37500000000000000        0.0000000000000000     
   1.2500000000000000       0.40625000000000000        0.0000000000000000     
   1.2812500000000000       0.40625000000000000        0.0000000000000000     
   1.3125000000000000       0.40625000000000000        0.0000000000000000     
   1.3437500000000000       0.40625000000000000        0.0000000000000000     
   1.3750000000000000       0.40625000000000000        0.0000000000000000     
   1.2500000000000000       0.43750000000000000        0.0000000000000000     
   1.2812500000000000       0.43750000000000000        0.0000000000000000     
   1.3125000000000000       0.43750000000000000        0.0000000000000000     
   1.3437500000000000       0.43750000000000000        0.0000000000000000     
   1.3750000000000000       0.43750000000000000        0.0000000000000000     
   1.2500000000000000       0.46875000000000000        0.0000000000000000     
   1.2812500000000000       0.46875000000000000        0.0000000000000000     
   1.3125000000000000       0.46875000000000000        0.0000000000000000     
   1.3437500000000000       0.46875000000000000        0.0000000000000000     
   1.3750000000000000       0.46875000000000000        0.0000000000000000     
   1.2500000000000000       0.50000000000000000        0.0000000000000000     
   1.2812500000000000       0.50000000000000000        0.0000000000000000     
   1.3125000000000000       0.50000000000000000        0.0000000000000000     
   1.3437500000000000       0.50000000000000000        0.0000000000000000     
   1.3750000000000000       0.50000000000000000        0.0000000000000000     
   1.3750000000000000       0.37500000000000000        0.0000000000000000     
   1.4062500000000000       0.37500000000000000        0.0000000000000000     
   1.4375000000000000       0.37500000000000000        0.0000000000000000     
   1.4687500000000000       0.37500000000000000        0.0000000000000000     
   1.5000000000000000       0.37500000000000000        0.0000000000000000     
   1.3750000000000000       0.40625000000000000        0.0000000000000000     
   1.4062500000000000       0.40625000000000000        0.0000000000000000     
   1.4375000000000000       0.40625000000000000        0.0000000000000000     
   1.4687500000000000       0.40625000000000000        0.0000000000000000     
   1.5000000000000000       0.40625000000000000        0.0000000000000000     
   1.3750000000000000       0.43750000000000000        0.0000000000000000     
   1.4062500000000000       0.43750000000000000        0.0000000000000000     
   1.4375000000000000       0.43750000000000000        0.0000000000000000     
   1.4687500000000000       0.43750000000000000        0.0000000000000000     
   1.5000000000000000       0.43750000000000000        0.0000000000000000     
   1.3750000000000000       0.46875000000000000        0.0000000000000000     
   1.4062500000000000       0.46875000000000000        0.0000000000000000     
   1.4375000000000000       0.46875000000000000        0.0000000000000000     
   1.4687500000000000       0.46875000000000000        0.0000000000000000     
   1.5000000000000000       0.46875000000000000        0.0000000000000000     
   1.3750000000000000       0.50000000000000000        0.0000000000000000     
   1.4062500000000000       0.50000000000000000        0.0000000000000000     
   1.4375000000000000       0.50000000000000000        0.0000000000000000     
   1.4687500000000000       0.50000000000000000        0.0000000000000000     
   1.5000000000000000       0.50000000000000000        0.0000000000000000     
  0.50000000000000000       0.50000000000000000        0.0000000000000000     
  0.53125000000000000       0.50000000000000000        0.0000000000000000     
  0.56250000000000000       0.50000000000000000        0.0000000000000000     
  0.59375000000000000       0.50000000000000000        0.0000000000000000     
  0.62500000000000000       0.50000000000000000        0.0000000000000000     
  0.50000000000000000       0.53125000000000000        0.0000000000000000     
  0.53125000000000000       0.53125000000000000        0.0000000000000000     
  0.56250000000000000       0.53125000000000000        0.0000000000000000     
  0.59375000000000000       0.53125000000000000        0.0000000000000000     
  0.62500000000000000       0.53125000000000000        0.0000000000000000     
  0.50000000000000000       0.56250000000000000        0.0000000000000000     
  0.53125000000000000       0.56250000000000000        0.0000000000000000     
  0.56250000000000000       0.56250000000000000        0.0000000000000000     
  0.59375000000000000       0.56250000000000000        0.0000000000000000     
  0.62500000000000000       0.56250000000000000        0.0000000000000000     
  0.50000000000000000       0.59375000000000000        0.0000000000000000     
  0.53125000000000000       0.59375000000000000        0.0000000000000000     
  0.56250000000000000       0.59375000000000000        0.0000000000000000     
  0.59375000000000000       0.59375000000000000        0.0000000000000000     
  0.62500000000000000       0.59375000000000000        0.0000000000000000     
  0.50000000000000000       0.62500000000000000        0.0000000000000000     
  0.53125000000000000       0.62500000000000000        0.0000000000000000     
  0.56250000000000000       0.62500000000000000        0.0000000000000000     
  0.59375000000000000       0.62500000000000000        0.0000000000000000     
  0.62500000000000000       0.62500000000000000        0.0000000000000000     
  0.62500000000000000       0.50000000000000000        0.0000000000000000     
  0.65625000000000000       0.50000000000000000        0.0000000000000000     
  0.68750000000000000       0.50000000000000000        0.0000000000000000     
  0.71875000000000000       0.50000000000000000        0.0000000000000000     
  0.75000000000000000       0.50000000000000000        0.0000000000000000     
  0.62500000000000000       0.53125000000000000        0.0000000000000000     
  0.65625000000000000       0.53125000000000000        0.0000000000000000     
  0.68750000000000000       0.53125000000000000        0.0000000000000000     
  0.71875000000000000       0.53125000000000000        0.0000000000000000     
  0.75000000000000000       0.53125000000000000        0.0000000000000000     
  0.62500000000000000       0.56250000000000000        0.0000000000000000     
  0.65625000000000000       0.56250000000000000        0.0000000000000000     
  0.68750000000000000       0.56250000000000000        0.0000000000000000     
  0.71875000000000000       0.56250000000000000        0.0000000000000000     
  0.75000000000000000       0.56250000000000000        0.0000000000000000     
  0.62500000000000000       0.59375000000000000        0.0000000000000000     
  0.65625000000000000       0.59375000000000000        0.0000000000000000     
  0.68750000000000000       0.59375000000000000        0.0000000000000000     
  0.71875000000000000       0.59375000000000000        0.0000000000000000     
  0.75000000000000000       0.59375000000000000        0.0000000000000000     
  0.62500000000000000       0.62500000000000000        0.0000000000000000     
  0.65625000000000000       0.62500000000000000        0.0000000000000000     
  0.68750000000000000       0.62500000000000000        0.0000000000000000     
  0.71875000000000000       0.62500000000000000        0.0000000000000000     
  0.75000000000000000       0.62500000000000000        0.0000000000000000     
  0.75000000000000000       0.50000000000000000        0.0000000000000000     
  0.78125000000000000       0.50000000000000000        0.0000000000000000     
  0.81250000000000000       0.50000000000000000        0.0000000000000000     
  0.84375000000000000       0.50000000000000000        0.0000000000000000     
  0.87500000000000000       0.50000000000000000        0.0000000000000000     
  0.75000000000000000       0.53125000000000000        0.0000000000000000     
  0.78125000000000000       0.53125000000000000        0.0000000000000000     
  0.81250000000000000       0.53125000000000000        0.0000000000000000     
  0.84375000000000000       0.53125000000000000        0.0000000000000000     
  0.87500000000000000       0.53125000000000000        0.0000000000000000     
  0.75000000000000000       0.56250000000000000        0.0000000000000000     
  0.78125000000000000       0.56250000000000000        0.0000000000000000     
  0.81250000000000000       0.56250000000000000        0.0000000000000000     
  0.84375000000000000       0.56250000000000000        0.0000000000000000     
  0.87500000000000000       0.56250000000000000        0.0000000000000000     
  0.75000000000000000       0.59375000000000000        0.0000000000000000     
  0.78125000000000000       0.59375000000000000        0.0000000000000000     
  0.81250000000000000       0.59375000000000000        0.0000000000000000     
  0.84375000000000000       0.59375000000000000        0.0000000000000000     
  0.87500000000000000       0.59375000000000000        0.0000000000000000     
  0.75000000000000000       0.62500000000000000        0.0000000000000000     
  0.78125000000000000       0.62500000000000000        0.0000000000000000     
  0.81250000000000000       0.62500000000000000        0.0000000000000000     
  0.84375000000000000       0.62500000000000000        0.0000000000000000     
  0.87500000000000000       0.62500000000000000        0.0000000000000000     
  0.87500000000000000       0.50000000000000000        0.0000000000000000     
  0.90625000000000000       0.50000000000000000        0.0000000000000000     
  0.93750000000000000       0.50000000000000000        0.0000000000000000     
  0.96875000000000000       0.50000000000000000        0.0000000000000000     
   1.0000000000000000       0.50000000000000000        0.0000000000000000     
  0.87500000000000000       0.53125000000000000        0.0000000000000000     
  0.90625000000000000       0.53125000000000000        0.0000000000000000     
  0.93750000000000000       0.53125000000000000        0.0000000000000000     
  0.96875000000000000       0.53125000000000000        0.0000000000000000     
   1.0000000000000000       0.53125000000000000        0.0000000000000000     
  0.87500000000000000       0.56250000000000000        0.0000000000000000     
  0.90625000000000000       0.56250000000000000        0.0000000000000000     
  0.93750000000000000       0.56250000000000000        0.0000000000000000     
  0.96875000000000000       0.56250000000000000        0.0000000000000000     
   1.0000000000000000       0.56250000000000000        0.0000000000000000     
  0.87500000000000000       0.59375000000000000        0.0000000000000000     
  0.90625000000000000       0.59375000000000000        0.0000000000000000     
  0.93750000000000000       0.59375000000000000        0.0000000000000000     
  0.96875000000000000       0.59375000000000000        0.0000000000000000     
   1.0000000000000000       0.59375000000000000        0.0000000000000000     
  0.87500000000000000       0.62500000000000000        0.0000000000000000     
  0.90625000000000000       0.62500000000000000        0.0000000000000000     
  0.93750000000000000       0.62500000000000000        0.0000000000000000     
  0.96875000000000000       0.62500000000000000        0.0000000000000000     
   1.0000000000000000       0.62500000000000000        0.0000000000000000     
   1.0000000000000000       0.50000000000000000        0.0000000000000000     
   1.0312500000000000       0.50000000000000000        0.0000000000000000     
   1.0625000000000000       0.50000000000000000        0.0000000000000000     
   1.0937500000000000       0.50000000000000000        0.0000000000000000     
   1.1250000000000000       0.50000000000000000        0.0000000000000000     
   1.0000000000000000       0.53125000000000000        0.0000000000000000     
   1.0312500000000000       0.53125000000000000        0.0000000000000000     
   1.0625000000000000       0.53125000000000000        0.0000000000000000     
   1.0937500000000000       0.53125000000000000        0.0000000000000000     
   1.1250000000000000       0.53125000000000000        0.0000000000000000     
   1.0000000000000000       0.56250000000000000        0.0000000000000000     
   1.0312500000000000       0.56250000000000000        0.0000000000000000     
   1.0625000000000000       0.56250000000000000        0.0000000000000000     
   1.0937500000000000       0.56250000000000000        0.0000000000000000     
   1.1250000000000000       0.56250000000000000        0.0000000000000000     
   1.0000000000000000       0.59375000000000000        0.0000000000000000     
   1.0312500000000000       0.59375000000000000        0.0000000000000000     
   1.0625000000000000       0.59375000000000000        0.0000000000000000     
   1.0937500000000000       0.59375000000000000        0.0000000000000000     
   1.1250000000000000       0.59375000000000000        0.0000000000000000     
   1.0000000000000000       0.62500000000000000        0.0000000000000000     
   1.0312500000000000       0.62500000000000000        0.0000000000000000     
   1.0625000000000000       0.62500000000000000        0.0000000000000000     
   1.0937500000000000       0.62500000000000000        0.0000000000000000     
   1.1250000000000000       0.62500000000000000        0.0000000000000000     
   1.1250000000000000       0.50000000000000000        0.0000000000000000     
   1.1562500000000000       0.50000000000000000        0.0000000000000000     
   1.1875000000000000       0.50000000000000000        0.0000000000000000     
   1.2187500000000000       0.50000000000000000        0.0000000000000000     
   1.2500000000000000       0.50000000000000000        0.0000000000000000     
   1.1250000000000000       0.53125000000000000        0.0000000000000000     
   1.1562500000000000       0.53125000000000000        0.0000000000000000     
   1.1875000000000000       0.53125000000000000        0.0000000000000000     
   1.2187500000000000       0.53125000000000000        0.0000000000000000     
   1.2500000000000000       0.53125000000000000        0.0000000000000000     
   1.1250000000000000       0.56250000000000000        0.0000000000000000     
   1.1562500000000000       0.56250000000000000        0.0000000000000000     
   1.1875000000000000       0.56250000000000000        0.0000000000000000     
   1.2187500000000000       0.56250000000000000        0.0000000000000000     
   1.2500000000000000       0.56250000000000000        0.0000000000000000     
   1.1250000000000000       0.59375000000000000        0.0000000000000000     
   1.1562500000000000       0.59375000000000000        0.0000000000000000     
   1.1875000000000000       0.59375000000000000        0.0000000000000000     
   1.2187500000000000       0.59375000000000000        0.0000000000000000     
   1.2500000000000000       0.59375000000000000        0.0000000000000000     
   1.1250000000000000       0.62500000000000000        0.0000000000000000     
   1.1562500000000000       0.62500000000000000        0.0000000000000000     
   1.1875000000000000       0.62500000000000000        0.0000000000000000     
   1.2187500000000000       0.62500000000000000        0.0000000000000000     
   1.2500000000000000       0.62500000000000000        0.0000000000000000     
   1.2500000000000000       0.50000000000000000        0.0000000000000000     
   1.2812500000000000       0.50000000000000000        0.0000000000000000     
   1.3125000000000000       0.50000000000000000        0.0000000000000000     
   1.3437500000000000       0.50000000000000000        0.0000000000000000     
   1.3750000000000000       0.50000000000000000        0.0000000000000000     
   1.2500000000000000       0.53125000000000000        0.0000000000000000     
   1.2812500000000000       0.53125000000000000        0.0000000000000000     
   1.3125000000000000       0.53125000000000000        0.0000000000000000     
   1.3437500000000000       0.53125000000000000        0.0000000000000000     
   1.3750000000000000       0.53125000000000000        0.0000000000000000     
   1.2500000000000000       0.56250000000000000        0.0000000000000000     
   1.2812500000000000       0.56250000000000000        0.0000000000000000     
   1.3125000000000000       0.56250000000000000        0.0000000000000000     
   1.3437500000000000       0.56250000000000000        0.0000000000000000     
   1.3750000000000000       0.56250000000000000        0.0000000000000000     
   1.2500000000000000       0.59375000000000000        0.0000000000000000     
   1.2812500000000000       0.59375000000000000        0.0000000000000000     
   1.3125000000000000       0.59375000000000000        0.0000000000000000     
   1.3437500000000000       0.59375000000000000        0.0000000000000000     
   1.3750000000000000       0.59375000000000000        0.0000000000000000     
   1.2500000000000000       0.62500000000000000        0.0000000000000000     
   1.2812500000000000       0.62500000000000000        0.0000000000000000     
   1.3125000000000000       0.62500000000000000        0.0000000000000000     
   1.3437500000000000       0.62500000000000000        0.0000000000000000     
   1.3750000000000000       0.62500000000000000        0.0000000000000000     
   1.3750000000000000       0.50000000000000000        0.0000000000000000     
   1.4062500000000000       0.50000000000000000        0.0000000000000000     
   1.4375000000000000       0.50000000000000000        0.0000000000000000     
   1.4687500000000000       0.50000000000000000        0.0000000000000000     
   1.5000000000000000       0.50000000000000000        0.0000000000000000     
   1.3750000000000000       0.53125000000000000        0.0000000000000000     
   1.4062500000000000       0.53125000000000000        0.0000000000000000     
   1.4375000000000000       0.53125000000000000        0.0000000000000000     
   1.4687500000000000       0.53125000000000000        0.0000000000000000     
   1.5000000000000000       0.53125000000000000        0.0000000000000000     
   1.3750000000000000       0.56250000000000000        0.0000000000000000     
   1.4062500000000000       0.56250000000000000        0.0000000000000000     
   1.4375000000000000       0.56250000000000000        0.0000000000000000     
   1.4687500000000000       0.56250000000000000        0.0000000000000000     
   1.5000000000000000       0.56250000000000000        0.0000000000000000     
   1.3750000000000000       0.59375000000000000        0.0000000000000000     
   1.4062500000000000       0.59375000000000000        0.0000000000000000     
   1.4375000000000000       0.59375000000000000        0.0000000000000000     
   1.4687500000000000       0.59375000000000000        0.0000000000000000     
   1.5000000000000000       0.59375000000000000        0.0000000000000000     
   1.3750000000000000       0.62500000000000000        0.0000000000000000     
   1.4062500000000000       0.62500000000000000        0.0000000000000000     
   1.4375000000000000       0.62500000000000000        0.0000000000000000     
   1.4687500000000000       0.62500000000000000        0.0000000000000000     
   1.5000000000000000       0.62500000000000000        0.0000000000000000     
  0.50000000000000000       0.62500000000000000        0.0000000000000000     
  0.53125000000000000       0.62500000000000000        0.0000000000000000     
  0.56250000000000000       0.62500000000000000        0.0000000000000000     
  0.59375000000000000       0.62500000000000000        0.0000000000000000     
  0.62500000000000000       0.62500000000000000        0.0000000000000000     
  0.50000000000000000       0.65625000000000000        0.0000000000000000     
  0.53125000000000000       0.65625000000000000        0.0000000000000000     
  0.56250000000000000       0.65625000000000000        0.0000000000000000     
  0.59375000000000000       0.65625000000000000        0.0000000000000000     
  0.62500000000000000       0.65625000000000000        0.0000000000000000     
  0.50000000000000000       0.68750000000000000        0.0000000000000000     
  0.53125000000000000       0.68750000000000000        0.0000000000000000     
  0.56250000000000000       0.68750000000000000        0.0000000000000000     
  0.59375000000000000       0.68750000000000000        0.0000000000000000     
  0.62500000000000000       0.68750000000000000        0.0000000000000000     
  0.50000000000000000       0.71875000000000000        0.0000000000000000     
  0.53125000000000000       0.71875000000000000        0.0000000000000000     
  0.56250000000000000       0.71875000000000000        0.0000000000000000     
  0.59375000000000000       0.71875000000000000        0.0000000000000000     
  0.62500000000000000       0.71875000000000000        0.0000000000000000     
  0.50000000000000000       0.75000000000000000        0.0000000000000000     
  0.53125000000000000       0.75000000000000000        0.0000000000000000     
  0.56250000000000000       0.75000000000000000        0.0000000000000000     
  0.59375000000000000       0.75000000000000000        0.0000000000000000     
  0.62500000000000000       0.75000000000000000        0.0000000000000000     
  0.62500000000000000       0.62500000000000000        0.0000000000000000     
  0.65625000000000000       0.62500000000000000        0.0000000000000000     
  0.68750000000000000       0.62500000000000000        0.0000000000000000     
  0.71875000000000000       0.62500000000000000        0.0000000000000000     
  0.75000000000000000       0.62500000000000000        0.0000000000000000     
  0.62500000000000000       0.65625000000000000        0.0000000000000000     
  0.65625000000000000       0.65625000000000000        0.0000000000000000     
  0.68750000000000000       0.65625000000000000        0.0000000000000000     
  0.71875000000000000       0.65625000000000000        0.0000000000000000     
  0.75000000000000000       0.65625000000000000        0.0000000000000000     
  0.62500000000000000       0.68750000000000000        0.0000000000000000     
  0.65625000000000000       0.68750000000000000        0.0000000000000000     
  0.68750000000000000       0.68750000000000000        0.0000000000000000     
  0.71875000000000000       0.68750000000000000        0.0000000000000000     
  0.75000000000000000       0.68750000000000000        0.0000000000000000     
  0.62500000000000000       0.71875000000000000        0.0000000000000000     
  0.65625000000000000       0.71875000000000000        0.0000000000000000     
  0.68750000000000000       0.71875000000000000        0.0000000000000000     
  0.71875000000000000       0.71875000000000000        0.0000000000000000     
  0.75000000000000000       0.71875000000000000        0.0000000000000000     
  0.62500000000000000       0.75000000000000000        0.0000000000000000     
  0.65625000000000000       0.75000000000000000        0.0000000000000000     
  0.68750000000000000       0.75000000000000000        0.0000000000000000     
  0.71875000000000000       0.75000000000000000        0.0000000000000000     
  0.75000000000000000       0.75000000000000000        0.0000000000000000     
  0.75000000000000000       0.62500000000000000        0.0000000000000000     
  0.78125000000000000       0.62500000000000000        0.0000000000000000     
  0.81250000000000000       0.62500000000000000        0.0000000000000000     
  0.84375000000000000       0.62500000000000000        0.0000000000000000     
  0.87500000000000000       0.62500000000000000        0.0000000000000000     
  0.75000000000000000       0.65625000000000000        0.0000000000000000     
  0.78125000000000000       0.65625000000000000        0.0000000000000000     
  0.81250000000000000       0.65625000000000000        0.0000000000000000     
  0.84375000000000000       0.65625000000000000        0.0000000000000000     
  0.87500000000000000       0.65625000000000000        0.0000000000000000     
  0.75000000000000000       0.68750000000000000        0.0000000000000000     
  0.78125000000000000       0.68750000000000000        0.0000000000000000     
  0.81250000000000000       0.68750000000000000        0.0000000000000000     
  0.84375000000000000       0.68750000000000000        0.0000000000000000     
  0.87500000000000000       0.68750000000000000        0.0000000000000000     
  0.75000000000000000       0.71875000000000000        0.0000000000000000     
  0.78125000000000000       0.71875000000000000        0.0000000000000000     
  0.81250000000000000       0.71875000000000000        0.0000000000000000     
  0.84375000000000000       0.71875000000000000        0.0000000000000000     
  0.87500000000000000       0.71875000000000000        0.0000000000000000     
  0.75000000000000000       0.75000000000000000        0.0000000000000000     
  0.78125000000000000       0.75000000000000000        0.0000000000000000     
  0.81250000000000000       0.75000000000000000        0.0000000000000000     
  0.84375000000000000       0.75000000000000000        0.0000000000000000     
  0.87500000000000000       0.75000000000000000        0.0000000000000000     
  0.87500000000000000       0.62500000000000000        0.0000000000000000     
  0.90625000000000000       0.62500000000000000        0.0000000000000000     
  0.93750000000000000       0.62500000000000000        0.0000000000000000     
  0.96875000000000000       0.62500000000000000        0.0000000000000000     
   1.0000000000000000       0.62500000000000000        0.0000000000000000     
  0.87500000000000000       0.65625000000000000        0.0000000000000000     
  0.90625000000000000       0.65625000000000000        0.0000000000000000     
  0.93750000000000000       0.65625000000000000        0.0000000000000000     
  0.96875000000000000       0.65625000000000000        0.0000000000000000     
   1.0000000000000000       0.65625000000000000        0.0000000000000000     
  0.87500000000000000       0.68750000000000000        0.0000000000000000     
  0.90625000000000000       0.68750000000000000        0.0000000000000000     
  0.93750000000000000       0.68750000000000000        0.0000000000000000     
  0.96875000000000000       0.68750000000000000        0.0000000000000000     
   1.0000000000000000       0.68750000000000000        0.0000000000000000     
  0.87500000000000000       0.71875000000000000        0.0000000000000000     
  0.90625000000000000       0.71875000000000000        0.0000000000000000     
  0.93750000000000000       0.71875000000000000        0.0000000000000000     
  0.96875000000000000       0.71875000000000000        0.0000000000000000     
   1.0000000000000000       0.71875000000000000        0.0000000000000000     
  0.87500000000000000       0.75000000000000000        0.0000000000000000     
  0.90625000000000000       0.75000000000000000        0.0000000000000000     
  0.93750000000000000       0.75000000000000000        0.0000000000000000     
  0.96875000000000000       0.75000000000000000        0.0000000000000000     
   1.0000000000000000       0.75000000000000000        0.0000000000000000     
   1.0000000000000000       0.62500000000000000        0.0000000000000000     
   1.0312500000000000       0.62500000000000000        0.0000000000000000     
   1.0625000000000000       0.62500000000000000        0.0000000000000000     
   1.0937500000000000       0.62500000000000000        0.0000000000000000     
   1.1250000000000000       0.62500000000000000        0.0000000000000000     
   1.0000000000000000       0.65625000000000000        0.0000000000000000     
   1.0312500000000000       0.65625000000000000        0.0000000000000000     
   1.0625000000000000       0.65625000000000000        0.0000000000000000     
   1.0937500000000000       0.65625000000000000        0.0000000000000000     
   1.1250000000000000       0.65625000000000000        0.0000000000000000     
   1.0000000000000000       0.68750000000000000        0.0000000000000000     
   1.0312500000000000       0.68750000000000000        0.0000000000000000     
   1.0625000000000000       0.68750000000000000        0.0000000000000000     
   1.0937500000000000       0.68750000000000000        0.0000000000000000     
   1.1250000000000000       0.68750000000000000        0.0000000000000000     
   1.0000000000000000       0.71875000000000000        0.0000000000000000     
   1.0312500000000000       0.71875000000000000        0.0000000000000000     
   1.0625000000000000       0.71875000000000000        0.0000000000000000     
   1.0937500000000000       0.71875000000000000        0.0000000000000000     
   1.1250000000000000       0.71875000000000000        0.0000000000000000     
   1.0000000000000000       0.75000000000000000        0.0000000000000000     
   1.0312500000000000       0.75000000000000000        0.0000000000000000     
   1.0625000000000000       0.75000000000000000        0.0000000000000000     
   1.0937500000000000       0.75000000000000000        0.0000000000000000     
   1.1250000000000000       0.75000000000000000        0.0000000000000000     
   1.1250000000000000       0.62500000000000000        0.0000000000000000     
   1.1562500000000000       0.62500000000000000        0.0000000000000000     
   1.1875000000000000       0.62500000000000000        0.0000000000000000     
   1.2187500000000000       0.62500000000000000        0.0000000000000000     
   1.2500000000000000       0.62500000000000000        0.0000000000000000     
   1.1250000000000000       0.65625000000000000        0.0000000000000000     
   1.1562500000000000       0.65625000000000000        0.0000000000000000     
   1.1875000000000000       0.65625000000000000        0.0000000000000000     
   1.2187500000000000       0.65625000000000000        0.0000000000000000     
   1.2500000000000000       0.65625000000000000        0.0000000000000000     
   1.1250000000000000       0.68750000000000000        0.0000000000000000     
   1.1562500000000000       0.68750000000000000        0.0000000000000000     
   1.1875000000000000       0.68750000000000000        0.0000000000000000     
   1.2187500000000000       0.68750000000000000        0.0000000000000000     
   1.2500000000000000       0.68750000000000000        0.0000000000000000     
   1.1250000000000000       0.71875000000000000        0.0000000000000000     
   1.1562500000000000       0.71875000000000000        0.0000000000000000     
   1.1875000000000000       0.71875000000000000        0.0000000000000000     
   1.2187500000000000       0.71875000000000000        0.0000000000000000     
   1.2500000000000000       0.71875000000000000        0.0000000000000000     
   1.1250000000000000       0.75000000000000000        0.0000000000000000     
   1.1562500000000000       0.75000000000000000        0.0000000000000000     
   1.1875000000000000       0.75000000000000000        0.0000000000000000     
   1.2187500000000000       0.75000000000000000        0.0000000000000000     
   1.2500000000000000       0.75000000000000000        0.0000000000000000     
   1.2500000000000000       0.62500000000000000        0.0000000000000000     
   1.2812500000000000       0.62500000000000000        0.0000000000000000     
   1.3125000000000000       0.62500000000000000        0.0000000000000000     
   1.3437500000000000       0.62500000000000000        0.0000000000000000     
   1.3750000000000000       0.62500000000000000        0.0000000000000000     
   1.2500000000000000       0.65625000000000000        0.0000000000000000     
   1.2812500000000000       0.65625000000000000        0.0000000000000000     
   1.3125000000000000       0.65625000000000000        0.0000000000000000     
   1.3437500000000000       0.65625000000000000        0.0000000000000000     
   1.3750000000000000       0.65625000000000000        0.0000000000000000     
   1.2500000000000000       0.68750000000000000        0.0000000000000000     
   1.2812500000000000       0.68750000000000000        0.0000000000000000     
   1.3125000000000000       0.68750000000000000        0.0000000000000000     
   1.3437500000000000       0.68750000000000000        0.0000000000000000     
   1.3750000000000000       0.68750000000000000        0.0000000000000000     
   1.2500000000000000       0.71875000000000000        0.0000000000000000     
   1.2812500000000000       0.71875000000000000        0.0000000000000000     
   1.3125000000000000       0.71875000000000000        0.0000000000000000     
   1.3437500000000000       0.71875000000000000        0.0000000000000000     
   1.3750000000000000       0.71875000000000000        0.0000000000000000     
   1.2500000000000000       0.75000000000000000        0.0000000000000000     
   1.2812500000000000       0.75000000000000000        0.0000000000000000     
   1.3125000000000000       0.75000000000000000        0.0000000000000000     
   1.3437500000000000       0.75000000000000000        0.0000000000000000     
   1.3750000000000000       0.75000000000000000        0.0000000000000000     
   1.3750000000000000       0.62500000000000000        0.0000000000000000     
   1.4062500000000000       0.62500000000000000        0.0000000000000000     
   1.4375000000000000       0.62500000000000000        0.0000000000000000     
   1.4687500000000000       0.62500000000000000        0.0000000000000000     
   1.5000000000000000       0.62500000000000000        0.0000000000000000     
   1.3750000000000000       0.65625000000000000        0.0000000000000000     
   1.4062500000000000       0.65625000000000000        0.0000000000000000     
   1.4375000000000000       0.65625000000000000        0.0000000000000000     
   1.4687500000000000       0.65625000000000000        0.0000000000000000     
   1.5000000000000000       0.65625000000000000        0.0000000000000000     
   1.3750000000000000       0.68750000000000000        0.0000000000000000     
   1.4062500000000000       0.68750000000000000        0.0000000000000000     
   1.4375000000000000       0.68750000000000000        0.0000000000000000     
   1.4687500000000000       0.68750000000000000        0.0000000000000000     
   1.5000000000000000       0.68750000000000000        0.0000000000000000     
   1.3750000000000000       0.71875000000000000        0.0000000000000000     
   1.4062500000000000       0.71875000000000000        0.0000000000000000     
   1.4375000000000000       0.71875000000000000        0.0000000000000000     
   1.4687500000000000       0.71875000000000000        0.0000000000000000     
   1.5000000000000000       0.71875000000000000        0.0000000000000000     
   1.3750000000000000       0.75000000000000000        0.0000000000000000     
   1.4062500000000000       0.75000000000000000        0.0000000000000000     
   1.4375000000000000       0.75000000000000000        0.0000000000000000     
   1.4687500000000000       0.75000000000000000        0.0000000000000000     
   1.5000000000000000       0.75000000000000000        0.0000000000000000     
  0.50000000000000000       0.75000000000000000        0.0000000000000000     
  0.53125000000000000       0.75000000000000000        0.0000000000000000     
  0.56250000000000000       0.75000000000000000        0.0000000000000000     
  0.59375000000000000       0.75000000000000000        0.0000000000000000     
  0.62500000000000000       0.75000000000000000        0.0000000000000000     
  0.50000000000000000       0.78125000000000000        0.0000000000000000     
  0.53125000000000000       0.78125000000000000        0.0000000000000000     
  0.56250000000000000       0.78125000000000000        0.0000000000000000     
  0.59375000000000000       0.78125000000000000        0.0000000000000000     
  0.62500000000000000       0.78125000000000000        0.0000000000000000     
  0.50000000000000000       0.81250000000000000        0.0000000000000000     
  0.53125000000000000       0.81250000000000000        0.0000000000000000     
  0.56250000000000000       0.81250000000000000        0.0000000000000000     
  0.59375000000000000       0.81250000000000000        0.0000000000000000     
  0.62500000000000000       0.81250000000000000        0.0000000000000000     
  0.50000000000000000       0.84375000000000000        0.0000000000000000     
  0.53125000000000000       0.84375000000000000        0.0000000000000000     
  0.56250000000000000       0.84375000000000000        0.0000000000000000     
  0.59375000000000000       0.84375000000000000        0.0000000000000000     
  0.62500000000000000       0.84375000000000000        0.0000000000000000     
  0.50000000000000000       0.87500000000000000        0.0000000000000000     
  0.53125000000000000       0.87500000000000000        0.0000000000000000     
  0.56250000000000000       0.87500000000000000        0.0000000000000000     
  0.59375000000000000       0.87500000000000000        0.0000000000000000     
  0.62500000000000000       0.87500000000000000        0.0000000000000000     
  0.62500000000000000       0.75000000000000000        0.0000000000000000     
  0.65625000000000000       0.75000000000000000        0.0000000000000000     
  0.68750000000000000       0.75000000000000000        0.0000000000000000     
  0.71875000000000000       0.75000000000000000        0.0000000000000000     
  0.75000000000000000       0.75000000000000000        0.0000000000000000     
  0.62500000000000000       0.78125000000000000        0.0000000000000000     
  0.65625000000000000       0.78125000000000000        0.0000000000000000     
  0.68750000000000000       0.78125000000000000        0.0000000000000000     
  0.71875000000000000       0.78125000000000000        0.0000000000000000     
  0.75000000000000000       0.78125000000000000        0.0000000000000000     
  0.62500000000000000       0.81250000000000000        0.0000000000000000     
  0.65625000000000000       0.81250000000000000        0.0000000000000000     
  0.68750000000000000       0.81250000000000000        0.0000000000000000     
  0.71875000000000000       0.81250000000000000        0.0000000000000000     
  0.75000000000000000       0.81250000000000000        0.0000000000000000     
  0.62500000000000000       0.84375000000000000        0.0000000000000000     
  0.65625000000000000       0.84375000000000000        0.0000000000000000     
  0.68750000000000000       0.84375000000000000        0.0000000000000000     
  0.71875000000000000       0.84375000000000000        0.0000000000000000     
  0.75000000000000000       0.84375000000000000        0.0000000000000000     
  0.62500000000000000       0.87500000000000000        0.0000000000000000     
  0.65625000000000000       0.87500000000000000        0.0000000000000000     
  0.68750000000000000       0.87500000000000000        0.0000000000000000     
  0.71875000000000000       0.87500000000000000        0.0000000000000000     
  0.75000000000000000       0.87500000000000000        0.0000000000000000     
  0.75000000000000000       0.75000000000000000        0.0000000000000000     
  0.78125000000000000       0.75000000000000000        0.0000000000000000     
  0.81250000000000000       0.75000000000000000        0.0000000000000000     
  0.84375000000000000       0.75000000000000000        0.0000000000000000     
  0.87500000000000000       0.75000000000000000        0.0000000000000000     
  0.75000000000000000       0.78125000000000000        0.0000000000000000     
  0.78125000000000000       0.78125000000000000        0.0000000000000000     
  0.81250000000000000       0.78125000000000000        0.0000000000000000     
  0.84375000000000000       0.78125000000000000        0.0000000000000000     
  0.87500000000000000       0.78125000000000000        0.0000000000000000     
  0.75000000000000000       0.81250000000000000        0.0000000000000000     
  0.78125000000000000       0.81250000000000000        0.0000000000000000     
  0.81250000000000000       0.81250000000000000        0.0000000000000000     
  0.84375000000000000       0.81250000000000000        0.0000000000000000     
  0.87500000000000000       0.81250000000000000        0.0000000000000000     
  0.75000000000000000       0.84375000000000000        0.0000000000000000     
  0.78125000000000000       0.84375000000000000        0.0000000000000000     
  0.81250000000000000       0.84375000000000000        0.0000000000000000     
  0.84375000000000000       0.84375000000000000        0.0000000000000000     
  0.87500000000000000       0.84375000000000000        0.0000000000000000     
  0.75000000000000000       0.87500000000000000        0.0000000000000000     
  0.78125000000000000       0.87500000000000000        0.0000000000000000     
  0.81250000000000000       0.87500000000000000        0.0000000000000000     
  0.84375000000000000       0.87500000000000000        0.0000000000000000     
  0.87500000000000000       0.87500000000000000        0.0000000000000000     
  0.87500000000000000       0.75000000000000000        0.0000000000000000     
  0.90625000000000000       0.75000000000000000        0.0000000000000000     
  0.93750000000000000       0.75000000000000000        0.0000000000000000     
  0.96875000000000000       0.75000000000000000        0.0000000000000000     
   1.0000000000000000       0.75000000000000000        0.0000000000000000     
  0.87500000000000000       0.78125000000000000        0.0000000000000000     
  0.90625000000000000       0.78125000000000000        0.0000000000000000     
  0.93750000000000000       0.78125000000000000        0.0000000000000000     
  0.96875000000000000       0.78125000000000000        0.0000000000000000     
   1.0000000000000000       0.78125000000000000        0.0000000000000000     
  0.87500000000000000       0.81250000000000000        0.0000000000000000     
  0.90625000000000000       0.81250000000000000        0.0000000000000000     
  0.93750000000000000       0.81250000000000000        0.0000000000000000     
  0.96875000000000000       0.81250000000000000        0.0000000000000000     
   1.0000000000000000       0.81250000000000000        0.0000000000000000     
  0.87500000000000000       0.84375000000000000        0.0000000000000000     
  0.90625000000000000       0.84375000000000000        0.0000000000000000     
  0.93750000000000000       0.84375000000000000        0.0000000000000000     
  0.96875000000000000       0.84375000000000000        0.0000000000000000     
   1.0000000000000000       0.84375000000000000        0.0000000000000000     
  0.87500000000000000       0.87500000000000000        0.0000000000000000     
  0.90625000000000000       0.87500000000000000        0.0000000000000000     
  0.93750000000000000       0.87500000000000000        0.0000000000000000     
  0.96875000000000000       0.87500000000000000        0.0000000000000000     
   1.0000000000000000       0.87500000000000000        0.0000000000000000     
   1.0000000000000000       0.75000000000000000        0.0000000000000000     
   1.0312500000000000       0.75000000000000000        0.0000000000000000     
   1.0625000000000000       0.75000000000000000        0.0000000000000000     
   1.0937500000000000       0.75000000000000000        0.0000000000000000     
   1.1250000000000000       0.75000000000000000        0.0000000000000000     
   1.0000000000000000       0.78125000000000000        0.0000000000000000     
   1.0312500000000000       0.78125000000000000        0.0000000000000000     
   1.0625000000000000       0.78125000000000000        0.0000000000000000     
   1.0937500000000000       0.78125000000000000        0.0000000000000000     
   1.1250000000000000       0.78125000000000000        0.0000000000000000     
   1.0000000000000000       0.81250000000000000        0.0000000000000000     
   1.0312500000000000       0.81250000000000000        0.0000000000000000     
   1.0625000000000000       0.81250000000000000        0.0000000000000000     
   1.0937500000000000       0.81250000000000000        0.0000000000000000     
   1.1250000000000000       0.81250000000000000        0.0000000000000000     
   1.0000000000000000       0.84375000000000000        0.0000000000000000     
   1.0312500000000000       0.84375000000000000        0.0000000000000000     
   1.0625000000000000       0.84375000000000000        0.0000000000000000     
   1.0937500000000000       0.84375000000000000        0.0000000000000000     
   1.1250000000000000       0.84375000000000000        0.0000000000000000     
   1.0000000000000000       0.87500000000000000        0.0000000000000000     
   1.0312500000000000       0.87500000000000000        0.0000000000000000     
   1.0625000000000000       0.87500000000000000        0.0000000000000000     
   1.0937500000000000       0.87500000000000000        0.0000000000000000     
   1.1250000000000000       0.87500000000000000        0.0000000000000000     
   1.1250000000000000       0.75000000000000000        0.0000000000000000     
   1.1562500000000000       0.75000000000000000        0.0000000000000000     
   1.1875000000000000       0.75000000000000000        0.0000000000000000     
   1.2187500000000000       0.75000000000000000        0.0000000000000000     
   1.2500000000000000       0.75000000000000000        0.0000000000000000     
   1.1250000000000000       0.78125000000000000        0.0000000000000000     
   1.1562500000000000       0.78125000000000000        0.0000000000000000     
   1.1875000000000000       0.78125000000000000        0.0000000000000000     
   1.2187500000000000       0.78125000000000000        0.0000000000000000     
   1.2500000000000000       0.78125000000000000        0.0000000000000000     
   1.1250000000000000       0.81250000000000000        0.0000000000000000     
   1.1562500000000000       0.81250000000000000        0.0000000000000000     
   1.1875000000000000       0.81250000000000000        0.0000000000000000     
   1.2187500000000000       0.81250000000000000        0.0000000000000000     
   1.2500000000000000       0.81250000000000000        0.0000000000000000     
   1.1250000000000000       0.84375000000000000        0.0000000000000000     
   1.1562500000000000       0.84375000000000000        0.0000000000000000     
   1.1875000000000000       0.84375000000000000        0.0000000000000000     
   1.2187500000000000       0.84375000000000000        0.0000000000000000     
   1.2500000000000000       0.84375000000000000        0.0000000000000000     
   1.1250000000000000       0.87500000000000000        0.0000000000000000     
   1.1562500000000000       0.87500000000000000        0.0000000000000000     
   1.1875000000000000       0.87500000000000000        0.0000000000000000     
   1.2187500000000000       0.87500000000000000        0.0000000000000000     
   1.2500000000000000       0.87500000000000000        0.0000000000000000     
   1.2500000000000000       0.75000000000000000        0.0000000000000000     
   1.2812500000000000       0.75000000000000000        0.0000000000000000     
   1.3125000000000000       0.75000000000000000        0.0000000000000000     
   1.3437500000000000       0.75000000000000000        0.0000000000000000     
   1.3750000000000000       0.75000000000000000        0.0000000000000000     
   1.2500000000000000       0.78125000000000000        0.0000000000000000     
   1.2812500000000000       0.78125000000000000        0.0000000000000000     
   1.3125000000000000       0.78125000000000000        0.0000000000000000     
   1.3437500000000000       0.78125000000000000        0.0000000000000000     
   1.3750000000000000       0.78125000000000000        0.0000000000000000     
   1.2500000000000000       0.81250000000000000        0.0000000000000000     
   1.2812500000000000       0.81250000000000000        0.0000000000000000     
   1.3125000000000000       0.81250000000000000        0.0000000000000000     
   1.3437500000000000       0.81250000000000000        0.0000000000000000     
   1.3750000000000000       0.81250000000000000        0.0000000000000000     
   1.2500000000000000       0.84375000000000000        0.0000000000000000     
   1.2812500000000000       0.84375000000000000        0.0000000000000000     
   1.3125000000000000       0.84375000000000000        0.0000000000000000     
   1.3437500000000000       0.84375000000000000        0.0000000000000000     
   1.3750000000000000       0.84375000000000000        0.0000000000000000     
   1.2500000000000000       0.87500000000000000        0.0000000000000000     
   1.2812500000000000       0.87500000000000000        0.0000000000000000     
   1.3125000000000000       0.87500000000000000        0.0000000000000000     
   1.3437500000000000       0.87500000000000000        0.0000000000000000     
   1.3750000000000000       0.87500000000000000        0.0000000000000000     
   1.3750000000000000       0.75000000000000000        0.0000000000000000     
   1.4062500000000000       0.75000000000000000        0.0000000000000000     
   1.4375000000000000       0.75000000000000000        0.0000000000000000     
   1.4687500000000000       0.75000000000000000        0.0000000000000000     
   1.5000000000000000       0.75000000000000000        0.0000000000000000     
   1.3750000000000000       0.78125000000000000        0.0000000000000000     
   1.4062500000000000       0.78125000000000000        0.0000000000000000     
   1.4375000000000000       0.78125000000000000        0.0000000000000000     
   1.4687500000000000       0.78125000000000000        0.0000000000000000     
   1.5000000000000000       0.78125000000000000        0.0000000000000000     
   1.3750000000000000       0.81250000000000000        0.0000000000000000     
   1.4062500000000000       0.81250000000000000        0.0000000000000000     
   1.4375000000000000       0.81250000000000000        0.0000000000000000     
   1.4687500000000000       0.81250000000000000        0.0000000000000000     
   1.5000000000000000       0.81250000000000000        0.0000000000000000     
   1.3750000000000000       0.84375000000000000        0.0000000000000000     
   1.4062500000000000       0.84375000000000000        0.0000000000000000     
   1.4375000000000000       0.84375000000000000        0.0000000000000000     
   1.4687500000000000       0.84375000000000000        0.0000000000000000     
   1.5000000000000000       0.84375000000000000        0.0000000000000000     
   1.3750000000000000       0.87500000000000000        0.0000000000000000     
   1.4062500000000000       0.87500000000000000        0.0000000000000000     
   1.4375000000000000       0.87500000000000000        0.0000000000000000     
   1.4687500000000000       0.87500000000000000        0.0000000000000000     
   1.5000000000000000       0.87500000000000000        0.0000000000000000     
  0.50000000000000000       0.87500000000000000        0.0000000000000000     
  0.53125000000000000       0.87500000000000000        0.0000000000000000     
  0.56250000000000000       0.87500000000000000        0.0000000000000000     
  0.59375000000000000       0.87500000000000000        0.0000000000000000     
  0.62500000000000000       0.87500000000000000        0.0000000000000000     
  0.50000000000000000       0.90625000000000000        0.0000000000000000     
  0.53125000000000000       0.90625000000000000        0.0000000000000000     
  0.56250000000000000       0.90625000000000000        0.0000000000000000     
  0.59375000000000000       0.90625000000000000        0.0000000000000000     
  0.62500000000000000       0.90625000000000000        0.0000000000000000     
  0.50000000000000000       0.93750000000000000        0.0000000000000000     
  0.53125000000000000       0.93750000000000000        0.0000000000000000     
  0.56250000000000000       0.93750000000000000        0.0000000000000000     
  0.59375000000000000       0.93750000000000000        0.0000000000000000     
  0.62500000000000000       0.93750000000000000        0.0000000000000000     
  0.50000000000000000       0.96875000000000000        0.0000000000000000     
  0.53125000000000000       0.96875000000000000        0.0000000000000000     
  0.56250000000000000       0.96875000000000000        0.0000000000000000     
  0.59375000000000000       0.96875000000000000        0.0000000000000000     
  0.62500000000000000       0.96875000000000000        0.0000000000000000     
  0.50000000000000000        1.0000000000000000        0.0000000000000000     
  0.53125000000000000        1.0000000000000000        0.0000000000000000     
  0.56250000000000000        1.0000000000000000        0.0000000000000000     
  0.59375000000000000        1.0000000000000000        0.0000000000000000     
  0.62500000000000000        1.0000000000000000        0.0000000000000000     
  0.62500000000000000       0.87500000000000000        0.0000000000000000     
  0.65625000000000000       0.87500000000000000        0.0000000000000000     
  0.68750000000000000       0.87500000000000000        0.0000000000000000     
  0.71875000000000000       0.87500000000000000        0.0000000000000000     
  0.75000000000000000       0.87500000000000000        0.0000000000000000     
  0.62500000000000000       0.90625000000000000        0.0000000000000000     
  0.65625000000000000       0.90625000000000000        0.0000000000000000     
  0.68750000000000000       0.90625000000000000        0.0000000000000000     
  0.71875000000000000       0.90625000000000000        0.0000000000000000     
  0.75000000000000000       0.90625000000000000        0.0000000000000000     
  0.62500000000000000       0.93750000000000000        0.0000000000000000     
  0.65625000000000000       0.93750000000000000        0.0000000000000000     
  0.68750000000000000       0.93750000000000000        0.0000000000000000     
  0.71875000000000000       0.93750000000000000        0.0000000000000000     
  0.75000000000000000       0.93750000000000000        0.0000000000000000     
  0.62500000000000000       0.96875000000000000        0.0000000000000000     
  0.65625000000000000       0.96875000000000000        0.0000000000000000     
  0.68750000000000000       0.96875000000000000        0.0000000000000000     
  0.71875000000000000       0.96875000000000000        0.0000000000000000     
  0.75000000000000000       0.96875000000000000        0.0000000000000000     
  0.62500000000000000        1.0000000000000000        0.0000000000000000     
  0.65625000000000000        1.0000000000000000        0.0000000000000000     
  0.68750000000000000        1.0000000000000000        0.0000000000000000     
  0.71875000000000000        1.0000000000000000        0.0000000000000000     
  0.75000000000000000        1.0000000000000000        0.0000000000000000     
  0.75000000000000000       0.87500000000000000        0.0000000000000000     
  0.78125000000000000       0.87500000000000000        0.0000000000000000     
  0.81250000000000000       0.87500000000000000        0.0000000000000000     
  0.84375000000000000       0.87500000000000000        0.0000000000000000     
  0.87500000000000000       0.87500000000000000        0.0000000000000000     
  0.75000000000000000       0.90625000000000000        0.0000000000000000     
  0.78125000000000000       0.90625000000000000        0.0000000000000000     
  0.81250000000000000       0.90625000000000000        0.0000000000000000     
  0.84375000000000000       0.90625000000000000        0.0000000000000000     
  0.87500000000000000       0.90625000000000000        0.0000000000000000     
  0.75000000000000000       0.93750000000000000        0.0000000000000000     
  0.78125000000000000       0.93750000000000000        0.0000000000000000     
  0.81250000000000000       0.93750000000000000        0.0000000000000000     
  0.84375000000000000       0.93750000000000000        0.0000000000000000     
  0.87500000000000000       0.93750000000000000        0.0000000000000000     
  0.75000000000000000       0.96875000000000000        0.0000000000000000     
  0.78125000000000000       0.96875000000000000        0.0000000000000000     
  0.81250000000000000       0.96875000000000000        0.0000000000000000     
  0.84375000000000000       0.96875000000000000        0.0000000000000000     
  0.87500000000000000       0.96875000000000000        0.0000000000000000     
  0.75000000000000000        1.0000000000000000        0.0000000000000000     
  0.78125000000000000        1.0000000000000000        0.0000000000000000     
  0.81250000000000000        1.0000000000000000        0.0000000000000000     
  0.84375000000000000        1.0000000000000000        0.0000000000000000     
  0.87500000000000000        1.0000000000000000        0.0000000000000000     
  0.87500000000000000       0.87500000000000000        0.0000000000000000     
  0.90625000000000000       0.87500000000000000        0.0000000000000000     
  0.93750000000000000       0.87500000000000000        0.0000000000000000     
  0.96875000000000000       0.87500000000000000        0.0000000000000000     
   1.0000000000000000       0.87500000000000000        0.0000000000000000     
  0.87500000000000000       0.90625000000000000        0.0000000000000000     
  0.90625000000000000       0.90625000000000000        0.0000000000000000     
  0.93750000000000000       0.90625000000000000        0.0000000000000000     
  0.96875000000000000       0.90625000000000000        0.0000000000000000     
   1.0000000000000000       0.90625000000000000        0.0000000000000000     
  0.87500000000000000       0.93750000000000000        0.0000000000000000     
  0.90625000000000000       0.93750000000000000        0.0000000000000000     
  0.93750000000000000       0.93750000000000000        0.0000000000000000     
  0.96875000000000000       0.93750000000000000        0.0000000000000000     
   1.0000000000000000       0.93750000000000000        0.0000000000000000     
  0.87500000000000000       0.96875000000000000        0.0000000000000000     
  0.90625000000000000       0.96875000000000000        0.0000000000000000     
  0.93750000000000000       0.96875000000000000        0.0000000000000000     
  0.96875000000000000       0.96875000000000000        0.0000000000000000     
   1.0000000000000000       0.96875000000000000        0.0000000000000000     
  0.87500000000000000        1.0000000000000000        0.0000000000000000     
  0.90625000000000000        1.0000000000000000        0.0000000000000000     
  0.93750000000000000        1.0000000000000000        0.0000000000000000     
  0.96875000000000000        1.0000000000000000        0.0000000000000000     
   1.0000000000000000        1.0000000000000000        0.0000000000000000     
   1.0000000000000000       0.87500000000000000        0.0000000000000000     
   1.0312500000000000       0.87500000000000000        0.0000000000000000     
   1.0625000000000000       0.87500000000000000        0.0000000000000000     
   1.0937500000000000       0.87500000000000000        0.0000000000000000     
   1.1250000000000000       0.87500000000000000        0.0000000000000000     
   1.0000000000000000       0.90625000000000000        0.0000000000000000     
   1.0312500000000000       0.90625000000000000        0.0000000000000000     
   1.0625000000000000       0.90625000000000000        0.0000000000000000     
   1.0937500000000000       0.90625000000000000        0.0000000000000000     
   1.1250000000000000       0.90625000000000000        0.0000000000000000     
   1.0000000000000000       0.93750000000000000        0.0000000000000000     
   1.0312500000000000       0.93750000000000000        0.0000000000000000     
   1.0625000000000000       0.93750000000000000        0.0000000000000000     
   1.0937500000000000       0.93750000000000000        0.0000000000000000     
   1.1250000000000000       0.93750000000000000        0.0000000000000000     
   1.0000000000000000       0.96875000000000000        0.0000000000000000     
   1.0312500000000000       0.96875000000000000        0.0000000000000000     
   1.0625000000000000       0.96875000000000000        0.0000000000000000     
   1.0937500000000000       0.96875000000000000        0.0000000000000000     
   1.1250000000000000       0.96875000000000000        0.0000000000000000     
   1.0000000000000000        1.0000000000000000        0.0000000000000000     
   1.0312500000000000        1.0000000000000000        0.0000000000000000     
   1.0625000000000000        1.0000000000000000        0.0000000000000000     
   1.0937500000000000        1.0000000000000000        0.0000000000000000     
   1.1250000000000000        1.0000000000000000        0.0000000000000000     
   1.1250000000000000       0.87500000000000000        0.0000000000000000     
   1.1562500000000000       0.87500000000000000        0.0000000000000000     
   1.1875000000000000       0.87500000000000000        0.0000000000000000     
   1.2187500000000000       0.87500000000000000        0.0000000000000000     
   1.2500000000000000       0.87500000000000000        0.0000000000000000     
   1.1250000000000000       0.90625000000000000        0.0000000000000000     
   1.1562500000000000       0.90625000000000000        0.0000000000000000     
   1.1875000000000000       0.90625000000000000        0.0000000000000000     
   1.2187500000000000       0.90625000000000000        0.0000000000000000     
   1.2500000000000000       0.90625000000000000        0.0000000000000000     
   1.1250000000000000       0.93750000000000000        0.0000000000000000     
   1.1562500000000000       0.93750000000000000        0.0000000000000000     
   1.1875000000000000       0.93750000000000000        0.0000000000000000     
   1.2187500000000000       0.93750000000000000        0.0000000000000000     
   1.2500000000000000       0.93750000000000000        0.0000000000000000     
   1.1250000000000000       0.96875000000000000        0.0000000000000000     
   1.1562500000000000       0.96875000000000000        0.0000000000000000     
   1.1875000000000000       0.96875000000000000        0.0000000000000000     
   1.2187500000000000       0.96875000000000000        0.0000000000000000     
   1.2500000000000000       0.96875000000000000        0.0000000000000000     
   1.1250000000000000        1.0000000000000000        0.0000000000000000     
   1.1562500000000000        1.0000000000000000        0.0000000000000000     
   1.1875000000000000        1.0000000000000000        0.0000000000000000     
   1.2187500000000000        1.0000000000000000        0.0000000000000000     
   1.2500000000000000        1.0000000000000000        0.0000000000000000     
   1.2500000000000000       0.87500000000000000        0.0000000000000000     
   1.2812500000000000       0.87500000000000000        0.0000000000000000     
   1.3125000000000000       0.87500000000000000        0.0000000000000000     
   1.3437500000000000       0.87500000000000000        0.0000000000000000     
   1.3750000000000000       0.87500000000000000        0.0000000000000000     
   1.2500000000000000       0.90625000000000000        0.0000000000000000     
   1.2812500000000000       0.90625000000000000        0.0000000000000000     
   1.3125000000000000       0.90625000000000000        0.0000000000000000     
   1.3437500000000000       0.90625000000000000        0.0000000000000000     
   1.3750000000000000       0.90625000000000000        0.0000000000000000     
   1.2500000000000000       0.93750000000000000        0.0000000000000000     
   1.2812500000000000       0.93750000000000000        0.0000000000000000     
   1.3125000000000000       0.93750000000000000        0.0000000000000000     
   1.3437500000000000       0.93750000000000000        0.0000000000000000     
   1.3750000000000000       0.93750000000000000        0.0000000000000000     
   1.2500000000000000       0.96875000000000000        0.0000000000000000     
   1.2812500000000000       0.96875000000000000        0.0000000000000000     
   1.3125000000000000       0.96875000000000000        0.0000000000000000     
   1.3437500000000000       0.96875000000000000        0.0000000000000000     
   1.3750000000000000       0.96875000000000000        0.0000000000000000     
   1.2500000000000000        1.0000000000000000        0.0000000000000000     
   1.2812500000000000        1.0000000000000000        0.0000000000000000     
   1.3125000000000000        1.0000000000000000        0.0000000000000000     
   1.3437500000000000        1.0000000000000000        0.0000000000000000     
   1.3750000000000000        1.0000000000000000        0.0000000000000000     
   1.3750000000000000       0.87500000000000000        0.0000000000000000     
   1.4062500000000000       0.87500000000000000        0.0000000000000000     
   1.4375000000000000       0.87500000000000000        0.0000000000000000     
   1.4687500000000000       0.87500000000000000        0.0000000000000000     
   1.5000000000000000       0.87500000000000000        0.0000000000000000     
   1.3750000000000000       0.90625000000000000        0.0000000000000000     
   1.4062500000000000       0.90625000000000000        0.0000000000000000     
   1.4375000000000000       0.90625000000000000        0.0000000000000000     
   1.4687500000000000       0.90625000000000000        0.0000000000000000     
   1.5000000000000000       0.90625000000000000        0.0000000000000000     
   1.3750000000000000       0.93750000000000000        0.0000000000000000     
   1.4062500000000000       0.93750000000000000        0.0000000000000000     
   1.4375000000000000       0.93750000000000000        0.0000000000000000     
   1.4687500000000000       0.93750000000000000        0.0000000000000000     
   1.5000000000000000       0.93750000000000000        0.0000000000000000     
   1.3750000000000000       0.96875000000000000        0.0000000000000000     
   1.4062500000000000       0.96875000000000000        0.0000000000000000     
   1.4375000000000000       0.96875000000000000        0.0000000000000000     
   1.4687500000000000       0.96875000000000000        0.0000000000000000     
   1.5000000000000000       0.96875000000000000        0.0000000000000000     
   1.3750000000000000        1.0000000000000000        0.0000000000000000     
   1.4062500000000000        1.0000000000000000        0.0000000000000000     
   1.4375000000000000        1.0000000000000000        0.0000000000000000     
   1.4687500000000000        1.0000000000000000        0.0000000000000000     
   1.5000000000000000        1.0000000000000000        0.0000000000000000     
 </DataArray>
 </Points>
 <Cells>
 <DataArray  type="Int32"  Name="connectivity"  format="ascii">
           0           1           6           5
           1           2           7           6
           2           3           8           7
           3           4           9           8
           5           6          11          10
           6           7          12          11
           7           8          13          12
           8           9          14          13
          10          11          16          15
          11          12          17          16
          12          13          18          17
          13          14          19          18
          15          16          21          20
          16          17          22          21
          17          18          23          22
          18          19          24          23
          25          26          31          30
          26          27          32          31
          27          28          33          32
          28          29          34          33
          30          31          36          35
          31          32          37          36
          32          33          38          37
          33          34          39          38
          35          36          41          40
          36          37          42          41
          37          38          43          42
          38          39          44          43
          40          41          46          45
          41          42          47          46
          42          43          48          47
          43          44          49          48
          50          51          56          55
          51          52          57          56
          52          53          58          57
          53          54          59          58
          55          56          61          60
          56          57          62          61
          57          58          63          62
          58          59          64          63
          60          61          66          65
          61          62          67          66
          62          63          68          67
          63          64          69          68
          65          66          71          70
          66          67          72          71
          67          68          73          72
          68          69          74          73
          75          76          81          80
          76          77          82          81
          77          78          83          82
          78          79          84          83
          80          81          86          85
          81          82          87          86
          82          83          88          87
          83          84          89          88
          85          86          91          90
          86          87          92          91
          87          88          93          92
          88          89          94          93
          90          91          96          95
          91          92          97          96
          92          93          98          97
          93          94          99          98
         100         101         106         105
         101         102         107         106
         102         103         108         107
         103         104         109         108
         105         106         111         110
         106         107         112         111
         107         108         113         112
         108         109         114         113
         110         111         116         115
         111         112         117         116
         112         113         118         117
         113         114         119         118
         115         116         121         120
         116         117         122         121
         117         118         123         122
         118         119         124         123
         125         126         131         130
         126         127         132         131
         127         128         133         132
         128         129         134         133
         130         131         136         135
         131         132         137         136
         132         133         138         137
         133         134         139         138
         135         136         141         140
         136         137         142         141
         137         138         143         142
         138         139         144         143
         140         141         146         145
         141         142         147         146
         142         143         148         147
         143         144         149         148
         150         151         156         155
         151         152         157         156
         152         153         158         157
         153         154         159         158
         155         156         161         160
         156         157         162         161
         157         158         163         162
         158         159         164         163
         160         161         166         165
         161         162         167         166
         162         163         168         167
         163         164         169         168
         165         166         171         170
         166         167         172         171
         167         168         173         172
         168         169         174         173
         175         176         181         180
         176         177         182         181
         177         178         183         182
         178         179         184         183
         180         181         186         185
         181         182         187         186
         182         183         188         187
         183         184         189         188
         185         186         191         190
         186         187         192         191
         187         188         193         192
         188         189         194         193
         190         191         196         195
         191         192         197         196
         192         193         198         197
         193         194         199         198
         200         201         206         205
         201         202         207         206
         202         203         208         207
         203         204         209         208
         205         206         211         210
         206         207         212         211
         207         208         213         212
         208         209         214         213
         210         211         216         215
         211         212         217         216
         212         213         218         217
         213         214         219         218
         215         216         221         220
         216         217         222         221
         217         218         223         222
         218         219         224         223
         225         226         231         230
         226         227         232         231
         227         228         233         232
         228         229         234         233
         230         231         236         235
         231         232         237         236
         232         233         238         237
         233         234         239         238
         235         236         241         240
         236         237         242         241
         237         238         243         242
         238         239         244         243
         240         241         246         245
         241         242         247         246
         242         243         248         247
         243         244         249         248
         250         251         256         255
         251         252         257         256
         252         253         258         257
         253         254         259         258
         255         256         261         260
         256         257         262         261
         257         258         263         262
         258         259         264         263
         260         261         266         265
         261         262         267         266
         262         263         268         267
         263         264         269         268
         265         266         271         270
         266         267         272         271
         267         268         273         272
         268         269         274         273
         275         276         281         280
         276         277         282         281
         277         278         283         282
         278         279         284         283
         280         281         286         285
         281         282         287         286
         282         283         288         287
         283         284         289         288
         285         286         291         290
         286         287         292         291
         287         288         293         292
         288         289         294         293
         290         291         296         295
         291         292         297         296
         292         293         298         297
         293         294         299         298
         300         301         306         305
         301         302         307         306
         302         303         308         307
         303         304         309         308
         305         306         311         310
         306         307         312         311
         307         308         313         312
         308         309         314         313
         310         311         316         315
         311         312         317         316
         312         313         318         317
         313         314         319         318
         315         316         321         320
         316         317         322         321
         317         318         323         322
         318         319         324         323
         325         326         331         330
         326         327         332         331
         327         328         333         332
         328         329         334         333
         330         331         336         335
         331         332         337         336
         332         333         338         337
         333         334         339         338
         335         336         341         340
         336         337         342         341
         337         338         343         342
         338         339         344         343
         340         341         346         345
         341         342         347         346
         342         343         348         347
         343         344         349         348
         350         351         356         355
         351         352         357         356
         352         353         358         357
         353         354         359         358
         355         356         361         360
         356         357         362         361
         357         358         363         362
         358         359         364         363
         360         361         366         365
         361         362         367         366
         362         363         368         367
         363         364         369         368
         365         366         371         370
         366         367         372         371
         367         368         373         372
         368         369         374         373
         375         376         381         380
         376         377         382         381
         377         378         383         382
         378         379         384         383
         380         381         386         385
         381         382         387         386
         382         383         388         387
         383         384         389         388
         385         386         391         390
         386         387         392         391
         387         388         393         392
         388         389         394         393
         390         391         396         395
         391         392         397         396
         392         393         398         397
         393         394         399         398
         400         401         406         405
         401         402         407         406
         402         403         408         407
         403         404         409         408
         405         406         411         410
         406         407         412         411
         407         408         413         412
         408         409         414         413
         410         411         416         415
         411         412         417         416
         412         413         418         417
         413         414         419         418
         415         416         421         420
         416         417         422         421
         417         418         423         422
         418         419         424         423
         425         426         431         430
         426         427         432         431
         427         428         433         432
         428         429         434         433
         430         431         436         435
         431         432         437         436
         432         433         438         437
         433         434         439         438
         435         436         441         440
         436         437         442         441
         437         438         443         442
         438         439         444         443
         440         441         446         445
         441         442         447         446
         442         443         448         447
         443         444         449         448
         450         451         456         455
         451         452         457         456
         452         453         458         457
         453         454         459         458
         455         456         461         460
         456         457         462         461
         457         458         463         462
         458         459         464         463
         460         461         466         465
         461         462         467         466
         462         463         468         467
         463         464         469         468
         465         466         471         470
         466         467         472         471
         467         468         473         472
         468         469         474         473
         475         476         481         480
         476         477         482         481
         477         478         483         482
         478         479         484         483
         480         481         486         485
         481         482         487         486
         482         483         488         487
         483         484         489         488
         485         486         491         490
         486         487         492         491
         487         488         493         492
         488         489         494         493
         490         491         496         495
         491         492         497         496
         492         493         498         497
         493         494         499         498
         500         501         506         505
         501         502         507         506
         502         503         508         507
         503         504         509         508
         505         506         511         510
         506         507         512         511
         507         508         513         512
         508         509         514         513
         510         511         516         515
         511         512         517         516
         512         513         518         517
         513         514         519         518
         515         516         521         520
         516         517         522         521
         517         518         523         522
         518         519         524         523
         525         526         531         530
         526         527         532         531
         527         528         533         532
         528         529         534         533
         530         531         536         535
         531         532         537         536
         532         533         538         537
         533         534         539         538
         535         536         541         540
         536         537         542         541
         537         538         543         542
         538         539         544         543
         540         541         546         545
         541         542         547         546
         542         543         548         547
         543         544         549         548
         550         551         556         555
         551         552         557         556
         552         553         558         557
         553         554         559         558
         555         556         561         560
         556         557         562         561
         557         558         563         562
         558         559         564         563
         560         561         566         565
         561         562         567         566
         562         563         568         567
         563         564         569         568
         565         566         571         570
         566         567         572         571
         567         568         573         572
         568         569         574         573
         575         576         581         580
         576         577         582         581
         577         578         583         582
         578         579         584         583
         580         581         586         585
         581         582         587         586
         582         583         588         587
         583         584         589         588
         585         586         591         590
         586         587         592         591
         587         588         593         592
         588         589         594         593
         590         591         596         595
         591         592         597         596
         592         593         598         597
         593         594         599         598
         600         601         606         605
         601         602         607         606
         602         603         608         607
         603         604         609         608
         605         606         611         610
         606         607         612         611
         607         608         613         612
         608         609         614         613
         610         611         616         615
         611         612         617         616
         612         613         618         617
         613         614         619         618
         615         616         621         620
         616         617         622         621
         617         618         623         622
         618         619         624         623
         625         626         631         630
         626         627         632         631
         627         628         633         632
         628         629         634         633
         630         631         636         635
         631         632         637         636
         632         633         638         637
         633         634         639         638
         635         636         641         640
         636         637         642         641
         637         638         643         642
         638         639         644         643
         640         641         646         645
         641         642         647         646
         642         643         648         647
         643         644         649         648
         650         651         656         655
         651         652         657         656
         652         653         658         657
         653         654         659         658
         655         656         661         660
         656         657         662         661
         657         658         663         662
         658         659         664         663
         660         661         666         665
         661         662         667         666
         662         663         668         667
         663         664         669         668
         665         666         671         670
         666         667         672         671
         667         668         673         672
         668         669         674         673
         675         676         681         680
         676         677         682         681
         677         678         683         682
         678         679         684         683
         680         681         686         685
         681         682         687         686
         682         683         688         687
         683         684         689         688
         685         686         691         690
         686         687         692         691
         687         688         693         692
         688         689         694         693
         690         691         696         695
         691         692         697         696
         692         693         698         697
         693         694         699         698
         700         701         706         705
         701         702         707         706
         702         703         708         707
         703         704         709         708
         705         706         711         710
         706         707         712         711
         707         708         713         712
         708         709         714         713
         710         711         716         715
         711         712         717         716
         712         713         718         717
         713         714         719         718
         715         716         721         720
         716         717         722         721
         717         718         723         722
         718         719         724         723
         725         726         731         730
         726         727         732         731
         727         728         733         732
         728         729         734         733
         730         731         736         735
         731         732         737         736
         732         733         738         737
         733         734         739         738
         735         736         741         740
         736         737         742         741
         737         738         743         742
         738         739         744         743
         740         741         746         745
         741         742         747         746
         742         743         748         747
         743         744         749         748
         750         751         756         755
         751         752         757         756
         752         753         758         757
         753         754         759         758
         755         756         761         760
         756         757         762         761
         757         758         763         762
         758         759         764         763
         760         761         766         765
         761         762         767         766
         762         763         768         767
         763         764         769         768
         765         766         771         770
         766         767         772         771
         767         768         773         772
         768         769         774         773
         775         776         781         780
         776         777         782         781
         777         778         783         782
         778         779         784         783
         780         781         786         785
         781         782         787         786
         782         783         788         787
         783         784         789         788
         785         786         791         790
         786         787         792         791
         787         788         793         792
         788         789         794         793
         790         791         796         795
         791         792         797         796
         792         793         798         797
         793         794         799         798
         800         801         806         805
         801         802         807         806
         802         803         808         807
         803         804         809         808
         805         806         811         810
         806         807         812         811
         807         808         813         812
         808         809         814         813
         810         811         816         815
         811         812         817         816
         812         813         818         817
         813         814         819         818
         815         816         821         820
         816         817         822         821
         817         818         823         822
         818         819         824         823
         825         826         831         830
         826         827         832         831
         827         828         833         832
         828         829         834         833
         830         831         836         835
         831         832         837         836
         832         833         838         837
         833         834         839         838
         835         836         841         840
         836         837         842         841
         837         838         843         842
         838         839         844         843
         840         841         846         845
         841         842         847         846
         842         843         848         847
         843         844         849         848
         850         851         856         855
         851         852         857         856
         852         853         858         857
         853         854         859         858
         855         856         861         860
         856         857         862         861
         857         858         863         862
         858         859         864         863
         860         861         866         865
         861         862         867         866
         862         863         868         867
         863         864         869         868
         865         866         871         870
         866         867         872         871
         867         868         873         872
         868         869         874         873
         875         876         881         880
         876         877         882         881
         877         878         883         882
         878         879         884         883
         880         881         886         885
         881         882         887         886
         882         883         888         887
         883         884         889         888
         885         886         891         890
         886         887         892         891
         887         888         893         892
         888         889         894         893
         890         891         896         895
         891         892         897         896
         892         893         898         897
         893         894         899         898
         900         901         906         905
         901         902         907         906
         902         903         908         907
         903         904         909         908
         905         906         911         910
         906         907         912         911
         907         908         913         912
         908         909         914         913
         910         911         916         915
         911         912         917         916
         912         913         918         917
         913         914         919         918
         915         916         921         920
         916         917         922         921
         917         918         923         922
         918         919         924         923
         925         926         931         930
         926         927         932         931
         927         928         933         932
         928         929         934         933
         930         931         936         935
         931         932         937         936
         932         933         938         937
         933         934         939         938
         935         936         941         940
         936         937         942         941
         937         938         943         942
         938         939         944         943
         940         941         946         945
         941         942         947         946
         942         943         948         947
         943         944         949         948
         950         951         956         955
         951         952         957         956
         952         953         958         957
         953         954         959         958
         955         956         961         960
         956         957         962         961
         957         958         963         962
         958         959         964         963
         960         961         966         965
         961         962         967         966
         962         963         968         967
         963         964         969         968
         965         966         971         970
         966         967         972         971
         967         968         973         972
         968         969         974         973
         975         976         981         980
         976         977         982         981
         977         978         983         982
         978         979         984         983
         980         981         986         985
         981         982         987         986
         982         983         988         987
         983         984         989         988
         985         986         991         990
         986         987         992         991
         987         988         993         992
         988         989         994         993
         990         991         996         995
         991         992         997         996
         992         993         998         997
         993         994         999         998
        1000        1001        1006        1005
        1001        1002        1007        1006
        1002        1003        1008        1007
        1003        1004        1009        1008
        1005        1006        1011        1010
        1006        1007        1012        1011
        1007        1008        1013        1012
        1008        1009        1014        1013
        1010        1011        1016        1015
        1011        1012        1017        1016
        1012        1013        1018        1017
        1013        1014        1019        1018
        1015        1016        1021        1020
        1016        1017        1022        1021
        1017        1018        1023        1022
        1018        1019        1024        1023
        1025        1026        1031        1030
        1026        1027        1032        1031
        1027        1028        1033        1032
        1028        1029        1034        1033
        1030        1031        1036        1035
        1031        1032        1037        1036
        1032        1033        1038        1037
        1033        1034        1039        1038
        1035        1036        1041        1040
        1036        1037        1042        1041
        1037        1038        1043        1042
        1038        1039        1044        1043
        1040        1041        1046        1045
        1041        1042        1047        1046
        1042        1043        1048        1047
        1043        1044        1049        1048
        1050        1051        1056        1055
        1051        1052        1057        1056
        1052        1053        1058        1057
        1053        1054        1059        1058
        1055        1056        1061        1060
        1056        1057        1062        1061
        1057        1058        1063        1062
        1058        1059        1064        1063
        1060        1061        1066        1065
        1061        1062        1067        1066
        1062        1063        1068        1067
        1063        1064        1069        1068
        1065        1066        1071        1070
        1066        1067        1072        1071
        1067        1068        1073        1072
        1068        1069        1074        1073
        1075        1076        1081        1080
        1076        1077        1082        1081
        1077        1078        1083        1082
        1078        1079        1084        1083
        1080        1081        1086        1085
        1081        1082        1087        1086
        1082        1083        1088        1087
        1083        1084        1089        1088
        1085        1086        1091        1090
        1086        1087        1092        1091
        1087        1088        1093        1092
        1088        1089        1094        1093
        1090        1091        1096        1095
        1091        1092        1097        1096
        1092        1093        1098        1097
        1093        1094        1099        1098
        1100        1101        1106        1105
        1101        1102        1107        1106
        1102        1103        1108        1107
        1103        1104        1109        1108
        1105        1106        1111        1110
        1106        1107        1112        1111
        1107        1108        1113        1112
        1108        1109        1114        1113
        1110        1111        1116        1115
        1111        1112        1117        1116
        1112        1113        1118        1117
        1113        1114        1119        1118
        1115        1116        1121        1120
        1116        1117        1122        1121
        1117        1118        1123        1122
        1118        1119        1124        1123
        1125        1126        1131        1130
        1126        1127        1132        1131
        1127        1128        1133        1132
        1128        1129        1134        1133
        1130        1131        1136        1135
        1131        1132        1137        1136
        1132        1133        1138        1137
        1133        1134        1139        1138
        1135        1136        1141        1140
        1136        1137        1142        1141
        1137        1138        1143        1142
        1138        1139        1144        1143
        1140        1141        1146        1145
        1141        1142        1147        1146
        1142        1143        1148        1147
        1143        1144        1149        1148
        1150        1151        1156        1155
        1151        1152        1157        1156
        1152        1153        1158        1157
        1153        1154        1159        1158
        1155        1156        1161        1160
        1156        1157        1162        1161
        1157        1158        1163        1162
        1158        1159        1164        1163
        1160        1161        1166        1165
        1161        1162        1167        1166
        1162        1163        1168        1167
        1163        1164        1169        1168
        1165        1166        1171        1170
        1166        1167        1172        1171
        1167        1168        1173        1172
        1168        1169        1174        1173
        1175        1176        1181        1180
        1176        1177        1182        1181
        1177        1178        1183        1182
        1178        1179        1184        1183
        1180        1181        1186        1185
        1181        1182        1187        1186
        1182        1183        1188        1187
        1183        1184        1189        1188
        1185        1186        1191        1190
        1186        1187        1192        1191
        1187        1188        1193        1192
        1188        1189        1194        1193
        1190        1191        1196        1195
        1191        1192        1197        1196
        1192        1193        1198        1197
        1193        1194        1199        1198
        1200        1201        1206        1205
        1201        1202        1207        1206
        1202        1203        1208        1207
        1203        1204        1209        1208
        1205        1206        1211        1210
        1206        1207        1212        1211
        1207        1208        1213        1212
        1208        1209        1214        1213
        1210        1211        1216        1215
        1211        1212        1217        1216
        1212        1213        1218        1217
        1213        1214        1219        1218
        1215        1216        1221        1220
        1216        1217        1222        1221
        1217        1218        1223        1222
        1218        1219        1224        1223
        1225        1226        1231        1230
        1226        1227        1232        1231
        1227        1228        1233        1232
        1228        1229        1234        1233
        1230        1231        1236        1235
        1231        1232        1237        1236
        1232        1233        1238        1237
        1233        1234        1239        1238
        1235        1236        1241        1240
        1236        1237        1242        1241
        1237        1238        1243        1242
        1238        1239        1244        1243
        1240        1241        1246        1245
        1241        1242        1247        1246
        1242        1243        1248        1247
        1243        1244        1249        1248
        1250        1251        1256        1255
        1251        1252        1257        1256
        1252        1253        1258        1257
        1253        1254        1259        1258
        1255        1256        1261        1260
        1256        1257        1262        1261
        1257        1258        1263        1262
        1258        1259        1264        1263
        1260        1261        1266        1265
        1261        1262        1267        1266
        1262        1263        1268        1267
        1263        1264        1269        1268
        1265        1266        1271        1270
        1266        1267        1272        1271
        1267        1268        1273        1272
        1268        1269        1274        1273
        1275        1276        1281        1280
        1276        1277        1282        1281
        1277        1278        1283        1282
        1278        1279        1284        1283
        1280        1281        1286        1285
        1281        1282        1287        1286
        1282        1283        1288        1287
        1283        1284        1289        1288
        1285        1286        1291        1290
        1286        1287        1292        1291
        1287        1288        1293        1292
        1288        1289        1294        1293
        1290        1291        1296        1295
        1291        1292        1297        1296
        1292        1293        1298        1297
        1293        1294        1299        1298
        1300        1301        1306        1305
        1301        1302        1307        1306
        1302        1303        1308        1307
        1303        1304        1309        1308
        1305        1306        1311        1310
        1306        1307        1312        1311
        1307        1308        1313        1312
        1308        1309        1314        1313
        1310        1311        1316        1315
        1311        1312        1317        1316
        1312        1313        1318        1317
        1313        1314        1319        1318
        1315        1316        1321        1320
        1316        1317        1322        1321
        1317        1318        1323        1322
        1318        1319        1324        1323
        1325        1326        1331        1330
        1326        1327        1332        1331
        1327        1328        1333        1332
        1328        1329        1334        1333
        1330        1331        1336        1335
        1331        1332        1337        1336
        1332        1333        1338        1337
        1333        1334        1339        1338
        1335        1336        1341        1340
        1336        1337        1342        1341
        1337        1338        1343        1342
        1338        1339        1344        1343
        1340        1341        1346        1345
        1341        1342        1347        1346
        1342        1343        1348        1347
        1343        1344        1349        1348
        1350        1351        1356        1355
        1351        1352        1357        1356
        1352        1353        1358        1357
        1353        1354        1359        1358
        1355        1356        1361        1360
        1356        1357        1362        1361
        1357        1358        1363        1362
        1358        1359        1364        1363
        1360        1361        1366        1365
        1361        1362        1367        1366
        1362        1363        1368        1367
        1363        1364        1369        1368
        1365        1366        1371        1370
        1366        1367        1372        1371
        1367        1368        1373        1372
        1368        1369        1374        1373
        1375        1376        1381        1380
        1376        1377        1382        1381
        1377        1378        1383        1382
        1378        1379        1384        1383
        1380        1381        1386        1385
        1381        1382        1387        1386
        1382        1383        1388        1387
        1383        1384        1389        1388
        1385        1386        1391        1390
        1386        1387        1392        1391
        1387        1388        1393        1392
        1388        1389        1394        1393
        1390        1391        1396        1395
        1391        1392        1397        1396
        1392        1393        1398        1397
        1393        1394        1399        1398
        1400        1401        1406        1405
        1401        1402        1407        1406
        1402        1403        1408        1407
        1403        1404        1409        1408
        1405        1406        1411        1410
        1406        1407        1412        1411
        1407        1408        1413        1412
        1408        1409        1414        1413
        1410        1411        1416        1415
        1411        1412        1417        1416
        1412        1413        1418        1417
        1413        1414        1419        1418
        1415        1416        1421        1420
        1416        1417        1422        1421
        1417        1418        1423        1422
        1418        1419        1424        1423
        1425        1426        1431        1430
        1426        1427        1432        1431
        1427        1428        1433        1432
        1428        1429        1434        1433
        1430        1431        1436        1435
        1431        1432        1437        1436
        1432        1433        1438        1437
        1433        1434        1439        1438
        1435        1436        1441        1440
        1436        1437        1442        1441
        1437        1438        1443        1442
        1438        1439        1444        1443
        1440        1441        1446        1445
        1441        1442        1447        1446
        1442        1443        1448        1447
        1443        1444        1449        1448
        1450        1451        1456        1455
        1451        1452        1457        1456
        1452        1453        1458        1457
        1453        1454        1459        1458
        1455        1456        1461        1460
        1456        1457        1462        1461
        1457        1458        1463        1462
        1458        1459        1464        1463
        1460        1461        1466        1465
        1461        1462        1467        1466
        1462        1463        1468        1467
        1463        1464        1469        1468
        1465        1466        1471        1470
        1466        1467        1472        1471
        1467        1468        1473        1472
        1468        1469        1474        1473
        1475        1476        1481        1480
        1476        1477        1482        1481
        1477        1478        1483        1482
        1478        1479        1484        1483
        1480        1481        1486        1485
        1481        1482        1487        1486
        1482        1483        1488        1487
        1483        1484        1489        1488
        1485        1486        1491        1490
        1486        1487        1492        1491
        1487        1488        1493        1492
        1488        1489        1494        1493
        1490        1491        1496        1495
        1491        1492        1497        1496
        1492        1493        1498        1497
        1493        1494        1499        1498
        1500        1501        1506        1505
        1501        1502        1507        1506
        1502        1503        1508        1507
        1503        1504        1509        1508
        1505        1506        1511        1510
        1506        1507        1512        1511
        1507        1508        1513        1512
        1508        1509        1514        1513
        1510        1511        1516        1515
        1511        1512        1517        1516
        1512        1513        1518        1517
        1513        1514        1519        1518
        1515        1516        1521        1520
        1516        1517        1522        1521
        1517        1518        1523        1522
        1518        1519        1524        1523
        1525        1526        1531        1530
        1526        1527        1532        1531
        1527        1528        1533        1532
        1528        1529        1534        1533
        1530        1531        1536        1535
        1531        1532        1537        1536
        1532        1533        1538        1537
        1533        1534        1539        1538
        1535        1536        1541        1540
        1536        1537        1542        1541
        1537        1538        1543        1542
        1538        1539        1544        1543
        1540        1541        1546        1545
        1541        1542        1547        1546
        1542        1543        1548        1547
        1543        1544        1549        1548
        1550        1551        1556        1555
        1551        1552        1557        1556
        1552        1553        1558        1557
        1553        1554        1559        1558
        1555        1556        1561        1560
        1556        1557        1562        1561
        1557        1558        1563        1562
        1558        1559        1564        1563
        1560        1561        1566        1565
        1561        1562        1567        1566
        1562        1563        1568        1567
        1563        1564        1569        1568
        1565        1566        1571        1570
        1566        1567        1572        1571
        1567        1568        1573        1572
        1568        1569        1574        1573
        1575        1576        1581        1580
        1576        1577        1582        1581
        1577        1578        1583        1582
        1578        1579        1584        1583
        1580        1581        1586        1585
        1581        1582        1587        1586
        1582        1583        1588        1587
        1583        1584        1589        1588
        1585        1586        1591        1590
        1586        1587        1592        1591
        1587        1588        1593        1592
        1588        1589        1594        1593
        1590        1591        1596        1595
        1591        1592        1597        1596
        1592        1593        1598        1597
        1593        1594        1599        1598
 </DataArray>
 <DataArray  type="Int32"  Name="offsets"  format="ascii"> 
           4
           8
          12
          16
          20
          24
          28
          32
          36
          40
          44
          48
          52
          56
          60
          64
          68
          72
          76
          80
          84
          88
          92
          96
         100
         104
         108
         112
         116
         120
         124
         128
         132
         136
         140
         144
         148
         152
         156
         160
         164
         168
         172
         176
         180
         184
         188
         192
         196
         200
         204
         208
         212
         216
         220
         224
         228
         232
         236
         240
         244
         248
         252
         256
         260
         264
         268
         272
         276
         280
         284
         288
         292
         296
         300
         304
         308
         312
         316
         320
         324
         328
         332
         336
         340
         344
         348
         352
         356
         360
         364
         368
         372
         376
         380
         384
         388
         392
         396
         400
         404
         408
         412
         416
         420
         424
         428
         432
         436
         440
         444
         448
         452
         456
         460
         464
         468
         472
         476
         480
         484
         488
         492
         496
         500
         504
         508
         512
         516
         520
         524
         528
         532
         536
         540
         544
         548
         552
         556
         560
         564
         568
         572
         576
         580
         584
         588
         592
         596
         600
         604
         608
         612
         616
         620
         624
         628
         632
         636
         640
         644
         648
         652
         656
         660
         664
         668
         672
         676
         680
         684
         688
         692
         696
         700
         704
         708
         712
         716
         720
         724
         728
         732
         736
         740
         744
         748
         752
         756
         760
         764
         768
         772
         776
         780
         784
         788
         792
         796
         800
         804
         808
         812
         816
         820
         824
         828
         832
         836
         840
         844
         848
         852
         856
         860
         864
         868
         872
         876
         880
         884
         888
         892
         896
         900
         904
         908
         912
         916
         920
         924
         928
         932
         936
         940
         944
         948
         952
         956
         960
         964
         968
         972
         976
         980
         984
         988
         992
         996
        1000
        1004
        1008
        1012
        1016
        1020
        1024
        1028
        1032
        1036
        1040
        1044
        1048
        1052
        1056
        1060
        1064
        1068
        1072
        1076
        1080
        1084
        1088
        1092
        1096
        1100
        1104
        1108
        1112
        1116
        1120
        1124
        1128
        1132
        1136
        1140
        1144
        1148
        1152
        1156
        1160
        1164
        1168
        1172
        1176
        1180
        1184
        1188
        1192
        1196
        1200
        1204
        1208
        1212
        1216
        1220
        1224
        1228
        1232
        1236
        1240
        1244
        1248
        1252
        1256
        1260
        1264
        1268
        1272
        1276
        1280
        1284
        1288
        1292
        1296
        1300
        1304
        1308
        1312
        1316
        1320
        1324
        1328
        1332
        1336
        1340
        1344
        1348
        1352
        1356
        1360
        1364
        1368
        1372
        1376
        1380
        1384
        1388
        1392
        1396
        1400
        1404
        1408
        1412
        1416
        1420
        1424
        1428
        1432
        1436
        1440
        1444
        1448
        1452
        1456
        1460
        1464
        1468
        1472
        1476
        1480
        1484
        1488
        1492
        1496
        1500
        1504
        1508
        1512
        1516
        1520
        1524
        1528
        1532
        1536
        1540
        1544
        1548
        1552
        1556
        1560
        1564
        1568
        1572
        1576
        1580
        1584
        1588
        1592
        1596
        1600
        1604
        1608
        1612
        1616
        1620
        1624
        1628
        1632
        1636
        1640
        1644
        1648
        1652
        1656
        1660
        1664
        1668
        1672
        1676
        1680
        1684
        1688
        1692
        1696
        1700
        1704
        1708
        1712
        1716
        1720
        1724
        1728
        1732
        1736
        1740
        1744
        1748
        1752
        1756
        1760
        1764
        1768
        1772
        1776
        1780
        1784
        1788
        1792
        1796
        1800
        1804
        1808
        1812
        1816
        1820
        1824
        1828
        1832
        1836
        1840
        1844
        1848
        1852
        1856
        1860
        1864
        1868
        1872
        1876
        1880
        1884
        1888
        1892
        1896
        1900
        1904
        1908
        1912
        1916
        1920
        1924
        1928
        1932
        1936
        1940
        1944
        1948
        1952
        1956
        1960
        1964
        1968
        1972
        1976
        1980
        1984
        1988
        1992
        1996
        2000
        2004
        2008
        2012
        2016
        2020
        2024
        2028
        2032
        2036
        2040
        2044
        2048
        2052
        2056
        2060
        2064
        2068
        2072
        2076
        2080
        2084
        2088
        2092
        2096
        2100
        2104
        2108
        2112
        2116
        2120
        2124
        2128
        2132
        2136
        2140
        2144
        2148
        2152
        2156
        2160
        2164
        2168
        2172
        2176
        2180
        2184
        2188
        2192
        2196
        2200
        2204
        2208
        2212
        2216
        2220
        2224
        2228
        2232
        2236
        2240
        2244
        2248
        2252
        2256
        2260
        2264
        2268
        2272
        2276
        2280
        2284
        2288
        2292
        2296
        2300
        2304
        2308
        2312
        2316
        2320
        2324
        2328
        2332
        2336
        2340
        2344
        2348
        2352
        2356
        2360
        2364
        2368
        2372
        2376
        2380
        2384
        2388
        2392
        2396
        2400
        2404
        2408
        2412
        2416
        2420
        2424
        2428
        2432
        2436
        2440
        2444
        2448
        2452
        2456
        2460
        2464
        2468
        2472
        2476
        2480
        2484
        2488
        2492
        2496
        2500
        2504
        2508
        2512
        2516
        2520
        2524
        2528
        2532
        2536
        2540
        2544
        2548
        2552
        2556
        2560
        2564
        2568
        2572
        2576
        2580
        2584
        2588
        2592
        2596
        2600
        2604
        2608
        2612
        2616
        2620
        2624
        2628
        2632
        2636
        2640
        2644
        2648
        2652
        2656
        2660
        2664
        2668
        2672
        2676
        2680
        2684
        2688
        2692
        2696
        2700
        2704
        2708
        2712
        2716
        2720
        2724
        2728
        2732
        2736
        2740
        2744
        2748
        2752
        2756
        2760
        2764
        2768
        2772
        2776
        2780
        2784
        2788
        2792
        2796
        2800
        2804
        2808
        2812
        2816
        2820
        2824
        2828
        2832
        2836
        2840
        2844
        2848
        2852
        2856
        2860
        2864
        2868
        2872
        2876
        2880
        2884
        2888
        2892
        2896
        2900
        2904
        2908
        2912
        2916
        2920
        2924
        2928
        2932
        2936
        2940
        2944
        2948
        2952
        2956
        2960
        2964
        2968
        2972
        2976
        2980
        2984
        2988
        2992
        2996
        3000
        3004
        3008
        3012
        3016
        3020
        3024
        3028
        3032
        3036
        3040
        3044
        3048
        3052
        3056
        3060
        3064
        3068
        3072
        3076
        3080
        3084
        3088
        3092
        3096
        3100
        3104
        3108
        3112
        3116
        3120
        3124
        3128
        3132
        3136
        3140
        3144
        3148
        3152
        3156
        3160
        3164
        3168
        3172
        3176
        3180
        3184
        3188
        3192
        3196
        3200
        3204
        3208
        3212
        3216
        3220
        3224
        3228
        3232
        3236
        3240
        3244
        3248
        3252
        3256
        3260
        3264
        3268
        3272
        3276
        3280
        3284
        3288
        3292
        3296
        3300
        3304
        3308
        3312
        3316
        3320
        3324
        3328
        3332
        3336
        3340
        3344
        3348
        3352
        3356
        3360
        3364
        3368
        3372
        3376
        3380
        3384
        3388
        3392
        3396
        3400
        3404
        3408
        3412
        3416
        3420
        3424
        3428
        3432
        3436
        3440
        3444
        3448
        3452
        3456
        3460
        3464
        3468
        3472
        3476
        3480
        3484
        3488
        3492
        3496
        3500
        3504
        3508
        3512
        3516
        3520
        3524
        3528
        3532
        3536
        3540
        3544
        3548
        3552
        3556
        3560
        3564
        3568
        3572
        3576
        3580
        3584
        3588
        3592
        3596
        3600
        3604
        3608
        3612
        3616
        3620
        3624
        3628
        3632
        3636
        3640
        3644
        3648
        3652
        3656
        3660
        3664
        3668
        3672
        3676
        3680
        3684
        3688
        3692
        3696
        3700
        3704
        3708
        3712
        3716
        3720
        3724
        3728
        3732
        3736
        3740
        3744
        3748
        3752
        3756
        3760
        3764
        3768
        3772
        3776
        3780
        3784
        3788
        3792
        3796
        3800
        3804
        3808
        3812
        3816
        3820
        3824
        3828
        3832
        3836
        3840
        3844
        3848
        3852
        3856
        3860
        3864
        3868
        3872
        3876
        3880
        3884
        3888
        3892
        3896
        3900
        3904
        3908
        3912
        3916
        3920
        3924
        3928
        3932
        3936
        3940
        3944
        3948
        3952
        3956
        3960
        3964
        3968
        3972
        3976
        3980
        3984
        3988
        3992
        3996
        4000
        4004
        4008
        4012
        4016
        4020
        4024
        4028
        4032
        4036
        4040
        4044
        4048
        4052
        4056
        4060
        4064
        4068
        4072
        4076
        4080
        4084
        4088
        4092
        4096
 </DataArray>
 <DataArray  type="UInt8"  Name="types"  format="ascii">
 9
 9
 9
 9
 9
 9
 9
 9
 9
 9
 9
 9
 9
 9
 9
 9
 9
 9
 9
 9
 9
 9
 9
 9
 9
 9
 9
 9
 9
 9
 9
 9
 9
 9
 9
 9
 9
 9
 9
 9
 9
 9
 9
 9
 9
 9
 9
 9
 9
 9
 9
 9
 9
 9
 9
 9
 9
 9
 9
 9
 9
 9
 9
 9
 9
 9
 9
 9
 9
 9
 9
 9
 9
 9
 9
 9
 9
 9
 9
 9
 9
 9
 9
 9
 9
 9
 9
 9
 9
 9
 9
 9
 9
 9
 9
 9
 9
 9
 9
 9
 9
 9
 9
 9
 9
 9
 9
 9
 9
 9
 9
 9
 9
 9
 9
 9
 9
 9
 9
 9
 9
 9
 9
 9
 9
 9
 9
 9
 9
 9
 9
 9
 9
 9
 9
 9
 9
 9
 9
 9
 9
 9
 9
 9
 9
 9
 9
 9
 9
 9
 9
 9
 9
 9
 9
 9
 9
 9
 9
 9
 9
 9
 9
 9
 9
 9
 9
 9
 9
 9
 9
 9
 9
 9
 9
 9
 9
 9
 9
 9
 9
 9
 9
 9
 9
 9
 9
 9
 9
 9
 9
 9
 9
 9
 9
 9
 9
 9
 9
 9
 9
 9
 9
 9
 9
 9
 9
 9
 9
 9
 9
 9
 9
 9
 9
 9
 9
 9
 9
 9
 9
 9
 9
 9
 9
 9
 9
 9
 9
 9
 9
 9
 9
 9
 9
 9
 9
 9
 9
 9
 9
 9
 9
 9
 9
 9
 9
 9
 9
 9
 9
 9
 9
 9
 9
 9
 9
 9
 9
 9
 9
 9
 9
 9
 9
 9
 9
 9
 9
 9
 9
 9
 9
 9
 9
 9
 9
 9
 9
 9
 9
 9
 9
 9
 9
 9
 9
 9
 9
 9
 9
 9
 9
 9
 9
 9
 9
 9
 9
 9
 9
 9
 9
 9
 9
 9
 9
 9
 9
 9
 9
 9
 9
 9
 9
 9
 9
 9
 9
 9
 9
 9
 9
 9
 9
 9
 9
 9
 9
 9
 9
 9
 9
 9
 9
 9
 9
 9
 9
 9
 9
 9
 9
 9
 9
 9
 9
 9
 9
 9
 9
 9
 9
 9
 9
 9
 9
 9
 9
 9
 9
 9
 9
 9
 9
 9
 9
 9
 9
 9
 9
 9
 9
 9
 9
 9
 9
 9
 9
 9
 9
 9
 9
 9
 9
 9
 9
 9
 9
 9
 9
 9
 9
 9
 9
 9
 9
 9
 9
 9
 9
 9
 9
 9
 9
 9
 9
 9
 9
 9
 9
 9
 9
 9
 9
 9
 9
 9
 9
 9
 9
 9
 9
 9
 9
 9
 9
 9
 9
 9
 9
 9
 9
 9
 9
 9
 9
 9
 9
 9
 9
 9
 9
 9
 9
 9
 9
 9
 9
 9
 9
 9
 9
 9
 9
 9
 9
 9
 9
 9
 9
 9
 9
 9
 9
 9
 9
 9
 9
 9
 9
 9
 9
 9
 9
 9
 9
 9
 9
 9
 9
 9
 9
 9
 9
 9
 9
 9
 9
 9
 9
 9
 9
 9
 9
 9
 9
 9
 9
 9
 9
 9
 9
 9
 9
 9
 9
 9
 9
 9
 9
 9
 9
 9
 9
 9
 9
 9
 9
 9
 9
 9
 9
 9
 9
 9
 9
 9
 9
 9
 9
 9
 9
 9
 9
 9
 9
 9
 9
 9
 9
 9
 9
 9
 9
 9
 9
 9
 9
 9
 9
 9
 9
 9
 9
 9
 9
 9
 9
 9
 9
 9
 9
 9
 9
 9
 9
 9
 9
 9
 9
 9
 9
 9
 9
 9
 9
 9
 9
 9
 9
 9
 9
 9
 9
 9
 9
 9
 9
 9
 9
 9
 9
 9
 9
 9
 9
 9
 9
 9
 9
 9
 9
 9
 9
 9
 9
 9
 9
 9
 9
 9
 9
 9
 9
 9
 9
 9
 9
 9
 9
 9
 9
 9
 9
 9
 9
 9
 9
 9
 9
 9
 9
 9
 9
 9
 9
 9
 9
 9
 9
 9
 9
 9
 9
 9
 9
 9
 9
 9
 9
 9
 9
 9
 9
 9
 9
 9
 9
 9
 9
 9
 9
 9
 9
 9
 9
 9
 9
 9
 9
 9
 9
 9
 9
 9
 9
 9
 9
 9
 9
 9
 9
 9
 9
 9
 9
 9
 9
 9
 9
 9
 9
 9
 9
 9
 9
 9
 9
 9
 9
 9
 9
 9
 9
 9
 9
 9
 9
 9
 9
 9
 9
 9
 9
 9
 9
 9
 9
 9
 9
 9
 9
 9
 9
 9
 9
 9
 9
 9
 9
 9
 9
 9
 9
 9
 9
 9
 9
 9
 9
 9
 9
 9
 9
 9
 9
 9
 9
 9
 9
 9
 9
 9
 9
 9
 9
 9
 9
 9
 9
 9
 9
 9
 9
 9
 9
 9
 9
 9
 9
 9
 9
 9
 9
 9
 9
 9
 9
 9
 9
 9
 9
 9
 9
 9
 9
 9
 9
 9
 9
 9
 9
 9
 9
 9
 9
 9
 9
 9
 9
 9
 9
 9
 9
 9
 9
 9
 9
 9
 9
 9
 9
 9
 9
 9
 9
 9
 9
 9
 9
 9
 9
 9
 9
 9
 9
 9
 9
 9
 9
 9
 9
 9
 9
 9
 9
 9
 9
 9
 9
 9
 9
 9
 9
 9
 9
 9
 9
 9
 9
 9
 9
 9
 9
 9
 9
 9
 9
 9
 9
 9
 9
 9
 9
 9
 9
 9
 9
 9
 9
 9
 9
 9
 9
 9
 9
 9
 9
 9
 9
 9
 9
 9
 9
 9
 9
 9
 9
 9
 9
 9
 9
 9
 9
 9
 9
 9
 9
 9
 9
 9
 9
 9
 9
 9
 9
 9
 9
 9
 9
 9
 9
 9
 9
 9
 9
 9
 9
 9
 9
 9
 9
 9
 9
 9
 9
 9
 9
 9
 9
 9
 9
 9
 9
 9
 9
 9
 9
 9
 9
 9
 9
 9
 9
 9
 9
 9
 9
 9
 9
 9
 9
 9
 9
 9
 9
 9
 9
 9
 9
 9
 9
 9
 9
 9
 9
 9
 9
 9
 9
 9
 9
 9
 9
 9
 9
 9
 9
 9
 9
 9
 9
 9
 9
 9
 9
 9
 9
 9
 9
 9
 9
 9
 9
 9
 9
 9
 9
 9
 9
 9
 9
 9
 9
 9
 9
 9
 9
 9
 9
 9
 9
 9
 9
 9
 9
 9
 9
 9
 9
 9
 9
 9
 </DataArray>
 </Cells> 
 <PointData>
 <DataArray  type="Float64" Name="disp" NumberOfComponents="3" format="ascii">
   6.7892472900871970E-002   5.9857317358931753E-002   0.0000000000000000     
   7.0049430735161039E-002   6.6745121886701092E-002   0.0000000000000000     
   7.2401467048785847E-002   7.3370306211170869E-002   0.0000000000000000     
   7.4948581841746381E-002   7.9732870332341096E-002   0.0000000000000000     
   7.7690775114042696E-002   8.5832814250211747E-002   0.0000000000000000     
   6.0726817407690967E-002   6.1027266055512716E-002   0.0000000000000000     
   6.3469064704082562E-002   6.6954365923442838E-002   0.0000000000000000     
   6.6206810296614946E-002   7.2914958129249197E-002   0.0000000000000000     
   6.8940054185288049E-002   7.8909042672931806E-002   0.0000000000000000     
   7.1668796370101928E-002   8.4936619554490667E-002   0.0000000000000000     
   5.5629517593889635E-002   6.1548402655704673E-002   0.0000000000000000     
   5.8466284488126602E-002   6.6862017556444359E-002   0.0000000000000000     
   6.1206026196314191E-002   7.2400544095126543E-002   0.0000000000000000     
   6.3848742718452423E-002   7.8163982271751184E-002   0.0000000000000000     
   6.6394434054541290E-002   8.4152332086318310E-002   0.0000000000000000     
   5.2600573459467982E-002   6.1420727159507645E-002   0.0000000000000000     
   5.5041090087293118E-002   6.6468076785705696E-002   0.0000000000000000     
   5.7399114747883631E-002   7.1827064108802893E-002   0.0000000000000000     
   5.9674647441239508E-002   7.7497689128799230E-002   0.0000000000000000     
   6.1867688167360740E-002   8.3479951845694692E-002   0.0000000000000000     
   5.1639985004426001E-002   6.0644239566921609E-002   0.0000000000000000     
   5.3193481501582131E-002   6.5772543611226808E-002   0.0000000000000000     
   5.4786075951323232E-002   7.1194518170278248E-002   0.0000000000000000     
   5.6417768353649290E-002   7.6910163244075902E-002   0.0000000000000000     
   5.8088558708560306E-002   8.2919478832619770E-002   0.0000000000000000     
   7.7690775114042696E-002   8.5832814250211747E-002   0.0000000000000000     
   8.0488311993588246E-002   9.1899659268758746E-002   0.0000000000000000     
   8.3201457608296614E-002   9.8162926691957947E-002   0.0000000000000000     
   8.5830211958167715E-002  0.10462261651980939        0.0000000000000000     
   8.8374575043201620E-002  0.11127872875231302        0.0000000000000000     
   7.1668796370101928E-002   8.4936619554490667E-002   0.0000000000000000     
   7.4346271386818014E-002   9.1071739397728321E-002   0.0000000000000000     
   7.6925713771197723E-002   9.7388452826447286E-002   0.0000000000000000     
   7.9407123523241085E-002  0.10388675984064756        0.0000000000000000     
   8.1790500642948072E-002  0.11056666044032915        0.0000000000000000     
   6.6394434054541290E-002   8.4152332086318310E-002   0.0000000000000000     
   6.8846024786056240E-002   9.0339068819773188E-002   0.0000000000000000     
   7.1206439494472723E-002   9.6697667753061045E-002   0.0000000000000000     
   7.3475678179790754E-002  0.10322812888618188        0.0000000000000000     
   7.5653740842010320E-002  0.10993045221913567        0.0000000000000000     
   6.1867688167360740E-002   8.3479951845694692E-002   0.0000000000000000     
   6.3987572191302911E-002   8.9701647534893333E-002   0.0000000000000000     
   6.6043634778121585E-002   9.6090571471799224E-002   0.0000000000000000     
   6.8035875927816722E-002  0.10264672365641229        0.0000000000000000     
   6.9964295640388405E-002  0.10937010408873263        0.0000000000000000     
   5.8088558708560306E-002   8.2919478832619770E-002   0.0000000000000000     
   5.9770913602558061E-002   8.9159475543088784E-002   0.0000000000000000     
   6.1437299622144302E-002   9.5567163982661796E-002   0.0000000000000000     
   6.3087716767319030E-002  0.10214254415133887        0.0000000000000000     
   6.4722165038082258E-002  0.10888561604911998        0.0000000000000000     
   8.8374575043201620E-002  0.11127872875231302        0.0000000000000000     
   9.0825687964900342E-002  0.11810340119690305        0.0000000000000000     
   9.3174691824765982E-002  0.12506877166101363        0.0000000000000000     
   9.5421586622798510E-002  0.13217484014464473        0.0000000000000000     
   9.7566372358997927E-002  0.13942160664779640        0.0000000000000000     
   8.1790500642948072E-002  0.11056666044032915        0.0000000000000000     
   8.4078759193682143E-002  0.11740974010336147        0.0000000000000000     
   8.6274813238806758E-002  0.12439758430761400        0.0000000000000000     
   8.8378662778321904E-002  0.13153019305308669        0.0000000000000000     
   9.0390307812227594E-002  0.13880756633977959        0.0000000000000000     
   7.5653740842010320E-002  0.10993045221913567        0.0000000000000000     
   7.7746299043401107E-002  0.11679218424418446        0.0000000000000000     
   7.9759024346232776E-002  0.12380087145359019        0.0000000000000000     
   8.1691916750505272E-002  0.13095651384735291        0.0000000000000000     
   8.3544976256218706E-002  0.13825911142547256        0.0000000000000000     
   6.9964295640388405E-002  0.10937010408873263        0.0000000000000000     
   7.1828307514057221E-002  0.11625073361937198        0.0000000000000000     
   7.3627325147043995E-002  0.12327863309894223        0.0000000000000000     
   7.5361348539348644E-002  0.13045380252744335        0.0000000000000000     
   7.7030377690971194E-002  0.13777624190487531        0.0000000000000000     
   6.4722165038082258E-002  0.10888561604911998        0.0000000000000000     
   6.6324784605650541E-002  0.11578538822892406        0.0000000000000000     
   6.7879715641240429E-002  0.12283086924367009        0.0000000000000000     
   6.9386958144851962E-002  0.13002205909335804        0.0000000000000000     
   7.0846512116485100E-002  0.13735895777798790        0.0000000000000000     
   9.7566372358997927E-002  0.13942160664779640        0.0000000000000000     
   9.9606051911516308E-002  0.14679147216792165        0.0000000000000000     
  0.10153762815850566       0.15426683770247351        0.0000000000000000     
  0.10336110109996605       0.16184770325145192        0.0000000000000000     
  0.10507647073589743       0.16953406881485700        0.0000000000000000     
   9.0390307812227594E-002  0.13880756633977959        0.0000000000000000     
   9.2305799485361190E-002  0.14620923523425444        0.0000000000000000     
   9.4121188942560025E-002  0.15371473080307305        0.0000000000000000     
   9.5836476183824112E-002  0.16132405304623540        0.0000000000000000     
   9.7451661209153467E-002  0.16903720196374150        0.0000000000000000     
   8.3544976256218706E-002  0.13825911142547256        0.0000000000000000     
   8.5312179122019952E-002  0.14568706149141994        0.0000000000000000     
   8.6987501606556064E-002  0.15321876134866580        0.0000000000000000     
   8.8570943709827030E-002  0.16085421099721017        0.0000000000000000     
   9.0062505431832848E-002  0.16859341043705306        0.0000000000000000     
   7.7030377690971194E-002  0.13777624190487531        0.0000000000000000     
   7.8625190821492594E-002  0.14522495093941817        0.0000000000000000     
   8.0136566150493790E-002  0.15277892933925180        0.0000000000000000     
   8.1564503677974798E-002  0.16043817710437627        0.0000000000000000     
   8.2909003403935602E-002  0.16820269423479151        0.0000000000000000     
   7.0846512116485100E-002  0.13735895777798790        0.0000000000000000     
   7.2244834583779102E-002  0.14482290357824912        0.0000000000000000     
   7.3568382574373203E-002  0.15239523477483105        0.0000000000000000     
   7.4817156088267417E-002  0.16007595136773370        0.0000000000000000     
   7.5991155125461729E-002  0.16786505335695706        0.0000000000000000     
  0.10507647073589743       0.16953406881485700        0.0000000000000000     
  0.10669041816669492       0.17732226141105589        0.0000000000000000     
  0.10820962449275354       0.18520860805841605        0.0000000000000000     
  0.10963408971407333       0.19319310875693735        0.0000000000000000     
  0.11096381383065426       0.20127576350661991        0.0000000000000000     
   9.7451661209153467E-002  0.16903720196374150        0.0000000000000000     
   9.8968363939116677E-002  0.17685253526049755        0.0000000000000000     
  0.10038820429428243       0.18476841064140975        0.0000000000000000     
  0.10171118227465069       0.19278482810647810        0.0000000000000000     
  0.10293729788022146       0.20090178765570257        0.0000000000000000     
   9.0062505431832848E-002  0.16859341043705306        0.0000000000000000     
   9.1461514093516147E-002  0.17643520782285049        0.0000000000000000     
   9.2767297015819553E-002  0.18437845130925867        0.0000000000000000     
   9.3979854198743107E-002  0.19242314089627760        0.0000000000000000     
   9.5099185642286754E-002  0.20056927658390725        0.0000000000000000     
   8.2909003403935602E-002  0.16820269423479151        0.0000000000000000     
   8.4169868629893299E-002  0.17607027909811468        0.0000000000000000     
   8.5346902657364943E-002  0.18403873006196281        0.0000000000000000     
   8.6440105486350560E-002  0.19210804712633589        0.0000000000000000     
   8.7449477116850152E-002  0.20027823029123387        0.0000000000000000     
   7.5991155125461729E-002  0.16786505335695706        0.0000000000000000     
   7.7093427548248133E-002  0.17575774908629022        0.0000000000000000     
   7.8127021218918569E-002  0.18374924689952218        0.0000000000000000     
   7.9091936137473090E-002  0.19183954679665297        0.0000000000000000     
   7.9988172303911628E-002  0.20002864877768259        0.0000000000000000     
  0.11096381383065426       0.20127576350661991        0.0000000000000000     
  0.11220458093802316       0.20945033177973996        0.0000000000000000     
  0.11336217513170679       0.21771057304857394        0.0000000000000000     
  0.11443659641170520       0.22605648731312181        0.0000000000000000     
  0.11542784477801832       0.23448807457338358        0.0000000000000000     
  0.10293729788022146       0.20090178765570257        0.0000000000000000     
  0.10407613584848451       0.20910866390150246        0.0000000000000000     
  0.10513728091692962       0.21739483145629698        0.0000000000000000     
  0.10612073308555674       0.22576029032008615        0.0000000000000000     
  0.10702649235436593       0.23420504049287000        0.0000000000000000     
   9.5099185642286754E-002  0.20056927658390725        0.0000000000000000     
   9.6135069314682242E-002  0.20880394438973265        0.0000000000000000     
   9.7097283184161276E-002  0.21711423033133878        0.0000000000000000     
   9.7985827250723828E-002  0.22550013440872579        0.0000000000000000     
   9.8800701514369954E-002  0.23396165662189353        0.0000000000000000     
   8.7449477116850152E-002  0.20027823029123387        0.0000000000000000     
   8.8381381336616341E-002  0.20853617324443058        0.0000000000000000     
   8.9242181933401790E-002  0.21686876967369945        0.0000000000000000     
   9.0031878907206514E-002  0.22527601957904067        0.0000000000000000     
   9.0750472258030471E-002  0.23375792296045403        0.0000000000000000     
   7.9988172303911628E-002  0.20002864877768259        0.0000000000000000     
   8.0815071914286815E-002  0.20830535046559617        0.0000000000000000     
   8.1571977164651158E-002  0.21665844948337887        0.0000000000000000     
   8.2258888055004711E-002  0.22508794583103070        0.0000000000000000     
   8.2875804585347448E-002  0.23359383950855167        0.0000000000000000     
  0.11542784477801832       0.23448807457338358        0.0000000000000000     
  0.11636743470791275       0.24301886616870755        0.0000000000000000     
  0.11728688067865504       0.25166239343844199        0.0000000000000000     
  0.11818618269024518       0.26041865638258699        0.0000000000000000     
  0.11906534074268317       0.26928765500114238        0.0000000000000000     
  0.10702649235436593       0.23420504049287000        0.0000000000000000     
  0.10786122577983369       0.24275089236507943        0.0000000000000000     
  0.10863160041843664       0.25141965632714536        0.0000000000000000     
  0.10933761627017477       0.26021133237906785        0.0000000000000000     
  0.10997927333504806       0.26912592052084683        0.0000000000000000     
   9.8800701514369954E-002  0.23396165662189353        0.0000000000000000     
   9.9533028458387574E-002  0.24252441405538319        0.0000000000000000     
  0.10017393056606463       0.25121402379373609        0.0000000000000000     
  0.10072340783740112       0.26003048583695215        0.0000000000000000     
  0.10118146027239708       0.26897380018503148        0.0000000000000000     
   9.0750472258030471E-002  0.23375792296045403        0.0000000000000000     
   9.1382842743574402E-002  0.24233943123961885        0.0000000000000000     
   9.1913871121538995E-002  0.25104549583821417        0.0000000000000000     
   9.2343557391924277E-002  0.25987611675624006        0.0000000000000000     
   9.2671901554730193E-002  0.26883129399369632        0.0000000000000000     
   8.2875804585347448E-002  0.23359383950855167        0.0000000000000000     
   8.3410668635394189E-002  0.24219594391778640        0.0000000000000000     
   8.3851422084859767E-002  0.25091407246057962        0.0000000000000000     
   8.4198064933744196E-002  0.25974822513693124        0.0000000000000000     
   8.4450597182047449E-002  0.26869840194684141        0.0000000000000000     
  0.11906534074268317       0.26928765500114238        0.0000000000000000     
  0.11986509721479713       0.27843517585942079        0.0000000000000000     
  0.12052619448541514       0.28802700552273441        0.0000000000000000     
  0.12104863255453727       0.29806314399108336        0.0000000000000000     
  0.12143241142216346       0.30854359126446768        0.0000000000000000     
  0.10997927333504806       0.26912592052084683        0.0000000000000000     
  0.11053804340817908       0.27829616691316328        0.0000000000000000     
  0.11099539828469036       0.28785481771669819        0.0000000000000000     
  0.11135133796458195       0.29780187293145161        0.0000000000000000     
  0.11160586244785378       0.30813733255742337        0.0000000000000000     
  0.10118146027239708       0.26897380018503148        0.0000000000000000     
  0.10155947887529206       0.27814244191290716        0.0000000000000000     
  0.10186885465032568       0.28763488609551252        0.0000000000000000     
  0.10210958759749796       0.29745113273284751        0.0000000000000000     
  0.10228167771680885       0.30759118182491219        0.0000000000000000     
   9.2671901554730193E-002  0.26883129399369632        0.0000000000000000     
   9.2929403616136053E-002  0.27797400085865237        0.0000000000000000     
   9.3146563582321096E-002  0.28736721065917742        0.0000000000000000     
   9.3323381453285281E-002  0.29701092339527130        0.0000000000000000     
   9.3459857229028664E-002  0.30690513906693412        0.0000000000000000     
   8.4450597182047449E-002  0.26869840194684141        0.0000000000000000     
   8.4647817630711067E-002  0.27779084375039897        0.0000000000000000     
   8.4828525080676564E-002  0.28705179140769271        0.0000000000000000     
   8.4992719531943942E-002  0.29648124491872280        0.0000000000000000     
   8.5140400984513212E-002  0.30607920428348911        0.0000000000000000     
   5.1639985004426001E-002   6.0644239566921609E-002   0.0000000000000000     
   5.3193481501582131E-002   6.5772543611226808E-002   0.0000000000000000     
   5.4786075951323232E-002   7.1194518170278248E-002   0.0000000000000000     
   5.6417768353649290E-002   7.6910163244075902E-002   0.0000000000000000     
   5.8088558708560306E-002   8.2919478832619770E-002   0.0000000000000000     
   5.0514864181853178E-002   5.9611700374740548E-002   0.0000000000000000     
   5.1181712665654619E-002   6.4960800224143508E-002   0.0000000000000000     
   5.2020367357024692E-002   7.0543932172888263E-002   0.0000000000000000     
   5.3030828255963391E-002   7.6361096220974783E-002   0.0000000000000000     
   5.4213095362470702E-002   8.2412292368403056E-002   0.0000000000000000     
   4.6992322944838995E-002   5.8715870079758418E-002   0.0000000000000000     
   4.7264037514171575E-002   6.4218228815591541E-002   0.0000000000000000     
   4.7755446515379718E-002   6.9916332009968510E-002   0.0000000000000000     
   4.8466549948463403E-002   7.5810179662889360E-002   0.0000000000000000     
   4.9397347813422650E-002   8.1899771774354022E-002   0.0000000000000000     
   4.1072361293383472E-002   5.7956748681975236E-002   0.0000000000000000     
   4.1440456047133013E-002   6.3544829385570906E-002   0.0000000000000000     
   4.1991313426388295E-002   6.9311717681519044E-002   0.0000000000000000     
   4.2724933431149345E-002   7.5257413569819631E-002   0.0000000000000000     
   4.3641316061416136E-002   8.1381917050472707E-002   0.0000000000000000     
   3.2754979227486582E-002   5.7334336181390985E-002   0.0000000000000000     
   3.3710968264538899E-002   6.2940601934081603E-002   0.0000000000000000     
   3.4727968090050444E-002   6.8730089187539825E-002   0.0000000000000000     
   3.5805978704021191E-002   7.4702797941765653E-002   0.0000000000000000     
   3.6945000106451166E-002   8.0858728196759058E-002   0.0000000000000000     
   5.8088558708560306E-002   8.2919478832619770E-002   0.0000000000000000     
   5.9770913602558061E-002   8.9159475543088784E-002   0.0000000000000000     
   6.1437299622144302E-002   9.5567163982661796E-002   0.0000000000000000     
   6.3087716767319030E-002  0.10214254415133887        0.0000000000000000     
   6.4722165038082258E-002  0.10888561604911998        0.0000000000000000     
   5.4213095362470702E-002   8.2412292368403056E-002   0.0000000000000000     
   5.5495168813879239E-002   8.8665449362667653E-002   0.0000000000000000     
   5.6805048747521604E-002   9.5088495951263063E-002   0.0000000000000000     
   5.8142735163397768E-002  0.10168143213418931        0.0000000000000000     
   5.9508228061507754E-002  0.10844425791144638        0.0000000000000000     
   4.9397347813422650E-002   8.1899771774354022E-002   0.0000000000000000     
   5.0459457619324043E-002   8.8172465511938150E-002   0.0000000000000000     
   5.1564496875234164E-002   9.4615618043217262E-002   0.0000000000000000     
   5.2712465581153035E-002  0.10122922936819140        0.0000000000000000     
   5.3903363737080642E-002  0.10801329948686052        0.0000000000000000     
   4.3641316061416136E-002   8.1381917050472707E-002   0.0000000000000000     
   4.4663780018892429E-002   8.7680523990900275E-002   0.0000000000000000     
   4.5715644005282011E-002   9.4148530258524418E-002   0.0000000000000000     
   4.6796908020584851E-002  0.10078593585334508        0.0000000000000000     
   4.7907572064800966E-002  0.10759274077536232        0.0000000000000000     
   3.6945000106451166E-002   8.0858728196759058E-002   0.0000000000000000     
   3.8108136012584441E-002   8.7189624799554014E-002   0.0000000000000000     
   3.9258490137665129E-002   9.3687232597184464E-002   0.0000000000000000     
   4.0396062481693210E-002  0.10035155158965041        0.0000000000000000     
   4.1520853044668696E-002  0.10718258177695189        0.0000000000000000     
   6.4722165038082258E-002  0.10888561604911998        0.0000000000000000     
   6.6324784605650541E-002  0.11578538822892406        0.0000000000000000     
   6.7879715641240429E-002  0.12283086924367009        0.0000000000000000     
   6.9386958144851962E-002  0.13002205909335804        0.0000000000000000     
   7.0846512116485100E-002  0.13735895777798790        0.0000000000000000     
   5.9508228061507754E-002  0.10844425791144638        0.0000000000000000     
   6.0871014349770255E-002  0.11536373084141704        0.0000000000000000     
   6.2200580936104040E-002  0.12242660848248399        0.0000000000000000     
   6.3496927820509086E-002  0.12963289083464721        0.0000000000000000     
   6.4760055002985387E-002  0.13698257789790674        0.0000000000000000     
   5.3903363737080642E-002  0.10801329948686052        0.0000000000000000     
   5.5102280778005656E-002  0.11495334422542722        0.0000000000000000     
   5.6274306138916715E-002  0.12203487941009408        0.0000000000000000     
   5.7419439819813831E-002  0.12925790504086110        0.0000000000000000     
   5.8537681820696991E-002  0.13662242111772829        0.0000000000000000     
   4.7907572064800966E-002  0.10759274077536232        0.0000000000000000     
   4.9018583890356709E-002  0.11455422838095464        0.0000000000000000     
   5.0100891249678460E-002  0.12165568202650043        0.0000000000000000     
   5.1154494142766203E-002  0.12889710171199975        0.0000000000000000     
   5.2179392569619953E-002  0.13627848743745252        0.0000000000000000     
   4.1520853044668696E-002  0.10718258177695189        0.0000000000000000     
   4.2619923686823435E-002  0.11416638330799926        0.0000000000000000     
   4.3680336268389276E-002  0.12128901633170297        0.0000000000000000     
   4.4702090789366218E-002  0.12855048084806303        0.0000000000000000     
   4.5685187249754247E-002  0.13595077685707946        0.0000000000000000     
   7.0846512116485100E-002  0.13735895777798790        0.0000000000000000     
   7.2244834583779102E-002  0.14482290357824912        0.0000000000000000     
   7.3568382574373203E-002  0.15239523477483105        0.0000000000000000     
   7.4817156088267417E-002  0.16007595136773370        0.0000000000000000     
   7.5991155125461729E-002  0.16786505335695706        0.0000000000000000     
   6.4760055002985387E-002  0.13698257789790674        0.0000000000000000     
   6.5973055404566133E-002  0.14446004210717669        0.0000000000000000     
   6.7119021946284538E-002  0.15204965589737124        0.0000000000000000     
   6.8197954628140614E-002  0.15975141926849035        0.0000000000000000     
   6.9209853450134334E-002  0.16756533222053399        0.0000000000000000     
   5.8537681820696991E-002  0.13662242111772829        0.0000000000000000     
   5.9611798279540357E-002  0.14411548922546491        0.0000000000000000     
   6.0624555334318070E-002  0.15172417094884016        0.0000000000000000     
   6.1575952985030116E-002  0.15944846628785414        0.0000000000000000     
   6.2465991231676503E-002  0.16728837524250675        0.0000000000000000     
   5.2179392569619953E-002  0.13627848743745252        0.0000000000000000     
   5.3161063208701786E-002  0.14378924493311362        0.0000000000000000     
   5.4084982738473779E-002  0.15141877992923783        0.0000000000000000     
   5.4951151158935944E-002  0.15916709242582505        0.0000000000000000     
   5.5759568470088262E-002  0.16703418242287538        0.0000000000000000     
   4.5685187249754247E-002  0.13595077685707946        0.0000000000000000     
   4.6620850192050395E-002  0.14348130923012295        0.0000000000000000     
   4.7500304158751672E-002  0.15113348283856418        0.0000000000000000     
   4.8323549149858071E-002  0.15890729768240314        0.0000000000000000     
   4.9090585165369585E-002  0.16680275376163989        0.0000000000000000     
   7.5991155125461729E-002  0.16786505335695706        0.0000000000000000     
   7.7093427548248133E-002  0.17575774908629022        0.0000000000000000     
   7.8127021218918569E-002  0.18374924689952218        0.0000000000000000     
   7.9091936137473090E-002  0.19183954679665297        0.0000000000000000     
   7.9988172303911628E-002  0.20002864877768259        0.0000000000000000     
   6.9209853450134334E-002  0.16756533222053399        0.0000000000000000     
   7.0161055789347948E-002  0.17548331618414115        0.0000000000000000     
   7.1057899022863760E-002  0.18349729258995082        0.0000000000000000     
   7.1900383150681715E-002  0.19160726143796294        0.0000000000000000     
   7.2688508172801841E-002  0.19981322272817759        0.0000000000000000     
   6.2465991231676503E-002  0.16728837524250675        0.0000000000000000     
   6.3301618293960110E-002  0.17523267878843179        0.0000000000000000     
   6.4089782391583791E-002  0.18327015790126286        0.0000000000000000     
   6.4830483524547580E-002  0.19140081258100006        0.0000000000000000     
   6.5523721692851422E-002  0.19962464282764331        0.0000000000000000     
   5.5759568470088262E-002  0.16703418242287538        0.0000000000000000     
   5.6515115062084564E-002  0.17500583689916205        0.0000000000000000     
   5.7222671325078689E-002  0.18306784283345837        0.0000000000000000     
   5.7882237259070622E-002  0.19122020022576419        0.0000000000000000     
   5.8493812864060371E-002  0.19946290907607972        0.0000000000000000     
   4.9090585165369585E-002  0.16680275376163989        0.0000000000000000     
   4.9801546093721338E-002  0.17480279051633202        0.0000000000000000     
   5.0456565823348440E-002  0.18289034738653717        0.0000000000000000     
   5.1055644354250883E-002  0.19106542437225552        0.0000000000000000     
   5.1598781686428688E-002  0.19932802147348685        0.0000000000000000     
   7.9988172303911628E-002  0.20002864877768259        0.0000000000000000     
   8.0815071914286815E-002  0.20830535046559617        0.0000000000000000     
   8.1571977164651158E-002  0.21665844948337887        0.0000000000000000     
   8.2258888055004711E-002  0.22508794583103070        0.0000000000000000     
   8.2875804585347448E-002  0.23359383950855167        0.0000000000000000     
   7.2688508172801841E-002  0.19981322272817759        0.0000000000000000     
   7.3414985745710981E-002  0.20810648743671503        0.0000000000000000     
   7.4072527525895937E-002  0.21647836653969563        0.0000000000000000     
   7.4661133513356695E-002  0.22492886003711934        0.0000000000000000     
   7.5180803708093311E-002  0.23345796792898624        0.0000000000000000     
   6.5523721692851422E-002  0.19962464282764331        0.0000000000000000     
   6.6159967528906183E-002  0.20793459554127267        0.0000000000000000     
   6.6729691665122604E-002  0.21632361762196822        0.0000000000000000     
   6.7232894101500712E-002  0.22479170906972995        0.0000000000000000     
   6.7669574838040494E-002  0.23333886988455779        0.0000000000000000     
   5.8493812864060371E-002  0.19946290907607972        0.0000000000000000     
   5.9050017263872413E-002  0.20778967477926910        0.0000000000000000     
   5.9543469582331192E-002  0.21619420273019663        0.0000000000000000     
   5.9974169819436728E-002  0.22467649292886235        0.0000000000000000     
   6.0342117975189000E-002  0.23323654537526622        0.0000000000000000     
   5.1598781686428688E-002  0.19932802147348685        0.0000000000000000     
   5.2085134950609679E-002  0.20767172515070431        0.0000000000000000     
   5.2513861277521702E-002  0.21609012186438092        0.0000000000000000     
   5.2884960667164749E-002  0.22458321161451669        0.0000000000000000     
   5.3198433119538840E-002  0.23315099440111162        0.0000000000000000     
   8.2875804585347448E-002  0.23359383950855167        0.0000000000000000     
   8.3410668635394189E-002  0.24219594391778640        0.0000000000000000     
   8.3851422084859767E-002  0.25091407246057962        0.0000000000000000     
   8.4198064933744196E-002  0.25974822513693124        0.0000000000000000     
   8.4450597182047449E-002  0.26869840194684141        0.0000000000000000     
   7.5180803708093311E-002  0.23345796792898624        0.0000000000000000     
   7.5626459751548220E-002  0.24207813211694709        0.0000000000000000     
   7.5993023285163983E-002  0.25080179450265261        0.0000000000000000     
   7.6280494308940558E-002  0.25962895508610284        0.0000000000000000     
   7.6488872822877946E-002  0.26855961386729776        0.0000000000000000     
   6.7669574838040494E-002  0.23333886988455779        0.0000000000000000     
   6.8040169709737849E-002  0.24197017586416217        0.0000000000000000     
   6.8345114551588704E-002  0.25069070280625338        0.0000000000000000     
   6.8584409363593016E-002  0.25950045071083144        0.0000000000000000     
   6.8758054145750813E-002  0.26839941957789631        0.0000000000000000     
   6.0342117975189000E-002  0.23323654537526622        0.0000000000000000     
   6.0651798509963058E-002  0.24187207515943163        0.0000000000000000     
   6.0907695884133931E-002  0.25058079737138195        0.0000000000000000     
   6.1109810097701597E-002  0.25936271201111716        0.0000000000000000     
   6.1258141150666086E-002  0.26821781907863718        0.0000000000000000     
   5.3198433119538840E-002  0.23315099440111162        0.0000000000000000     
   5.3461346152223838E-002  0.24178383000275550        0.0000000000000000     
   5.3680767282799649E-002  0.25047207819803824        0.0000000000000000     
   5.3856696511266289E-002  0.25921573898695982        0.0000000000000000     
   5.3989133837623729E-002  0.26801481236952029        0.0000000000000000     
   8.4450597182047449E-002  0.26869840194684141        0.0000000000000000     
   8.4647817630711067E-002  0.27779084375039897        0.0000000000000000     
   8.4828525080676564E-002  0.28705179140769271        0.0000000000000000     
   8.4992719531943942E-002  0.29648124491872280        0.0000000000000000     
   8.5140400984513212E-002  0.30607920428348911        0.0000000000000000     
   7.6488872822877946E-002  0.26855961386729776        0.0000000000000000     
   7.6658611492938414E-002  0.27758726751984342        0.0000000000000000     
   7.6830162985084188E-002  0.28670541271734573        0.0000000000000000     
   7.7003527299315311E-002  0.29591404945980498        0.0000000000000000     
   7.7178704435631754E-002  0.30521317774722079        0.0000000000000000     
   6.8758054145750813E-002  0.26839941957789631        0.0000000000000000     
   6.8905675776739395E-002  0.27735756909868237        0.0000000000000000     
   6.9066901135236045E-002  0.28634485896442369        0.0000000000000000     
   6.9241730221240735E-002  0.29536128917512045        0.0000000000000000     
   6.9430163034753523E-002  0.30440685973077242        0.0000000000000000     
   6.1258141150666086E-002  0.26821781907863718        0.0000000000000000     
   6.1389010482114023E-002  0.27710174848691582        0.0000000000000000     
   6.1538739531132071E-002  0.28597013014892647        0.0000000000000000     
   6.1707328297720243E-002  0.29482296406466924        0.0000000000000000     
   6.1894776781878512E-002  0.30366025023414422        0.0000000000000000     
   5.3989133837623729E-002  0.26801481236952029        0.0000000000000000     
   5.4108615609062292E-002  0.27681980568454367        0.0000000000000000     
   5.4245678172772316E-002  0.28558122627085408        0.0000000000000000     
   5.4400321528753792E-002  0.29429907412845152        0.0000000000000000     
   5.4572545677006729E-002  0.30297334925733604        0.0000000000000000     
   3.2754979227486582E-002   5.7334336181390985E-002   0.0000000000000000     
   3.3710968264538899E-002   6.2940601934081603E-002   0.0000000000000000     
   3.4727968090050444E-002   6.8730089187539825E-002   0.0000000000000000     
   3.5805978704021191E-002   7.4702797941765653E-002   0.0000000000000000     
   3.6945000106451166E-002   8.0858728196759058E-002   0.0000000000000000     
   2.4459522213228207E-002   5.6823073867610194E-002   0.0000000000000000     
   2.6024728015533967E-002   6.2417612808333189E-002   0.0000000000000000     
   2.7524390139847456E-002   6.8207882196030425E-002   0.0000000000000000     
   2.8958508586168663E-002   7.4193882030701902E-002   0.0000000000000000     
   3.0327083354497603E-002   8.0375612312347605E-002   0.0000000000000000     
   1.8605335716688209E-002   5.6397403030237367E-002   0.0000000000000000     
   2.0330889149262895E-002   6.1987928355535203E-002   0.0000000000000000     
   2.1939559209260637E-002   6.7781532374990405E-002   0.0000000000000000     
   2.3431345896681451E-002   7.3778215088602966E-002   0.0000000000000000     
   2.4806249211525314E-002   7.9977976496372880E-002   0.0000000000000000     
   1.5192419737866600E-002   5.6057323669272519E-002   0.0000000000000000     
   1.6629451665725690E-002   6.1651548575687658E-002   0.0000000000000000     
   1.7973475298290003E-002   6.7451039724419765E-002   0.0000000000000000     
   1.9224490635559536E-002   7.3455797115468860E-002   0.0000000000000000     
   2.0382497677534292E-002   7.9665820748834895E-002   0.0000000000000000     
   1.4220774276763366E-002   5.5802835784715635E-002   0.0000000000000000     
   1.4920415564922351E-002   6.1408473468790539E-002   0.0000000000000000     
   1.5626138406935542E-002   6.7216404244318489E-002   0.0000000000000000     
   1.6337942802802940E-002   7.3226628111299513E-002   0.0000000000000000     
   1.7055828752524545E-002   7.9439145069733597E-002   0.0000000000000000     
   3.6945000106451166E-002   8.0858728196759058E-002   0.0000000000000000     
   3.8108136012584441E-002   8.7189624799554014E-002   0.0000000000000000     
   3.9258490137665129E-002   9.3687232597184464E-002   0.0000000000000000     
   4.0396062481693210E-002  0.10035155158965041        0.0000000000000000     
   4.1520853044668696E-002  0.10718258177695189        0.0000000000000000     
   3.0327083354497603E-002   8.0375612312347605E-002   0.0000000000000000     
   3.1635048462710556E-002   8.6737220141943280E-002   0.0000000000000000     
   3.2887337928683806E-002   9.3262852620464673E-002   0.0000000000000000     
   3.4083951752417359E-002   9.9952509747911714E-002   0.0000000000000000     
   3.5224889933911201E-002  0.10680619152428447        0.0000000000000000     
   2.4806249211525314E-002   7.9977976496372880E-002   0.0000000000000000     
   2.6087040231581277E-002   8.6360762222112003E-002   0.0000000000000000     
   2.7296490034638344E-002   9.2906517889632126E-002   0.0000000000000000     
   2.8434598620696524E-002   9.9615243498933304E-002   0.0000000000000000     
   2.9501365989755824E-002  0.10648693905001545        0.0000000000000000     
   2.0382497677534292E-002   7.9665820748834895E-002   0.0000000000000000     
   2.1464111319196587E-002   8.6060251040060168E-002   0.0000000000000000     
   2.2485946455528733E-002   9.2618228404686920E-002   0.0000000000000000     
   2.3448003086530722E-002   9.9339752842715165E-002   0.0000000000000000     
   2.4350281212202566E-002  0.10622482435414486        0.0000000000000000     
   1.7055828752524545E-002   7.9439145069733597E-002   0.0000000000000000     
   1.7766261725556502E-002   8.5835686595787775E-002   0.0000000000000000     
   1.8455707191354975E-002   9.2397984165628999E-002   0.0000000000000000     
   1.9124165149919947E-002   9.9126037779257270E-002   0.0000000000000000     
   1.9771635601251430E-002  0.10601984743667267        0.0000000000000000     
   4.1520853044668696E-002  0.10718258177695189        0.0000000000000000     
   4.2619923686823435E-002  0.11416638330799926        0.0000000000000000     
   4.3680336268389276E-002  0.12128901633170297        0.0000000000000000     
   4.4702090789366218E-002  0.12855048084806303        0.0000000000000000     
   4.5685187249754247E-002  0.13595077685707946        0.0000000000000000     
   3.5224889933911201E-002  0.10680619152428447        0.0000000000000000     
   3.6313714276485609E-002  0.11381095762244142        0.0000000000000000     
   3.7353986583460862E-002  0.12095386771524103        0.0000000000000000     
   3.8345706854836951E-002  0.12823492180268334        0.0000000000000000     
   3.9288875090613865E-002  0.13565411988476833        0.0000000000000000     
   2.9501365989755824E-002  0.10648693905001545        0.0000000000000000     
   3.0507369768423030E-002  0.11350909994016140        0.0000000000000000     
   3.1463187583304915E-002  0.12066922156665384        0.0000000000000000     
   3.2368819434401508E-002  0.12796730392949282        0.0000000000000000     
   3.3224265321712777E-002  0.13540334702867829        0.0000000000000000     
   2.4350281212202566E-002  0.10622482435414486        0.0000000000000000     
   2.5200890162635669E-002  0.11326081026115924        0.0000000000000000     
   2.6007939267921446E-002  0.12043507788594142        0.0000000000000000     
   2.6771428528059884E-002  0.12774762722849145        0.0000000000000000     
   2.7491357943050992E-002  0.13519845828880936        0.0000000000000000     
   1.9771635601251430E-002  0.10601984743667267        0.0000000000000000     
   2.0394275459123552E-002  0.11306608858543489        0.0000000000000000     
   2.0988241637310438E-002  0.12025143667310377        0.0000000000000000     
   2.1553534135812090E-002  0.12757589169967931        0.0000000000000000     
   2.2090152954628503E-002  0.13503945366516151        0.0000000000000000     
   4.5685187249754247E-002  0.13595077685707946        0.0000000000000000     
   4.6620850192050395E-002  0.14348130923012295        0.0000000000000000     
   4.7500304158751672E-002  0.15113348283856418        0.0000000000000000     
   4.8323549149858071E-002  0.15890729768240314        0.0000000000000000     
   4.9090585165369585E-002  0.16680275376163989        0.0000000000000000     
   3.9288875090613865E-002  0.13565411988476833        0.0000000000000000     
   4.0180593833417828E-002  0.14320428182604933        0.0000000000000000     
   4.1017965625875036E-002  0.15087822749107960        0.0000000000000000     
   4.1800990467985480E-002  0.15867595687985922        0.0000000000000000     
   4.2529668359749181E-002  0.16659746999238811        0.0000000000000000     
   3.3224265321712777E-002  0.13540334702867829        0.0000000000000000     
   3.4029728736635678E-002  0.14297076243044921        0.0000000000000000     
   3.4785413170567138E-002  0.15066296170104446        0.0000000000000000     
   3.5491318623507156E-002  0.15847994484046407        0.0000000000000000     
   3.6147445095455727E-002  0.16642171184870808        0.0000000000000000     
   2.7491357943050992E-002  0.13519845828880936        0.0000000000000000     
   2.8168254901703965E-002  0.14278075104332261        0.0000000000000000     
   2.8802646792828002E-002  0.15048768546845873        0.0000000000000000     
   2.9394533616423097E-002  0.15831926156421783        0.0000000000000000     
   2.9943915372489246E-002  0.16627547933059980        0.0000000000000000     
   2.2090152954628503E-002  0.13503945366516151        0.0000000000000000     
   2.2596172328622682E-002  0.14263424766466951        0.0000000000000000     
   2.3069666492657608E-002  0.15035239879332246        0.0000000000000000     
   2.3510635446733291E-002  0.15819390705112035        0.0000000000000000     
   2.3919079190849721E-002  0.16615877243806321        0.0000000000000000     
   4.9090585165369585E-002  0.16680275376163989        0.0000000000000000     
   4.9801546093721338E-002  0.17480279051633202        0.0000000000000000     
   5.0456565823348440E-002  0.18289034738653717        0.0000000000000000     
   5.1055644354250883E-002  0.19106542437225552        0.0000000000000000     
   5.1598781686428688E-002  0.19932802147348685        0.0000000000000000     
   4.2529668359749181E-002  0.16659746999238811        0.0000000000000000     
   4.3199471088612010E-002  0.17462351429927150        0.0000000000000000     
   4.3805870442019848E-002  0.18273483727111459        0.0000000000000000     
   4.4348866419972696E-002  0.19093143890791736        0.0000000000000000     
   4.4828459022470561E-002  0.19921331920967977        0.0000000000000000     
   3.6147445095455727E-002  0.16642171184870808        0.0000000000000000     
   3.6747449746498156E-002  0.17446798290731058        0.0000000000000000     
   3.7284989736719704E-002  0.18259847819780567        0.0000000000000000     
   3.7760065066120389E-002  0.19081319772019334        0.0000000000000000     
   3.8172675734700193E-002  0.19911214147447368        0.0000000000000000     
   2.9943915372489246E-002  0.16627547933059980        0.0000000000000000     
   3.0445482067379778E-002  0.17433619634044917        0.0000000000000000     
   3.0893923707448021E-002  0.18248127016661039        0.0000000000000000     
   3.1289240292693955E-002  0.19071070080908353        0.0000000000000000     
   3.1631431823117589E-002  0.19902448826786850        0.0000000000000000     
   2.3919079190849721E-002  0.16615877243806321        0.0000000000000000     
   2.4293568051256893E-002  0.17422815459868726        0.0000000000000000     
   2.4632672354204785E-002  0.18238321317752879        0.0000000000000000     
   2.4936392099693398E-002  0.19062394817458783        0.0000000000000000     
   2.5204727287722738E-002  0.19895035958986435        0.0000000000000000     
   5.1598781686428688E-002  0.19932802147348685        0.0000000000000000     
   5.2085134950609679E-002  0.20767172515070431        0.0000000000000000     
   5.2513861277521702E-002  0.21609012186438092        0.0000000000000000     
   5.2884960667164749E-002  0.22458321161451669        0.0000000000000000     
   5.3198433119538840E-002  0.23315099440111162        0.0000000000000000     
   4.4828459022470561E-002  0.19921331920967977        0.0000000000000000     
   4.5250554254925246E-002  0.20757318308086972        0.0000000000000000     
   4.5621058122748560E-002  0.21600373542595486        0.0000000000000000     
   4.5939970625940491E-002  0.22450497624493537        0.0000000000000000     
   4.6207291764501036E-002  0.23307690553781102        0.0000000000000000     
   3.8172675734700193E-002  0.19911214147447368        0.0000000000000000     
   3.8531508842626384E-002  0.20748648499505667        0.0000000000000000     
   3.8845251490066193E-002  0.21592740381635228        0.0000000000000000     
   3.9113903677019633E-002  0.22443489793836066        0.0000000000000000     
   3.9337465403486684E-002  0.23300896736108170        0.0000000000000000     
   3.1631431823117589E-002  0.19902448826786850        0.0000000000000000     
   3.1927998713713088E-002  0.20741163089326517        0.0000000000000000     
   3.2186441379474622E-002  0.21586112703557320        0.0000000000000000     
   3.2406759820402170E-002  0.22437297669479270        0.0000000000000000     
   3.2588954036495754E-002  0.23294717987092345        0.0000000000000000     
   2.5204727287722738E-002  0.19895035958986435        0.0000000000000000     
   2.5440023868185360E-002  0.20734862077549526        0.0000000000000000     
   2.5644627790973817E-002  0.21580490508361763        0.0000000000000000     
   2.5818539056088118E-002  0.22431921251423131        0.0000000000000000     
   2.5961757663528262E-002  0.23289154306733645        0.0000000000000000     
   5.3198433119538840E-002  0.23315099440111162        0.0000000000000000     
   5.3461346152223838E-002  0.24178383000275550        0.0000000000000000     
   5.3680767282799649E-002  0.25047207819803824        0.0000000000000000     
   5.3856696511266289E-002  0.25921573898695982        0.0000000000000000     
   5.3989133837623729E-002  0.26801481236952029        0.0000000000000000     
   4.6207291764501036E-002  0.23307690553781102        0.0000000000000000     
   4.6431486165759164E-002  0.24170326123513253        0.0000000000000000     
   4.6621018457043813E-002  0.25036778126745018        0.0000000000000000     
   4.6775888638354989E-002  0.25907046563476410        0.0000000000000000     
   4.6896096709692685E-002  0.26781131433707417        0.0000000000000000     
   3.9337465403486684E-002  0.23300896736108170        0.0000000000000000     
   3.9524892079808034E-002  0.24162818969756128        0.0000000000000000     
   3.9685139116324368E-002  0.25027114256084548        0.0000000000000000     
   3.9818206513035657E-002  0.25893782595093418        0.0000000000000000     
   3.9924094269941930E-002  0.26762823986782736        0.0000000000000000     
   3.2588954036495754E-002  0.23294717987092345        0.0000000000000000     
   3.2741563894370433E-002  0.24155861539004189        0.0000000000000000     
   3.2873129260641273E-002  0.25018216207822414        0.0000000000000000     
   3.2983650135308275E-002  0.25881781993547009        0.0000000000000000     
   3.3073126518371430E-002  0.26746558896177980        0.0000000000000000     
   2.5961757663528262E-002  0.23289154306733645        0.0000000000000000     
   2.6081501609446365E-002  0.24149453831257434        0.0000000000000000     
   2.6184988889994563E-002  0.25010083981958614        0.0000000000000000     
   2.6272219505172844E-002  0.25871044758837192        0.0000000000000000     
   2.6343193454981213E-002  0.26732336161893172        0.0000000000000000     
   5.3989133837623729E-002  0.26801481236952029        0.0000000000000000     
   5.4108615609062292E-002  0.27681980568454367        0.0000000000000000     
   5.4245678172772316E-002  0.28558122627085408        0.0000000000000000     
   5.4400321528753792E-002  0.29429907412845152        0.0000000000000000     
   5.4572545677006729E-002  0.30297334925733604        0.0000000000000000     
   4.6896096709692685E-002  0.26781131433707417        0.0000000000000000     
   4.7005755278784464E-002  0.27654008573567856        0.0000000000000000     
   4.7128976953357882E-002  0.28520653819187536        0.0000000000000000     
   4.7265761733412945E-002  0.29381067170566461        0.0000000000000000     
   4.7416109618949639E-002  0.30235248627704625        0.0000000000000000     
   3.9924094269941930E-002  0.26762823986782736        0.0000000000000000     
   4.0021693612480785E-002  0.27629093368443308        0.0000000000000000     
   4.0129895766089878E-002  0.28487445677365930        0.0000000000000000     
   4.0248700730769173E-002  0.29337880913550607        0.0000000000000000     
   4.0378108506518698E-002  0.30180399076997322        0.0000000000000000     
   3.3073126518371430E-002  0.26746558896177980        0.0000000000000000     
   3.3156430610151277E-002  0.27607234953080717        0.0000000000000000     
   3.3248434610968290E-002  0.28458498201620586        0.0000000000000000     
   3.3349138520822511E-002  0.29300348641797563        0.0000000000000000     
   3.3458542339713911E-002  0.30132786273611695        0.0000000000000000     
   2.6343193454981213E-002  0.26732336161893172        0.0000000000000000     
   2.6409966271795905E-002  0.27588433327480089        0.0000000000000000     
   2.6484593487993143E-002  0.28433811391951486        0.0000000000000000     
   2.6567075103572931E-002  0.29268470355307374        0.0000000000000000     
   2.6657411118535271E-002  0.30092410217547738        0.0000000000000000     
   1.4220774276763366E-002   5.5802835784715635E-002   0.0000000000000000     
   1.4920415564922351E-002   6.1408473468790539E-002   0.0000000000000000     
   1.5626138406935542E-002   6.7216404244318489E-002   0.0000000000000000     
   1.6337942802802940E-002   7.3226628111299513E-002   0.0000000000000000     
   1.7055828752524545E-002   7.9439145069733597E-002   0.0000000000000000     
   1.3518718232634414E-002   5.5617605156883257E-002   0.0000000000000000     
   1.3453263034900298E-002   6.1236603544832929E-002   0.0000000000000000     
   1.3496032220218255E-002   6.7053035711419642E-002   0.0000000000000000     
   1.3647025788588283E-002   7.3066901656643410E-002   0.0000000000000000     
   1.3906243740010392E-002   7.9278201380504232E-002   0.0000000000000000     
   1.0914570504735646E-002   5.5485297566091940E-002   0.0000000000000000     
   1.0477476263706943E-002   6.1113839313803965E-002   0.0000000000000000     
   1.0181640423159128E-002   6.6936343902456300E-002   0.0000000000000000     
   1.0027062983092199E-002   7.2952811332048936E-002   0.0000000000000000     
   1.0013743943506157E-002   7.9163241602581924E-002   0.0000000000000000     
   6.4083310930670573E-003   5.5405913012341670E-002   0.0000000000000000     
   5.9930552513422905E-003   6.1040180775703605E-002   0.0000000000000000     
   5.6829630157581674E-003   6.6866328817428419E-002   0.0000000000000000     
   5.4780543863146855E-003   7.2884357137516106E-002   0.0000000000000000     
   5.3783293630118474E-003   7.9094265735966673E-002   0.0000000000000000     
  -2.3713479097020596E-012   5.5379451495632441E-002   0.0000000000000000     
  -2.1936619187812312E-012   6.1015627930531884E-002   0.0000000000000000     
  -1.9846307756921089E-012   6.6842990456336043E-002   0.0000000000000000     
  -1.7442583835625136E-012   7.2861539073044920E-002   0.0000000000000000     
  -1.4725412729454934E-012   7.9071273780658521E-002   0.0000000000000000     
   1.7055828752524545E-002   7.9439145069733597E-002   0.0000000000000000     
   1.7766261725556502E-002   8.5835686595787775E-002   0.0000000000000000     
   1.8455707191354975E-002   9.2397984165628999E-002   0.0000000000000000     
   1.9124165149919947E-002   9.9126037779257270E-002   0.0000000000000000     
   1.9771635601251430E-002  0.10601984743667267        0.0000000000000000     
   1.3906243740010392E-002   7.9278201380504232E-002   0.0000000000000000     
   1.4229387916933466E-002   8.5672419404852693E-002   0.0000000000000000     
   1.4572160161806411E-002   9.2235040251539460E-002   0.0000000000000000     
   1.4934560474629223E-002   9.8966063920564562E-002   0.0000000000000000     
   1.5316588855401905E-002  0.10586549041192791        0.0000000000000000     
   1.0013743943506157E-002   7.9163241602581924E-002   0.0000000000000000     
   1.0089386359599916E-002   8.5555799982812861E-002   0.0000000000000000     
   1.0201693286572390E-002   9.2118651741499469E-002   0.0000000000000000     
   1.0350664724423577E-002   9.8851796878641748E-002   0.0000000000000000     
   1.0536300673153483E-002  0.10575523539423964        0.0000000000000000     
   5.3783293630118474E-003   7.9094265735966673E-002   0.0000000000000000     
   5.3462570535558517E-003   8.5485828329668279E-002   0.0000000000000000     
   5.3443065656529074E-003   9.2048818635508997E-002   0.0000000000000000     
   5.3724778993030110E-003   9.8783236653488871E-002   0.0000000000000000     
   5.4307710545061644E-003  0.10568908238360789        0.0000000000000000     
  -1.4725412729454934E-012   7.9071273780658521E-002   0.0000000000000000     
  -1.1987208101138513E-012   8.5462504445418891E-002   0.0000000000000000     
  -9.5203142244648653E-013   9.2025540933568031E-002   0.0000000000000000     
  -7.3247386888491972E-013   9.8760383245105929E-002   0.0000000000000000     
  -5.4004977573240964E-013  0.10566703138003261        0.0000000000000000     
   1.9771635601251430E-002  0.10601984743667267        0.0000000000000000     
   2.0394275459123552E-002  0.11306608858543489        0.0000000000000000     
   2.0988241637310438E-002  0.12025143667310377        0.0000000000000000     
   2.1553534135812090E-002  0.12757589169967931        0.0000000000000000     
   2.2090152954628503E-002  0.13503945366516151        0.0000000000000000     
   1.5316588855401905E-002  0.10586549041192791        0.0000000000000000     
   1.5702121553624764E-002  0.11291914312060040        0.0000000000000000     
   1.6075034818798115E-002  0.12011284544155287        0.0000000000000000     
   1.6435328650921954E-002  0.12744659737478531        0.0000000000000000     
   1.6783003049996283E-002  0.13492039892029772        0.0000000000000000     
   1.0536300673153483E-002  0.10575523539423964        0.0000000000000000     
   1.0739024341877419E-002  0.11281418207426777        0.0000000000000000     
   1.0939258939710702E-002  0.12001385170470069        0.0000000000000000     
   1.1137004466653330E-002  0.12735424428553840        0.0000000000000000     
   1.1332260922705305E-002  0.13483535981678091        0.0000000000000000     
   5.4307710545061644E-003  0.10568908238360789        0.0000000000000000     
   5.5049838238815096E-003  0.11275120544643702        0.0000000000000000     
   5.5809140000481908E-003  0.11995445546254727        0.0000000000000000     
   5.6585615830062087E-003  0.12729883243193860        0.0000000000000000     
   5.7379265727555643E-003  0.13478433635461101        0.0000000000000000     
  -5.4004977573240964E-013  0.10566703138003261        0.0000000000000000     
  -3.6296118020862078E-013  0.11273021323710813        0.0000000000000000     
  -1.8941283003864884E-013  0.11993465671509254        0.0000000000000000     
  -1.9404210226461882E-014  0.12728036181398586        0.0000000000000000     
   1.4706421844201678E-013  0.13476732853378809        0.0000000000000000     
   2.2090152954628503E-002  0.13503945366516151        0.0000000000000000     
   2.2596172328622682E-002  0.14263424766466951        0.0000000000000000     
   2.3069666492657608E-002  0.15035239879332246        0.0000000000000000     
   2.3510635446733291E-002  0.15819390705112035        0.0000000000000000     
   2.3919079190849721E-002  0.16615877243806321        0.0000000000000000     
   1.6783003049996283E-002  0.13492039892029772        0.0000000000000000     
   1.7113371351486113E-002  0.14252509196203469        0.0000000000000000     
   1.7421746890856446E-002  0.15025151838394085        0.0000000000000000     
   1.7708129668107288E-002  0.15809967818601622        0.0000000000000000     
   1.7972519683238646E-002  0.16606957136826075        0.0000000000000000     
   1.1332260922705305E-002  0.13483535981678091        0.0000000000000000     
   1.1519742304388554E-002  0.14244712360296291        0.0000000000000000     
   1.1694162608225001E-002  0.15017946094861923        0.0000000000000000     
   1.1855521834214651E-002  0.15803237185374991        0.0000000000000000     
   1.2003819982357500E-002  0.16600585631835488        0.0000000000000000     
   5.7379265727555643E-003  0.13478433635461101        0.0000000000000000     
   5.8152851873300021E-003  0.14240034258745413        0.0000000000000000     
   5.8869136447632694E-003  0.15013622648735758        0.0000000000000000     
   5.9528119450553661E-003  0.15799198805432135        0.0000000000000000     
   6.0129800882062915E-003  0.16596762728834555        0.0000000000000000     
   1.4706421844201678E-013  0.13476732853378809        0.0000000000000000     
   3.1045977420818271E-013  0.14238474891550837        0.0000000000000000     
   4.7125053425495222E-013  0.15012181500015589        0.0000000000000000     
   6.2943744725922623E-013  0.15797852678773072        0.0000000000000000     
   7.8501745034986747E-013  0.16595488427823279        0.0000000000000000     
   2.3919079190849721E-002  0.16615877243806321        0.0000000000000000     
   2.4293568051256893E-002  0.17422815459868726        0.0000000000000000     
   2.4632672354204785E-002  0.18238321317752879        0.0000000000000000     
   2.4936392099693398E-002  0.19062394817458783        0.0000000000000000     
   2.5204727287722738E-002  0.19895035958986435        0.0000000000000000     
   1.7972519683238646E-002  0.16606957136826075        0.0000000000000000     
   1.8217554659642119E-002  0.17414400643560779        0.0000000000000000     
   1.8445872320709336E-002  0.18230579189299070        0.0000000000000000     
   1.8657472666440304E-002  0.19055492774040947        0.0000000000000000     
   1.8852355696835011E-002  0.19889141397786408        0.0000000000000000     
   1.2003819982357500E-002  0.16600585631835488        0.0000000000000000     
   1.2143288854048103E-002  0.17408390060479373        0.0000000000000000     
   1.2278160250681014E-002  0.18225049097542595        0.0000000000000000     
   1.2408434172256236E-002  0.19050562743025168        0.0000000000000000     
   1.2534110618773769E-002  0.19884930996927080        0.0000000000000000     
   6.0129800882062915E-003  0.16596762728834555        0.0000000000000000     
   6.0707706344748404E-003  0.17404783710624497        0.0000000000000000     
   6.1295361441198112E-003  0.18221731042483458        0.0000000000000000     
   6.1892766171412032E-003  0.19047604724411446        0.0000000000000000     
   6.2499920535390172E-003  0.19882404756408445        0.0000000000000000     
   7.8501745034986747E-013  0.16595488427823279        0.0000000000000000     
   9.2233469126123957E-013  0.17403581593996156        0.0000000000000000     
   1.0257298482807542E-012  0.18220625024121656        0.0000000000000000     
   1.0952024877275424E-012  0.19046618718199776        0.0000000000000000     
   1.1307530432824731E-012  0.19881562676230513        0.0000000000000000     
   2.5204727287722738E-002  0.19895035958986435        0.0000000000000000     
   2.5440023868185360E-002  0.20734862077549526        0.0000000000000000     
   2.5644627790973817E-002  0.21580490508361763        0.0000000000000000     
   2.5818539056088118E-002  0.22431921251423131        0.0000000000000000     
   2.5961757663528262E-002  0.23289154306733645        0.0000000000000000     
   1.8852355696835011E-002  0.19889141397786408        0.0000000000000000     
   1.9027366973619116E-002  0.20729866866545033        0.0000000000000000     
   1.9179352058518291E-002  0.21576010986326399        0.0000000000000000     
   1.9308310951532518E-002  0.22427573757130514        0.0000000000000000     
   1.9414243652661811E-002  0.23284555178957367        0.0000000000000000     
   1.2534110618773769E-002  0.19884930996927080        0.0000000000000000     
   1.2649810697590301E-002  0.20726298858683376        0.0000000000000000     
   1.2750155516062517E-002  0.21572811327729094        0.0000000000000000     
   1.2835145074190427E-002  0.22424468404064238        0.0000000000000000     
   1.2904779371974021E-002  0.23281270087688807        0.0000000000000000     
   6.2499920535390172E-003  0.19882404756408445        0.0000000000000000     
   6.3073550400989014E-003  0.20724158053964553        0.0000000000000000     
   6.3570381636065083E-003  0.21570891532569844        0.0000000000000000     
   6.3990414240618371E-003  0.22422605192224312        0.0000000000000000     
   6.4333648214648905E-003  0.23279299032927966        0.0000000000000000     
   1.1307530432824731E-012  0.19881562676230513        0.0000000000000000     
   1.1449242161981621E-012  0.20723444452388570        0.0000000000000000     
   1.1502599003496150E-012  0.21570251600848644        0.0000000000000000     
   1.1467581170678670E-012  0.22421984121610730        0.0000000000000000     
   1.1344206823915570E-012  0.23278642014674839        0.0000000000000000     
   2.5961757663528262E-002  0.23289154306733645        0.0000000000000000     
   2.6081501609446365E-002  0.24149453831257434        0.0000000000000000     
   2.6184988889994563E-002  0.25010083981958614        0.0000000000000000     
   2.6272219505172844E-002  0.25871044758837192        0.0000000000000000     
   2.6343193454981213E-002  0.26732336161893172        0.0000000000000000     
   1.9414243652661811E-002  0.23284555178957367        0.0000000000000000     
   1.9502585757925350E-002  0.24144087590793978        0.0000000000000000     
   1.9578772863342326E-002  0.25003303331627358        0.0000000000000000     
   1.9642804968912735E-002  0.25862202401457507        0.0000000000000000     
   1.9694682074636580E-002  0.26720784800284431        0.0000000000000000     
   1.2904779371974021E-002  0.23281270087688807        0.0000000000000000     
   1.2962696872696900E-002  0.24140254561891961        0.0000000000000000     
   1.3012536039642662E-002  0.24998460009962864        0.0000000000000000     
   1.3054296872811311E-002  0.25855886431901515        0.0000000000000000     
   1.3087979372202841E-002  0.26712533827707913        0.0000000000000000     
   6.4333648214648905E-003  0.23279299032927966        0.0000000000000000     
   6.4618349537610203E-003  0.24137954744551371        0.0000000000000000     
   6.4862784188955804E-003  0.24995554016965121        0.0000000000000000     
   6.5066952168685733E-003  0.25852096850169198        0.0000000000000000     
   6.5230853476799947E-003  0.26707583244163630        0.0000000000000000     
   1.1344206823915570E-012  0.23278642014674839        0.0000000000000000     
   1.1177053206579135E-012  0.24137188138772223        0.0000000000000000     
   1.1010701898850339E-012  0.24994585352634135        0.0000000000000000     
   1.0845184342592185E-012  0.25850833656260586        0.0000000000000000     
   1.0680453917111254E-012  0.26705933049651559        0.0000000000000000     
   2.6343193454981213E-002  0.26732336161893172        0.0000000000000000     
   2.6409966271795905E-002  0.27588433327480089        0.0000000000000000     
   2.6484593487993143E-002  0.28433811391951486        0.0000000000000000     
   2.6567075103572931E-002  0.29268470355307374        0.0000000000000000     
   2.6657411118535271E-002  0.30092410217547738        0.0000000000000000     
   1.9694682074636580E-002  0.26720784800284431        0.0000000000000000     
   1.9744044625098118E-002  0.27573319250601008        0.0000000000000000     
   1.9800533064881609E-002  0.28414074474900136        0.0000000000000000     
   1.9864147393987053E-002  0.29243050473181803        0.0000000000000000     
   1.9934887612414458E-002  0.30060247245446031        0.0000000000000000     
   1.3087979372202841E-002  0.26712533827707913        0.0000000000000000     
   1.3120409697741336E-002  0.27562523481403078        0.0000000000000000     
   1.3158414009350885E-002  0.28399976677008004        0.0000000000000000     
   1.3201992307031488E-002  0.29224893414522701        0.0000000000000000     
   1.3251144590783144E-002  0.30037273693947164        0.0000000000000000     
   6.5230853476799947E-003  0.26707583244163630        0.0000000000000000     
   6.5390614897255566E-003  0.27556046019886288        0.0000000000000000     
   6.5582363214009677E-003  0.28391517998275090        0.0000000000000000     
   6.5806098427062237E-003  0.29213999179330047        0.0000000000000000     
   6.6061820536413279E-003  0.30023489563051131        0.0000000000000000     
   1.0680453917111254E-012  0.26705933049651559        0.0000000000000000     
   1.0507827247208112E-012  0.27553886866050642        0.0000000000000000     
   1.0318564579170353E-012  0.28388698438701404        0.0000000000000000     
   1.0112666997200148E-012  0.29210367767603834        0.0000000000000000     
   9.8901355854996709E-013  0.30018894852757938        0.0000000000000000     
  -2.3713479097020596E-012   5.5379451495632441E-002   0.0000000000000000     
  -2.1936619187812312E-012   6.1015627930531884E-002   0.0000000000000000     
  -1.9846307756921089E-012   6.6842990456336043E-002   0.0000000000000000     
  -1.7442583835625136E-012   7.2861539073044920E-002   0.0000000000000000     
  -1.4725412729454934E-012   7.9071273780658521E-002   0.0000000000000000     
  -6.4083310969983813E-003   5.5405913015967763E-002   0.0000000000000000     
  -5.9930552550080118E-003   6.1040180778292652E-002   0.0000000000000000     
  -5.6829630190906432E-003   6.6866328819187262E-002   0.0000000000000000     
  -5.4780543892462737E-003   7.2884357138651559E-002   0.0000000000000000     
  -5.3783293654749015E-003   7.9094265736685571E-002   0.0000000000000000     
  -1.0914570506232851E-002   5.5485297573351106E-002   0.0000000000000000     
  -1.0477476265207866E-002   6.1113839318989824E-002   0.0000000000000000     
  -1.0181640424581251E-002   6.6936343905990195E-002   0.0000000000000000     
  -1.0027062984353007E-002   7.2952811334352233E-002   0.0000000000000000     
  -1.0013743944523132E-002   7.9163241604075910E-002   0.0000000000000000     
  -1.3518718230074757E-002   5.5617605167782511E-002   0.0000000000000000     
  -1.3453263032793221E-002   6.1236603552623385E-002   0.0000000000000000     
  -1.3496032218456452E-002   6.7053035716744869E-002   0.0000000000000000     
  -1.3647025787064455E-002   7.3066901660146913E-002   0.0000000000000000     
  -1.3906243738617225E-002   7.9278201382829552E-002   0.0000000000000000     
  -1.4220774268524099E-002   5.5802835799261936E-002   0.0000000000000000     
  -1.4920415557764074E-002   6.1408473479193364E-002   0.0000000000000000     
  -1.5626138400716250E-002   6.7216404251451256E-002   0.0000000000000000     
  -1.6337942797380621E-002   7.3226628116035641E-002   0.0000000000000000     
  -1.7055828747757192E-002   7.9439145072946499E-002   0.0000000000000000     
  -1.4725412729454934E-012   7.9071273780658521E-002   0.0000000000000000     
  -1.1987208101138513E-012   8.5462504445418891E-002   0.0000000000000000     
  -9.5203142244648653E-013   9.2025540933568031E-002   0.0000000000000000     
  -7.3247386888491972E-013   9.8760383245105929E-002   0.0000000000000000     
  -5.4004977573240964E-013  0.10566703138003261        0.0000000000000000     
  -5.3783293654749015E-003   7.9094265736685571E-002   0.0000000000000000     
  -5.3462570555389069E-003   8.5485828330103458E-002   0.0000000000000000     
  -5.3443065672006624E-003   9.2048818635719440E-002   0.0000000000000000     
  -5.3724779004601713E-003   9.8783236653533502E-002   0.0000000000000000     
  -5.4307710553174321E-003  0.10568908238354563        0.0000000000000000     
  -1.0013743944523132E-002   7.9163241604075910E-002   0.0000000000000000     
  -1.0089386360339811E-002   8.5555799983760727E-002   0.0000000000000000     
  -1.0201693287051224E-002   9.2118651742006119E-002   0.0000000000000000     
  -1.0350664724657370E-002   9.8851796878812140E-002   0.0000000000000000     
  -1.0536300673158253E-002  0.10575523539417875        0.0000000000000000     
  -1.3906243738617225E-002   7.9278201382829552E-002   0.0000000000000000     
  -1.4229387915601424E-002   8.5672419406390643E-002   0.0000000000000000     
  -1.4572160160503706E-002   9.2235040252428083E-002   0.0000000000000000     
  -1.4934560473324069E-002   9.8966063920941857E-002   0.0000000000000000     
  -1.5316588854062518E-002  0.10586549041193195        0.0000000000000000     
  -1.7055828747757192E-002   7.9439145072946499E-002   0.0000000000000000     
  -1.7766261721323760E-002   8.5835686597993233E-002   0.0000000000000000     
  -1.8455707187558117E-002   9.2397984166985261E-002   0.0000000000000000     
  -1.9124165146460273E-002   9.9126037779922627E-002   0.0000000000000000     
  -1.9771635598030218E-002  0.10601984743680527        0.0000000000000000     
  -5.4004977573240964E-013  0.10566703138003261        0.0000000000000000     
  -3.6296118020862078E-013  0.11273021323710813        0.0000000000000000     
  -1.8941283003864884E-013  0.11993465671509254        0.0000000000000000     
  -1.9404210226461882E-014  0.12728036181398586        0.0000000000000000     
   1.4706421844201678E-013  0.13476732853378809        0.0000000000000000     
  -5.4307710553174321E-003  0.10568908238354563        0.0000000000000000     
  -5.5049838243711813E-003  0.11275120544630238        0.0000000000000000     
  -5.5809140002201565E-003  0.11995445546235030        0.0000000000000000     
  -5.6585615828643604E-003  0.12729883243168930        0.0000000000000000     
  -5.7379265723037894E-003  0.13478433635431949        0.0000000000000000     
  -1.0536300673158253E-002  0.10575523539417875        0.0000000000000000     
  -1.0739024341658337E-002  0.11281418207404104        0.0000000000000000     
  -1.0939258939262090E-002  0.12001385170433412        0.0000000000000000     
  -1.1137004465969507E-002  0.12735424428505798        0.0000000000000000     
  -1.1332260921780591E-002  0.13483535981621259        0.0000000000000000     
  -1.5316588854062518E-002  0.10586549041193195        0.0000000000000000     
  -1.5702121552224432E-002  0.11291914312032414        0.0000000000000000     
  -1.6075034817315207E-002  0.12011284544104410        0.0000000000000000     
  -1.6435328649334842E-002  0.12744659737409181        0.0000000000000000     
  -1.6783003048283340E-002  0.13492039891946733        0.0000000000000000     
  -1.9771635598030218E-002  0.10601984743680527        0.0000000000000000     
  -2.0394275456069463E-002  0.11306608858515164        0.0000000000000000     
  -2.0988241634379515E-002  0.12025143667248019        0.0000000000000000     
  -2.1553534132960375E-002  0.12757589169879088        0.0000000000000000     
  -2.2090152951812037E-002  0.13503945366408379        0.0000000000000000     
   1.4706421844201678E-013  0.13476732853378809        0.0000000000000000     
   3.1045977420818271E-013  0.14238474891550837        0.0000000000000000     
   4.7125053425495222E-013  0.15012181500015589        0.0000000000000000     
   6.2943744725922623E-013  0.15797852678773072        0.0000000000000000     
   7.8501745034986747E-013  0.16595488427823279        0.0000000000000000     
  -5.7379265723037894E-003  0.13478433635431949        0.0000000000000000     
  -5.8152851865731553E-003  0.14240034258713363        0.0000000000000000     
  -5.8869136437071637E-003  0.15013622648702460        0.0000000000000000     
  -5.9528119437058163E-003  0.15799198805399242        0.0000000000000000     
  -6.0129800865691089E-003  0.16596762728803699        0.0000000000000000     
  -1.1332260921780591E-002  0.13483535981621259        0.0000000000000000     
  -1.1519742303223923E-002  0.14244712360233797        0.0000000000000000     
  -1.1694162606828080E-002  0.15017946094797407        0.0000000000000000     
  -1.1855521832593066E-002  0.15803237185312097        0.0000000000000000     
  -1.2003819980518877E-002  0.16600585631777862        0.0000000000000000     
  -1.6783003048283340E-002  0.13492039891946733        0.0000000000000000     
  -1.7113371349641842E-002  0.14252509196112131        0.0000000000000000     
  -1.7421746888891500E-002  0.15025151838300435        0.0000000000000000     
  -1.7708129666032319E-002  0.15809967818511644        0.0000000000000000     
  -1.7972519681064288E-002  0.16606957136745765        0.0000000000000000     
  -2.2090152951812037E-002  0.13503945366408379        0.0000000000000000     
  -2.2596172325826915E-002  0.14263424766348368        0.0000000000000000     
  -2.3069666489897427E-002  0.15035239879211534        0.0000000000000000     
  -2.3510635444023570E-002  0.15819390704997879        0.0000000000000000     
  -2.3919079188205340E-002  0.16615877243707405        0.0000000000000000     
   7.8501745034986747E-013  0.16595488427823279        0.0000000000000000     
   9.2233469126123957E-013  0.17403581593996156        0.0000000000000000     
   1.0257298482807542E-012  0.18220625024121656        0.0000000000000000     
   1.0952024877275424E-012  0.19046618718199776        0.0000000000000000     
   1.1307530432824731E-012  0.19881562676230513        0.0000000000000000     
  -6.0129800865691089E-003  0.16596762728803699        0.0000000000000000     
  -6.0707706325847533E-003  0.17404783710596891        0.0000000000000000     
  -6.1295361420404511E-003  0.18221731042459877        0.0000000000000000     
  -6.1892766149362014E-003  0.19047604724392644        0.0000000000000000     
  -6.2499920512720086E-003  0.19882404756395203        0.0000000000000000     
  -1.2003819980518877E-002  0.16600585631777862        0.0000000000000000     
  -1.2143288852021759E-002  0.17408390060429249        0.0000000000000000     
  -1.2278160248517949E-002  0.18225049097500814        0.0000000000000000     
  -1.2408434170007447E-002  0.19050562742992547        0.0000000000000000     
  -1.2534110616490257E-002  0.19884930996904454        0.0000000000000000     
  -1.7972519681064288E-002  0.16606957136745765        0.0000000000000000     
  -1.8217554657388679E-002  0.17414400643493222        0.0000000000000000     
  -1.8445872318406765E-002  0.18230579189244461        0.0000000000000000     
  -1.8657472664118532E-002  0.19055492773999472        0.0000000000000000     
  -1.8852355694523992E-002  0.19889141397758267        0.0000000000000000     
  -2.3919079188205340E-002  0.16615877243707405        0.0000000000000000     
  -2.4293568048685519E-002  0.17422815459788818        0.0000000000000000     
  -2.4632672351706894E-002  0.18238321317690825        0.0000000000000000     
  -2.4936392097269458E-002  0.19062394817413428        0.0000000000000000     
  -2.5204727285373214E-002  0.19895035958956631        0.0000000000000000     
   1.1307530432824731E-012  0.19881562676230513        0.0000000000000000     
   1.1449242161981621E-012  0.20723444452388570        0.0000000000000000     
   1.1502599003496150E-012  0.21570251600848644        0.0000000000000000     
   1.1467581170678670E-012  0.22421984121610730        0.0000000000000000     
   1.1344206823915570E-012  0.23278642014674839        0.0000000000000000     
  -6.2499920512720086E-003  0.19882404756395203        0.0000000000000000     
  -6.3073550378098114E-003  0.20724158053956704        0.0000000000000000     
  -6.3570381613115550E-003  0.21570891532566303        0.0000000000000000     
  -6.3990414217772358E-003  0.22422605192223991        0.0000000000000000     
  -6.4333648192068590E-003  0.23279299032929773        0.0000000000000000     
  -1.2534110616490257E-002  0.19884930996904454        0.0000000000000000     
  -1.2649810695303489E-002  0.20726298858670239        0.0000000000000000     
  -1.2750155513784261E-002  0.21572811327723612        0.0000000000000000     
  -1.2835145071932568E-002  0.22424468404064563        0.0000000000000000     
  -1.2904779369748414E-002  0.23281270087693101        0.0000000000000000     
  -1.8852355694523992E-002  0.19889141397758267        0.0000000000000000     
  -1.9027366971336113E-002  0.20729866866529181        0.0000000000000000     
  -1.9179352056267855E-002  0.21576010986320585        0.0000000000000000     
  -1.9308310949319236E-002  0.22427573757132463        0.0000000000000000     
  -1.9414243650490243E-002  0.23284555178964830        0.0000000000000000     
  -2.5204727285373214E-002  0.19895035958956631        0.0000000000000000     
  -2.5440023865907668E-002  0.20734862077533522        0.0000000000000000     
  -2.5644627788762347E-002  0.21580490508357211        0.0000000000000000     
  -2.5818539053937238E-002  0.22431921251427689        0.0000000000000000     
  -2.5961757661432352E-002  0.23289154306744952        0.0000000000000000     
   1.1344206823915570E-012  0.23278642014674839        0.0000000000000000     
   1.1177053206579135E-012  0.24137188138772223        0.0000000000000000     
   1.1010701898850339E-012  0.24994585352634135        0.0000000000000000     
   1.0845184342592185E-012  0.25850833656260586        0.0000000000000000     
   1.0680453917111254E-012  0.26705933049651559        0.0000000000000000     
  -6.4333648192068590E-003  0.23279299032929773        0.0000000000000000     
  -6.4618349515374648E-003  0.24137954744554768        0.0000000000000000     
  -6.4862784167061000E-003  0.24995554016970095        0.0000000000000000     
  -6.5066952147127630E-003  0.25852096850175760        0.0000000000000000     
  -6.5230853455574582E-003  0.26707583244171745        0.0000000000000000     
  -1.2904779369748414E-002  0.23281270087693101        0.0000000000000000     
  -1.2962696870508909E-002  0.24140254561899291        0.0000000000000000     
  -1.3012536037491166E-002  0.24998460009973208        0.0000000000000000     
  -1.3054296870695188E-002  0.25855886431914848        0.0000000000000000     
  -1.3087979370120968E-002  0.26712533827724216        0.0000000000000000     
  -1.9414243650490243E-002  0.23284555178964830        0.0000000000000000     
  -1.9502585755796626E-002  0.24144087590805791        0.0000000000000000     
  -1.9578772861254128E-002  0.25003303331643467        0.0000000000000000     
  -1.9642804966862746E-002  0.25862202401477857        0.0000000000000000     
  -1.9694682072622486E-002  0.26720784800308955        0.0000000000000000     
  -2.5961757661432352E-002  0.23289154306744952        0.0000000000000000     
  -2.6081501607400616E-002  0.24149453831274265        0.0000000000000000     
  -2.6184988887994986E-002  0.25010083981980874        0.0000000000000000     
  -2.6272219503215444E-002  0.25871044758864775        0.0000000000000000     
  -2.6343193453062005E-002  0.26732336161925979        0.0000000000000000     
   1.0680453917111254E-012  0.26705933049651559        0.0000000000000000     
   1.0507827247208112E-012  0.27553886866050642        0.0000000000000000     
   1.0318564579170353E-012  0.28388698438701404        0.0000000000000000     
   1.0112666997200148E-012  0.29210367767603834        0.0000000000000000     
   9.8901355854996709E-013  0.30018894852757938        0.0000000000000000     
  -6.5230853455574582E-003  0.26707583244171745        0.0000000000000000     
  -6.5390614876376790E-003  0.27556046019896091        0.0000000000000000     
  -6.5582363193509175E-003  0.28391517998286814        0.0000000000000000     
  -6.5806098406971806E-003  0.29213999179343914        0.0000000000000000     
  -6.6061820516764621E-003  0.30023489563067396        0.0000000000000000     
  -1.3087979370120968E-002  0.26712533827724216        0.0000000000000000     
  -1.3120409695694515E-002  0.27562523481422574        0.0000000000000000     
  -1.3158414007341829E-002  0.28399976677031213        0.0000000000000000     
  -1.3201992305062912E-002  0.29224893414550124        0.0000000000000000     
  -1.3251144588857759E-002  0.30037273693979316        0.0000000000000000     
  -1.9694682072622486E-002  0.26720784800308955        0.0000000000000000     
  -1.9744044623119728E-002  0.27573319250630102        0.0000000000000000     
  -1.9800533062940877E-002  0.28414074474934603        0.0000000000000000     
  -1.9864147392085925E-002  0.29243050473222471        0.0000000000000000     
  -1.9934887610554883E-002  0.30060247245493704        0.0000000000000000     
  -2.6343193453062005E-002  0.26732336161925979        0.0000000000000000     
  -2.6409966269913324E-002  0.27588433327518658        0.0000000000000000     
  -2.6484593486148067E-002  0.28433811391996971        0.0000000000000000     
  -2.6567075101766230E-002  0.29268470355360943        0.0000000000000000     
  -2.6657411116767820E-002  0.30092410217610555        0.0000000000000000     
  -1.4220774268524099E-002   5.5802835799261936E-002   0.0000000000000000     
  -1.4920415557764074E-002   6.1408473479193364E-002   0.0000000000000000     
  -1.5626138400716250E-002   6.7216404251451256E-002   0.0000000000000000     
  -1.6337942797380621E-002   7.3226628116035641E-002   0.0000000000000000     
  -1.7055828747757192E-002   7.9439145072946499E-002   0.0000000000000000     
  -1.5192419724344569E-002   5.6057323686241563E-002   0.0000000000000000     
  -1.6629451653864487E-002   6.1651548587936388E-002   0.0000000000000000     
  -1.7973475287918088E-002   6.7451039732936646E-002   0.0000000000000000     
  -1.9224490626505369E-002   7.3455797121242353E-002   0.0000000000000000     
  -2.0382497669626343E-002   7.9665820752853500E-002   0.0000000000000000     
  -1.8605335700299860E-002   5.6397403047173549E-002   0.0000000000000000     
  -2.0330889134838506E-002   6.1987928368089119E-002   0.0000000000000000     
  -2.1939559196619413E-002   6.7781532384028301E-002   0.0000000000000000     
  -2.3431345885642576E-002   7.3778215094991023E-002   0.0000000000000000     
  -2.4806249201907996E-002   7.9977976500977349E-002   0.0000000000000000     
  -2.4459522196389961E-002   5.6823073882057880E-002   0.0000000000000000     
  -2.6024728000686146E-002   6.2417612819651580E-002   0.0000000000000000     
  -2.7524390126820234E-002   6.8207882204726178E-002   0.0000000000000000     
  -2.8958508574792239E-002   7.4193882037281680E-002   0.0000000000000000     
  -3.0327083344602154E-002   8.0375612317318074E-002   0.0000000000000000     
  -3.2754979212614888E-002   5.7334336190894578E-002   0.0000000000000000     
  -3.3710968251407389E-002   6.2940601942623770E-002   0.0000000000000000     
  -3.4727968078520542E-002   6.8730089195030347E-002   0.0000000000000000     
  -3.5805978693954355E-002   7.4702797948114283E-002   0.0000000000000000     
  -3.6945000097708812E-002   8.0858728201875590E-002   0.0000000000000000     
  -1.7055828747757192E-002   7.9439145072946499E-002   0.0000000000000000     
  -1.7766261721323760E-002   8.5835686597993233E-002   0.0000000000000000     
  -1.8455707187558117E-002   9.2397984166985261E-002   0.0000000000000000     
  -1.9124165146460273E-002   9.9126037779922627E-002   0.0000000000000000     
  -1.9771635598030218E-002  0.10601984743680527        0.0000000000000000     
  -2.0382497669626343E-002   7.9665820752853500E-002   0.0000000000000000     
  -2.1464111312268250E-002   8.6060251042900784E-002   0.0000000000000000     
  -2.2485946449418346E-002   9.2618228406514846E-002   0.0000000000000000     
  -2.3448003081076637E-002   9.9339752843695728E-002   0.0000000000000000     
  -2.4350281207243120E-002  0.10622482435444339        0.0000000000000000     
  -2.4806249201907996E-002   7.9977976500977349E-002   0.0000000000000000     
  -2.6087040223196346E-002   8.6360762225445559E-002   0.0000000000000000     
  -2.7296490027288282E-002   9.2906517891853918E-002   0.0000000000000000     
  -2.8434598614183831E-002   9.9615243500202427E-002   0.0000000000000000     
  -2.9501365983882980E-002  0.10648693905049107        0.0000000000000000     
  -3.0327083344602154E-002   8.0375612317318074E-002   0.0000000000000000     
  -3.1635048454108028E-002   8.6737220145627583E-002   0.0000000000000000     
  -3.2887337921167929E-002   9.3262852623002448E-002   0.0000000000000000     
  -3.4083951745781854E-002   9.9952509749442711E-002   0.0000000000000000     
  -3.5224889927949796E-002  0.10680619152494837        0.0000000000000000     
  -3.6945000097708812E-002   8.0858728201875590E-002   0.0000000000000000     
  -3.8108136005003325E-002   8.7189624803446830E-002   0.0000000000000000     
  -3.9258490131057290E-002   9.3687232599960479E-002   0.0000000000000000     
  -4.0396062475870700E-002  0.10035155159141659        0.0000000000000000     
  -4.1520853039443570E-002  0.10718258177781517        0.0000000000000000     
  -1.9771635598030218E-002  0.10601984743680527        0.0000000000000000     
  -2.0394275456069463E-002  0.11306608858515164        0.0000000000000000     
  -2.0988241634379515E-002  0.12025143667248019        0.0000000000000000     
  -2.1553534132960375E-002  0.12757589169879088        0.0000000000000000     
  -2.2090152951812037E-002  0.13503945366408379        0.0000000000000000     
  -2.4350281207243120E-002  0.10622482435444339        0.0000000000000000     
  -2.5200890158057817E-002  0.11326081026091032        0.0000000000000000     
  -2.6007939263660754E-002  0.12043507788524893        0.0000000000000000     
  -2.6771428524051930E-002  0.12774762722745925        0.0000000000000000     
  -2.7491357939231353E-002  0.13519845828754129        0.0000000000000000     
  -2.9501365983882980E-002  0.10648693905049107        0.0000000000000000     
  -3.0507369763053870E-002  0.11350909993998688        0.0000000000000000     
  -3.1463187578364672E-002  0.12066922156595684        0.0000000000000000     
  -3.2368819429815364E-002  0.12796730392840092        0.0000000000000000     
  -3.3224265317405959E-002  0.13540334702731913        0.0000000000000000     
  -3.5224889927949796E-002  0.10680619152494837        0.0000000000000000     
  -3.6313714271057632E-002  0.11381095762238141        0.0000000000000000     
  -3.7353986578491261E-002  0.12095386771460391        0.0000000000000000     
  -3.8345706850250676E-002  0.12823492180161589        0.0000000000000000     
  -3.9288875086335877E-002  0.13565411988341733        0.0000000000000000     
  -4.1520853039443570E-002  0.10718258177781517        0.0000000000000000     
  -4.2619923682069100E-002  0.11416638330809381        0.0000000000000000     
  -4.3680336264040540E-002  0.12128901633119014        0.0000000000000000     
  -4.4702090785357855E-002  0.12855048084710419        0.0000000000000000     
  -4.5685187246021067E-002  0.13595077685583590        0.0000000000000000     
  -2.2090152951812037E-002  0.13503945366408379        0.0000000000000000     
  -2.2596172325826915E-002  0.14263424766348368        0.0000000000000000     
  -2.3069666489897427E-002  0.15035239879211534        0.0000000000000000     
  -2.3510635444023570E-002  0.15819390704997879        0.0000000000000000     
  -2.3919079188205340E-002  0.16615877243707405        0.0000000000000000     
  -2.7491357939231353E-002  0.13519845828754129        0.0000000000000000     
  -2.8168254898049659E-002  0.14278075104192611        0.0000000000000000     
  -2.8802646789357483E-002  0.15048768546704491        0.0000000000000000     
  -2.9394533613154840E-002  0.15831926156289761        0.0000000000000000     
  -2.9943915369441718E-002  0.16627547932948428        0.0000000000000000     
  -3.3224265317405959E-002  0.13540334702731913        0.0000000000000000     
  -3.4029728732580568E-002  0.14297076242894968        0.0000000000000000     
  -3.4785413166783297E-002  0.15066296169953083        0.0000000000000000     
  -3.5491318620014145E-002  0.15847994483906253        0.0000000000000000     
  -3.6147445092273113E-002  0.16642171184754481        0.0000000000000000     
  -3.9288875086335877E-002  0.13565411988341733        0.0000000000000000     
  -4.0180593829419659E-002  0.14320428182455433        0.0000000000000000     
  -4.1017965622174864E-002  0.15087822748957308        0.0000000000000000     
  -4.1800990464601485E-002  0.15867595687847352        0.0000000000000000     
  -4.2529668356699517E-002  0.16659746999125566        0.0000000000000000     
  -4.5685187246021067E-002  0.13595077685583590        0.0000000000000000     
  -4.6620850188566931E-002  0.14348130922874014        0.0000000000000000     
  -4.7500304155532198E-002  0.15113348283717171        0.0000000000000000     
  -4.8323549146916868E-002  0.15890729768113054        0.0000000000000000     
  -4.9090585162720940E-002  0.16680275376061671        0.0000000000000000     
  -2.3919079188205340E-002  0.16615877243707405        0.0000000000000000     
  -2.4293568048685519E-002  0.17422815459788818        0.0000000000000000     
  -2.4632672351706894E-002  0.18238321317690825        0.0000000000000000     
  -2.4936392097269458E-002  0.19062394817413428        0.0000000000000000     
  -2.5204727285373214E-002  0.19895035958956631        0.0000000000000000     
  -2.9943915369441718E-002  0.16627547932948428        0.0000000000000000     
  -3.0445482064548460E-002  0.17433619633958078        0.0000000000000000     
  -3.0893923704805391E-002  0.18248127016596294        0.0000000000000000     
  -3.1289240290212517E-002  0.19071070080863081        0.0000000000000000     
  -3.1631431820769836E-002  0.19902448826758445        0.0000000000000000     
  -3.6147445092273113E-002  0.16642171184754481        0.0000000000000000     
  -3.6747449743613679E-002  0.17446798290643059        0.0000000000000000     
  -3.7284989734089308E-002  0.18259847819717265        0.0000000000000000     
  -3.7760065063699999E-002  0.19081319771977112        0.0000000000000000     
  -3.8172675732445774E-002  0.19911214147422587        0.0000000000000000     
  -4.2529668356699517E-002  0.16659746999125566        0.0000000000000000     
  -4.3199471085881166E-002  0.17462351429843753        0.0000000000000000     
  -4.3805870439558636E-002  0.18273483727053738        0.0000000000000000     
  -4.4348866417731919E-002  0.19093143890755510        0.0000000000000000     
  -4.4828459020401022E-002  0.19921331920949067        0.0000000000000000     
  -4.9090585162720940E-002  0.16680275376061671        0.0000000000000000     
  -4.9801546091350943E-002  0.17480279051560174        0.0000000000000000     
  -5.0456565821213384E-002  0.18289034738605708        0.0000000000000000     
  -5.1055644352308270E-002  0.19106542437198276        0.0000000000000000     
  -5.1598781684635608E-002  0.19932802147337877        0.0000000000000000     
  -2.5204727285373214E-002  0.19895035958956631        0.0000000000000000     
  -2.5440023865907668E-002  0.20734862077533522        0.0000000000000000     
  -2.5644627788762347E-002  0.21580490508357211        0.0000000000000000     
  -2.5818539053937238E-002  0.22431921251427689        0.0000000000000000     
  -2.5961757661432352E-002  0.23289154306744952        0.0000000000000000     
  -3.1631431820769836E-002  0.19902448826758445        0.0000000000000000     
  -3.1927998711477647E-002  0.20741163089312531        0.0000000000000000     
  -3.2186441377336276E-002  0.21586112703555510        0.0000000000000000     
  -3.2406759818345704E-002  0.22437297669487377        0.0000000000000000     
  -3.2588954034505936E-002  0.23294717987108132        0.0000000000000000     
  -3.8172675732445774E-002  0.19911214147422587        0.0000000000000000     
  -3.8531508840505525E-002  0.20748648499495459        0.0000000000000000     
  -3.8845251488058181E-002  0.21592740381637496        0.0000000000000000     
  -3.9113903675103742E-002  0.22443489793848684        0.0000000000000000     
  -3.9337465401642215E-002  0.23300896736129023        0.0000000000000000     
  -4.4828459020401022E-002  0.19921331920949067        0.0000000000000000     
  -4.5250554252991300E-002  0.20757318308082320        0.0000000000000000     
  -4.5621058120928072E-002  0.21600373542603160        0.0000000000000000     
  -4.5939970624211367E-002  0.22450497624511601        0.0000000000000000     
  -4.6207291762841170E-002  0.23307690553807633        0.0000000000000000     
  -5.1598781684635608E-002  0.19932802147337877        0.0000000000000000     
  -5.2085134948934970E-002  0.20767172515073096        0.0000000000000000     
  -5.2513861275945962E-002  0.21609012186452514        0.0000000000000000     
  -5.2884960665668578E-002  0.22458321161476130        0.0000000000000000     
  -5.3198433118102822E-002  0.23315099440143949        0.0000000000000000     
  -2.5961757661432352E-002  0.23289154306744952        0.0000000000000000     
  -2.6081501607400616E-002  0.24149453831274265        0.0000000000000000     
  -2.6184988887994986E-002  0.25010083981980874        0.0000000000000000     
  -2.6272219503215444E-002  0.25871044758864775        0.0000000000000000     
  -2.6343193453062005E-002  0.26732336161925979        0.0000000000000000     
  -3.2588954034505936E-002  0.23294717987108132        0.0000000000000000     
  -3.2741563892436883E-002  0.24155861539026455        0.0000000000000000     
  -3.2873129258758418E-002  0.25018216207851024        0.0000000000000000     
  -3.2983650133470564E-002  0.25881781993581843        0.0000000000000000     
  -3.3073126516573313E-002  0.26746558896218908        0.0000000000000000     
  -3.9337465401642215E-002  0.23300896736129023        0.0000000000000000     
  -3.9524892078021394E-002  0.24162818969784108        0.0000000000000000     
  -3.9685139114589124E-002  0.25027114256119526        0.0000000000000000     
  -3.9818206511345378E-002  0.25893782595135278        0.0000000000000000     
  -3.9924094268290175E-002  0.26762823986831352        0.0000000000000000     
  -4.6207291762841170E-002  0.23307690553807633        0.0000000000000000     
  -4.6431486164154177E-002  0.24170326123547234        0.0000000000000000     
  -4.6621018455487072E-002  0.25036778126786380        0.0000000000000000     
  -4.6775888636839881E-002  0.25907046563525082        0.0000000000000000     
  -4.6896096708212598E-002  0.26781131433763328        0.0000000000000000     
  -5.3198433118102822E-002  0.23315099440143949        0.0000000000000000     
  -5.3461346150835212E-002  0.24178383000315820        0.0000000000000000     
  -5.3680767281452296E-002  0.25047207819851591        0.0000000000000000     
  -5.3856696509954088E-002  0.25921573898751255        0.0000000000000000     
  -5.3989133836340575E-002  0.26801481237014824        0.0000000000000000     
  -2.6343193453062005E-002  0.26732336161925979        0.0000000000000000     
  -2.6409966269913324E-002  0.27588433327518658        0.0000000000000000     
  -2.6484593486148067E-002  0.28433811391996971        0.0000000000000000     
  -2.6567075101766230E-002  0.29268470355360943        0.0000000000000000     
  -2.6657411116767820E-002  0.30092410217610555        0.0000000000000000     
  -3.3073126516573313E-002  0.26746558896218908        0.0000000000000000     
  -3.3156430608389895E-002  0.27607234953128418        0.0000000000000000     
  -3.3248434609243559E-002  0.28458498201676563        0.0000000000000000     
  -3.3349138519134305E-002  0.29300348641863355        0.0000000000000000     
  -3.3458542338062135E-002  0.30132786273688789        0.0000000000000000     
  -3.9924094268290175E-002  0.26762823986831352        0.0000000000000000     
  -4.0021693610864044E-002  0.27629093368499535        0.0000000000000000     
  -4.0129895764507525E-002  0.28487445677431594        0.0000000000000000     
  -4.0248700729220648E-002  0.29337880913627512        0.0000000000000000     
  -4.0378108505003368E-002  0.30180399077087311        0.0000000000000000     
  -4.6896096708212598E-002  0.26781131433763328        0.0000000000000000     
  -4.7005755277335755E-002  0.27654008573632016        0.0000000000000000     
  -4.7128976951939988E-002  0.28520653819262048        0.0000000000000000     
  -4.7265761732025229E-002  0.29381067170653413        0.0000000000000000     
  -4.7416109617591524E-002  0.30235248627806127        0.0000000000000000     
  -5.3989133836340575E-002  0.26801481237014824        0.0000000000000000     
  -5.4108615607805069E-002  0.27681980568525860        0.0000000000000000     
  -5.4245678171540905E-002  0.28558122627167942        0.0000000000000000     
  -5.4400321527548083E-002  0.29429907412941064        0.0000000000000000     
  -5.4572545675826603E-002  0.30297334925845237        0.0000000000000000     
  -3.2754979212614888E-002   5.7334336190894578E-002   0.0000000000000000     
  -3.3710968251407389E-002   6.2940601942623770E-002   0.0000000000000000     
  -3.4727968078520542E-002   6.8730089195030347E-002   0.0000000000000000     
  -3.5805978693954355E-002   7.4702797948114283E-002   0.0000000000000000     
  -3.6945000097708812E-002   8.0858728201875590E-002   0.0000000000000000     
  -4.1072361282174563E-002   5.7956748686693857E-002   0.0000000000000000     
  -4.1440456037224564E-002   6.3544829391389668E-002   0.0000000000000000     
  -4.1991313417683876E-002   6.9311717687783506E-002   0.0000000000000000     
  -4.2724933423552484E-002   7.5257413575875412E-002   0.0000000000000000     
  -4.3641316054830431E-002   8.1381917055665332E-002   0.0000000000000000     
  -4.6992322938268945E-002   5.8715870082465954E-002   0.0000000000000000     
  -4.7264037508359974E-002   6.4218228820333276E-002   0.0000000000000000     
  -4.7755446510273754E-002   6.9916332015828489E-002   0.0000000000000000     
  -4.8466549944010243E-002   7.5810179668951580E-002   0.0000000000000000     
  -4.9397347809569475E-002   8.1899771779702590E-002   0.0000000000000000     
  -5.0514864180897998E-002   5.9611700378210883E-002   0.0000000000000000     
  -5.1181712664813632E-002   6.4960800229454593E-002   0.0000000000000000     
  -5.2020367356290155E-002   7.0543932179165228E-002   0.0000000000000000     
  -5.3030828255327594E-002   7.6361096227342842E-002   0.0000000000000000     
  -5.4213095361925923E-002   8.2412292373987409E-002   0.0000000000000000     
  -5.1639985010061756E-002   6.0644239573928629E-002   0.0000000000000000     
  -5.3193481506585538E-002   6.5772543618753593E-002   0.0000000000000000     
  -5.4786075955733135E-002   7.1194518177793778E-002   0.0000000000000000     
  -5.6417768357504561E-002   7.6910163251049157E-002   0.0000000000000000     
  -5.8088558711899808E-002   8.2919478838519758E-002   0.0000000000000000     
  -3.6945000097708812E-002   8.0858728201875590E-002   0.0000000000000000     
  -3.8108136005003325E-002   8.7189624803446830E-002   0.0000000000000000     
  -3.9258490131057290E-002   9.3687232599960479E-002   0.0000000000000000     
  -4.0396062475870700E-002  0.10035155159141659        0.0000000000000000     
  -4.1520853039443570E-002  0.10718258177781517        0.0000000000000000     
  -4.3641316054830431E-002   8.1381917055665332E-002   0.0000000000000000     
  -4.4663780013195681E-002   8.7680523994939960E-002   0.0000000000000000     
  -4.5715644000326246E-002   9.4148530261486008E-002   0.0000000000000000     
  -4.6796908016222112E-002  0.10078593585530350        0.0000000000000000     
  -4.7907572060883280E-002  0.10759274077639241        0.0000000000000000     
  -4.9397347809569475E-002   8.1899771779702590E-002   0.0000000000000000     
  -5.0459457615998578E-002   8.8172465516143675E-002   0.0000000000000000     
  -5.1564496872344677E-002   9.4615618046337113E-002   0.0000000000000000     
  -5.2712465578607801E-002  0.10122922937028286        0.0000000000000000     
  -5.3903363734787942E-002  0.10801329948798090        0.0000000000000000     
  -5.4213095361925923E-002   8.2412292373987409E-002   0.0000000000000000     
  -5.5495168813411995E-002   8.8665449367058002E-002   0.0000000000000000     
  -5.6805048747112612E-002   9.5088495954513755E-002   0.0000000000000000     
  -5.8142735163027780E-002  0.10168143213635462        0.0000000000000000     
  -5.9508228061157513E-002  0.10844425791258065        0.0000000000000000     
  -5.8088558711899808E-002   8.2919478838519758E-002   0.0000000000000000     
  -5.9770913605435939E-002   8.9159475547682915E-002   0.0000000000000000     
  -6.1437299624630015E-002   9.5567163986015946E-002   0.0000000000000000     
  -6.3087716769482050E-002  0.10214254415351888        0.0000000000000000     
  -6.4722165039992036E-002  0.10888561605019167        0.0000000000000000     
  -4.1520853039443570E-002  0.10718258177781517        0.0000000000000000     
  -4.2619923682069100E-002  0.11416638330809381        0.0000000000000000     
  -4.3680336264040540E-002  0.12128901633119014        0.0000000000000000     
  -4.4702090785357855E-002  0.12855048084710419        0.0000000000000000     
  -4.5685187246021067E-002  0.13595077685583590        0.0000000000000000     
  -4.7907572060883280E-002  0.10759274077639241        0.0000000000000000     
  -4.9018583886785129E-002  0.11455422838118061        0.0000000000000000     
  -5.0100891246403052E-002  0.12165568202609592        0.0000000000000000     
  -5.1154494139736981E-002  0.12889710171113841        0.0000000000000000     
  -5.2179392566786977E-002  0.13627848743630802        0.0000000000000000     
  -5.3903363734787942E-002  0.10801329948798090        0.0000000000000000     
  -5.5102280775902610E-002  0.11495334422569817        0.0000000000000000     
  -5.6274306136969342E-002  0.12203487940970162        0.0000000000000000     
  -5.7419439817988159E-002  0.12925790503999118        0.0000000000000000     
  -5.8537681818959020E-002  0.13662242111656689        0.0000000000000000     
  -5.9508228061157513E-002  0.10844425791258065        0.0000000000000000     
  -6.0871014349421507E-002  0.11536373084164661        0.0000000000000000     
  -6.2200580935739457E-002  0.12242660848200720        0.0000000000000000     
  -6.3496927820111362E-002  0.12963289083366253        0.0000000000000000     
  -6.4760055002537217E-002  0.13698257789661250        0.0000000000000000     
  -6.4722165039992036E-002  0.10888561605019167        0.0000000000000000     
  -6.6324784607341827E-002  0.11578538822902582        0.0000000000000000     
  -6.7879715642713348E-002  0.12283086924301273        0.0000000000000000     
  -6.9386958146106584E-002  0.13002205909215239        0.0000000000000000     
  -7.0846512117521521E-002  0.13735895777644486        0.0000000000000000     
  -4.5685187246021067E-002  0.13595077685583590        0.0000000000000000     
  -4.6620850188566931E-002  0.14348130922874014        0.0000000000000000     
  -4.7500304155532198E-002  0.15113348283717171        0.0000000000000000     
  -4.8323549146916868E-002  0.15890729768113054        0.0000000000000000     
  -4.9090585162720940E-002  0.16680275376061671        0.0000000000000000     
  -5.2179392566786977E-002  0.13627848743630802        0.0000000000000000     
  -5.3161063206045210E-002  0.14378924493183601        0.0000000000000000     
  -5.4084982736003893E-002  0.15141877992795352        0.0000000000000000     
  -5.4951151156662999E-002  0.15916709242466059        0.0000000000000000     
  -5.5759568468022561E-002  0.16703418242195722        0.0000000000000000     
  -5.8537681818959020E-002  0.13662242111656689        0.0000000000000000     
  -5.9611798277877354E-002  0.14411548922417097        0.0000000000000000     
  -6.0624555332738576E-002  0.15172417094754551        0.0000000000000000     
  -6.1575952983542626E-002  0.15944846628669063        0.0000000000000000     
  -6.2465991230289564E-002  0.16728837524160628        0.0000000000000000     
  -6.4760055002537217E-002  0.13698257789661250        0.0000000000000000     
  -6.5973055404063369E-002  0.14446004210574495        0.0000000000000000     
  -6.7119021945736226E-002  0.15204965589594766        0.0000000000000000     
  -6.8197954627555749E-002  0.15975141926722064        0.0000000000000000     
  -6.9209853449521949E-002  0.16756533221956380        0.0000000000000000     
  -7.0846512117521521E-002  0.13735895777644486        0.0000000000000000     
  -7.2244834584603262E-002  0.14482290357655803        0.0000000000000000     
  -7.3568382574996857E-002  0.15239523477315994        0.0000000000000000     
  -7.4817156088702333E-002  0.16007595136625052        0.0000000000000000     
  -7.5991155125719703E-002  0.16786505335582988        0.0000000000000000     
  -4.9090585162720940E-002  0.16680275376061671        0.0000000000000000     
  -4.9801546091350943E-002  0.17480279051560174        0.0000000000000000     
  -5.0456565821213384E-002  0.18289034738605708        0.0000000000000000     
  -5.1055644352308270E-002  0.19106542437198276        0.0000000000000000     
  -5.1598781684635608E-002  0.19932802147337877        0.0000000000000000     
  -5.5759568468022561E-002  0.16703418242195722        0.0000000000000000     
  -5.6515115060216607E-002  0.17500583689853166        0.0000000000000000     
  -5.7222671323379229E-002  0.18306784283307209        0.0000000000000000     
  -5.7882237257510405E-002  0.19122020022557853        0.0000000000000000     
  -5.8493812862610142E-002  0.19946290907605102        0.0000000000000000     
  -6.2465991230289564E-002  0.16728837524160628        0.0000000000000000     
  -6.3301618292671821E-002  0.17523267878783580        0.0000000000000000     
  -6.4089782390381850E-002  0.18327015790092263        0.0000000000000000     
  -6.4830483523419677E-002  0.19140081258086675        0.0000000000000000     
  -6.5523721691785275E-002  0.19962464282766820        0.0000000000000000     
  -6.9209853449521949E-002  0.16756533221956380        0.0000000000000000     
  -7.0161055788716550E-002  0.17548331618351420        0.0000000000000000     
  -7.1057899022221246E-002  0.18349729258960876        0.0000000000000000     
  -7.1900383150036065E-002  0.19160726143784743        0.0000000000000000     
  -7.2688508172161007E-002  0.19981322272823021        0.0000000000000000     
  -7.5991155125719703E-002  0.16786505335582988        0.0000000000000000     
  -7.7093427548350774E-002  0.17575774908556685        0.0000000000000000     
  -7.8127021218897405E-002  0.18374924689913041        0.0000000000000000     
  -7.9091936137359597E-002  0.19183954679652054        0.0000000000000000     
  -7.9988172303737309E-002  0.20002864877773724        0.0000000000000000     
  -5.1598781684635608E-002  0.19932802147337877        0.0000000000000000     
  -5.2085134948934970E-002  0.20767172515073096        0.0000000000000000     
  -5.2513861275945962E-002  0.21609012186452514        0.0000000000000000     
  -5.2884960665668578E-002  0.22458321161476130        0.0000000000000000     
  -5.3198433118102822E-002  0.23315099440143949        0.0000000000000000     
  -5.8493812862610142E-002  0.19946290907605102        0.0000000000000000     
  -5.9050017262510295E-002  0.20778967477936774        0.0000000000000000     
  -5.9543469581042723E-002  0.21619420273040707        0.0000000000000000     
  -5.9974169818207440E-002  0.22467649292916891        0.0000000000000000     
  -6.0342117974004447E-002  0.23323654537565333        0.0000000000000000     
  -6.5523721691785275E-002  0.19962464282766820        0.0000000000000000     
  -6.6159967527891037E-002  0.20793459554142343        0.0000000000000000     
  -6.6729691664149285E-002  0.21632361762222896        0.0000000000000000     
  -6.7232894100560076E-002  0.22479170907008497        0.0000000000000000     
  -6.7669574837123353E-002  0.23333886988499128        0.0000000000000000     
  -7.2688508172161007E-002  0.19981322272823021        0.0000000000000000     
  -7.3414985745077169E-002  0.20810648743689786        0.0000000000000000     
  -7.4072527525265650E-002  0.21647836653999092        0.0000000000000000     
  -7.4661133512726435E-002  0.22492886003750936        0.0000000000000000     
  -7.5180803707459581E-002  0.23345796792945331        0.0000000000000000     
  -7.9988172303737309E-002  0.20002864877773724        0.0000000000000000     
  -8.0815071914068684E-002  0.20830535046579110        0.0000000000000000     
  -8.1571977164391782E-002  0.21665844948369276        0.0000000000000000     
  -8.2258888054706575E-002  0.22508794583144220        0.0000000000000000     
  -8.2875804585013091E-002  0.23359383950903939        0.0000000000000000     
  -5.3198433118102822E-002  0.23315099440143949        0.0000000000000000     
  -5.3461346150835212E-002  0.24178383000315820        0.0000000000000000     
  -5.3680767281452296E-002  0.25047207819851591        0.0000000000000000     
  -5.3856696509954088E-002  0.25921573898751255        0.0000000000000000     
  -5.3989133836340575E-002  0.26801481237014824        0.0000000000000000     
  -6.0342117974004447E-002  0.23323654537565333        0.0000000000000000     
  -6.0651798508813644E-002  0.24187207515989212        0.0000000000000000     
  -6.0907695883014965E-002  0.25058079737191719        0.0000000000000000     
  -6.1109810096608402E-002  0.25936271201172845        0.0000000000000000     
  -6.1258141149593964E-002  0.26821781907932596        0.0000000000000000     
  -6.7669574837123353E-002  0.23333886988499128        0.0000000000000000     
  -6.8040169708838610E-002  0.24197017586466757        0.0000000000000000     
  -6.8345114550705244E-002  0.25069070280683348        0.0000000000000000     
  -6.8584409362723253E-002  0.25950045071148892        0.0000000000000000     
  -6.8758054144892639E-002  0.26839941957863400        0.0000000000000000     
  -7.5180803707459581E-002  0.23345796792945331        0.0000000000000000     
  -7.5626459750910105E-002  0.24207813211748450        0.0000000000000000     
  -7.5993023284523120E-002  0.25080179450326467        0.0000000000000000     
  -7.6280494308298641E-002  0.25962895508679401        0.0000000000000000     
  -7.6488872822236612E-002  0.26855961386807237        0.0000000000000000     
  -8.2875804585013091E-002  0.23359383950903939        0.0000000000000000     
  -8.3410668635028162E-002  0.24219594391834284        0.0000000000000000     
  -8.3851422084468649E-002  0.25091407246121095        0.0000000000000000     
  -8.4198064933334538E-002  0.25974822513764367        0.0000000000000000     
  -8.4450597181625842E-002  0.26869840194764111        0.0000000000000000     
  -5.3989133836340575E-002  0.26801481237014824        0.0000000000000000     
  -5.4108615607805069E-002  0.27681980568525860        0.0000000000000000     
  -5.4245678171540905E-002  0.28558122627167942        0.0000000000000000     
  -5.4400321527548083E-002  0.29429907412941064        0.0000000000000000     
  -5.4572545675826603E-002  0.30297334925845237        0.0000000000000000     
  -6.1258141149593964E-002  0.26821781907932596        0.0000000000000000     
  -6.1389010481061004E-002  0.27710174848769509        0.0000000000000000     
  -6.1538739530098890E-002  0.28597013014982142        0.0000000000000000     
  -6.1707328296707609E-002  0.29482296406570474        0.0000000000000000     
  -6.1894776780887159E-002  0.30366025023534526        0.0000000000000000     
  -6.8758054144892639E-002  0.26839941957863400        0.0000000000000000     
  -6.8905675775892655E-002  0.27735756909951426        0.0000000000000000     
  -6.9066901134402503E-002  0.28634485896537509        0.0000000000000000     
  -6.9241730220422182E-002  0.29536128917621673        0.0000000000000000     
  -6.9430163033951733E-002  0.30440685973203890        0.0000000000000000     
  -7.6488872822236612E-002  0.26855961386807237        0.0000000000000000     
  -7.6658611492299994E-002  0.27758726752071583        0.0000000000000000     
  -7.6830162984451750E-002  0.28670541271834049        0.0000000000000000     
  -7.7003527298691865E-002  0.29591404946094635        0.0000000000000000     
  -7.7178704435020326E-002  0.30521317774853329        0.0000000000000000     
  -8.4450597181625842E-002  0.26869840194764111        0.0000000000000000     
  -8.4647817630283062E-002  0.27779084375130014        0.0000000000000000     
  -8.4828525080246645E-002  0.28705179140871773        0.0000000000000000     
  -8.4992719531516603E-002  0.29648124491989375        0.0000000000000000     
  -8.5140400984092951E-002  0.30607920428482838        0.0000000000000000     
  -5.1639985010061756E-002   6.0644239573928629E-002   0.0000000000000000     
  -5.3193481506585538E-002   6.5772543618753593E-002   0.0000000000000000     
  -5.4786075955733135E-002   7.1194518177793778E-002   0.0000000000000000     
  -5.6417768357504561E-002   7.6910163251049157E-002   0.0000000000000000     
  -5.8088558711899808E-002   8.2919478838519758E-002   0.0000000000000000     
  -5.2600573470633800E-002   6.1420727171048434E-002   0.0000000000000000     
  -5.5041090097221607E-002   6.6468076796003070E-002   0.0000000000000000     
  -5.7399114756647975E-002   7.1827064117791967E-002   0.0000000000000000     
  -5.9674647448912904E-002   7.7497689136415193E-002   0.0000000000000000     
  -6.1867688174016396E-002   8.3479951851872666E-002   0.0000000000000000     
  -5.5629517607487758E-002   6.1548402670999522E-002   0.0000000000000000     
  -5.8466284500267779E-002   6.6862017568975723E-002   0.0000000000000000     
  -6.1206026207080010E-002   7.2400544105237746E-002   0.0000000000000000     
  -6.3848742727924415E-002   7.8163982279785549E-002   0.0000000000000000     
  -6.6394434062801003E-002   8.4152332092619131E-002   0.0000000000000000     
  -6.0726817420623601E-002   6.1027266073781880E-002   0.0000000000000000     
  -6.3469064715724055E-002   6.6954365937671609E-002   0.0000000000000000     
  -6.6206810307029199E-002   7.2914958140131075E-002   0.0000000000000000     
  -6.8940054194539052E-002   7.8909042681160252E-002   0.0000000000000000     
  -7.1668796378253616E-002   8.4936619560759166E-002   0.0000000000000000     
  -6.7892472910041343E-002   5.9857317379395536E-002   0.0000000000000000     
  -7.0049430743590421E-002   6.6745121902090671E-002   0.0000000000000000     
  -7.2401467056495597E-002   7.3370306222471926E-002   0.0000000000000000     
  -7.4948581848756884E-002   7.9732870340539275E-002   0.0000000000000000     
  -7.7690775120374256E-002   8.5832814256292730E-002   0.0000000000000000     
  -5.8088558711899808E-002   8.2919478838519758E-002   0.0000000000000000     
  -5.9770913605435939E-002   8.9159475547682915E-002   0.0000000000000000     
  -6.1437299624630015E-002   9.5567163986015946E-002   0.0000000000000000     
  -6.3087716769482050E-002  0.10214254415351888        0.0000000000000000     
  -6.4722165039992036E-002  0.10888561605019167        0.0000000000000000     
  -6.1867688174016396E-002   8.3479951851872666E-002   0.0000000000000000     
  -6.3987572197048481E-002   8.9701647539642507E-002   0.0000000000000000     
  -6.6043634783099200E-002   9.6090571475202655E-002   0.0000000000000000     
  -6.8035875932168519E-002  0.10264672365855323        0.0000000000000000     
  -6.9964295644256477E-002  0.10937010408969415        0.0000000000000000     
  -6.6394434062801003E-002   8.4152332092619131E-002   0.0000000000000000     
  -6.8846024793227711E-002   9.0339068824560831E-002   0.0000000000000000     
  -7.1206439500722404E-002   9.6697667756432917E-002   0.0000000000000000     
  -7.3475678185285123E-002  0.10322812888823540        0.0000000000000000     
  -7.5653740846915840E-002  0.10993045221996826        0.0000000000000000     
  -7.1668796378253616E-002   8.4936619560759166E-002   0.0000000000000000     
  -7.4346271393973581E-002   9.1071739402437915E-002   0.0000000000000000     
  -7.6925713777499669E-002   9.7388452829706651E-002   0.0000000000000000     
  -7.9407123528831863E-002  0.10388675984256536        0.0000000000000000     
  -8.1790500647970138E-002  0.11056666044101404        0.0000000000000000     
  -7.7690775120374256E-002   8.5832814256292730E-002   0.0000000000000000     
  -8.0488311999286147E-002   9.1899659273273787E-002   0.0000000000000000     
  -8.3201457613430951E-002   9.8162926695023911E-002   0.0000000000000000     
  -8.5830211962808697E-002  0.10462261652154316        0.0000000000000000     
  -8.8374575047419357E-002  0.11127872875283146        0.0000000000000000     
  -6.4722165039992036E-002  0.10888561605019167        0.0000000000000000     
  -6.6324784607341827E-002  0.11578538822902582        0.0000000000000000     
  -6.7879715642713348E-002  0.12283086924301273        0.0000000000000000     
  -6.9386958146106584E-002  0.13002205909215239        0.0000000000000000     
  -7.0846512117521521E-002  0.13735895777644486        0.0000000000000000     
  -6.9964295644256477E-002  0.10937010408969415        0.0000000000000000     
  -7.1828307517522311E-002  0.11625073361930593        0.0000000000000000     
  -7.3627325150125308E-002  0.12327863309806901        0.0000000000000000     
  -7.5361348542065429E-002  0.13045380252598343        0.0000000000000000     
  -7.7030377693342728E-002  0.13777624190304916        0.0000000000000000     
  -7.5653740846915840E-002  0.10993045221996826        0.0000000000000000     
  -7.7746299047821613E-002  0.11679218424395697        0.0000000000000000     
  -7.9759024350209498E-002  0.12380087145252695        0.0000000000000000     
  -8.1691916754079483E-002  0.13095651384567816        0.0000000000000000     
  -8.3544976259431594E-002  0.13825911142341069        0.0000000000000000     
  -8.1790500647970138E-002  0.11056666044101404        0.0000000000000000     
  -8.4078759198239761E-002  0.11740974010297901        0.0000000000000000     
  -8.6274813242965973E-002  0.12439758430638653        0.0000000000000000     
  -8.8378662782148745E-002  0.13153019305123667        0.0000000000000000     
  -9.0390307815788093E-002  0.13880756633752936        0.0000000000000000     
  -8.8374575047419357E-002  0.11127872875283146        0.0000000000000000     
  -9.0825687968776755E-002  0.11810340119637197        0.0000000000000000     
  -9.3174691828394718E-002  0.12506877165964778        0.0000000000000000     
  -9.5421586626273203E-002  0.13217484014265890        0.0000000000000000     
  -9.7566372362412251E-002  0.13942160664540532        0.0000000000000000     
  -7.0846512117521521E-002  0.13735895777644486        0.0000000000000000     
  -7.2244834584603262E-002  0.14482290357655803        0.0000000000000000     
  -7.3568382574996857E-002  0.15239523477315994        0.0000000000000000     
  -7.4817156088702333E-002  0.16007595136625052        0.0000000000000000     
  -7.5991155125719703E-002  0.16786505335582988        0.0000000000000000     
  -7.7030377693342728E-002  0.13777624190304916        0.0000000000000000     
  -7.8625190823533059E-002  0.14522495093743160        0.0000000000000000     
  -8.0136566152212318E-002  0.15277892933729612        0.0000000000000000     
  -8.1564503679380493E-002  0.16043817710264274        0.0000000000000000     
  -8.2909003405037582E-002  0.16820269423347148        0.0000000000000000     
  -8.3544976259431594E-002  0.13825911142341069        0.0000000000000000     
  -8.5312179124888879E-002  0.14568706148918706        0.0000000000000000     
  -8.6987501609074425E-002  0.15321876134647003        0.0000000000000000     
  -8.8570943711988245E-002  0.16085421099525951        0.0000000000000000     
  -9.0062505433630341E-002  0.16859341043555559        0.0000000000000000     
  -9.0390307815788093E-002  0.13880756633752936        0.0000000000000000     
  -9.2305799488670695E-002  0.14620923523182444        0.0000000000000000     
  -9.4121188945583203E-002  0.15371473080068163        0.0000000000000000     
  -9.5836476186525618E-002  0.16132405304410083        0.0000000000000000     
  -9.7451661211497967E-002  0.16903720196208225        0.0000000000000000     
  -9.7566372362412251E-002  0.13942160664540532        0.0000000000000000     
  -9.9606051914878507E-002  0.14679147216534372        0.0000000000000000     
 -0.10153762816173863       0.15426683769993088        0.0000000000000000     
 -0.10336110110299263       0.16184770324916678        0.0000000000000000     
 -0.10507647073864047       0.16953406881305139        0.0000000000000000     
  -7.5991155125719703E-002  0.16786505335582988        0.0000000000000000     
  -7.7093427548350774E-002  0.17575774908556685        0.0000000000000000     
  -7.8127021218897405E-002  0.18374924689913041        0.0000000000000000     
  -7.9091936137359597E-002  0.19183954679652054        0.0000000000000000     
  -7.9988172303737309E-002  0.20002864877773724        0.0000000000000000     
  -8.2909003405037582E-002  0.16820269423347148        0.0000000000000000     
  -8.4169868630720179E-002  0.17607027909726097        0.0000000000000000     
  -8.5346902657964838E-002  0.18403873006148996        0.0000000000000000     
  -8.6440105486771571E-002  0.19210804712615837        0.0000000000000000     
  -8.7449477117140337E-002  0.20027823029126621        0.0000000000000000     
  -9.0062505433630341E-002  0.16859341043555559        0.0000000000000000     
  -9.1461514094970373E-002  0.17643520782186378        0.0000000000000000     
  -9.2767297016978043E-002  0.18437845130868960        0.0000000000000000     
  -9.3979854199653295E-002  0.19242314089603307        0.0000000000000000     
  -9.5099185642996187E-002  0.20056927658389423        0.0000000000000000     
  -9.7451661211497967E-002  0.16903720196208225        0.0000000000000000     
  -9.8968363941101381E-002  0.17685253525937522        0.0000000000000000     
 -0.10038820429593699       0.18476841064072941        0.0000000000000000     
 -0.10171118227600481       0.19278482810614475        0.0000000000000000     
 -0.10293729788130482       0.20090178765562131        0.0000000000000000     
 -0.10507647073864047       0.16953406881305139        0.0000000000000000     
 -0.10669041816911318       0.17732226140979540        0.0000000000000000     
 -0.10820962449484171       0.18520860805760939        0.0000000000000000     
 -0.10963408971582606       0.19319310875649340        0.0000000000000000     
 -0.11096381383206627       0.20127576350644738        0.0000000000000000     
  -7.9988172303737309E-002  0.20002864877773724        0.0000000000000000     
  -8.0815071914068684E-002  0.20830535046579110        0.0000000000000000     
  -8.1571977164391782E-002  0.21665844948369276        0.0000000000000000     
  -8.2258888054706575E-002  0.22508794583144220        0.0000000000000000     
  -8.2875804585013091E-002  0.23359383950903939        0.0000000000000000     
  -8.7449477117140337E-002  0.20027823029126621        0.0000000000000000     
  -8.8381381336805148E-002  0.20853617324461712        0.0000000000000000     
  -8.9242181933499920E-002  0.21686876967401453        0.0000000000000000     
  -9.0031878907224680E-002  0.22527601957945850        0.0000000000000000     
  -9.0750472257979387E-002  0.23375792296094905        0.0000000000000000     
  -9.5099185642996187E-002  0.20056927658389423        0.0000000000000000     
  -9.6135069315226057E-002  0.20880394438988964        0.0000000000000000     
  -9.7097283184562316E-002  0.21711423033163610        0.0000000000000000     
  -9.7985827251004937E-002  0.22550013440913341        0.0000000000000000     
  -9.8800701514553960E-002  0.23396165662238166        0.0000000000000000     
 -0.10293729788130482       0.20090178765562131        0.0000000000000000     
 -0.10407613584933141       0.20910866390160887        0.0000000000000000     
 -0.10513728091757893       0.21739483145655736        0.0000000000000000     
 -0.10612073308604739       0.22576029032046688        0.0000000000000000     
 -0.10702649235473678       0.23420504049333732        0.0000000000000000     
 -0.11096381383206627       0.20127576350644738        0.0000000000000000     
 -0.11220458093912120       0.20945033177977462        0.0000000000000000     
 -0.11336217513254977       0.21771057304877850        0.0000000000000000     
 -0.11443659641235202       0.22605648731345887        0.0000000000000000     
 -0.11542784477852792       0.23448807457381582        0.0000000000000000     
  -8.2875804585013091E-002  0.23359383950903939        0.0000000000000000     
  -8.3410668635028162E-002  0.24219594391834284        0.0000000000000000     
  -8.3851422084468649E-002  0.25091407246121095        0.0000000000000000     
  -8.4198064933334538E-002  0.25974822513764367        0.0000000000000000     
  -8.4450597181625842E-002  0.26869840194764111        0.0000000000000000     
  -9.0750472257979387E-002  0.23375792296094905        0.0000000000000000     
  -9.1382842743465267E-002  0.24233943124018206        0.0000000000000000     
  -9.1913871121383522E-002  0.25104549583885344        0.0000000000000000     
  -9.2343557391734166E-002  0.25987611675696309        0.0000000000000000     
  -9.2671901554517183E-002  0.26883129399451111        0.0000000000000000     
  -9.8800701514553960E-002  0.23396165662238166        0.0000000000000000     
  -9.9533028458493933E-002  0.24252441405594147        0.0000000000000000     
 -0.10017393056610950       0.25121402379437346        0.0000000000000000     
 -0.10072340783740066       0.26003048583767752        0.0000000000000000     
 -0.10118146027236742       0.26897380018585376        0.0000000000000000     
 -0.10702649235473678       0.23420504049333732        0.0000000000000000     
 -0.10786122578011419       0.24275089236562111        0.0000000000000000     
 -0.10863160041864660       0.25141965632777097        0.0000000000000000     
 -0.10933761627033403       0.26021133237978683        0.0000000000000000     
 -0.10997927333517650       0.26912592052166867        0.0000000000000000     
 -0.11542784477852792       0.23448807457381582        0.0000000000000000     
 -0.11636743470832600       0.24301886616922103        0.0000000000000000     
 -0.11728688067899480       0.25166239343904612        0.0000000000000000     
 -0.11818618269053431       0.26041865638329115        0.0000000000000000     
 -0.11906534074294452       0.26928765500195606        0.0000000000000000     
  -8.4450597181625842E-002  0.26869840194764111        0.0000000000000000     
  -8.4647817630283062E-002  0.27779084375130014        0.0000000000000000     
  -8.4828525080246645E-002  0.28705179140871773        0.0000000000000000     
  -8.4992719531516603E-002  0.29648124491989375        0.0000000000000000     
  -8.5140400984092951E-002  0.30607920428482838        0.0000000000000000     
  -9.2671901554517183E-002  0.26883129399451111        0.0000000000000000     
  -9.2929403615908873E-002  0.27797400085957263        0.0000000000000000     
  -9.3146563582085506E-002  0.28736721066022242        0.0000000000000000     
  -9.3323381453047125E-002  0.29701092339646057        0.0000000000000000     
  -9.3459857228793686E-002  0.30690513906828715        0.0000000000000000     
 -0.10118146027236742       0.26897380018585376        0.0000000000000000     
 -0.10155947887524450       0.27814244191383908        0.0000000000000000     
 -0.10186885465026674       0.28763488609657062        0.0000000000000000     
 -0.10210958759743409       0.29745113273404844        0.0000000000000000     
 -0.10228167771674662       0.30759118182627238        0.0000000000000000     
 -0.10997927333517650       0.26912592052166867        0.0000000000000000     
 -0.11053804340828995       0.27829616691409953        0.0000000000000000     
 -0.11099539828479028       0.28785481771776233        0.0000000000000000     
 -0.11135133796467754       0.29780187293265725        0.0000000000000000     
 -0.11160586244795170       0.30813733255878417        0.0000000000000000     
 -0.11906534074294452       0.26928765500195606        0.0000000000000000     
 -0.11986509721504524       0.27843517586035388        0.0000000000000000     
 -0.12052619448565620       0.28802700552379751        0.0000000000000000     
 -0.12104863255477746       0.29806314399228706        0.0000000000000000     
 -0.12143241142240899       0.30854359126582243        0.0000000000000000     
 </DataArray>
 <DataArray  type="Float64" Name="stress" NumberOfComponents="3" format="ascii">
   5291024213.9157753        4456468374.1436157       -871915350.24127877     
   4984634680.7008190        2186667662.3449869       -452429178.47641605     
   4898808309.1966476        652077489.58232975       -219853923.90350559     
   5033545099.4032803       -147302144.14433551       -174189586.52252054     
   5388845051.3207026       -211471238.83501339       -315436166.33349025     
   6325790121.1509371        3521178921.2472849       -163291535.63016716     
   5818086951.9264584        1857645928.5314832        112447689.85921732     
   5464679574.2159300        708432240.86221600        280333254.28332275     
   5265567988.0193710        73537858.239509583        340365157.64215994     
   5220752193.3367729       -47037219.336661577        292543399.93571681     
   6212146608.2339687        2241366642.3053217        840396633.34667003     
   5729007677.6475639        1251864731.0666127        895076980.66427004     
   5333897168.3783035        555790890.88503480        920960923.04326868     
   5026815080.4261742        153145121.76056480        918048460.48365724     
   4807761413.7911777        43927423.693203926        886339592.98544121     
   4950093675.1648321        617031537.31770194        2139149156.6892262     
   4717396857.8641462        369324069.95040512        1895458693.9387484     
   4506461091.6837606        194153439.65077615        1702029082.3763244     
   4317286376.6236782        91519646.418832541        1558860322.0019736     
   4149872712.6839023        61422690.254558563        1465952412.8156705     
   2539631321.9435468       -1351826393.7155595        3732966034.3975086     
   2783254492.5761881       -789976054.81718123        3113592829.6826439     
   2982371344.1323071       -376480112.84054911        2623537732.2825055     
   3136981876.6118937       -111338567.78568828        2262800742.1970949     
   3247086090.0149484        5448580.3474097252        2031381859.4264147     
   5388845051.3207026       -211471238.83501339       -315436166.33349025     
   5259276431.1698256       -103262544.37972140       -219973948.72716758     
   5118708403.6596775       -31718541.122008801       -142153840.06927866     
   4967140968.7902431        3160770.9380795956       -81975840.359816507     
   4804574126.5615387        1375391.8006157875       -39439949.598786868     
   5220752193.3367729       -47037219.336661577        292543399.93571681     
   5051857863.4550772        17390528.010394335        298909316.09522879     
   4875190633.5866299        55908608.734956503        302770090.74290109     
   4690750503.7314386        68517022.837033749        304125723.87872463     
   4498537473.8894892        55215770.316589117        302976215.50271493     
   4807761413.7911777        43927423.693203926        886339592.98544121     
   4642789852.5689039        77548767.449089527        807373466.29943335     
   4473271898.7324123        96015469.157571077        741039165.53816199     
   4299207552.2817039        99327528.818669081        687336690.70164585     
   4120596813.2167773        87484946.432369947        646266041.78987968     
   4149872712.6839023        61422690.254558563        1465952412.8156705     
   4032072398.5113034        77212173.936342955        1305418501.8854229     
   3912952199.0970197        88602040.145829678        1172653384.3165104     
   3792512114.4410515        95592288.883042574        1067657060.1089305     
   3670752144.5433898        98182920.147944927        990429529.26268899     
   3247086090.0149484        5448580.3474097252        2031381859.4264147     
   3219705501.2822814        16380747.472173572        1793044422.8532131     
   3194231534.6804585        33668321.699744701        1597612747.0779388     
   3170664190.2094789        57311303.030129790        1445086832.1005876     
   3149003467.8693414        87309691.463321924        1335466677.9211547     
   4804574126.5615387        1375391.8006157875       -39439949.598786868     
   4600708805.4119205       -24677682.966222048       -43673817.110021152     
   4400011143.0810995       -40171895.003762245       -41504461.869034797     
   4202481139.5690556       -45107244.312018633       -32931883.875821397     
   4008118794.8758044       -39483730.890988827       -17956083.130400170     
   4498537473.8894892        55215770.316589117        302976215.50271493     
   4315724845.7597675        35949179.118075371        277489826.13622564     
   4134892507.1606836        23283553.021689415        260228481.67089030     
   3956040458.0922604        17218892.027502775        251192182.10672647     
   3779168698.5544696        17755196.135428429        250380927.44372228     
   4120596813.2167773        87484946.432369947        646266041.78987968     
   3964042084.2467766        76566400.644118071        598141866.39862692     
   3808280275.5192828        68290922.330884695        560064558.05747724     
   3653311387.0342917        62658511.492665768        532034116.76643586     
   3499135418.7918034        59669168.129452944        514050542.52549642     
   3670752144.5433898        98182920.147944927        990429529.26268899     
   3545660520.8729510        97173981.611918330        918282303.67718005     
   3420174448.1568704        94850212.923757195        858003767.29071701     
   3294293926.3951573        91211614.083488584        809593920.10330725     
   3168018955.5878072        86258185.091081500        773052762.11492884     
   3149003467.8693414        87309691.463321924        1335466677.9211547     
   3060580155.6382909        97771922.021455169        1237911137.9718938     
   2970575025.0734596        102961424.80032980        1154046109.3706198     
   2878988076.1748533        102878199.79995430        1083871592.1173270     
   2785819308.9424696        97522247.020307660        1027387586.2120329     
   4008118794.8758044       -39483730.890988827       -17956083.130400170     
   3801910873.3794436       -34982313.826637030       -22857548.472738225     
   3594138530.4385223       -35695634.910822630       -21932022.757903829     
   3384801766.0530524       -41623694.143495798       -15179505.985934768     
   3173900580.2230277       -52766491.524696469       -2599998.1567868493     
   3779168698.5544696        17755196.135428429        250380927.44372228     
   3586346824.4907994        15669797.905586004        226446156.47894201     
   3392971033.6569157        11738010.441689253        208501388.31926632     
   3199041326.0528159        5959833.7437419891        196546622.96472469     
   3004557701.6785212       -1664732.1882108450        190581860.41527998     
   3499135418.7918034        59669168.129452944        514050542.52549642     
   3320165340.0121312        51136678.960824966        472261388.05834264     
   3141651849.1365724        44126149.472594619        436625248.14424670     
   2963594946.1651402        38637579.664788485        407142122.78322661     
   2785994631.0978355        34670969.537387848        383812011.97526056     
   3168018955.5878072        86258185.091081500        773052762.11492884     
   3003366419.9434075        71418329.339029193        714588146.26546228     
   2840180976.8774734        61468782.181852460        662439556.71701074     
   2678462626.3900089        56409543.619571447        616606993.46958005     
   2518211368.4810085        56240613.652167678        577090456.52316642     
   2785819308.9424696        97522247.020307660        1027387586.2120329     
   2635950064.2846522        76514749.040237069        953426431.10031390     
   2488558416.8796358        63765908.569500566        885944314.03756392     
   2343644366.7274284        59275725.608135700        824941235.02378607     
   2201207913.8280182        63044200.156091571        770417194.05898106     
   3173900580.2230277       -52766491.524696469       -2599998.1567868493     
   2991400565.4305539       -54756803.837689996        5622057.7568941377     
   2810881763.5707121       -50143073.041876197        10151641.451440806     
   2632344174.6435437       -38925299.137176394        10988752.926832657     
   2455787798.6490140       -21103482.123667002        8133392.1830901885     
   3004557701.6785212       -1664732.1882108450        190581860.41527998     
   2817153767.3853316       -6425314.4615976810        185466315.50381362     
   2630791712.4783707       -7712965.4475674629        180910290.10949746     
   2445471536.9576421       -5527685.1460956335        176913784.23233923     
   2261193240.8231483        130526.44280183315        173476797.87234145     
   2785994631.0978355        34670969.537387848        383812011.97526056     
   2605835325.1219673        30784681.649058580        364262977.10114723     
   2425778564.9858904        27240213.226713061        349525453.48047954     
   2245824350.6896162        24037564.270374298        339599441.11327541     
   2065972682.2331450        21176734.780036211        334484939.99952847     
   2518211368.4810085        56240613.652167678        577090456.52316642     
   2357445238.6404519        56873184.494266391        542012042.54889047     
   2195842321.0932570        54716462.980921149        515997131.56438029     
   2033402615.8394423        49770449.112173438        499045723.56962687     
   1870126122.8790023        42035142.888005376        491157818.56464201     
   2201207913.8280182        63044200.156091571        770417194.05898106     
   2071983507.9407766        71840194.074012876        718713511.84706712     
   1940982980.8004797        74715783.815094113        680325324.36120582     
   1808206332.4071293        71670969.379325986        655252631.60141301     
   1673653562.7607405        62705750.766758800        643495433.56767905     
   2455787798.6490140       -21103482.123667002        8133392.1830901885     
   2302181342.4207945       -818355.29878628254       -3492625.0558649977     
   2143678289.0059581        3144780.9040255547       -10533924.251599791     
   1980278638.4044623       -9214073.5153532028       -12990505.404115470     
   1811982390.6163714       -37894918.556716204       -10862368.513413319     
   2261193240.8231483        130526.44280183315        173476797.87234145     
   2116290271.3381586        14355186.994450569        156381111.60128492     
   1968205104.4237676        17972522.781433582        142794266.22948709     
   1816937740.0800030        10982533.803839803        132716261.75691916     
   1662488178.3068488       -6614779.9383978844        126147098.18361889     
   2065972682.2331450        21176734.780036211        334484939.99952847     
   1926699264.7943203        28418748.649276614        313919717.74648672     
   1785958049.6833518        30768103.611371994        295787459.24872851     
   1643749036.9002409        28224799.666334927        280088164.50624293     
   1500072226.4449954        20788836.814181447        266821833.51904991     
   1870126122.8790023        42035142.888005376        491157818.56464201     
   1733408322.7893076        41372329.665762067        469123193.37972754     
   1596937124.7847173        41531523.393872440        448445654.80613863     
   1460712528.8652194        42512724.072299063        429125202.84385836     
   1324734535.0308323        44315931.701074421        411161837.49289328     
   1673653562.7607405        62705750.766758800        643495433.56767905     
   1536417445.3231277        53215930.043920577        621991538.50102794     
   1401142329.7278516        50262782.128876925        600768852.90171707     
   1267828215.9749358        53846307.021694720        579827376.76974392     
   1136475104.0643568        63966504.722306967        559167110.10513926     
   1811982390.6163714       -37894918.556716204       -10862368.513413319     
   1778429507.1088674       -20816525.007945776       -5948528.3935956089     
   1753291613.7370315        24311835.659685731       -40017494.549097285     
   1736568710.5008512        97490163.446174145       -113069266.97990297     
   1728260797.4003208        198718458.35151803       -225103845.68601778     
   1662488178.3068488       -6614779.9383978844        126147098.18361889     
   1536814871.2862554       -13629567.405492067        140385077.44621196     
   1415609245.1122255       -5752085.3840200305        128303963.59309775     
   1298871299.7847748        17017666.126044750        89903756.624258906     
   1186601035.3038855        54679687.124658525        25184456.539703794     
   1500072226.4449954        20788836.814181447        266821833.51904991     
   1318460533.5101442        535479.61088854074        285778757.75384533     
   1137369212.1327801       -17983305.734117448        291080302.03249043     
   956798262.31288445       -34767519.220882237        282726466.35502750     
   776747684.05048358       -49817160.849331141        260717250.72143853     
   1324734535.0308323        44315931.701074421        411161837.49289328     
   1123366493.7805643        21678616.041240275        430232512.52925581     
   918571514.79868591       -12381825.390609622        448311520.76908851     
   710349598.08519316       -57865392.594522774        465398862.21239024     
   498700743.64010978       -114772085.57039234        481494536.85916400     
   1136475104.0643568        63966504.722306967        559167110.10513926     
   951532752.09750187        49799841.885553777        573746341.77248192     
   759216153.10995781        11052355.646519780        599997619.80288041     
   559525307.10170674       -52275953.994878978        637920944.19635201     
   352460214.07277226       -140185087.03855595        687516314.95288086     
   1728260797.4003208        198718458.35151803       -225103845.68601778     
   1457789740.1428766        184567157.06723636       -97198657.984652281     
   1154685679.8205800        61639178.900135517        59860860.499569505     
   818948616.43346894       -170065476.14972472        246074709.76662964     
   450578549.98150736       -510546808.08235347        461442889.81655115     
   1186601035.3038855        54679687.124658525        25184456.539703794     
   979310522.04473579        12768567.960384727        156287577.72787690     
   733881735.28224039       -156270129.54835188        313242898.41188240     
   450314675.01641953       -452436405.40150702        496050418.59170747     
   128609341.24726295       -875730259.59909201        704710138.26738024     
   776747684.05048358       -49817160.849331141        260717250.72143853     
   623203053.96959424       -122318496.13958049        388595489.88480806     
   426014879.94686627       -340298311.23595297        539023797.25701296     
   185183161.98232552       -703756606.13839018        712002172.83803797     
  -99292099.924049258       -1212693380.8469243        907530616.62789571     
   498700743.64010978       -114772085.57039234        481494536.85916400     
   389467335.91745138       -220694035.23265269        599725078.48617256     
   231085113.81447381       -490445366.16263121        737203557.03498268     
   23554077.331153154       -924026078.36038971        893929972.50562918     
  -233125773.53247038       -1521436171.8258758        1069904324.8980731     
   352460214.07277226       -140185087.03855595        687516314.95288086     
   278103367.88830459       -282358049.31883276        789676343.53194034     
   149092436.88502073       -606711294.32849097        907782177.74581945     
  -34572578.937078059       -1113244822.0675294        1041833817.5944862     
  -272891679.57799894       -1801958632.5359859        1191831263.0779650     
   2539631321.9435468       -1351826393.7155595        3732966034.3975086     
   2783254492.5761881       -789976054.81718123        3113592829.6826439     
   2982371344.1323071       -376480112.84054911        2623537732.2825055     
   3136981876.6118937       -111338567.78568828        2262800742.1970949     
   3247086090.0149484        5448580.3474097252        2031381859.4264147     
   615433755.30758488       -1666604581.0843878        2147632814.7238755     
   1096308117.6062627       -1163249768.5279875        1847183191.6567986     
   1546190497.2826493       -763201564.71254897        1613415345.5585523     
   1965080894.3367517       -466459969.63806200        1446329276.4291413     
   2352979308.7685666       -273024983.30453467        1345924984.2685611     
  -182242603.29492098       -1643426406.0431757        504542815.25637555     
   356922006.82436985       -1252255402.9823925        538783499.70036423     
   878608970.77562642       -919343220.48175848        577069630.76729083     
   1382818288.5588322       -644689858.54127407        619401208.45715845     
   1869549960.1739893       -428295317.16094804        665778232.76996315     
   146602246.13601458       -1282291868.5919333       -1196303964.0049958     
   565096160.23052621       -1056992958.1803771       -811606246.18665993     
   979626764.61122406       -844905080.14817834       -485499412.09127754     
   1390194059.2781236       -646028234.49531877       -217983461.71884829     
   1796798044.2312164       -460362421.22181487       -9058395.0693777818     
   1601968303.6004207       -583200968.73064935       -2954907523.0602365     
   1720830577.8247213       -577462434.12195516       -2203986046.0042710     
   1849243878.7894580       -539887143.71181345       -1574291783.0171509     
   1987208206.4946351       -470475097.50019860       -1065824734.0988832     
   2134723560.9402456       -369226295.48714459       -678584899.24946642     
   3247086090.0149484        5448580.3474097252        2031381859.4264147     
   3219705501.2822814        16380747.472173572        1793044422.8532131     
   3194231534.6804585        33668321.699744701        1597612747.0779388     
   3170664190.2094789        57311303.030129790        1445086832.1005876     
   3149003467.8693414        87309691.463321924        1335466677.9211547     
   2352979308.7685666       -273024983.30453467        1345924984.2685611     
   2421996000.7444773       -220930829.68125308        1242368344.4772866     
   2491888423.0524731       -165917574.95101416        1160558778.3181024     
   2562656575.6925530       -107985219.11382508        1100496285.7910125     
   2634300458.6647267       -47133762.169669390        1062180866.8960128     
   1869549960.1739893       -428295317.16094804        665778232.76996315     
   1974510540.9561007       -353175194.60985470        695799682.66206300     
   2079315960.2715397       -278572276.94765747        726409519.02042568     
   2183966218.1203113       -204486564.17436135        757607741.84504509     
   2288461314.5024104       -130918056.28996480        789394351.13592935     
   1796798044.2312164       -460362421.22181487       -9058395.0693777818     
   1877249121.9171512       -380352347.31362319        153338437.40754858     
   1956514146.3376603       -304295784.29018950        295164969.18490338     
   2034593117.4927454       -232192732.15149999        416421200.26269168     
   2111486035.3824048       -164043190.89757180        517107130.64090127     
   2134723560.9402456       -369226295.48714459       -678584899.24946642     
   2130211743.6276312       -302462287.79256785       -385015391.28626072     
   2123482981.2508366       -243088096.97859728       -133174871.18845877     
   2114537273.8098550       -191103723.04523969        76936661.043938279     
   2103374621.3046954       -146509165.99248648        245319205.41093808     
   3149003467.8693414        87309691.463321924        1335466677.9211547     
   3060580155.6382909        97771922.021455169        1237911137.9718938     
   2970575025.0734596        102961424.80032980        1154046109.3706198     
   2878988076.1748533        102878199.79995430        1083871592.1173270     
   2785819308.9424696        97522247.020307660        1027387586.2120329     
   2634300458.6647267       -47133762.169669390        1062180866.8960128     
   2576956139.1267667       -25675401.618933678        1019020336.0219166     
   2518276769.0542583       -8667209.5166862011        983538642.79622459     
   2458262348.4472227        3890814.1371257305        955735787.21894503     
   2396912877.3056345        11998669.342447758        935611769.29006696     
   2288461314.5024104       -130918056.28996480        789394351.13592935     
   2245019777.0873117       -103616428.91771483        800916725.10277534     
   2200489956.9369054       -79942410.663144112        814106263.01845157     
   2154871854.0512037       -59896001.526225924        828962964.88295388     
   2108165468.4301991       -43477201.506992221        845486830.69628119     
   2111486035.3824048       -164043190.89757180        517107130.64090127     
   2064771069.5199366       -136051159.87486362        583600305.21447146     
   2017214588.7214036       -110864178.63904524        645748970.03728890     
   1968816592.9868107       -88482247.190086484        703553125.10935271     
   1919577082.3161552       -68905365.528008223        757012770.43066323     
   2103374621.3046954       -146509165.99248648        245319205.41093808     
   2036210016.4246354       -122979594.49039555        367071076.35700619     
   1968450664.4077461       -101432513.44439793        478466763.85274136     
   1900096565.2540390       -81867922.854458451        579506267.89814484     
   1831147718.9635017       -64285822.720620513        670189588.49322045     
   2785819308.9424696        97522247.020307660        1027387586.2120329     
   2635950064.2846522        76514749.040237069        953426431.10031390     
   2488558416.8796358        63765908.569500566        885944314.03756392     
   2343644366.7274284        59275725.608135700        824941235.02378607     
   2201207913.8280182        63044200.156091571        770417194.05898106     
   2396912877.3056345        11998669.342447758        935611769.29006696     
   2264695529.6322441        290880.21680855751        898723087.46797621     
   2134765794.2265072       -3791534.6832969189        866787663.23390484     
   2007123671.0884385       -248575.35784721375        839805496.58785856     
   1881769160.2180309        10919758.193127394        817776587.52983665     
   2108165468.4301991       -43477201.506992221        845486830.69628119     
   1989240644.9956713       -47193093.601859450        845448973.01447451     
   1872413448.8436646       -43916894.755001426        848838592.45974588     
   1757683879.9741745       -33648604.966409087        855655689.03209734     
   1645051938.3872056       -16388224.236091495        865900262.73152483     
   1919577082.3161552       -68905365.528008223        757012770.43066323     
   1809585410.3749397       -65937172.415769935        793604087.73981071     
   1701501380.7310982       -56610171.645623446        832097101.71509016     
   1595324993.3846323       -40924363.217549562        872491812.35650468     
   1491056248.3355429       -18879747.131566525        914788219.66405535     
   1831147718.9635017       -64285822.720620513        670189588.49322045     
   1725729825.7700429       -55941356.224943399        743188431.64398265     
   1622029589.8888068       -41871365.355176091        816563190.99993861     
   1520047011.3198116       -22075850.111280084        890313866.56107914     
   1419782090.0630462        3445189.5067148209        964440458.32741845     
   2201207913.8280182        63044200.156091571        770417194.05898106     
   2071983507.9407766        71840194.074012876        718713511.84706712     
   1940982980.8004797        74715783.815094113        680325324.36120582     
   1808206332.4071293        71670969.379325986        655252631.60141301     
   1673653562.7607405        62705750.766758800        643495433.56767905     
   1881769160.2180309        10919758.193127394        817776587.52983665     
   1783410443.9967325        30955647.254945636        790209642.50910258     
   1683271027.8920131        45055870.038685322        770476219.01059389     
   1581350911.9038787        53220426.544368207        758576317.03431129     
   1477650096.0323215        55449316.771992087        754509936.58025801     
   1645051938.3872056       -16388224.236091495        865900262.73152483     
   1561896131.2494702        10188725.794906318        862464713.16653693     
   1476955045.5979416        30814747.446594238        861380711.91994703     
   1390228681.4326265        45489840.718996406        862648258.99174941     
   1301717038.7535233        54214005.612101614        866267354.38194311     
   1491056248.3355429       -18879747.131566525        914788219.66405535     
   1407440569.6989827        9539429.6938926578        935478723.81939054     
   1322035033.9182665        31992416.038832545        953038803.08928418     
   1234839640.9933848        48479211.903214574        967468457.47373211     
   1145854390.9243548        58999817.287101686        978767686.97274709     
   1419782090.0630462        3445189.5067148209        964440458.32741845     
   1320043759.3452828        29007758.951935351        1009251674.4676418     
   1218510992.8529825        48588875.815371513        1045450492.5185878     
   1115183790.5861623        62188540.097072601        1073036912.4802613     
   1010062152.5448089        69806751.796995312        1092010934.3526573     
   1673653562.7607405        62705750.766758800        643495433.56767905     
   1536417445.3231277        53215930.043920577        621991538.50102794     
   1401142329.7278516        50262782.128876925        600768852.90171707     
   1267828215.9749358        53846307.021694720        579827376.76974392     
   1136475104.0643568        63966504.722306967        559167110.10513926     
   1477650096.0323215        55449316.771992087        754509936.58025801     
   1342726550.2913716        46893237.736854196        742168403.49688411     
   1208648660.2787125        41156011.129371345        731109083.40028167     
   1075416425.9943478        38237636.949541926        721331976.29044712     
   943029847.43828964        38138115.197370589        712837082.16737580     
   1301717038.7535233        54214005.612101614        866267354.38194311     
   1171966074.7647204        47449671.281320989        861786946.14880514     
   1041945420.3901579        39786368.998027802        859589754.42185187     
   911655075.62984848        31224098.762229115        859675779.20108545     
   781095040.48378086        21762860.573911607        862045020.48650515     
   1145854390.9243548        58999817.287101686        978767686.97274709     
   1024136018.7431854        54885230.677338481        980847166.45677936     
   901032610.06219864        46153855.734856188        986210865.96640837     
   776544164.88141656        32805692.459729820        994858785.50164747     
   650670683.20083761        14840740.851927340        1006790925.0624961     
   1010062152.5448089        69806751.796995312        1092010934.3526573     
   899236382.22674537        69199915.924851120        1099349064.4207993     
   785910229.29483569        60258471.339891791        1110972418.0339627     
   670083693.74906421        42982418.042051554        1126880995.1921592     
   551756775.58944798        17371756.031395823        1147074795.8953693     
   1136475104.0643568        63966504.722306967        559167110.10513926     
   951532752.09750187        49799841.885553777        573746341.77248192     
   759216153.10995781        11052355.646519780        599997619.80288041     
   559525307.10170674       -52275953.994878978        637920944.19635201     
   352460214.07277226       -140185087.03855595        687516314.95288086     
   943029847.43828964        38138115.197370589        712837082.16737580     
   785395158.83963716        18881216.172629148        728613285.41908467     
   619277708.40733862       -28651555.630953878        754898007.09588802     
   444677496.14137220       -104460200.21342638        791691247.19778502     
   261594522.04175356       -208544717.57473648        838993005.72478032     
   781095040.48378086        21762860.573911607        862045020.48650515     
   647443649.71630371       -3581584.2999327481        877724928.04077113     
   504200982.30220664       -60896951.329167277        902749826.08217812     
   351367038.24148101       -150183240.51384056        937119714.61071265     
   188941817.53413522       -271440451.85390359        980834593.62638652     
   650670683.20083761        14840740.851927340        1006790925.0624961     
   537678224.72748959       -17588559.532123893        1021081269.6375492     
   413985974.79455411       -85683831.448143899        1043553076.7617556     
   279593933.40203762       -189445074.89610049        1074206346.4351425     
   134502100.54992110       -328872289.87604606        1113041078.6576977     
   551756775.58944798        17371756.031395823        1147074795.8953693     
   456098883.87318784       -23139709.523994595        1158682310.2093964     
   348632685.88438904       -103012195.98785263        1177307759.1346295     
   229358181.62302375       -222245703.36026278        1202951142.6710682     
   98275371.089113712       -380840231.64116657        1235612460.8187118     
   352460214.07277226       -140185087.03855595        687516314.95288086     
   278103367.88830459       -282358049.31883276        789676343.53194034     
   149092436.88502073       -606711294.32849097        907782177.74581945     
  -34572578.937078059       -1113244822.0675294        1041833817.5944862     
  -272891679.57799894       -1801958632.5359859        1191831263.0779650     
   261594522.04175356       -208544717.57473648        838993005.72478032     
   222918083.54244751       -349068240.58519006        887504121.62819350     
   140134758.74763328       -636614717.91398168        947135259.51542389     
   13244547.657321334       -1071184149.5611200        1017886419.3864985     
  -157752549.72849232       -1652776535.5265779        1099757601.2413776     
   188941817.53413522       -271440451.85390359        980834593.62638652     
   172157833.43146551       -414450921.58110809        988001861.79801786     
   121814161.55662465       -669327017.21557367        1001463368.3024890     
   37910801.909591079       -1036068738.7573197        1021219113.1398125     
  -79552245.509621501       -1514676086.2063735        1047269096.3099740     
   134502100.54992110       -328872289.87604606        1113041078.6576977     
   125822617.55538929       -478506092.30654275        1091169564.0414231     
   94130645.311992139       -704848192.23325205        1070766504.1070012     
   39426183.819720149       -1007898589.6561966        1051831898.8544475     
  -38290766.921411037       -1387657284.5753608        1034365748.2837701     
   98275371.089113712       -380840231.64116657        1235612460.8187118     
   83912435.914200008       -541233752.76151133        1197007228.3583906     
   57084210.013743937       -743178242.96700847        1155044666.9289589     
   17790693.387737393       -986673702.25766528        1109724776.5304003     
  -33968113.963828325       -1271720130.6335363        1061047557.1627334     
   1601968303.6004207       -583200968.73064935       -2954907523.0602365     
   1720830577.8247213       -577462434.12195516       -2203986046.0042710     
   1849243878.7894580       -539887143.71181345       -1574291783.0171509     
   1987208206.4946351       -470475097.50019860       -1065824734.0988832     
   2134723560.9402456       -369226295.48714459       -678584899.24946642     
   3075033322.8213172        23054171.738924861       -1165401628.1821308     
   2931761779.0473814       -35038101.690325737       -736715367.45443630     
   2794774709.6649208       -72182127.147964358       -373713104.64778602     
   2664072114.6739550       -88377904.633977771       -76394839.762178898     
   2539653994.0744705       -83625434.148373723        155239427.20239010     
   3521686341.8637381        321385712.15495479        631705654.55140221     
   3274975883.3710055        247071101.67158711        734345721.21037626     
   3031283346.9208097        182816231.33000231        826845006.09611702     
   2790608732.5131521        128621101.13020623        909203509.20862401     
   2552952040.1480265        84485711.072191358        981421230.54789948     
   2941927360.7276726        311793652.51743972        2436414325.1403546     
   2750472890.7956057        268865175.96379387        2209197219.9901705     
   2558769790.5571218        225107931.72209597        2027382549.2145565     
   2366818060.0122266        180521919.79235327        1890970312.8135214     
   2174617699.1609144        135107140.17456198        1799960510.7870636     
   1335756379.4131291       -5722007.1736187339        4248724383.5847292     
   1358252801.3211794        30344121.186296225        3687839128.8849397     
   1377234040.5738633        54692974.028325081        3227899524.7075343     
   1392700097.1711810        67324551.352467060        2868905571.0525169     
   1404650971.1131344        68238853.158725262        2610857267.9198818     
   2134723560.9402456       -369226295.48714459       -678584899.24946642     
   2130211743.6276312       -302462287.79256785       -385015391.28626072     
   2123482981.2508366       -243088096.97859728       -133174871.18845877     
   2114537273.8098550       -191103723.04523969        76936661.043938279     
   2103374621.3046954       -146509165.99248648        245319205.41093808     
   2539653994.0744705       -83625434.148373723        155239427.20239010     
   2438606559.2477531       -64126106.570005059        319807210.01127315     
   2336375079.4983029       -48573595.400745153        462753047.23999083     
   2232959554.8261132       -36967900.640624285        584076938.88854194     
   2128359985.2311928       -29309022.289595962        683778884.95691955     
   2552952040.1480265        84485711.072191358        981421230.54789948     
   2412817680.0507321        73954966.207419276        1018192338.3674874     
   2272532175.1721501        62920405.405017257        1053448542.8921372     
   2132095525.5122764        51382028.664975882        1087189844.1218548     
   1991507731.0711143        39339835.987311959        1119416242.0566366     
   2174617699.1609144        135107140.17456198        1799960510.7870636     
   2052845106.0365679        111780930.53969812        1710139993.7823730     
   1931954268.2723815        91393905.438698769        1638911615.7679801     
   1811945185.8683500        73946064.871550977        1586275376.7438881     
   1692817858.8244748        59437408.838256538        1552231276.7100940     
   1404650971.1131344        68238853.158725262        2610857267.9198818     
   1358688837.2052610        49351786.426832736        2395650176.2559347     
   1314641358.7989922        36846904.700289071        2219142265.8675175     
   1272508535.8943236        30724207.979080558        2081333536.7546349     
   1232290368.4912632        30983696.263229609        1982223988.9172857     
   2103374621.3046954       -146509165.99248648        245319205.41093808     
   2036210016.4246354       -122979594.49039555        367071076.35700619     
   1968450664.4077461       -101432513.44439793        478466763.85274136     
   1900096565.2540390       -81867922.854458451        579506267.89814484     
   1831147718.9635017       -64285822.720620513        670189588.49322045     
   2128359985.2311928       -29309022.289595962        683778884.95691955     
   2038060630.3630455       -19573844.015427589        751429762.17458034     
   1947485695.4759650       -10757265.804380178        814824182.82741404     
   1856635180.5699463       -2859287.6564533710        873962146.91541755     
   1765509085.6449947        4120090.4283593893        928843654.43859875     
   1991507731.0711143        39339835.987311959        1119416242.0566366     
   1895501417.3163304        40508958.364003420        1133338487.1834254     
   1799538690.6604974        41823371.070530772        1149104002.6308904     
   1703619551.1036129        43283074.106885970        1166712788.3990309     
   1607743998.6456814        44888067.473083973        1186164844.4878511     
   1692817858.8244748        59437408.838256538        1552231276.7100940     
   1608532377.2844896        57268812.647901475        1512797251.3835430     
   1524609649.9613452        56309397.180336893        1481306223.2631741     
   1441049676.8550341        56559162.435558498        1457758192.3489876     
   1357852457.9655595        58018108.413562655        1442153158.6409779     
   1232290368.4912632        30983696.263229609        1982223988.9172857     
   1177153510.2675200        30705718.836250842        1889806054.7749310     
   1122698573.3785062        32700812.525036871        1811430844.7242634     
   1068925557.8242085        36968977.329543769        1747098358.7652776     
   1015834463.6046404        43510213.249815524        1696808596.8979816     
   1831147718.9635017       -64285822.720620513        670189588.49322045     
   1725729825.7700429       -55941356.224943399        743188431.64398265     
   1622029589.8888068       -41871365.355176091        816563190.99993861     
   1520047011.3198116       -22075850.111280084        890313866.56107914     
   1419782090.0630462        3445189.5067148209        964440458.32741845     
   1765509085.6449947        4120090.4283593893        928843654.43859875     
   1662515863.2359102        8629831.2839715481        972179501.86950147     
   1560517232.5046971        16454877.732491910        1017889501.1539826     
   1459513193.4513588        27595229.773924291        1065973652.2920331     
   1359503746.0758941        42050887.408271909        1116431955.2836716     
   1607743998.6456814        44888067.473083973        1186164844.4878511     
   1512884691.7306509        47275856.101545513        1198994119.6254745     
   1418296910.8591321        50568731.541713357        1216195782.2650592     
   1323980656.0311298        54766693.793599188        1237769832.4066110     
   1229935927.2466383        59869742.857194602        1263716270.0501211     
   1357852457.9655595        58018108.413562655        1442153158.6409779     
   1276836311.2542610        59996718.227781653        1423632284.9119012     
   1195368624.9521103        60470196.072492778        1411482034.3331769     
   1113449399.0591195        59438541.947737992        1405702406.9047980     
   1031078633.5752786        56901755.853480995        1406293402.6267760     
   1015834463.6046404        43510213.249815524        1696808596.8979816     
   954370721.80674505        46792417.662680030        1646093997.7287924     
   891732374.78363824        46159271.324845463        1603748257.3583300     
   827919422.53532994        41610774.236338496        1569771375.7866032     
   762931865.06181848        33146926.397150636        1544163353.0136132     
   1419782090.0630462        3445189.5067148209        964440458.32741845     
   1320043759.3452828        29007758.951935351        1009251674.4676418     
   1218510992.8529825        48588875.815371513        1045450492.5185878     
   1115183790.5861623        62188540.097072601        1073036912.4802613     
   1010062152.5448089        69806751.796995312        1092010934.3526573     
   1359503746.0758941        42050887.408271909        1116431955.2836716     
   1240361986.3534861        50693291.245489717        1138438497.7858329     
   1120177133.7929447        55858718.955596566        1158036377.3601568     
   998949188.39429307        57547170.538670868        1175225594.0066528     
   876678150.15750420        55758645.994618565        1190006147.7253027     
   1229935927.2466383        59869742.857194602        1263716270.0501211     
   1109115696.1237011        56909468.367634296        1263794705.6733563     
   988003715.09904575        52976694.205676615        1267668213.5302038     
   866599984.17267179        48071420.371323675        1275336793.6206567     
   744904503.34457362        42193646.864560694        1286800445.9447207     
   1031078633.5752786        56901755.853480995        1406293402.6267760     
   926304888.65593934        47656290.318402380        1385320298.1302240     
   821990736.77128255        39942801.565597385        1374346001.0287192     
   718136177.92130792        33761289.595066935        1373370511.3222682     
   614741212.10601985        29111754.406819224        1382393829.0108650     
   762931865.06181848        33146926.397150636        1544163353.0136132     
   691929563.95018470        22933757.097749352        1503015275.1564183     
   622138198.80964947        16757041.035340518        1478069739.8557103     
   553557769.64019954        14616778.209882706        1469326747.1114976     
   486188276.44183373        16512968.621374696        1476786296.9237669     
   1010062152.5448089        69806751.796995312        1092010934.3526573     
   899236382.22674537        69199915.924851120        1099349064.4207993     
   785910229.29483569        60258471.339891791        1110972418.0339627     
   670083693.74906421        42982418.042051554        1126880995.1921592     
   551756775.58944798        17371756.031395823        1147074795.8953693     
   876678150.15750420        55758645.994618565        1190006147.7253027     
   777523045.53884387        55426364.239901811        1195122501.5231233     
   675798811.36525953        46530317.302099138        1204867708.2868099     
   571505447.63674617        29070505.181205273        1219241768.0163858     
   464642954.35331428        3046927.8772446513        1238244680.7118316     
   744904503.34457362        42193646.864560694        1286800445.9447207     
   658401862.77061164        42430458.730839998        1289614818.7076147     
   569261345.70065641        33874348.943810850        1297401673.8572507     
   477482952.13469559        16525317.503432393        1310161011.3936160     
   383066682.07274896       -9616635.5902393162        1327892831.3167160     
   614741212.10601985        29111754.406819224        1382393829.0108650     
   541872833.92205203        30212199.397683233        1382826015.9742687     
   466297832.30101597        22290566.264985174        1388574314.7452621     
   388016207.24291617        5346855.0087442994        1399638725.3238466     
   307027958.74775541       -20618934.371036768        1416019247.7100146     
   486188276.44183373        16512968.621374696        1476786296.9237669     
   427935958.99316716        18771586.240435645        1474756093.3230972     
   366908271.16635597        11778969.265683562        1478385630.9508662     
   303105212.96140975       -4464882.3028544337        1487674909.8070779     
   236526784.37832260       -29959968.465192631        1502623929.8917384     
   551756775.58944798        17371756.031395823        1147074795.8953693     
   456098883.87318784       -23139709.523994595        1158682310.2093964     
   348632685.88438904       -103012195.98785263        1177307759.1346295     
   229358181.62302375       -222245703.36026278        1202951142.6710682     
   98275371.089113712       -380840231.64116657        1235612460.8187118     
   464642954.35331428        3046927.8772446513        1238244680.7118316     
   387201337.30234075       -33254291.795748129        1238555688.8209198     
   299732868.33017123       -102978351.20606120        1244889686.0884650     
   202237547.43682137       -206125250.35364315        1257246672.5144732     
   94715374.622276723       -342694989.23853832        1275626648.0989299     
   383066682.07274896       -9616635.5902393162        1327892831.3167160     
   320998638.39348680       -42560419.768937066        1318985696.6307921     
   250685197.14440098       -102988862.51371634        1315106605.6505697     
   172126358.32549757       -190901963.82455349        1316255558.3760645     
   85322121.936765209       -306299723.70148575        1322432554.8072710     
   307027958.74775541       -20618934.371036768        1416019247.7100146     
   257490787.14664286       -51058093.443512976        1399972333.6389954     
   201489672.32707554       -103043729.91083431        1387958517.8209476     
   139024614.28905118       -176575843.77301711        1379977800.2558610     
   70095613.032567501       -271654435.03005910        1376030180.9437373     
   236526784.37832260       -29959968.465192631        1502623929.8917384     
   196677783.56180742       -58747312.819473043        1481515599.8455517     
   152146293.87819129       -103142953.39742325        1463445422.5995924     
   102932315.32749346       -163146890.19898167        1448413398.1538501     
   49035847.909693450       -238759123.22420865        1436419526.5083275     
   98275371.089113712       -380840231.64116657        1235612460.8187118     
   83912435.914200008       -541233752.76151133        1197007228.3583906     
   57084210.013743937       -743178242.96700847        1155044666.9289589     
   17790693.387737393       -986673702.25766528        1109724776.5304003     
  -33968113.963828325       -1271720130.6335363        1061047557.1627334     
   94715374.622276723       -342694989.23853832        1275626648.0989299     
   78296591.084332556       -484228142.78085506        1221526839.9580493     
   50611627.748623729       -663315228.98238456        1164850546.4505739     
   11660484.615147114       -879956247.84313858        1105597767.5764649     
  -38556838.316090047       -1134151199.3631001        1043768503.3357658     
   85322121.936765209       -306299723.70148575        1322432554.8072710     
   69078471.757225901       -428303215.14935714        1254237133.7349272     
   42767752.707703561       -583863602.83049417        1184246070.8984742     
   6389964.7882003784       -772980886.74489880        1112459366.2979167     
  -40054892.001275182       -995655066.89255393        1038877019.9332486     
   70095613.032567501       -271654435.03005910        1376030180.9437373     
   56258077.932873905       -373458969.86703956        1295138109.6889975     
   33552584.890984625       -504823364.51134670        1213231240.2726638     
   1979133.9069014192       -665747618.96295440        1130309572.6947310     
  -38462275.019374281       -856231733.22188210        1046373106.9551909     
   49035847.909693450       -238759123.22420865        1436419526.5083275     
   39835409.611279786       -319695406.93390125        1344229767.8202844     
   22966124.298462033       -426194514.02494353        1251806054.5731440     
  -1572008.0287638307       -558256444.49734771        1159148386.7669113     
  -33778987.370387197       -715881198.35107124        1066256764.4015912     
   1335756379.4131291       -5722007.1736187339        4248724383.5847292     
   1358252801.3211794        30344121.186296225        3687839128.8849397     
   1377234040.5738633        54692974.028325081        3227899524.7075343     
   1392700097.1711810        67324551.352467060        2868905571.0525169     
   1404650971.1131344        68238853.158725262        2610857267.9198818     
  -352769664.11331671       -410667589.11273861        2855763406.2404580     
  -117179350.06114857       -318002593.80545074        2581842924.3031301     
   115774577.01555604       -234125555.08304137        2357833893.4279637     
   346092117.11679733       -159036472.94550776        2183736313.6149535     
   573773270.24257684       -92735347.392850816        2059550184.8641033     
  -1138237741.6096015       -544695781.24281347        1459470836.2768123     
  -835365533.87109995       -439175518.52548301        1473540388.7284985     
  -534250917.42816186       -339513893.46002436        1486487192.7821169     
  -234893892.28078485       -245710906.04644215        1498311248.4376698     
   62705541.571029276       -157766556.28473061        1509012555.6951523     
  -1020647853.0757184       -407806583.56383795        59846673.693786964     
  -796305750.10867548       -333174652.97380424        362931522.16104025     
  -572842442.75729120       -261472041.10263586        613859422.76999855     
  -350257931.02156937       -192698747.95033890        812630375.52066481     
  -128552214.90150435       -126854773.51690122        959244380.41303837     
   1.4883272270293944        3.9241896362432991       -1343109081.5086081     
   1.2261270753289730        2.8495912589283927       -749983675.39923978     
   1.0281682099117988        1.9891360536727665       -260049416.60838947     
  0.89444797722284020        1.3428082363990788        126693694.86394058     
  0.82497086085508131       0.91062414019605653        410245659.01775330     
   1404650971.1131344        68238853.158725262        2610857267.9198818     
   1358688837.2052610        49351786.426832736        2395650176.2559347     
   1314641358.7989922        36846904.700289071        2219142265.8675175     
   1272508535.8943236        30724207.979080558        2081333536.7546349     
   1232290368.4912632        30983696.263229609        1982223988.9172857     
   573773270.24257684       -92735347.392850816        2059550184.8641033     
   613925736.68946075       -84513427.449062437        1949524986.4905834     
   655514194.76772225       -71504868.734015346        1860786687.1123419     
   698538644.47735739       -53709671.247724235        1793335286.7293792     
   742999085.81836975       -31127834.990174741        1747170785.3416896     
   62705541.571029276       -157766556.28473061        1509012555.6951523     
   139223230.42908129       -137360463.04833728        1503610809.4301348     
   216698247.04828051       -113763277.27478452        1502083679.8801348     
   295130591.42863071       -86974998.964063928        1504431167.0451565     
   374520263.57012826       -56995628.116183445        1510653270.9251974     
  -128552214.90150435       -126854773.51690122        959244380.41303837     
  -65418681.575876974       -109189320.37098616        1057907645.0745871     
  -1806484.3593274318       -89928320.921998575        1143033244.1708980     
   62284376.748146877       -69071775.169929072        1214621177.7019746     
   126853901.74654037       -46619683.114794403        1272671445.6678145     
  0.82497086085508131       0.91062414019605653        410245659.01775330     
  0.67458849861457248       0.58299541933963883        612415493.42393863     
  0.54489810099931024       0.32433991390070982        783635379.98463011     
  0.43590669077993810       0.13468033922535716        923905318.69982755     
  0.34760582690639918        1.3990640148229649E-002   1033225309.5695332     
   1232290368.4912632        30983696.263229609        1982223988.9172857     
   1177153510.2675200        30705718.836250842        1889806054.7749310     
   1122698573.3785062        32700812.525036871        1811430844.7242634     
   1068925557.8242085        36968977.329543769        1747098358.7652776     
   1015834463.6046404        43510213.249815524        1696808596.8979816     
   742999085.81836975       -31127834.990174741        1747170785.3416896     
   720394560.04861057       -25711882.705840766        1695546059.9552605     
   698301475.28045905       -18591127.082811445        1653589497.8160627     
   676719831.51391029       -9765568.1211081147        1621301098.9240942     
   655649628.74896777        764794.17928022146        1598680863.2793541     
   374520263.57012826       -56995628.116183445        1510653270.9251974     
   371949324.98447835       -49635369.701502562        1499622860.5727243     
   369719347.06731647       -41138575.725194991        1493886052.6230237     
   367830329.81864280       -31505246.187260732        1493442847.0760951     
   366282273.23845339       -20735381.087710872        1498293243.9319463     
   126853901.74654037       -46619683.114794403        1272671445.6678145     
   131817805.07512684       -41064742.150728442        1302036456.6273224     
   136952188.73908466       -34941533.402092017        1332320509.1451490     
   142257052.73840642       -28250056.868908986        1363523603.2212925     
   147732397.07309809       -20990312.551159270        1395645738.8557613     
  0.34760582690639918        1.3990640148229649E-002   1033225309.5695332     
  0.32055594442595581       -5.3520146190324608E-002   1102786848.1190541     
  0.29575522434030349      -0.11353164287807073        1168892867.3824365     
  0.27320799011410546      -0.16603256086838808        1231543367.3596828     
  0.25290840850138763      -0.21104130348043831        1290738348.0507944     
   1015834463.6046404        43510213.249815524        1696808596.8979816     
   954370721.80674505        46792417.662680030        1646093997.7287924     
   891732374.78363824        46159271.324845463        1603748257.3583300     
   827919422.53532994        41610774.236338496        1569771375.7866032     
   762931865.06181848        33146926.397150636        1544163353.0136132     
   655649628.74896777        764794.17928022146        1598680863.2793541     
   614617975.22445214        4746293.3289827704        1570962254.5510228     
   572705367.78220463        5791279.4195748568        1550430402.2949839     
   529911806.42221177        3899752.4510175288        1537085306.5112283     
   486237291.14448637       -928287.57664710283        1530926967.1997626     
   366282273.23845339       -20735381.087710872        1498293243.9319463     
   342305272.76890820       -17067817.766673148        1493913218.8365271     
   317740969.68908799       -15357929.813218102        1495537847.8869472     
   292589363.99899942       -15605717.227325186        1503167131.0832112     
   266850455.69863823       -17811180.009006321        1516801068.4253170     
   147732397.07309809       -20990312.551159270        1395645738.8557613     
   137432614.44010460       -18649915.624308631        1414946890.5852928     
   126839180.50429720       -17288356.373504572        1439070594.1342242     
   115952095.26568779       -16905634.798707590        1468016849.5025473     
   104771358.72427638       -17501750.899916351        1501785656.6902657     
  0.25290840850138763      -0.21104130348043831        1290738348.0507944     
  0.23803742859602178      -0.24393985000479684        1334063269.7973258     
  0.22782956839787688      -0.26129327639297145        1381028641.0368087     
  0.22228244885761445      -0.26311124753289983        1431634461.7692401     
  0.22140229210427359      -0.24937336993914666        1485880731.9946222     
   762931865.06181848        33146926.397150636        1544163353.0136132     
   691929563.95018470        22933757.097749352        1503015275.1564183     
   622138198.80964947        16757041.035340518        1478069739.8557103     
   553557769.64019954        14616778.209882706        1469326747.1114976     
   486188276.44183373        16512968.621374696        1476786296.9237669     
   486237291.14448637       -928287.57664710283        1530926967.1997626     
   453707012.89068800       -2371730.2706027925        1508655259.3924303     
   422084936.61608881       -787833.03388863802        1497751089.7026057     
   391371062.32069576        3823404.1335100234        1498214458.1302884     
   361565390.00449955        11461981.231564105        1510045364.6754830     
   266850455.69863823       -17811180.009006321        1516801068.4253170     
   258977901.90557519       -14629185.616664752        1513052541.0106452     
   251710816.09983310       -9428964.5999197066        1515836547.2745016     
   245049198.28139710       -2210516.9588210732        1525153087.2168815     
   238993048.45027801        7026157.3066672981        1541002160.8377948     
   104771358.72427638       -17501750.899916351        1501785656.6902657     
   107742230.99486043       -13838608.940398112        1516207120.0110579     
   111015837.26087941       -9166353.6627634615        1532326112.5713890     
   114592177.52231133       -3484985.0670849830        1550142634.3712659     
   118471251.77918097        3205496.8467178196        1569656685.4106882     
  0.22140229210427359      -0.24937336993914666        1485880731.9946222     
  0.15854167795442500      -0.24180602575197327        1518118996.3936658     
   9.9226167575557092E-002 -0.22242375066303566        1547219785.5932782     
   4.3441120664048330E-002 -0.19127257012684373        1573183099.5934517     
  -8.7986394726845482E-003 -0.14830307311867516        1596008938.3941889     
   486188276.44183373        16512968.621374696        1476786296.9237669     
   427935958.99316716        18771586.240435645        1474756093.3230972     
   366908271.16635597        11778969.265683562        1478385630.9508662     
   303105212.96140975       -4464882.3028544337        1487674909.8070779     
   236526784.37832260       -29959968.465192631        1502623929.8917384     
   361565390.00449955        11461981.231564105        1510045364.6754830     
   317862018.55102038        13151704.450241104        1505901310.0818005     
   272077119.31295431        7903001.7202980518        1507420294.5022178     
   224210692.29028296       -4284126.9583313465        1514602317.9367311     
   174262737.48302454       -23409681.585585870        1527447380.3853443     
   238993048.45027801        7026157.3066672981        1541002160.8377948     
   209848045.23672619        8149812.7984223291        1535553738.2769048     
   179315356.83212185        4647850.9866682962        1535771652.5157609     
   147394983.23646605       -3479728.1285890713        1541655903.5543759     
   114086924.44975798       -16232924.547356300        1553206491.3927386     
   118471251.77918097        3205496.8467178196        1569656685.4106882     
   103894039.05027631        3765911.2849468626        1563713377.9083922     
   88622983.723868698        2013517.0648298226        1563439704.9915028     
   72658085.799942881       -2051685.8136784658        1568835666.6600137     
   55999345.278513871       -8429697.3505333290        1579901262.9139402     
  -8.7986394726845482E-003 -0.14830307311867516        1596008938.3941889     
  -8.3249341486336288E-003  -9.0170682276214068E-002   1590380228.9762855     
  -1.1819162864529768E-002  -4.5264044344186127E-002   1590424451.9294362     
  -1.9275355121552349E-002  -1.3564298493941505E-002   1596141607.2536545     
  -3.0700625192242408E-002   4.9051879774115181E-003   1607531694.9489331     
   236526784.37832260       -29959968.465192631        1502623929.8917384     
   196677783.56180742       -58747312.819473043        1481515599.8455517     
   152146293.87819129       -103142953.39742325        1463445422.5995924     
   102932315.32749346       -163146890.19898167        1448413398.1538501     
   49035847.909693450       -238759123.22420865        1436419526.5083275     
   174262737.48302454       -23409681.585585870        1527447380.3853443     
   144455106.02279004       -44976454.101680428        1502280660.9047863     
   111135607.91223490       -78249448.785513341        1480133633.0892682     
   74304243.151361763       -123228665.63707632        1461006296.9387755     
   33961011.740164213       -179914104.65638044        1444898652.4533141     
   114086924.44975798       -16232924.547356300        1553206491.3927386     
   94267916.245273799       -30594949.055417493        1525347108.3973813     
   72107663.607234776       -52761121.675328240        1500488955.9318683     
   47606166.535661265       -82731442.407021195        1478632033.9961982     
   20763425.030532733       -120505911.25056294        1459776342.5903785     
   55999345.278513871       -8429697.3505333290        1579901262.9139402     
   46116214.229239948       -15602797.680739824        1550714942.3233464     
   35062460.963199563       -26677972.066834491        1524511391.1274066     
   22838085.480383463       -41655220.508849457        1501290609.3261311     
   9443087.7807914540       -60534543.006781675        1481052596.9195077     
  -3.0700625192242408E-002   4.9051879774115181E-003   1607531694.9489331     
  -2.5289294468068740E-002   2.2422540015197355E-002   1578384162.6826649     
  -1.9881029057465818E-002   3.9928980451690355E-002   1552200938.6758778     
  -1.4468646061469363E-002   5.7449146172828439E-002   1528982022.9285586     
  -9.0592368771460104E-003   7.4960093077779899E-002   1508727415.4407103     
   49035847.909693450       -238759123.22420865        1436419526.5083275     
   39835409.611279786       -319695406.93390125        1344229767.8202844     
   22966124.298462033       -426194514.02494353        1251806054.5731440     
  -1572008.0287638307       -558256444.49734771        1159148386.7669113     
  -33778987.370387197       -715881198.35107124        1066256764.4015912     
   33961011.740164213       -179914104.65638044        1444898652.4533141     
   29666586.740040362       -239834546.31729567        1345233294.3147657     
   19620526.479280308       -318927105.51366782        1244725937.4150455     
   3822830.9578893781       -417191782.24547255        1143376581.7541568     
  -17726499.824134529       -534628576.51272500        1041185227.3320976     
   20763425.030532733       -120505911.25056294        1459776342.5903785     
   19637744.179916039       -159931691.60735896        1354872132.0473764     
   14677639.822439209       -212138883.65368813        1248517878.5411377     
   5883111.9580991864       -277127487.38955671        1140713582.0716567     
  -6745839.4130972773       -354897502.81495655        1031459242.6389409     
   9443087.7807914540       -60534543.006781675        1481052596.9195077     
   9748881.9309048019       -79986842.804093286        1373146281.0181267     
   8137464.3279378712       -105829848.44500735        1263181877.9514413     
   4608834.9718744606       -138063559.92957145        1151159387.7194521     
  -837006.13726777583       -176687977.25773716        1037078810.3221391     
  -9.0592368771460104E-003   7.4960093077779899E-002   1508727415.4407103     
  -6.9869018995325043E-003   9.2514915142646842E-002   1400055741.2270234     
  -4.2268844102511111E-003  0.11236270613579713        1288717935.6459534     
  -7.7845239412075579E-004  0.13450243666088238        1174713998.6975098     
   3.3476884268353879E-003  0.15890466598233888        1058043930.3816742     
   1.4883272270293944        3.9241896362432991       -1343109081.5086081     
   1.2261270753289730        2.8495912589283927       -749983675.39923978     
   1.0281682099117988        1.9891360536727665       -260049416.60838947     
  0.89444797722284020        1.3428082363990788        126693694.86394058     
  0.82497086085508131       0.91062414019605653        410245659.01775330     
   1020647855.8621576        407806591.36857194        59846674.049936533     
   796305752.38166761        333174658.63413286        362931522.53733933     
   572842444.65018535        261472045.06305277        613859423.17376578     
   350257932.66770750        192698750.65532222        812630375.95922339     
   128552216.43423797        126854775.41095072        959244380.89370835     
   1138237743.8165433        544695788.88712072        1459470836.9868550     
   835365535.59647119        439175524.03645182        1473540389.4845076     
   534250918.81017399        339513897.29835927        1486487193.5987401     
   234893893.45764691        245710908.67284021        1498311249.3295476     
  -62705540.461109184        157766558.15988803        1509012556.6769314     
   352769665.35148096        410667596.47983527        2855763407.3021345     
   117179350.87053600        318002599.05654746        2581842925.4422698     
  -115774576.49186932        234125558.69505545        2357833894.6665316     
  -346092116.73573625        159036475.39535806        2183736314.9749150     
  -573773269.86107016        92735349.157440335        2059550186.3674269     
  -1335756379.5330274        5722014.1467158794        4248724384.9957824     
  -1358252801.7961330       -30344116.305567086        3687839130.4106278     
  -1377234041.2559400       -54692970.746851623        3227899526.3771415     
  -1392700097.9124393       -67324549.177112997        2868905572.8953280     
  -1404650971.7656424       -68238851.596387386        2610857269.9651904     
  0.82497086085508131       0.91062414019605653        410245659.01775330     
  0.67458849861457248       0.58299541933963883        612415493.42393863     
  0.54489810099931024       0.32433991390070982        783635379.98463011     
  0.43590669077993810       0.13468033922535716        923905318.69982755     
  0.34760582690639918        1.3990640148229649E-002   1033225309.5695332     
   128552216.43423797        126854775.41095072        959244380.89370835     
   65418682.841446415        109189321.66058953        1057907645.4988762     
   1806485.3909447826        89928321.717861801        1143033244.5529273     
  -62284375.917262889        69071775.582780600        1214621178.0558636     
  -126853901.08317825        46619683.255341470        1272671446.0076849     
  -62705540.461109184        157766558.15988803        1509012556.6769314     
  -139223229.51237470        137360464.38197330        1503610810.2896121     
  -216698246.29975224        113763278.15035434        1502083680.6455548     
  -295130590.82323897        86974999.465039015        1504431167.7447631     
  -374520263.08283484        56995628.326022223        1510653271.5872295     
  -573773269.86107016        92735349.157440335        2059550186.3674269     
  -613925736.38687432        84513428.747151852        1949524987.7961509     
  -655514194.52718973        71504869.621827871        1860786688.2625148     
  -698538644.28201926        53709671.781456083        1793335287.7665191     
  -742999085.65136254        31127835.226037472        1747170786.3081646     
  -1404650971.7656424       -68238851.596387386        2610857269.9651904     
  -1358688837.7820482       -49351785.243861973        2395650178.0184879     
  -1314641359.2913685       -36846903.867719352        2219142267.4038043     
  -1272508536.2936049       -30724207.467964649        2081333538.1211379     
  -1232290368.7887561       -30983696.044590354        1982223990.1704922     
  0.34760582690639918        1.3990640148229649E-002   1033225309.5695332     
  0.32055594442595581       -5.3520146190324608E-002   1102786848.1190541     
  0.29575522434030349      -0.11353164287807073        1168892867.3824365     
  0.27320799011410546      -0.16603256086838808        1231543367.3596828     
  0.25290840850138763      -0.21104130348043831        1290738348.0507944     
  -126853901.08317825        46619683.255341470        1272671446.0076849     
  -131817804.47245781        41064742.113861598        1302036456.9264963     
  -136952188.18888170        34941533.215234414        1332320509.4083390     
  -142257052.23244423        28250056.559478261        1363523603.4532106     
  -147732396.60315090        20990312.146574825        1395645739.0611124     
  -374520263.08283484        56995628.326022223        1510653271.5872295     
  -371949324.55100608        49635369.695582986        1499622861.1577072     
  -369719346.67571694        41138575.543350980        1493886053.1403799     
  -367830329.45696324        31505245.869332343        1493442847.5352483     
  -366282272.89474642        20735380.673521757        1498293244.3423190     
  -742999085.65136254        31127835.226037472        1747170786.3081646     
  -720394559.91509295        25711882.691639513        1695546060.8126805     
  -698301475.16475499        18591126.870803356        1653589498.5785592     
  -676719831.40034926        9765567.7635247111        1621301099.6058056     
  -655649628.62187219       -764794.63018286228        1598680863.8944120     
  -1232290368.7887561       -30983696.044590354        1982223990.1704922     
  -1177153510.5647135       -30705718.897960842        1889806055.8914213     
  -1122698573.6559970       -32700812.802414656        1811430845.7228806     
  -1068925558.0626012       -36968977.757940888        1747098359.6648712     
  -1015834463.7845316       -43510213.764550924        1696808597.7173941     
  0.25290840850138763      -0.21104130348043831        1290738348.0507944     
  0.23803742859602178      -0.24393985000479684        1334063269.7973258     
  0.22782956839787688      -0.26129327639297145        1381028641.0368087     
  0.22228244885761445      -0.26311124753289983        1431634461.7692401     
  0.22140229210427359      -0.24937336993914666        1485880731.9946222     
  -147732396.60315090        20990312.146574825        1395645739.0611124     
  -137432614.00035083        18649915.156291336        1414946890.7707336     
  -126839180.08320795        17288355.880484693        1439070594.2988636     
  -115952094.85173288        16905634.319117770        1468016849.6454957     
  -104771358.30591519        17501750.472227216        1501785656.8106272     
  -366282272.89474642        20735380.673521757        1498293244.3423190     
  -342305272.45840180        17067817.290625378        1493913219.2096567     
  -317740969.39804447        15357929.321109220        1495537848.2210522     
  -292589363.71367216        15605716.764976144        1503167131.3765039     
  -266850455.40528485        17811179.622222140        1516801068.6760144     
  -655649628.62187219       -764794.63018286228        1598680863.8944120     
  -614617975.13612056       -4746293.8409484029        1570962255.1140871     
  -572705367.71667433       -5791279.9393973649        1550430402.8033683     
  -529911806.36354113       -3899752.9255576134        1537085306.9622648     
  -486237291.07671237        928287.20060136914        1530926967.5907695     
  -1015834463.7845316       -43510213.764550924        1696808597.7173941     
  -954370722.03349710       -46792418.238406211        1646093998.4840243     
  -891732375.03910112       -46159271.901052266        1603748258.0458205     
  -827919422.80132997       -41610774.752448022        1569771376.4027824     
  -762931865.32019782       -33146926.792643458        1544163353.5549085     
  0.22140229210427359      -0.24937336993914666        1485880731.9946222     
  0.15854167795442500      -0.24180602575197327        1518118996.3936658     
   9.9226167575557092E-002 -0.22242375066303566        1547219785.5932782     
   4.3441120664048330E-002 -0.19127257012684373        1573183099.5934517     
  -8.7986394726845482E-003 -0.14830307311867516        1596008938.3941889     
  -104771358.30591519        17501750.472227216        1501785656.8106272     
  -107742230.68700923        13838608.551594190        1516207120.1049848     
  -111015837.06090017        9166353.3216389343        1532326112.6451116     
  -114592177.42759483        3484984.7823364809        1550142634.4310043     
  -118471251.78708380       -3205497.0662782788        1569656685.4626589     
  -266850455.40528485        17811179.622222140        1516801068.6760144     
  -258977901.68975371        14629185.297843009        1513052541.2032933     
  -251710815.96335959        9428964.3430083394        1515836547.4215367     
  -245049198.22610193        2210516.7577174902        1525153087.3307450     
  -238993048.47797772       -7026157.4580194503        1541002160.9309230     
  -486237291.07671237        928287.20060136914        1530926967.5907695     
  -453707012.84969622        2371729.9969290495        1508655259.6885717     
  -422084936.60815209        787832.84168449044        1497751089.9225435     
  -391371062.35208482       -3823404.2651508451        1498214458.2926838     
  -361565390.08148718       -11461981.323550284        1510045364.7989874     
  -762931865.32019782       -33146926.792643458        1544163353.5549085     
  -691929564.16683459       -22933757.351143628        1503015275.5608437     
  -622138198.99528742       -16757041.182365507        1478069740.1481442     
  -553557769.80554140       -14616778.286255509        1469326747.3168161     
  -486188276.59761304       -16512968.662872702        1476786297.0668523     
  -8.7986394726845482E-003 -0.14830307311867516        1596008938.3941889     
  -8.3249341486336288E-003  -9.0170682276214068E-002   1590380228.9762855     
  -1.1819162864529768E-002  -4.5264044344186127E-002   1590424451.9294362     
  -1.9275355121552349E-002  -1.3564298493941505E-002   1596141607.2536545     
  -3.0700625192242408E-002   4.9051879774115181E-003   1607531694.9489331     
  -118471251.78708380       -3205497.0662782788        1569656685.4626589     
  -103894039.06236276       -3765911.4146619365        1563713377.9430823     
  -88622983.745949000       -2013517.1240709946        1563439705.0110755     
  -72658085.837858945        2051685.8054421768        1568835666.6666155     
  -55999345.338084333        8429697.3739025332        1579901262.9097168     
  -238993048.47797772       -7026157.4580194503        1541002160.9309230     
  -209848045.26758841       -8149812.8844845667        1535553738.3379443     
  -179315356.86986333       -4647851.0198274478        1535771652.5490212     
  -147394983.28480259        3479728.1359470934        1541655903.5641499     
  -114086924.51241234        16232924.582819916        1553206491.3833294     
  -361565390.08148718       -11461981.323550284        1510045364.7989874     
  -317862018.62401539       -13151704.499676749        1505901310.1608632     
  -272077119.38355869       -7903001.7325244546        1507420294.5432887     
  -224210692.36010945        4284126.9779398143        1514602317.9462638     
  -174262737.55368605        23409681.631648600        1527447380.3697929     
  -486188276.59761304       -16512968.662872702        1476786297.0668523     
  -427935959.13163704       -18771586.260227337        1474756093.4118366     
  -366908271.28702343       -11778969.262120634        1478385630.9938717     
  -303105213.06377870        4464882.3314217329        1487674909.8129456     
  -236526784.46190292        29959968.520400986        1502623929.8690693     
  -3.0700625192242408E-002   4.9051879774115181E-003   1607531694.9489331     
  -2.5289294468068740E-002   2.2422540015197355E-002   1578384162.6826649     
  -1.9881029057465818E-002   3.9928980451690355E-002   1552200938.6758778     
  -1.4468646061469363E-002   5.7449146172828439E-002   1528982022.9285586     
  -9.0592368771460104E-003   7.4960093077779899E-002   1508727415.4407103     
  -55999345.338084333        8429697.3739025332        1579901262.9097168     
  -46116214.278345168        15602797.736421928        1550714942.3175335     
  -35062461.001932479        26677972.154517680        1524511391.1203589     
  -22838085.508804742        41655220.628331304        1501290609.3181973     
  -9443087.7989913449        60534543.157766566        1481052596.9110470     
  -114086924.51241234        16232924.582819916        1553206491.3833294     
  -94267916.296816558        30594949.120753370        1525347108.3847003     
  -72107663.647830084        52761121.769987509        1500488955.9166241     
  -47606166.565461174        82731442.530497804        1478632033.9790990     
  -20763425.049701437        120505911.40230967        1459776342.5721245     
  -174262737.55368605        23409681.631648600        1527447380.3697929     
  -144455106.08067936        44976454.175495692        1502280660.8841851     
  -111135607.95759740        78249448.886258960        1480133633.0646758     
  -74304243.184423640        123228665.76399559        1461006296.9112546     
  -33961011.761182621        179914104.80862311        1444898652.4239259     
  -236526784.46190292        29959968.520400986        1502623929.8690693     
  -196677783.62994778        58747312.900603011        1481515599.8159702     
  -152146293.93120739        103142953.50342257        1463445422.5645039     
  -102932315.36570697        163146890.32877505        1448413398.1146719     
  -49035847.933426753        238759123.37672764        1436419526.4664660     
  -9.0592368771460104E-003   7.4960093077779899E-002   1508727415.4407103     
  -6.9869018995325043E-003   9.2514915142646842E-002   1400055741.2270234     
  -4.2268844102511111E-003  0.11236270613579713        1288717935.6459534     
  -7.7845239412075579E-004  0.13450243666088238        1174713998.6975098     
   3.3476884268353879E-003  0.15890466598233888        1058043930.3816742     
  -9443087.7989913449        60534543.157766566        1481052596.9110470     
  -9748881.9456716329        79986842.986831859        1373146281.0112123     
  -8137464.3376484737        105829848.66491345        1263181877.9462883     
  -4608834.9749312177        138063560.19196984        1151159387.7162890     
   837006.14247263223        176687977.56798503        1037078810.3211963     
  -20763425.049701437        120505911.40230967        1459776342.5721245     
  -19637744.195706554        159931691.78773373        1354872132.0324831     
  -14677639.833002254        212138883.86885706        1248517878.5300553     
  -5883111.9615917057        277127487.64566475        1140713582.0648439     
   6745839.4185136855        354897503.11812693        1031459242.6368350     
  -33961011.761182621        179914104.80862311        1444898652.4239259     
  -29666586.757084310        239834546.49525106        1345233294.2908275     
  -19620526.490270078        318927105.72426683        1244725937.3972270     
  -3822830.9607548118        417191782.49561226        1143376581.7431397     
   17726499.831474721        534628576.80935144        1041185227.3285723     
  -49035847.933426753        238759123.37672764        1436419526.4664660     
  -39835409.629817247        319695407.10933524        1344229767.7862451     
  -22966124.309475690        426194514.23105025        1251806054.5478270     
   1572008.0275830626        558256444.74182558        1159148386.7512269     
   33778987.381359398        715881198.64165318        1066256764.3964261     
  -1335756379.5330274        5722014.1467158794        4248724384.9957824     
  -1358252801.7961330       -30344116.305567086        3687839130.4106278     
  -1377234041.2559400       -54692970.746851623        3227899526.3771415     
  -1392700097.9124393       -67324549.177112997        2868905572.8953280     
  -1404650971.7656424       -68238851.596387386        2610857269.9651904     
  -2941927363.6564388       -311793651.10178399        2436414324.2984967     
  -2750472893.4380178       -268865174.69147158        2209197219.5522385     
  -2558769792.9154568       -225107930.60068595        2027382549.1948807     
  -2366818062.0887566       -180521918.82944095        1890970313.2264249     
  -2174617700.9579186       -135107139.37773752        1799960511.6468744     
  -3521686346.9962063       -321385716.11519587        631705652.21988165     
  -3274975887.6184549       -247071103.83893502        734345719.39683044     
  -3031283350.4357352       -182816232.21275938        826845004.79991174     
  -2790608735.4480333       -128621101.23665857        909203508.42912328     
  -2552952042.6553569       -84485710.910638094        981421230.28446567     
  -3075033329.5523243       -23054180.893511057       -1165401631.2400672     
  -2931761784.3374510        35038096.252027154       -736715370.05559945     
  -2794774713.8167677        72182124.416944742       -373713106.80776864     
  -2664072117.9902682        88377903.601240635       -76394841.496579126     
  -2539653996.8579583        83625433.804911613        155239425.87797132     
  -1601968311.3247938        583200954.56326985       -2954907526.0813427     
  -1720830583.5949955        577462425.58143485       -2203986048.8050447     
  -1849243883.0585568        539887139.28842497       -1574291785.6281593     
  -1987208209.7154646        470475095.68425059       -1065824736.5506843     
  -2134723563.5657172        369226294.76891744       -678584901.57261574     
  -1404650971.7656424       -68238851.596387386        2610857269.9651904     
  -1358688837.7820482       -49351785.243861973        2395650178.0184879     
  -1314641359.2913685       -36846903.867719352        2219142267.4038043     
  -1272508536.2936049       -30724207.467964649        2081333538.1211379     
  -1232290368.7887561       -30983696.044590354        1982223990.1704922     
  -2174617700.9579186       -135107139.37773752        1799960511.6468744     
  -2052845107.5758839       -111780929.91852713        1710139994.5066211     
  -1931954269.5537176       -91393904.992213607        1638911616.3931487     
  -1811945186.8914242       -73946064.598815978        1586275377.3064544     
  -1692817859.5890002       -59437408.738302588        1552231277.2465398     
  -2552952042.6553569       -84485710.910638094        981421230.28446567     
  -2412817682.1755629       -73954966.034948707        1018192338.1058850     
  -2272532176.9225950       -62920405.248676300        1053448542.6488405     
  -2132095526.8964496       -51382028.551822424        1087189843.9133387     
  -1991507732.0971329       -39339835.944381356        1119416241.8993785     
  -2539653996.8579583        83625433.804911613        155239425.87797132     
  -2438606561.5810871        64126106.406876087        319807208.81627566     
  -2336375081.3979955        48573595.362908959        462753046.17088485     
  -2232959556.3086820        36967900.673010826        584076937.94179261     
  -2128359986.3131533        29309022.337170005        683778884.12900209     
  -2134723563.5657172        369226294.76891744       -678584901.57261574     
  -2130211745.7924507        302462287.40695262       -385015393.36220270     
  -2123482982.9799211        243088096.84253597       -133174873.04072455     
  -2114537275.1281261        191103723.07567203        76936659.391813040     
  -2103374622.2370634        146509166.10636473        245319203.93541709     
  -1232290368.7887561       -30983696.044590354        1982223990.1704922     
  -1177153510.5647135       -30705718.897960842        1889806055.8914213     
  -1122698573.6559970       -32700812.802414656        1811430845.7228806     
  -1068925558.0626012       -36968977.757940888        1747098359.6648712     
  -1015834463.7845316       -43510213.764550924        1696808597.7173941     
  -1692817859.5890002       -59437408.738302588        1552231277.2465398     
  -1608532377.9872229       -57268812.754312158        1512797251.8724184     
  -1524609650.5857985       -56309397.438155174        1481306223.7158601     
  -1441049677.3847151       -56559162.789808035        1457758192.7768683     
  -1357852458.3839793       -58018108.809282482        1442153159.0554388     
  -1991507732.0971329       -39339835.944381356        1119416241.8993785     
  -1895501418.2403884       -40508958.459871769        1133338487.0643451     
  -1799538691.4690080       -41823371.259918690        1149104002.5539107     
  -1703619551.7829981       -43283074.344525874        1166712788.3680761     
  -1607743999.1823568       -44888067.713694572        1186164844.5068429     
  -2128359986.3131533        29309022.337170005        683778884.12900209     
  -2038060631.3241987        19573843.985374331        751429761.46720064     
  -1947485696.3056266        10757265.732295394        814824182.23703349     
  -1856635181.2574534        2859287.5778878927        873962146.43849742     
  -1765509086.1796608       -4120090.4777837992        928843654.07159555     
  -2103374622.2370634        146509166.10636473        245319203.93541709     
  -2036210017.2386529        122979594.58144033        367071075.08098847     
  -1968450665.0956554        101432513.53848064        478466762.76522475     
  -1900096565.8080678        81867922.977485776        579506266.98813176     
  -1831147719.3758931        64285822.898448348        670189587.74970496     
  -1015834463.7845316       -43510213.764550924        1696808597.7173941     
  -954370722.03349710       -46792418.238406211        1646093998.4840243     
  -891732375.03910112       -46159271.901052266        1603748258.0458205     
  -827919422.80132997       -41610774.752448022        1569771376.4027824     
  -762931865.32019782       -33146926.792643458        1544163353.5549085     
  -1357852458.3839793       -58018108.809282482        1442153159.0554388     
  -1276836311.7218409       -59996718.669184685        1423632285.3230665     
  -1195368625.4563897       -60470196.518047810        1411482034.7393124     
  -1113449399.5876336       -59438542.355894625        1405702407.3041747     
  -1031078634.1155726       -56901756.182720542        1406293403.0176589     
  -1607743999.1823568       -44888067.713694572        1186164844.5068429     
  -1512884692.3135271       -47275856.370956063        1198994119.6953943     
  -1418296911.4814475       -50568731.817384720        1216195782.3860192     
  -1323980656.6861243       -54766694.053004205        1237769832.5787179     
  -1229935927.9275484       -59869743.077774525        1263716270.2734866     
  -1765509086.1796608       -4120090.4777837992        928843654.07159555     
  -1662515863.8085608       -8629831.3437364101        972179501.60100448     
  -1560517233.1142693       -16454877.799055517        1017889500.9859390     
  -1459513194.0967896       -27595229.843742728        1065973652.2263998     
  -1359503746.7561176       -42050887.477794886        1116431955.3223886     
  -1831147719.3758931        64285822.898448348        670189587.74970496     
  -1725729826.2069390        55941356.412479639        743188431.03990185     
  -1622029590.3548529        41871365.536958456        816563190.53907776     
  -1520047011.8196471        22075850.271834373        890313866.24723530     
  -1419782090.6012988       -3445189.3828188181        964440458.16436946     
  -762931865.32019782       -33146926.792643458        1544163353.5549085     
  -691929564.16683459       -22933757.351143628        1503015275.5608437     
  -622138198.99528742       -16757041.182365507        1478069740.1481442     
  -553557769.80554140       -14616778.286255509        1469326747.3168161     
  -486188276.59761304       -16512968.662872702        1476786297.0668523     
  -1031078634.1155726       -56901756.182720542        1406293403.0176589     
  -926304889.10869205       -47656290.531886131        1385320298.4186506     
  -821990737.14433384       -39942801.689464867        1374346001.2311370     
  -718136178.22248375       -33761289.655404091        1373370511.4551103     
  -614741212.34316289       -29111754.429764032        1382393829.0905809     
  -1229935927.9275484       -59869743.077774525        1263716270.2734866     
  -1109115696.6953726       -56909468.506088793        1263794705.8320532     
  -988003715.56642401       -52976694.278490692        1267668213.6322305     
  -866599984.54068911       -48071420.394938290        1275336793.6740234     
  -744904503.61818016       -42193646.855475575        1286800445.9574363     
  -1359503746.7561176       -42050887.477794886        1116431955.3223886     
  -1240361986.9268749       -50693291.273738027        1138438497.8010345     
  -1120177134.2615499       -55858718.949417293        1158036377.3514221     
  -998949188.76015306       -57547170.504849970        1175225593.9735451     
  -876678150.42268014       -55758645.940031946        1190006147.6674111     
  -1419782090.6012988       -3445189.3828188181        964440458.16436946     
  -1320043759.8031893       -29007758.834810913        1009251674.3256106     
  -1218510993.2297192       -48588875.702266753        1045450492.3887173     
  -1115183790.8808711       -62188539.985132098        1073036912.3536830     
  -1010062152.7566588       -69806751.683445334        1092010934.2205067     
  -486188276.59761304       -16512968.662872702        1476786297.0668523     
  -427935959.13163704       -18771586.260227337        1474756093.4118366     
  -366908271.28702343       -11778969.262120634        1478385630.9938717     
  -303105213.06377870        4464882.3314217329        1487674909.8129456     
  -236526784.46190292        29959968.520400986        1502623929.8690693     
  -614741212.34316289       -29111754.429764032        1382393829.0905809     
  -541872834.12461782       -30212199.402790844        1382826016.0145772     
  -466297832.46826071       -22290566.249767154        1388574314.7517264     
  -388016207.37408775       -5346854.9706934094        1399638725.3020484     
  -307027958.84209430        20618934.434450075        1416019247.6655273     
  -744904503.61818016       -42193646.855475575        1286800445.9574363     
  -658401863.00102401       -42430458.710365355        1289614818.6961439     
  -569261345.88687098       -33874348.908604741        1297401673.8241315     
  -477482952.27571774       -16525317.450171322        1310161011.3414001     
  -383066682.16756266        9616635.6649293751        1327892831.2479491     
  -876678150.42268014       -55758645.940031946        1190006147.6674111     
  -777523045.76086462       -55426364.182991862        1195122501.4565504     
  -675798811.54286861       -46530317.238672316        1204867708.2110920     
  -571505447.76868117       -29070505.107055992        1219241767.9310300     
  -464642954.43831658       -3046927.7881769836        1238244680.6163540     
  -1010062152.7566588       -69806751.683445334        1092010934.2205067     
  -899236382.40412807       -69199915.820621878        1099349064.2957942     
  -785910229.43624079       -60258471.239940554        1110972417.9125984     
  -670083693.85298538       -42982417.941361725        1126880995.0709133     
  -551756775.65435648       -17371755.924882472        1147074795.7707434     
  -236526784.46190292        29959968.520400986        1502623929.8690693     
  -196677783.62994778        58747312.900603011        1481515599.8159702     
  -152146293.93120739        103142953.50342257        1463445422.5645039     
  -102932315.36570697        163146890.32877505        1448413398.1146719     
  -49035847.933426753        238759123.37672764        1436419526.4664660     
  -307027958.84209430        20618934.434450075        1416019247.6655273     
  -257490787.22419941        51058093.527277052        1399972333.5907052     
  -201489672.38791248        103043730.01475090        1387958517.7697535     
  -139024614.33324349        176575843.89682862        1379977800.2026660     
  -70095613.060189053        271654435.17352462        1376030180.8894579     
  -383066682.16756266        9616635.6649293751        1327892831.2479491     
  -320998638.47163552        42560419.857982472        1318985696.5616322     
  -250685197.20569485        102988862.61775026        1315106605.5814154     
  -172126358.36975527        190901963.94417650        1316255558.3073034     
  -85322121.963810250        306299723.83729380        1322432554.7393003     
  -464642954.43831658       -3046927.7881769836        1238244680.6163540     
  -387201337.37225103        33254291.892740712        1238555688.7287543     
  -299732868.38455540        102978351.31242238        1244889685.9994950     
  -202237547.47524005        206125250.47083902        1257246672.4285758     
  -94715374.644302770        342694989.36799330        1275626648.0159998     
  -551756775.65435648       -17371755.924882472        1147074795.7707434     
  -456098883.92604333        23139709.631549209        1158682310.0920749     
  -348632685.92448354        103012196.09879757        1177307759.0239937     
  -229358181.64969301        222245703.47682029        1202951142.5664847     
  -98275371.101664096        380840231.76563215        1235612460.7195604     
  -49035847.933426753        238759123.37672764        1436419526.4664660     
  -39835409.629817247        319695407.10933524        1344229767.7862451     
  -22966124.309475690        426194514.23105025        1251806054.5478270     
   1572008.0275830626        558256444.74182558        1159148386.7512269     
   33778987.381359398        715881198.64165318        1066256764.3964261     
  -70095613.060189053        271654435.17352462        1376030180.8894579     
  -56258077.954408213        373458970.03011036        1295138109.6464765     
  -33552584.904348105        504823364.70095444        1213231240.2424469     
  -1979133.9100054204        665747619.18607116        1130309572.6773605     
   38462275.028608412        856231733.48543048        1046373106.9512081     
  -85322121.963810250        306299723.83729380        1322432554.7393003     
  -69078471.778345793        428303215.30106807        1254237133.6823883     
  -42767752.721036136        583863603.00432622        1184246070.8615534     
  -6389964.7919003665        772980886.94701469        1112459366.2767959     
   40054892.009083748        995655067.12918913        1038877019.9281117     
  -94715374.644302770        342694989.36799330        1275626648.0159998     
  -78296591.101624787        484228142.92223668        1221526839.8939674     
  -50611627.759548157        663315229.14113140        1164850546.4051540     
  -11660484.618071616        879956248.02469373        1105597767.5495539     
   38556838.322797716        1134151199.5729127        1043768503.3271593     
  -98275371.101664096        380840231.76563215        1235612460.7195604     
  -83912435.924249113        541233752.89358187        1197007228.2812345     
  -57084210.019874215        743178243.11140907        1155044666.8732548     
  -17790693.388553917        986673702.41905689        1109724776.4956281     
   33968113.969741523        1271720130.8166053        1061047557.1483450     
  -1601968311.3247938        583200954.56326985       -2954907526.0813427     
  -1720830583.5949955        577462425.58143485       -2203986048.8050447     
  -1849243883.0585568        539887139.28842497       -1574291785.6281593     
  -1987208209.7154646        470475095.68425059       -1065824736.5506843     
  -2134723563.5657172        369226294.76891744       -678584901.57261574     
  -146602251.13240373        1282291860.5688069       -1196303966.0161650     
  -565096164.07537937        1056992953.3785071       -811606248.31861627     
  -979626767.56587911        844905077.69645667       -485499414.37568027     
  -1390194061.6039069        646028233.52264333       -217983464.18735805     
  -1796798046.1894627        460362420.85708117       -9058397.7536469363     
   182242601.24387938        1643426404.2295120        504542813.31075883     
  -356922008.52958566        1252255401.9834411        538783497.51635361     
  -878608972.20474780        919343220.06502247        577069628.31213009     
  -1382818289.7816195        644689858.47425675        619401205.69809330     
  -1869549961.2602000        428295317.21114063        665778229.67423844     
  -615433754.19593346        1666604585.5453866        2147632811.8994341     
  -1096308116.9576073        1163249771.3962314        1847183188.6998630     
  -1546190496.9751692        763201566.39412498        1613415342.4352760     
  -1965080894.2486076        466459970.53908670        1446329273.1056700     
  -2352979308.7779312        273024983.83110678        1345924980.7110434     
  -2539631317.4518557        1351826404.5164318        3732966029.7498531     
  -2783254489.3594627        789976061.61686790        3113592825.2319131     
  -2982371341.8771362        376480116.68376136        2623537727.9937525     
  -3136981875.0048633        111338569.71713328        2262800738.0353703     
  -3247086088.7426519       -5448579.2830301523        2031381855.3567674     
  -2134723563.5657172        369226294.76891744       -678584901.57261574     
  -2130211745.7924507        302462287.40695262       -385015393.36220270     
  -2123482982.9799211        243088096.84253597       -133174873.04072455     
  -2114537275.1281261        191103723.07567203        76936659.391813040     
  -2103374622.2370634        146509166.10636473        245319203.93541709     
  -1796798046.1894627        460362420.85708117       -9058397.7536469363     
  -1877249123.5376618        380352347.12771082        153338435.01247677     
  -1956514147.6361523        304295784.23072028        295164967.04350168     
  -2034593118.4849217        232192732.16612577        416421198.33942753     
  -2111486036.0839760        164043190.93391454        517107128.90025455     
  -1869549961.2602000        428295317.21114063        665778229.67423844     
  -1974510541.8617628        353175194.67479861        695799679.90826547     
  -2079315961.0031581        278572277.00567615        726409516.56103122     
  -2183966218.6843920        204486564.20377076        757607739.63253748     
  -2288461314.9054580        130918056.26908553        789394349.12277913     
  -2352979308.7779312        273024983.83110678        1345924980.7110434     
  -2421996000.7647414        220930830.04822624        1242368341.3251650     
  -2491888423.0809436        165917575.16739452        1160558775.5118608     
  -2562656575.7265286        107985219.18861556        1100496283.2711349     
  -2634300458.7014928        47133762.111894488        1062180864.6029859     
  -3247086088.7426519       -5448579.2830301523        2031381855.3567674     
  -3219705500.2466092       -16380746.752014399        1793044419.2631745     
  -3194231533.8695040       -33668321.284118652        1597612743.8959956     
  -3170664189.6113305       -57311302.879333138        1445086829.2552302     
  -3149003467.4720974       -87309691.537667155        1335466675.3408790     
  -2103374622.2370634        146509166.10636473        245319203.93541709     
  -2036210017.2386529        122979594.58144033        367071075.08098847     
  -1968450665.0956554        101432513.53848064        478466762.76522475     
  -1900096565.8080678        81867922.977485776        579506266.98813176     
  -1831147719.3758931        64285822.898448348        670189587.74970496     
  -2111486036.0839760        164043190.93391454        517107128.90025455     
  -2064771070.1416512        136051159.85770214        583600303.70585072     
  -2017214589.2554629        110864178.59436584        645748968.74916637     
  -1968816593.4254153        88482247.143895745        703553124.03020334     
  -1919577082.6515071        68905365.506296277        757012769.54896092     
  -2288461314.9054580        130918056.26908553        789394349.12277913     
  -2245019777.4504914        103616428.81221128        800916723.35421729     
  -2200489957.2523880        79942410.499115229        814106261.52243114     
  -2154871854.3111572        59896001.329790473        828962963.62741292     
  -2108165468.6267900        43477201.304249883        845486829.66916943     
  -2634300458.7014928        47133762.111894488        1062180864.6029859     
  -2576956139.1651659        25675401.444977045        1019020334.0260847     
  -2518276769.0864296        8667209.2527366877        983538641.08500957     
  -2458262348.4652901       -3890814.4648135900        955735785.77976024     
  -2396912877.3017502       -11998669.707699299        935611768.11033249     
  -3149003467.4720974       -87309691.537667155        1335466675.3408790     
  -3060580155.2856832       -97771922.244021893        1237911135.7214556     
  -2970575024.7575912       -102961425.14478278        1154046107.4369102     
  -2878988075.8878279       -102878200.23996675        1083871590.4872406     
  -2785819308.6763825       -97522247.529550314        1027387584.8724506     
  -1831147719.3758931        64285822.898448348        670189587.74970496     
  -1725729826.2069390        55941356.412479639        743188431.03990185     
  -1622029590.3548529        41871365.536958456        816563190.53907776     
  -1520047011.8196471        22075850.271834373        890313866.24723530     
  -1419782090.6012988       -3445189.3828188181        964440458.16436946     
  -1919577082.6515071        68905365.506296277        757012769.54896092     
  -1809585410.7298493        65937172.394623756        793604087.01602292     
  -1701501381.1048539        56610171.627424479        832097101.15134823     
  -1595324993.7765102        40924363.204711378        872491811.95493174     
  -1491056248.7448177        18879747.126494825        914788219.42678368     
  -2108165468.6267900        43477201.304249883        845486829.66916943     
  -1989240645.2116301        47193093.389096856        845448972.17001593     
  -1872413449.0729136        43916894.552476168        848838591.79840660     
  -1757683880.2106302        33648604.794408202        855655688.55433905     
  -1645051938.6247849        16388224.114877582        865900262.43781745     
  -2396912877.3017502       -11998669.707699299        935611768.11033249     
  -2264695529.6522808       -290880.60408270359        898723086.50188267     
  -2134765794.2590389        3791534.3121165037        866787662.48025572     
  -2007123671.1220114        248575.04092133045        839805496.04545975     
  -1881769160.2412176       -10919758.417697668        817776587.19748652     
  -2785819308.6763825       -97522247.529550314        1027387584.8724506     
  -2635950064.0517983       -76514749.584922552        953426430.01162195     
  -2488558416.6632290       -63765909.093679070        885944313.19689918     
  -2343644366.5106492       -59275726.055741429        824941234.42828429     
  -2201207913.5940866       -63044200.471177101        770417193.70578146     
  -1419782090.6012988       -3445189.3828188181        964440458.16436946     
  -1320043759.8031893       -29007758.834810913        1009251674.3256106     
  -1218510993.2297192       -48588875.702266753        1045450492.3887173     
  -1115183790.8808711       -62188539.985132098        1073036912.3536830     
  -1010062152.7566588       -69806751.683445334        1092010934.2205067     
  -1491056248.7448177        18879747.126494825        914788219.42678368     
  -1407440570.0428481       -9539429.6681520343        935478723.61623895     
  -1322035034.1986411       -31992415.988676071        953038802.90895855     
  -1234839641.2121801       -48479211.835015357        967468457.30493164     
  -1145854391.0834801       -58999817.207233131        978767686.80417037     
  -1645051938.6247849        16388224.114877582        865900262.43781745     
  -1561896131.4435363       -10188725.849805415        862464712.91684973     
  -1476955045.7531691       -30814747.450760603        861380711.70053256     
  -1390228681.5536809       -45489840.687976003        862648258.78887403     
  -1301717038.8450704       -54214005.561454833        866267354.18187428     
  -1881769160.2412176       -10919758.417697668        817776587.19748652     
  -1783410444.0052538       -30955647.379759192        790209642.22743654     
  -1683271027.8933046       -45055870.088524044        770476218.76344573     
  -1581350911.9053595       -53220426.543963313        758576316.80550528     
  -1477650096.0414236       -55449316.746110559        754509936.35362184     
  -2201207913.5940866       -63044200.471177101        770417193.70578146     
  -2071983507.7280059       -71840194.258040071        718713511.54800642     
  -1940982980.6190553       -74715783.901987076        680325324.09768975     
  -1808206332.2672327       -71670969.403042793        655252631.35482240     
  -1673653562.6725421       -62705750.761189222        643495433.31940591     
  -1010062152.7566588       -69806751.683445334        1092010934.2205067     
  -899236382.40412807       -69199915.820621878        1099349064.2957942     
  -785910229.43624079       -60258471.239940554        1110972417.9125984     
  -670083693.85298538       -42982417.941361725        1126880995.0709133     
  -551756775.65435648       -17371755.924882472        1147074795.7707434     
  -1145854391.0834801       -58999817.207233131        978767686.80417037     
  -1024136018.8745791       -54885230.597629428        980847166.30154526     
  -901032610.16544902       -46153855.653947443        986210865.82073963     
  -776544164.95608115       -32805692.376130700        994858785.36176538     
  -650670683.24650133       -14840740.764262497        1006790924.9246050     
  -1301717038.8450704       -54214005.561454833        866267354.18187428     
  -1171966074.8360424       -47449671.221938908        861786945.96700501     
  -1041945420.4419229       -39786368.932119906        859589754.25427079     
  -911655075.66270924       -31224098.691992462        859675779.04367375     
  -781095040.49841166       -21762860.501572222        862045020.33521271     
  -1477650096.0414236       -55449316.746110559        754509936.35362184     
  -1342726550.2885184       -46893237.693549752        742168403.29217637     
  -1208648660.2656584       -41156011.074464560        731109083.21318316     
  -1075416425.9728508       -38237636.888891637        721331976.11663842     
  -943029847.41009378       -38138115.136810124        712837082.00254357     
  -1673653562.6725421       -62705750.761189222        643495433.31940591     
  -1536417445.2320173       -53215930.012474179        621991538.27706599     
  -1401142329.6366706       -50262782.081012249        600768852.69748807     
  -1267828215.8865111       -53846306.966848254        579827376.58066559     
  -1136475103.9815416       -63966504.669977784        559167109.92660773     
  -551756775.65435648       -17371755.924882472        1147074795.7707434     
  -456098883.92604333        23139709.631549209        1158682310.0920749     
  -348632685.92448354        103012196.09879757        1177307759.0239937     
  -229358181.64969301        222245703.47682029        1202951142.5664847     
  -98275371.101664096        380840231.76563215        1235612460.7195604     
  -650670683.24650133       -14840740.764262497        1006790924.9246050     
  -537678224.76417518        17588559.619724333        1021081269.5115440     
  -413985974.82143819        85683831.538442880        1043553076.6461666     
  -279593933.41829967        189445074.99182045        1074206346.3284712     
  -134502100.55473763        328872289.97994018        1113041078.5584548     
  -781095040.49841166       -21762860.501572222        862045020.33521271     
  -647443649.72748101        3581584.3703855574        877724927.90610898     
  -504200982.30897611        60896951.400928259        902749825.96179390     
  -351367038.24288452        150183240.59008092        937119714.50226653     
  -188941817.52922392        271440451.93781769        980834593.52753484     
  -943029847.41009378       -38138115.136810124        712837082.00254357     
  -785395158.81597126       -18881216.116534412        728613285.27576053     
  -619277708.38709950        28651555.686243773        754898006.97088301     
  -444677496.12348026        104460200.27151114        791691247.08789957     
  -261594522.02511317        208544717.63927102        838993005.62681413     
  -1136475103.9815416       -63966504.669977784        559167109.92660773     
  -951532752.02963018       -49799841.840974987        573746341.62051117     
  -759216153.05581534       -11052355.605633438        599997619.67342746     
  -559525307.06006360        52275954.036164731        637920944.08534205     
  -352460214.04240763        140185087.08431607        687516314.85626066     
  -98275371.101664096        380840231.76563215        1235612460.7195604     
  -83912435.924249113        541233752.89358187        1197007228.2812345     
  -57084210.019874215        743178243.11140907        1155044666.8732548     
  -17790693.388553917        986673702.41905689        1109724776.4956281     
   33968113.969741523        1271720130.8166053        1061047557.1483450     
  -134502100.55473763        328872289.97994018        1113041078.5584548     
  -125822617.55946338        478506092.41753572        1091169563.9659777     
  -94130645.314694345        704848192.35345542        1070766504.0546752     
  -39426183.820448399        1007898589.7876289        1051831898.8245262     
   38290766.923281729        1387657284.7200801        1034365748.2755581     
  -188941817.52922392        271440451.93781769        980834593.52753484     
  -172157833.42800859        414450921.67152035        988001861.72385287     
  -121814161.55478042        669327017.31193376        1001463368.2521588     
  -37910801.909559429        1036068738.8590121        1021219113.1124513     
   79552245.507688582        1514676086.3128014        1047269096.3047473     
  -261594522.02511317        208544717.63927102        838993005.62681413     
  -222918083.52989417        349068240.65548784        887504121.55485857     
  -140134758.74014387        636614717.98680949        947135259.46572149     
  -13244547.655867815        1071184149.6332281        1017886419.3594086     
   157752549.72295523        1652776535.5947807        1099757601.2358935     
  -352460214.04240763        140185087.08431607        687516314.85626066     
  -278103367.86512601        282358049.36943811        789676343.45898843     
  -149092436.87076947        606711294.37814343        907782177.69535470     
   34572578.940628648        1113244822.1103179        1041833817.5653557     
   272891679.56908727        1801958632.5660331        1191831263.0690081     
  -2539631317.4518557        1351826404.5164318        3732966029.7498531     
  -2783254489.3594627        789976061.61686790        3113592825.2319131     
  -2982371341.8771362        376480116.68376136        2623537727.9937525     
  -3136981875.0048633        111338569.71713328        2262800738.0353703     
  -3247086088.7426519       -5448579.2830301523        2031381855.3567674     
  -4950093669.8540058       -617031527.76814842        2139149152.8550103     
  -4717396853.7468414       -369324063.91080379        1895458690.3610969     
  -4506461088.4832783       -194153436.19877648        1702029079.0394821     
  -4317286374.0633106       -91519644.632069349        1558860318.8901596     
  -4149872710.4869375       -61422689.210683823        1465952409.9131303     
  -6212146602.9445133       -2241366634.2592402        840396630.52683568     
  -5729007673.4153948       -1251864726.0228212        895076978.11782908     
  -5333897164.9634104       -555790888.04351163        920960920.77362919     
  -5026815077.5885601       -153145120.32131362        918048458.49423897     
  -4807761411.2908440       -43927422.856231451        886339591.27966142     
  -6325790116.7234039       -3521178914.9568472       -163291537.23465797     
  -5818086948.3651409       -1857645924.7191947        112447688.50209898     
  -5464679571.3175468       -708432238.85044980        280333253.19619817     
  -5265567985.5806217       -73537857.350597143        340365156.84761667     
  -5220752191.1543713        47037219.780336618        292543399.45635676     
  -5291024211.1906643       -4456468369.8609600       -871915350.42948711     
  -4984634678.5960703       -2186667659.9999332       -452429178.48607111     
  -4898808307.5456734       -652077488.61958468       -219853923.69281644     
  -5033545098.0394907        147302144.28006077       -174189586.04971957     
  -5388845050.0775127        211471238.69902396       -315436165.55677950     
  -3247086088.7426519       -5448579.2830301523        2031381855.3567674     
  -3219705500.2466092       -16380746.752014399        1793044419.2631745     
  -3194231533.8695040       -33668321.284118652        1597612743.8959956     
  -3170664189.6113305       -57311302.879333138        1445086829.2552302     
  -3149003467.4720974       -87309691.537667155        1335466675.3408790     
  -4149872710.4869375       -61422689.210683823        1465952409.9131303     
  -4032072396.6798306       -77212173.201155901        1305418499.2756557     
  -3912952197.6210489       -88602039.686043978        1172653381.9636991     
  -3792512113.3105788       -95592288.665305853        1067657057.9772596     
  -3670752143.7484412       -98182920.139003515        990429527.31633556     
  -4807761411.2908440       -43927422.856231451        886339591.27966142     
  -4642789850.4609528       -77548766.854665995        807373464.69735563     
  -4473271897.0087643       -96015468.778800726        741039164.03966880     
  -4299207550.9342861       -99327528.628629684        687336689.30660343     
  -4120596812.2375255       -87484946.404165268        646266040.49815309     
  -5220752191.1543713        47037219.780336618        292543399.45635676     
  -5051857861.5899668       -17390527.712553024        298909315.52826834     
  -4875190632.0326567       -55908608.562427044        302770090.12389630     
  -4690750502.4824400       -68517022.769280672        304125723.24325436     
  -4498537472.9393234       -55215770.333126307        302976214.88633138     
  -5388845050.0775127        211471238.69902396       -315436165.55677950     
  -5259276430.0668697        103262544.22521281       -219973948.23161140     
  -5118708402.6927242        31718540.963090658       -142153839.78360620     
  -4967140967.9550486       -3160771.0872592926       -81975840.212782592     
  -4804574125.8538647       -1375391.9259366989       -39439949.519130073     
  -3149003467.4720974       -87309691.537667155        1335466675.3408790     
  -3060580155.2856832       -97771922.244021893        1237911135.7214556     
  -2970575024.7575912       -102961425.14478278        1154046107.4369102     
  -2878988075.8878279       -102878200.23996675        1083871590.4872406     
  -2785819308.6763825       -97522247.529550314        1027387584.8724506     
  -3670752143.7484412       -98182920.139003515        990429527.31633556     
  -3545660520.1471419       -97173981.710221052        918282301.99202979     
  -3420174447.4959407       -94850213.115124702        858003765.85157621     
  -3294293925.7948446       -91211614.353695989        809593918.89497828     
  -3168018955.0438533       -86258185.425956964        773052761.12223160     
  -4120596812.2375255       -87484946.404165268        646266040.49815309     
  -3964042083.3671112       -76566400.683981419        598141865.29521918     
  -3808280274.7385802       -68290922.436744690        560064557.12511051     
  -3653311386.3519373       -62658511.662451267        532034115.98784488     
  -3499135418.2071753       -59669168.361122131        514050541.88339466     
  -4498537472.9393234       -55215770.333126307        302976214.88633138     
  -4315724844.9455891       -35949179.165291786        277489825.63102150     
  -4134892506.4855156       -23283553.109664440        260228481.25752497     
  -3956040457.5591054       -17218892.166240931        251192181.76582828     
  -3779168698.1663675       -17755196.335063457        250380927.15593520     
  -4804574125.8538647       -1375391.9259366989       -39439949.519130073     
  -4600708804.8825827        24677682.845856428       -43673817.000549749     
  -4400011142.7367468        40171894.866128683       -41504461.751197010     
  -4202481139.4163532        45107244.134957790       -32931883.771051999     
  -4008118794.9214082        39483730.652267456       -17956083.060130738     
  -2785819308.6763825       -97522247.529550314        1027387584.8724506     
  -2635950064.0517983       -76514749.584922552        953426430.01162195     
  -2488558416.6632290       -63765909.093679070        885944313.19689918     
  -2343644366.5106492       -59275726.055741429        824941234.42828429     
  -2201207913.5940866       -63044200.471177101        770417193.70578146     
  -3168018955.0438533       -86258185.425956964        773052761.12223160     
  -3003366419.4259758       -71418329.703921795        714588145.46265066     
  -2840180976.3738775       -61468782.534485936        662439556.11086524     
  -2678462625.8875561       -56409543.917636871        616606993.06687391     
  -2518211367.9670243       -56240613.853424788        577090456.33067298     
  -3499135418.2071753       -59669168.361122131        514050541.88339466     
  -3320165339.4197574       -51136679.208792448        472261387.54032302     
  -3141651848.5278964       -44126149.708310604        436625247.76673681     
  -2963594945.5315909       -38637579.859687448        407142122.56262469     
  -2785994630.4308476       -34670969.662934661        383812011.92799515     
  -3779168698.1663675       -17755196.335063457        250380927.15593520     
  -3586346824.0331569       -15669798.099539995        226446156.24464375     
  -3392971033.1252890       -11738010.615156889        208501388.16451925     
  -3199041325.4427376       -5959833.8818328381        196546622.91554582     
  -3004557700.9855413        1664732.1003129482        190581860.49774268     
  -4008118794.9214082        39483730.652267456       -17956083.060130738     
  -3801910873.2661805        34982313.623778820       -22857548.424392283     
  -3594138530.1660447        35695634.745005369       -21932022.695802864     
  -3384801765.6210265        41623694.015829802       -15179505.874371607     
  -3173900579.6311245        52766491.436266899       -2599997.9600800956     
  -2201207913.5940866       -63044200.471177101        770417193.70578146     
  -2071983507.7280059       -71840194.258040071        718713511.54800642     
  -1940982980.6190553       -74715783.901987076        680325324.09768975     
  -1808206332.2672327       -71670969.403042793        655252631.35482240     
  -1673653562.6725421       -62705750.761189222        643495433.31940591     
  -2518211367.9670243       -56240613.853424788        577090456.33067298     
  -2357445238.1941180       -56873184.613190651        542012042.36265171     
  -2195842320.7211843       -54716463.039531231        515997131.37849152     
  -2033402615.5482082       -49770449.132400751        499045723.37818348     
  -1870126122.6752081       -42035142.891851783        491157818.36172515     
  -2785994630.4308476       -34670969.662934661        383812011.92799515     
  -2605835324.5328288       -30784681.730152488        364262977.01642334     
  -2425778564.4776139       -27240213.273371816        349525453.36510712     
  -2245824350.2651968       -24037564.292589068        339599440.97405362     
  -2065972681.8955843       -21176734.787810802        334484939.84325415     
  -3004557700.9855413        1664732.1003129482        190581860.49774268     
  -2817153766.7441168        6425314.3911480904        185466315.50931147     
  -2630791711.8883414        7712965.3964816332        180910290.05754232     
  -2445471536.4181814        5527685.1164368391        176913784.14243740     
  -2261193240.3336606       -130526.44908154011        173476797.76398918     
  -3173900579.6311245        52766491.436266899       -2599997.9600800956     
  -2991400564.8280015        54756803.750629902        5622057.8413317231     
  -2810881762.9533577        50143072.970075011        10151641.455794374     
  -2632344174.0071678        38925299.094658971        10988752.883340044     
  -2455787797.9894547        21103482.124332547        8133392.1239221329     
  -1673653562.6725421       -62705750.761189222        643495433.31940591     
  -1536417445.2320173       -53215930.012474179        621991538.27706599     
  -1401142329.6366706       -50262782.081012249        600768852.69748807     
  -1267828215.8865111       -53846306.966848254        579827376.58066559     
  -1136475103.9815416       -63966504.669977784        559167109.92660773     
  -1870126122.6752081       -42035142.891851783        491157818.36172515     
  -1733408322.5986931       -41372329.644996941        469123193.20281005     
  -1596937124.6099596       -41531523.357416570        448445654.64771521     
  -1460712528.7090211       -42512724.029157698        429125202.69643277     
  -1324734534.8958731       -44315931.660186946        411161837.34896672     
  -2065972681.8955843       -21176734.787810802        334484939.84325415     
  -1926699264.4943509       -28418748.636221051        313919717.61806190     
  -1785958049.4234953       -30768103.585888028        295787459.13774258     
  -1643749036.6830440       -28224799.636914372        280088164.40230268     
  -1500072226.2729826       -20788836.789219558        266821833.41172680     
  -2261193240.3336606       -130526.44908154011        173476797.76398918     
  -2116290270.9189694       -14355186.986093163        156381111.52282158     
  -1968205104.0772872       -17972522.766466498        142794266.16758549     
  -1816937739.8085892       -10982533.790110946        132716261.69826719     
  -1662488178.1128869        6614779.9429043531        126147098.11488524     
  -2455787797.9894547        21103482.124332547        8133392.1239221329     
  -2302181341.8725986        818355.30525135994       -3492625.0829189979     
  -2143678288.5713229       -3144780.8990881443       -10533924.262786996     
  -1980278638.0856538        9214073.5112073421       -12990505.415670650     
  -1811982390.4155812        37894918.536191225       -10862368.541565159     
  -1136475103.9815416       -63966504.669977784        559167109.92660773     
  -951532752.02963018       -49799841.840974987        573746341.62051117     
  -759216153.05581534       -11052355.605633438        599997619.67342746     
  -559525307.06006360        52275954.036164731        637920944.08534205     
  -352460214.04240763        140185087.08431607        687516314.85626066     
  -1324734534.8958731       -44315931.660186946        411161837.34896672     
  -1123366493.6698577       -21678616.006254613        430232512.40808994     
  -918571514.71135783        12381825.422614992        448311520.66715014     
  -710349598.02040339        57865392.626352727        465398862.12614387     
  -498700743.59696937        114772085.60501716        481494536.78507650     
  -1500072226.2729826       -20788836.789219558        266821833.41172680     
  -1318460533.3701925       -535479.58952820301        285778757.66504395     
  -1137369212.0243845        17983305.753572464        291080301.95923752     
  -956798262.23553753        34767519.240122616        282726466.29428875     
  -776747684.00367272        49817160.870075762        260717250.67021924     
  -1662488178.1128869        6614779.9429043531        126147098.11488524     
  -1536814871.1306629        13629567.409158409        140385077.39138147     
  -1415609244.9948735        5752085.3873006701        128303963.54968479     
  -1298871299.7054763       -17017666.122525752        89903756.589784041     
  -1186601035.2625177       -54679687.120494843        25184456.511692867     
  -1811982390.4155812        37894918.536191225       -10862368.541565159     
  -1778429506.9512768        20816524.989748478       -5948528.4128993982     
  -1753291613.6228278       -24311835.676210523       -40017494.561504029     
  -1736568710.4302316       -97490163.461685538       -113069266.98736784     
  -1728260797.3735027       -198718458.36670744       -225103845.69051677     
  -352460214.04240763        140185087.08431607        687516314.85626066     
  -278103367.86512601        282358049.36943811        789676343.45898843     
  -149092436.87076947        606711294.37814343        907782177.69535470     
   34572578.940628648        1113244822.1103179        1041833817.5653557     
   272891679.56908727        1801958632.5660331        1191831263.0690081     
  -498700743.59696937        114772085.60501716        481494536.78507650     
  -389467335.88393080        220694035.27223194        599725078.43068683     
  -231085113.79238707        490445366.20111680        737203556.99737728     
  -23554077.322313368        924026078.39176667        893929972.48513865     
   233125773.52626875        1521436171.8441060        1069904324.8939879     
  -776747684.00367272        49817160.870075762        260717250.67021924     
  -623203053.93364310        122318496.16572019        388595489.84708053     
  -426014879.92365187        340298311.26121771        539023797.23245382     
  -185183161.97367567        703756606.15666974        712002172.82633924     
   99292099.916256666        1212693380.8520072        907530616.62873864     
  -1186601035.2625177       -54679687.120494843        25184456.511692867     
  -979310522.01424634       -12768567.950062156        156287577.70816478     
  -733881735.26455629        156270129.55845577        313242898.40058649     
  -450314675.01342678        452436405.40509915        496050418.58896470     
  -128609341.26088566        875730259.58976936        704710138.27329028     
  -1728260797.3735027       -198718458.36670744       -225103845.69051677     
  -1457789740.1257429       -184567157.07507253       -97198657.986053720     
  -1154685679.8151228       -61639178.907257974        59860860.501786962     
  -818948616.44158316        170065476.13696039        246074709.77301651     
  -450578550.00518072        510546808.05739903        461442889.82763457     
 </DataArray>
 <DataArray  type="Float64" Name="VM" NumberOfComponents="1" format="ascii">
   5153297455.0088472     
   4398003568.1328602     
   4623216685.6027203     
   5117690124.5917845     
   5524713271.8345003     
   5497278889.9856052     
   5150822467.0184660     
   5170010066.9883928     
   5262313253.9222403     
   5268850021.8540888     
   5639999222.2204533     
   5442447980.8006973     
   5323470496.1557598     
   5201050855.4472523     
   5026141709.1177425     
   5963025133.6373396     
   5605914390.8373747     
   5306755242.0617075     
   5053944745.5744791     
   4839149652.7850618     
   7315422663.3427782     
   6297035260.2142153     
   5550489195.3743525     
   5055998441.1432371     
   4785963072.3565054     
   5524713271.8345003     
   5325307842.0655603     
   5140541108.9961615     
   4967590916.6009226     
   4804372257.2612047     
   5268850021.8540888     
   5069689947.6283541     
   4875761842.4452763     
   4686567611.7028847     
   4501875357.5417738     
   5026141709.1177425     
   4812174616.3362446     
   4608393894.2830124     
   4413991057.1595669     
   4228411156.8984337     
   4839149652.7850618     
   4589618379.1767740     
   4370091253.6639318     
   4177250998.4727130     
   4008304876.7645664     
   4785963072.3565054     
   4467555883.0415201     
   4213526279.3790450     
   4017400770.8033562     
   3872895692.5268788     
   4804372257.2612047     
   4613717323.4230661     
   4420818531.3476048     
   4225600343.4221125     
   4028125865.1489391     
   4501875357.5417738     
   4324653550.6454420     
   4147862072.0442991     
   3971363304.9440045     
   3795181582.4983554     
   4228411156.8984337     
   4060701996.2084188     
   3897256504.5232334     
   3737764041.5596662     
   3582103079.1797729     
   4008304876.7645664     
   3842698599.8724847     
   3686556243.7223101     
   3539285395.6894355     
   3400492424.7903094     
   3872895692.5268788     
   3697937721.2237906     
   3539001224.2424636     
   3395188366.0300069     
   3265761198.9929271     
   4028125865.1489391     
   3819727358.5010648     
   3612318376.3343287     
   3405905860.8602943     
   3200613234.0233974     
   3795181582.4983554     
   3599967408.6711936     
   3406315013.8376484     
   3214144815.6493959     
   3023464217.5035486     
   3582103079.1797729     
   3394911349.6255441     
   3210174338.1186852     
   3027734442.7978802     
   2847509439.3624053     
   3400492424.7903094     
   3216010521.5084867     
   3035177494.9226880     
   2857772869.9827561     
   2683659057.2075429     
   3265761198.9929271     
   3078873831.3113222     
   2897066771.6785603     
   2720081879.7716551     
   2547772638.4968128     
   3200613234.0233974     
   3019167104.8463445     
   2836340253.4963536     
   2652089379.1867919     
   2466447485.5679846     
   3023464217.5035486     
   2838607228.0541215     
   2653224703.8389854     
   2467341656.7669153     
   2281004678.2221546     
   2847509439.3624053     
   2666302341.6003981     
   2487080432.5760841     
   2310044158.1688781     
   2135551813.3575156     
   2683659057.2075429     
   2511580848.2138867     
   2345917258.7069926     
   2187039057.0199504     
   2035739585.0476029     
   2547772638.4968128     
   2387272985.9966102     
   2239755110.7715983     
   2105521075.9784124     
   1985537628.7574949     
   2466447485.5679846     
   2302598575.6717315     
   2142185330.1092372     
   1985029238.4544070     
   1831320591.0009353     
   2281004678.2221546     
   2126470314.2935119     
   1974829446.0487382     
   1825998249.0763986     
   1680073499.2594187     
   2135551813.3575156     
   1988431559.7160821     
   1843397122.7754574     
   1700488514.5298285     
   1559822354.0166631     
   2035739585.0476029     
   1896030235.5979922     
   1757532455.5575283     
   1620442801.8756549     
   1485038994.3570526     
   1985537628.7574949     
   1855335290.4841051     
   1725708697.2088897     
   1597065841.8452752     
   1470025376.2583697     
   1831320591.0009353     
   1788958276.9725637     
   1742641962.7069206     
   1701243906.1590283     
   1683731662.7834566     
   1680073499.2594187     
   1562707824.7391436     
   1435796311.3906026     
   1299807890.6553810     
   1161047665.8473983     
   1559822354.0166631     
   1408062836.5164690     
   1252425250.8477306     
   1090752016.4849575     
   921105060.77200699     
   1485038994.3570526     
   1339167373.9162509     
   1207580303.1134036     
   1094914570.3561702     
   1007284942.2244529     
   1470025376.2583697     
   1359434814.9339886     
   1283795788.3086514     
   1251351452.2305272     
   1269380075.8239505     
   1683731662.7834566     
   1385098765.9137573     
   1129900216.0481071     
   1010213975.9934204     
   1154343594.9130139     
   1161047665.8473983     
   1009943148.3090447     
   985925904.33160162     
   1161644874.1705797     
   1544642378.9865963     
   921105060.77200699     
   965708281.83384347     
   1146256395.7516654     
   1476729941.5039015     
   1957270738.8248594     
   1007284942.2244529     
   1168483756.9194443     
   1427472894.2405918     
   1809274981.0314770     
   2334205530.8166213     
   1269380075.8239505     
   1451329892.9994581     
   1718426216.4719188     
   2111462683.3164272     
   2662925185.4569807     
   7315422663.3427782     
   6297035260.2142153     
   5550489195.3743525     
   5055998441.1432371     
   4785963072.3565054     
   4244878605.2665205     
   3750543814.8845606     
   3458693961.7416439     
   3357285291.1897221     
   3418774428.8456464     
   1788365390.3090560     
   1735902475.1959376     
   1850382921.8764141     
   2090520014.4539611     
   2410218950.8674111     
   2479350932.3709784     
   2002494579.9068296     
   1791187834.9003294     
   1841370952.4936712     
   2065875415.4786148     
   5480431615.4586115     
   4342936705.4477539     
   3484931548.9917068     
   2917742678.7641969     
   2619733041.2994146     
   4785963072.3565054     
   4467555883.0415201     
   4213526279.3790450     
   4017400770.8033562     
   3872895692.5268788     
   3418774428.8456464     
   3328724373.5600495     
   3269736177.8307981     
   3238653236.9870090     
   3232740257.3296089     
   2410218950.8674111     
   2484589369.3271980     
   2561915206.5672789     
   2641973394.3674588     
   2724559773.1454196     
   2065875415.4786148     
   2110281098.1049635     
   2185696596.7152457     
   2277305469.5110111     
   2373574879.0702929     
   2619733041.2994146     
   2391297718.8689685     
   2266643304.6206255     
   2220279759.4613452     
   2221341471.3717384     
   3872895692.5268788     
   3697937721.2237906     
   3539001224.2424636     
   3395188366.0300069     
   3265761198.9929271     
   3232740257.3296089     
   3134124102.3189464     
   3043955358.4239497     
   2962059579.9616947     
   2888370421.6918559     
   2724559773.1454196     
   2684748386.2839584     
   2648162822.3842278     
   2614893351.1106310     
   2585044097.6617694     
   2373574879.0702929     
   2363148733.2060423     
   2357129100.9373517     
   2354407399.0909076     
   2353932515.7390256     
   2221341471.3717384     
   2194518402.5338888     
   2184386138.8976679     
   2186345996.5665655     
   2195999482.4404659     
   3265761198.9929271     
   3078873831.3113222     
   2897066771.6785603     
   2720081879.7716551     
   2547772638.4968128     
   2888370421.6918559     
   2747962287.8170695     
   2611378174.4296994     
   2478883666.2125883     
   2350936322.1060748     
   2585044097.6617694     
   2489485057.1264939     
   2398264428.6177855     
   2312178288.0196133     
   2232212742.7570591     
   2353932515.7390256     
   2299497414.1287899     
   2252063654.8352695     
   2212634218.6157117     
   2182262222.0961733     
   2195999482.4404659     
   2175959482.2993207     
   2168173454.7712517     
   2173145860.8978000     
   2191195524.6422958     
   2547772638.4968128     
   2387272985.9966102     
   2239755110.7715983     
   2105521075.9784124     
   1985537628.7574949     
   2350936322.1060748     
   2235978147.6082315     
   2130842780.7502770     
   2036088661.2888355     
   1952548457.2672668     
   2232212742.7570591     
   2157601851.1106887     
   2088723043.2157552     
   2025845474.6672258     
   1969287307.7194886     
   2182262222.0961733     
   2143108747.9982841     
   2105078129.5120177     
   2067680045.1116774     
   2030472018.7986634     
   2191195524.6422958     
   2181933154.9651017     
   2169521614.5886259     
   2152295355.2114005     
   2128861906.9481599     
   1985537628.7574949     
   1855335290.4841051     
   1725708697.2088897     
   1597065841.8452752     
   1470025376.2583697     
   1952548457.2672668     
   1842441474.4332461     
   1736762424.4619286     
   1636404804.2487659     
   1542467032.1186206     
   1969287307.7194886     
   1883660470.5628710     
   1806228564.4346569     
   1738030968.9938223     
   1680163406.9174442     
   2030472018.7986634     
   1970238697.1224666     
   1920999591.3971767     
   1883574791.1044257     
   1858714623.3193891     
   2128861906.9481599     
   2092102462.5400767     
   2068020155.5467203     
   2057095077.8748803     
   2059731559.0526545     
   1470025376.2583697     
   1359434814.9339886     
   1283795788.3086514     
   1251351452.2305272     
   1269380075.8239505     
   1542467032.1186206     
   1481554858.6351726     
   1453162779.8824849     
   1461309755.6470616     
   1509372233.7031975     
   1680163406.9174442     
   1653093502.8689427     
   1653330915.8753676     
   1683259730.4762194     
   1745501326.7838080     
   1858714623.3193891     
   1851130760.8732436     
   1865799314.7284632     
   1904937721.2434187     
   1971563628.2504601     
   2059731559.0526545     
   2060764353.7510099     
   2079959220.7327299     
   2119963809.4780400     
   2184568379.7219114     
   1269380075.8239505     
   1451329892.9994581     
   1718426216.4719188     
   2111462683.3164272     
   2662925185.4569807     
   1509372233.7031975     
   1616275171.3409932     
   1790341726.8879347     
   2066416351.5968065     
   2474717514.2199368     
   1745501326.7838080     
   1789190290.4619656     
   1884982092.6191983     
   2059810498.1229596     
   2338887342.7917318     
   1971563628.2504601     
   1968999581.7633445     
   2002908406.9462159     
   2091937526.8903744     
   2254697754.5302944     
   2184568379.7219114     
   2154964136.3255386     
   2144849831.2363703     
   2164685277.7586432     
   2225464837.9114861     
   5480431615.4586115     
   4342936705.4477539     
   3484931548.9917068     
   2917742678.7641969     
   2619733041.2994146     
   3668780717.0608501     
   3213631398.1117644     
   2904598625.3631768     
   2712571568.1114135     
   2596442398.7391715     
   3545546487.5611677     
   3405165220.8476639     
   3273980864.1007566     
   3150406700.9049845     
   3032915574.4162574     
   5063913693.1382799     
   4641071029.2471352     
   4284018796.5584116     
   3991799033.5886321     
   3764702275.0414038     
   7479765886.5165348     
   6527252773.7162886     
   5751734166.5912218     
   5151916223.4564085     
   4725629708.3798952     
   2619733041.2994146     
   2391297718.8689685     
   2266643304.6206255     
   2220279759.4613452     
   2221341471.3717384     
   2596442398.7391715     
   2532611775.8504186     
   2493374258.3648534     
   2468493556.3514404     
   2448635556.0407729     
   3032915574.4162574     
   2959538064.9571104     
   2890438429.7915635     
   2825750399.6029034     
   2765607211.2728395     
   3764702275.0414038     
   3573644563.2723322     
   3409153142.3270602     
   3271610593.1842580     
   3161773902.5350909     
   4725629708.3798952     
   4358765482.8908491     
   4056473384.6368313     
   3817980226.1963792     
   3642657609.2109585     
   2221341471.3717384     
   2194518402.5338888     
   2184386138.8976679     
   2186345996.5665655     
   2195999482.4404659     
   2448635556.0407729     
   2426500981.1914983     
   2409477375.0522418     
   2396631078.4167967     
   2387051916.6385489     
   2765607211.2728395     
   2714986222.8668165     
   2669484209.6786280     
   2629469775.4429097     
   2595312755.2548814     
   3161773902.5350909     
   3060098684.3078461     
   2970616074.8026738     
   2893699256.8942304     
   2829799739.6150808     
   3642657609.2109585     
   3473411674.0148993     
   3326958579.5274234     
   3203359095.4405026     
   3102755527.8311429     
   2195999482.4404659     
   2175959482.2993207     
   2168173454.7712517     
   2173145860.8978000     
   2191195524.6422958     
   2387051916.6385489     
   2363278483.3062053     
   2349064448.9590979     
   2345114952.1454043     
   2352044069.7623882     
   2595312755.2548814     
   2555835064.0735779     
   2525826278.7904825     
   2505920309.8191028     
   2496723304.0757489     
   2829799739.6150808     
   2763601134.6568470     
   2708712465.1278796     
   2665542808.8956208     
   2634515928.3208022     
   3102755527.8311429     
   2999538637.7990041     
   2910701119.8110609     
   2836419957.4963651     
   2776904082.8681445     
   2191195524.6422958     
   2181933154.9651017     
   2169521614.5886259     
   2152295355.2114005     
   2128861906.9481599     
   2352044069.7623882     
   2316531086.6177912     
   2284401475.6008229     
   2255480004.1125393     
   2229604250.4922104     
   2496723304.0757489     
   2441677354.7332716     
   2397407933.4302244     
   2364550594.3792992     
   2343672107.7035098     
   2634515928.3208022     
   2563884669.6551113     
   2512152936.7214065     
   2480131826.2043686     
   2468581809.9422193     
   2776904082.8681445     
   2690834198.9418631     
   2632675826.8246112     
   2602942929.2093296     
   2602175360.5156288     
   2128861906.9481599     
   2092102462.5400767     
   2068020155.5467203     
   2057095077.8748803     
   2059731559.0526545     
   2229604250.4922104     
   2202151737.1903696     
   2186902502.2077808     
   2184147679.4165096     
   2194136799.0994811     
   2343672107.7035098     
   2323074730.9443460     
   2314233329.5810061     
   2317312694.8340788     
   2332469611.7354946     
   2468581809.9422193     
   2452507114.4431620     
   2447846477.5662990     
   2454684538.5545936     
   2473126245.6442881     
   2602175360.5156288     
   2588467717.6025534     
   2585983535.0836682     
   2594759323.3685675     
   2614873778.6917763     
   2059731559.0526545     
   2060764353.7510099     
   2079959220.7327299     
   2119963809.4780400     
   2184568379.7219114     
   2194136799.0994811     
   2183109574.1437035     
   2186449478.3428602     
   2206146299.8108439     
   2245114557.9115286     
   2332469611.7354946     
   2310342648.9866199     
   2299518147.3190017     
   2301416170.0397501     
   2318127932.9770632     
   2473126245.6442881     
   2441684465.2629271     
   2418938793.6197701     
   2405841110.3297520     
   2403773801.2963123     
   2614873778.6917763     
   2576500166.1833858     
   2544503349.6654272     
   2519466049.0512052     
   2502203300.6451960     
   2184568379.7219114     
   2154964136.3255386     
   2144849831.2363703     
   2164685277.7586432     
   2225464837.9114861     
   2245114557.9115286     
   2180574265.0817823     
   2132311065.4900167     
   2109919181.4663899     
   2124244419.5631542     
   2318127932.9770632     
   2221966330.4914484     
   2138927906.8912487     
   2077300442.5366745     
   2047156305.2349737     
   2403773801.2963123     
   2279428618.5017362     
   2165340772.5396900     
   2068173252.7010469     
   1996589478.0974622     
   2502203300.6451960     
   2353165573.5715060     
   2212015469.5735321     
   2083662662.9692729     
   1974881168.8501632     
   7479765886.5165348     
   6527252773.7162886     
   5751734166.5912218     
   5151916223.4564085     
   4725629708.3798952     
   4961287850.3931894     
   4480550409.2477608     
   4095542250.0967264     
   3808704042.7263064     
   3621638519.4774609     
   2713383629.4283490     
   2652885683.8164210     
   2616914335.7168508     
   2606269899.7740889     
   2621082178.8559270     
   895849434.14512455     
   935391455.17865479     
   1173543344.9749939     
   1439938728.7638931     
   1666361211.5851901     
   2326333169.2800775     
   1299009830.6387279     
   450418802.04437637     
   219439916.50297323     
   710566325.00332594     
   4725629708.3798952     
   4358765482.8908491     
   4056473384.6368313     
   3817980226.1963792     
   3642657609.2109585     
   3621638519.4774609     
   3440621356.1868491     
   3296856919.4079938     
   3190064826.8411012     
   3119929774.2150869     
   2621082178.8559270     
   2615322383.7233186     
   2617884386.3663559     
   2628740213.1926494     
   2647844380.2429943     
   1666361211.5851901     
   1834820058.4044051     
   1981792850.9367290     
   2106861685.5754373     
   2209809272.7196975     
   710566325.00332594     
   1060734749.9526253     
   1357296292.7419226     
   1600250953.3712173     
   1789598731.8405132     
   3642657609.2109585     
   3473411674.0148993     
   3326958579.5274234     
   3203359095.4405026     
   3102755527.8311429     
   3119929774.2150869     
   3027008663.3142018     
   2950258882.4909697     
   2889724106.2800307     
   2845473087.4524088     
   2647844380.2429943     
   2627903724.3389654     
   2616998494.4645610     
   2615147209.9321957     
   2622372131.6158009     
   2209809272.7196975     
   2260613216.3903923     
   2313005825.6521096     
   2366990442.3595605     
   2422570430.0831351     
   1789598731.8405132     
   1910082850.8609445     
   2024581834.9112496     
   2133095683.9914329     
   2235624398.1014972     
   3102755527.8311429     
   2999538637.7990041     
   2910701119.8110609     
   2836419957.4963651     
   2776904082.8681445     
   2845473087.4524088     
   2789019153.9761405     
   2745216125.8224654     
   2714157129.6199970     
   2695939737.7820621     
   2622372131.6158009     
   2611251946.9458408     
   2610742307.6062760     
   2620868637.1355214     
   2641653983.5622621     
   2422570430.0831351     
   2455203201.1747904     
   2496267700.1149669     
   2545763410.8320651     
   2603689210.9153829     
   2235624398.1014972     
   2310665363.8004351     
   2392011772.9835534     
   2479663625.6508474     
   2573620921.8023200     
   2776904082.8681445     
   2690834198.9418631     
   2632675826.8246112     
   2602942929.2093296     
   2602175360.5156288     
   2695939737.7820621     
   2652367588.4734468     
   2628357629.1995158     
   2624048255.0356588     
   2639588540.4135208     
   2641653983.5622621     
   2634208833.4300914     
   2638010979.2888923     
   2653087163.9872069     
   2679468383.9263153     
   2603689210.9153829     
   2628677041.8510785     
   2656594830.6795187     
   2687446636.6765604     
   2721237270.7368903     
   2573620921.8023200     
   2629459233.6893024     
   2679863279.1233826     
   2724833058.1045475     
   2764368570.6328015     
   2602175360.5156288     
   2588467717.6025534     
   2585983535.0836682     
   2594759323.3685675     
   2614873778.6917763     
   2639588540.4135208     
   2626831755.1684928     
   2624668745.4189911     
   2633117900.8639598     
   2652221983.4700637     
   2679468383.9263153     
   2667614711.4345546     
   2665919330.1128640     
   2674389474.0580482     
   2693043355.2618165     
   2721237270.7368903     
   2710353387.0056338     
   2709374609.9490891     
   2718302508.0671911     
   2737141400.3797393     
   2764368570.6328015     
   2754619359.9399514     
   2754695956.3416691     
   2764598359.8379779     
   2784326570.4288659     
   2614873778.6917763     
   2576500166.1833858     
   2544503349.6654272     
   2519466049.0512052     
   2502203300.6451960     
   2652221983.4700637     
   2607667308.1340280     
   2568960317.9198670     
   2536430767.1221714     
   2510543536.3636670     
   2693043355.2618165     
   2644382350.6302509     
   2601189930.1944799     
   2563612186.2245731     
   2531856200.7110395     
   2737141400.3797393     
   2686492172.2397447     
   2641075809.3527393     
   2600928400.0108910     
   2566101249.0416880     
   2784326570.4288659     
   2733841563.6284361     
   2688490889.3427234     
   2648274547.5717053     
   2613192538.3153872     
   2502203300.6451960     
   2353165573.5715060     
   2212015469.5735321     
   2083662662.9692729     
   1974881168.8501632     
   2510543536.3636670     
   2344029359.1903834     
   2180913789.9583817     
   2024250101.6380589     
   1878527317.6337583     
   2531856200.7110395     
   2352900330.9147463     
   2173642729.6834641     
   1995531772.8055322     
   1820804264.5950370     
   2566101249.0416880     
   2379887569.8715119     
   2190664906.3968964     
   1998805370.1917658     
   1804901335.0936689     
   2613192538.3153872     
   2424967677.2337089     
   2232124941.1640701     
   2034664330.1064868     
   1832585844.0609279     
   2326333169.2800775     
   1299009830.6387279     
   450418802.04437637     
   219439916.50297323     
   710566325.00332594     
   895849435.86375213     
   935391456.75367379     
   1173543346.2375128     
   1439938729.8296695     
   1666361212.5463176     
   2713383631.2095680     
   2652885685.5213270     
   2616914337.4071188     
   2606269901.4921222     
   2621082180.6269617     
   4961287852.6112070     
   4480550411.5134630     
   4095542252.4636493     
   3808704045.2365470     
   3621638522.1618261     
   7479765889.5705214     
   6527252776.8851414     
   5751734169.9239388     
   5151916226.9961214     
   4725629712.1688004     
   710566325.00332594     
   1060734749.9526253     
   1357296292.7419226     
   1600250953.3712173     
   1789598731.8405132     
   1666361212.5463176     
   1834820059.1995256     
   1981792851.6110404     
   2106861686.1689506     
   2209809273.2688327     
   2621082180.6269617     
   2615322385.2383890     
   2617884387.6799617     
   2628740214.3605213     
   2647844381.3212943     
   3621638522.1618261     
   3440621358.4961200     
   3296856921.4125929     
   3190064828.6132298     
   3119929775.8286071     
   4725629712.1688004     
   4358765486.1445436     
   4056473387.4428473     
   3817980228.6437197     
   3642657611.3913269     
   1789598731.8405132     
   1910082850.8609445     
   2024581834.9112496     
   2133095683.9914329     
   2235624398.1014972     
   2209809273.2688327     
   2260613216.8649735     
   2313005826.0618243     
   2366990442.7139359     
   2422570430.3915086     
   2647844381.3212943     
   2627903725.2744560     
   2616998495.2764378     
   2615147210.6395879     
   2622372132.2376328     
   3119929775.8286071     
   3027008664.7208714     
   2950258883.7189064     
   2889724107.3576050     
   2845473088.4079933     
   3642657611.3913269     
   3473411675.9267664     
   3326958581.2067780     
   3203359096.9240475     
   3102755529.1560740     
   2235624398.1014972     
   2310665363.8004351     
   2392011772.9835534     
   2479663625.6508474     
   2573620921.8023200     
   2422570430.3915086     
   2455203201.4524622     
   2496267700.3609109     
   2545763411.0450234     
   2603689211.0939326     
   2622372132.2376328     
   2611251947.5102177     
   2610742308.1113234     
   2620868637.5789008     
   2641653983.9413366     
   2845473088.4079933     
   2789019154.8526769     
   2745216126.6171064     
   2714157130.3292365     
   2695939738.4019017     
   3102755529.1560740     
   2999538639.0301466     
   2910701120.9445605     
   2836419958.5273480     
   2776904083.7909822     
   2573620921.8023200     
   2629459233.6893024     
   2679863279.1233826     
   2724833058.1045475     
   2764368570.6328015     
   2603689211.0939326     
   2628677041.9901652     
   2656594830.7900820     
   2687446636.7693934     
   2721237270.8226418     
   2641653983.9413366     
   2634208833.7227941     
   2638010979.5159163     
   2653087164.1689882     
   2679468384.0830750     
   2695939738.4019017     
   2652367588.9480968     
   2628357629.5587397     
   2624048255.3088541     
   2639588540.6299601     
   2776904083.7909822     
   2690834199.6439281     
   2632675827.3439989     
   2602942929.5840344     
   2602175360.7842383     
   2764368570.6328015     
   2754619359.9399514     
   2754695956.3416691     
   2764598359.8379779     
   2784326570.4288659     
   2721237270.8226418     
   2710353387.0638251     
   2709374609.9827619     
   2718302508.0795336     
   2737141400.3740473     
   2679468384.0830750     
   2667614711.5392208     
   2665919330.1717939     
   2674389474.0778589     
   2693043355.2493443     
   2639588540.6299601     
   2626831755.3103738     
   2624668745.4963717     
   2633117900.8872790     
   2652221983.4500694     
   2602175360.7842383     
   2588467717.7751265     
   2585983535.1745081     
   2594759323.3924236     
   2614873778.6638646     
   2784326570.4288659     
   2733841563.6284361     
   2688490889.3427234     
   2648274547.5717053     
   2613192538.3153872     
   2737141400.3740473     
   2686492172.2314653     
   2641075809.3427124     
   2600928400.0000677     
   2566101249.0311594     
   2693043355.2493443     
   2644382350.6123629     
   2601189930.1728683     
   2563612186.2011509     
   2531856200.6879239     
   2652221983.4500694     
   2607667308.1054468     
   2568960317.8852606     
   2536430767.0844116     
   2510543536.3259029     
   2614873778.6638646     
   2576500166.1432815     
   2544503349.6165953     
   2519466048.9974904     
   2502203300.5907478     
   2613192538.3153872     
   2424967677.2337089     
   2232124941.1640701     
   2034664330.1064868     
   1832585844.0609279     
   2566101249.0311594     
   2379887569.8663678     
   2190664906.3992853     
   1998805370.2048402     
   1804901335.1220906     
   2531856200.6879239     
   2352900330.9027004     
   2173642729.6866803     
   1995531772.8300462     
   1820804264.6494803     
   2510543536.3259029     
   2344029359.1695905     
   2180913789.9605198     
   2024250101.6714802     
   1878527317.7099414     
   2502203300.5907478     
   2353165573.5400639     
   2212015469.5725064     
   2083662663.0086629     
   1974881168.9428451     
   7479765889.5705214     
   6527252776.8851414     
   5751734169.9239388     
   5151916226.9961214     
   4725629712.1688004     
   5063913693.8585281     
   4641071030.4145136     
   4284018798.1530828     
   3991799035.6016083     
   3764702277.4819732     
   3545546489.5724492     
   3405165222.7203360     
   3273980865.9155498     
   3150406702.7270808     
   3032915576.2996364     
   3668780721.8164840     
   3213631402.2156596     
   2904598628.8616085     
   2712571571.0282121     
   2596442401.0900092     
   5480431619.4359665     
   4342936709.5542145     
   3484931553.2673702     
   2917742682.9931502     
   2619733045.0352607     
   4725629712.1688004     
   4358765486.1445436     
   4056473387.4428473     
   3817980228.6437197     
   3642657611.3913269     
   3764702277.4819732     
   3573644565.3312364     
   3409153144.0521827     
   3271610594.6269746     
   3161773903.7521944     
   3032915576.2996364     
   2959538066.4588614     
   2890438430.9407940     
   2825750400.4346657     
   2765607211.8282657     
   2596442401.0900092     
   2532611777.5913196     
   2493374259.5497127     
   2468493557.0467439     
   2448635556.3153510     
   2619733045.0352607     
   2391297721.7165294     
   2266643306.5813794     
   2220279760.6189299     
   2221341471.8579073     
   3642657611.3913269     
   3473411675.9267664     
   3326958581.2067780     
   3203359096.9240475     
   3102755529.1560740     
   3161773903.7521944     
   3060098685.3697290     
   2970616075.7331705     
   2893699257.7182093     
   2829799740.3584046     
   2765607211.8282657     
   2714986223.3239040     
   2669484210.0570459     
   2629469775.7632122     
   2595312755.5383744     
   2448635556.3153510     
   2426500981.3326249     
   2409477375.0962682     
   2396631078.3975382     
   2387051916.5869222     
   2221341471.8579073     
   2194518402.7190261     
   2184386138.8656793     
   2186345996.3928809     
   2195999482.1889915     
   3102755529.1560740     
   2999538639.0301466     
   2910701120.9445605     
   2836419958.5273480     
   2776904083.7909822     
   2829799740.3584046     
   2763601135.4108357     
   2708712465.8913250     
   2665542809.6661992     
   2634515929.0950623     
   2595312755.5383744     
   2555835064.4368606     
   2525826279.2365441     
   2505920310.3501782     
   2496723304.6931424     
   2387051916.5869222     
   2363278483.3558497     
   2349064449.1218185     
   2345114952.4328942     
   2352044070.1857662     
   2195999482.1889915     
   2175959482.1116595     
   2168173454.6752129     
   2173145860.9220052     
   2191195524.8152819     
   2776904083.7909822     
   2690834199.6439281     
   2632675827.3439989     
   2602942929.5840344     
   2602175360.7842383     
   2634515929.0950623     
   2563884670.2474108     
   2512152937.1544256     
   2480131826.5022950     
   2468581810.1312108     
   2496723304.6931424     
   2441677355.2044897     
   2397407933.7661233     
   2364550594.5929394     
   2343672107.8102336     
   2352044070.1857662     
   2316531086.9340000     
   2284401475.8129587     
   2255480004.2247849     
   2229604250.5098329     
   2191195524.8152819     
   2181933155.0758691     
   2169521614.6374846     
   2152295355.1962895     
   2128861906.8650534     
   2602175360.7842383     
   2588467717.7751265     
   2585983535.1745081     
   2594759323.3924236     
   2614873778.6638646     
   2468581810.1312108     
   2452507114.5543518     
   2447846477.6097083     
   2454684538.5408225     
   2473126245.5844426     
   2343672107.8102336     
   2323074730.9909687     
   2314233329.5735617     
   2317312694.7791758     
   2332469611.6402545     
   2229604250.5098329     
   2202151737.1661911     
   2186902502.1440768     
   2184147679.3159251     
   2194136798.9650836     
   2128861906.8650534     
   2092102462.4352779     
   2068020155.4188819     
   2057095077.7226856     
   2059731558.8749218     
   2614873778.6638646     
   2576500166.1432815     
   2544503349.6165953     
   2519466048.9974904     
   2502203300.5907478     
   2473126245.5844426     
   2441684465.1950212     
   2418938793.5467644     
   2405841110.2550550     
   2403773801.2237678     
   2332469611.6402545     
   2310342648.8875732     
   2299518147.2187376     
   2301416169.9413114     
   2318127932.8839626     
   2194136798.9650836     
   2183109574.0098481     
   2186449478.2119265     
   2206146299.6856279     
   2245114557.7952724     
   2059731558.8749218     
   2060764353.5782199     
   2079959220.5673683     
   2119963809.3228133     
   2184568379.5798254     
   2502203300.5907478     
   2353165573.5400639     
   2212015469.5725064     
   2083662663.0086629     
   1974881168.9428451     
   2403773801.2237678     
   2279428618.4602814     
   2165340772.5363374     
   2068173252.7449977     
   1996589478.1998816     
   2318127932.8839626     
   2221966330.4367719     
   2138927906.8811989     
   2077300442.5789616     
   2047156305.3381817     
   2245114557.7952724     
   2180574265.0105639     
   2132311065.4688051     
   2109919181.5009325     
   2124244419.6589153     
   2184568379.5798254     
   2154964136.2343612     
   2144849831.1995578     
   2164685277.7795849     
   2225464837.9925222     
   5480431619.4359665     
   4342936709.5542145     
   3484931553.2673702     
   2917742682.9931502     
   2619733045.0352607     
   2479350932.4829884     
   2002494581.3866477     
   1791187837.2437637     
   1841370954.8258216     
   2065875417.1954098     
   1788365387.8214662     
   1735902473.3046844     
   1850382920.3069942     
   2090520012.9560592     
   2410218949.2694454     
   4244878602.6750135     
   3750543811.5341978     
   3458693957.9463434     
   3357285287.2256012     
   3418774424.8740859     
   7315422658.1242380     
   6297035254.3443727     
   5550489189.2978516     
   5055998435.1824665     
   4785963066.6718502     
   2619733045.0352607     
   2391297721.7165294     
   2266643306.5813794     
   2220279760.6189299     
   2221341471.8579073     
   2065875417.1954098     
   2110281099.0542688     
   2185696597.0655270     
   2277305469.4010015     
   2373574878.5996647     
   2410218949.2694454     
   2484589367.8327651     
   2561915205.1386876     
   2641973392.9666486     
   2724559771.7340393     
   3418774424.8740859     
   3328724370.2039623     
   3269736174.9585123     
   3238653234.4777746     
   3232740255.0751967     
   4785963066.6718502     
   4467555878.2313242     
   4213526275.3023043     
   4017400767.3224158     
   3872895689.5105920     
   2221341471.8579073     
   2194518402.7190261     
   2184386138.8656793     
   2186345996.3928809     
   2195999482.1889915     
   2373574878.5996647     
   2363148732.6409669     
   2357129100.3270702     
   2354407398.4774466     
   2353932515.1572642     
   2724559771.7340393     
   2684748384.9815836     
   2648162821.1983047     
   2614893350.0483122     
   2585044096.7298579     
   3232740255.0751967     
   3134124100.3309779     
   3043955356.6819334     
   2962059578.4480324     
   2888370420.3921738     
   3872895689.5105920     
   3697937718.5903482     
   3539001221.9556694     
   3395188364.0565906     
   3265761197.3036509     
   2195999482.1889915     
   2175959482.1116595     
   2168173454.6752129     
   2173145860.9220052     
   2191195524.8152819     
   2353932515.1572642     
   2299497413.6548648     
   2252063654.4901409     
   2212634218.4219689     
   2182262222.0774217     
   2585044096.7298579     
   2489485056.3517113     
   2398264428.0138788     
   2312178287.6027999     
   2232212742.5456657     
   2888370420.3921738     
   2747962286.7261539     
   2611378173.5535908     
   2478883665.5601687     
   2350936321.6889210     
   3265761197.3036509     
   3078873829.8838358     
   2897066770.5102105     
   2720081878.8623543     
   2547772637.8488703     
   2191195524.8152819     
   2181933155.0758691     
   2169521614.6374846     
   2152295355.1962895     
   2128861906.8650534     
   2182262222.0774217     
   2143108747.9656525     
   2105078129.4560378     
   2067680045.0215995     
   2030472018.6625841     
   2232212742.5456657     
   2157601850.9316792     
   2088723043.0515044     
   2025845474.4997211     
   1969287307.5300627     
   2350936321.6889210     
   2235978147.2682934     
   2130842780.4645584     
   2036088661.0343773     
   1952548457.0203516     
   2547772637.8488703     
   2387272985.4707127     
   2239755110.3425193     
   2105521075.6210523     
   1985537628.4453251     
   2128861906.8650534     
   2092102462.4352779     
   2068020155.4188819     
   2057095077.7226856     
   2059731558.8749218     
   2030472018.6625841     
   1970238696.9755902     
   1920999591.2370441     
   1883574790.9286871     
   1858714623.1257660     
   1969287307.5300627     
   1883660470.3738003     
   1806228564.2422490     
   1738030968.7943425     
   1680163406.7071574     
   1952548457.0203516     
   1842441474.1985009     
   1736762424.2345195     
   1636404804.0235555     
   1542467031.8902190     
   1985537628.4453251     
   1855335290.1968346     
   1725708696.9409289     
   1597065841.5905514     
   1470025376.0103688     
   2059731558.8749218     
   2060764353.5782199     
   2079959220.5673683     
   2119963809.3228133     
   2184568379.5798254     
   1858714623.1257660     
   1851130760.6891153     
   1865799314.5552614     
   1904937721.0827000     
   1971563628.1039827     
   1680163406.7071574     
   1653093502.6727815     
   1653330915.6939456     
   1683259730.3102093     
   1745501326.6338449     
   1542467031.8902190     
   1481554858.4254754     
   1453162779.6917164     
   1461309755.4753699     
   1509372233.5503075     
   1470025376.0103688     
   1359434814.7092767     
   1283795788.1070991     
   1251351452.0522182     
   1269380075.6682560     
   2184568379.5798254     
   2154964136.2343612     
   2144849831.1995578     
   2164685277.7795849     
   2225464837.9925222     
   1971563628.1039827     
   1968999581.6691899     
   2002908406.9080226     
   2091937526.9099929     
   2254697754.6062875     
   1745501326.6338449     
   1789190290.3636625     
   1884982092.5758622     
   2059810498.1343417     
   2338887342.8523846     
   1509372233.5503075     
   1616275171.2371304     
   1790341726.8358822     
   2066416351.5939984     
   2474717514.2574978     
   1269380075.6682560     
   1451329892.8883753     
   1718426216.4078748     
   2111462683.2946379     
   2662925185.4658489     
   7315422658.1242380     
   6297035254.3443727     
   5550489189.2978516     
   5055998435.1824665     
   4785963066.6718502     
   5963025128.3525600     
   5605914386.0225496     
   5306755237.5311737     
   5053944741.2618341     
   4839149648.7114630     
   5639999217.4185190     
   5442447977.0705662     
   5323470492.8613768     
   5201050852.3461456     
   5026141706.2275381     
   5497278886.0417738     
   5150822464.3272829     
   5170010064.7340984     
   5262313251.7771587     
   5268850019.8257942     
   5153297451.9797506     
   4398003566.4365578     
   4623216684.3139820     
   5117690123.2531672     
   5524713270.3935232     
   4785963066.6718502     
   4467555878.2313242     
   4213526275.3023043     
   4017400767.3224158     
   3872895689.5105920     
   4839149648.7114630     
   4589618375.6668873     
   4370091250.6598091     
   4177250995.9186630     
   4008304874.6073756     
   5026141706.2275381     
   4812174613.7902718     
   4608393892.0809164     
   4413991055.2989225     
   4228411155.3751607     
   5268850019.8257942     
   5069689945.8200941     
   4875761840.8693562     
   4686567610.3711042     
   4501875356.4656315     
   5524713270.3935232     
   5325307840.8248844     
   5140541107.9265308     
   4967590915.6843023     
   4804372256.4890127     
   3872895689.5105920     
   3697937718.5903482     
   3539001221.9556694     
   3395188364.0565906     
   3265761197.3036509     
   4008304874.6073756     
   3842698597.9609995     
   3686556242.0289631     
   3539285394.1904259     
   3400492423.4659200     
   4228411155.3751607     
   4060701994.8516841     
   3897256503.3153639     
   3737764040.4858451     
   3582103078.2278275     
   4501875356.4656315     
   4324653549.7159119     
   4147862071.2519798     
   3971363304.2808766     
   3795181581.9573770     
   4804372256.4890127     
   4613717322.8300400     
   4420818530.9302454     
   4225600343.1770453     
   4028125865.0724926     
   3265761197.3036509     
   3078873829.8838358     
   2897066770.5102105     
   2720081878.8623543     
   2547772637.8488703     
   3400492423.4659200     
   3216010520.3335862     
   3035177493.9018168     
   2857772869.1223207     
   2683659056.5162439     
   3582103078.2278275     
   3394911348.7169719     
   3210174337.2610450     
   3027734441.9999027     
   2847509438.6348858     
   3795181581.9573770     
   3599967408.0762987     
   3406315013.1948075     
   3214144814.9652629     
   3023464216.7865829     
   4028125865.0724926     
   3819727358.2841296     
   3612318375.9766150     
   3405905860.3618159     
   3200613233.3857722     
   2547772637.8488703     
   2387272985.4707127     
   2239755110.3425193     
   2105521075.6210523     
   1985537628.4453251     
   2683659056.5162439     
   2511580847.6263041     
   2345917258.2143364     
   2187039056.6124935     
   2035739584.7139330     
   2847509438.6348858     
   2666302340.9546056     
   2487080432.0122337     
   2310044157.6864977     
   2135551812.9555128     
   3023464216.7865829     
   2838607227.3829865     
   2653224703.2169843     
   2467341656.1975293     
   2281004677.7090988     
   3200613233.3857722     
   3019167104.1996326     
   2836340252.8422823     
   2652089378.5282183     
   2466447484.9082060     
   1985537628.4453251     
   1855335290.1968346     
   1725708696.9409289     
   1597065841.5905514     
   1470025376.0103688     
   2035739584.7139330     
   1896030235.3035245     
   1757532455.2952366     
   1620442801.6380913     
   1485038994.1361456     
   2135551812.9555128     
   1988431559.3728831     
   1843397122.4843607     
   1700488514.2840521     
   1559822353.8089800     
   2281004677.7090988     
   2126470313.8645360     
   1974829445.6988909     
   1825998248.8011067     
   1680073499.0538704     
   2466447484.9082060     
   2302598575.1268950     
   2142185329.6772463     
   1985029238.1337609     
   1831320590.7901103     
   1470025376.0103688     
   1359434814.7092767     
   1283795788.1070991     
   1251351452.0522182     
   1269380075.6682560     
   1485038994.1361456     
   1339167373.7216074     
   1207580302.9454956     
   1094914570.2144535     
   1007284942.1069089     
   1559822353.8089800     
   1408062836.3413734     
   1252425250.7065532     
   1090752016.3776977     
   921105060.69764268     
   1680073499.0538704     
   1562707824.5725086     
   1435796311.2646577     
   1299807890.5712173     
   1161047665.8062029     
   1831320590.7901103     
   1788958276.8059194     
   1742641962.5855880     
   1701243906.0834262     
   1683731662.7533133     
   1269380075.6682560     
   1451329892.8883753     
   1718426216.4078748     
   2111462683.2946379     
   2662925185.4658489     
   1007284942.1069089     
   1168483756.8337433     
   1427472894.1912971     
   1809274981.0149612     
   2334205530.8233776     
   921105060.69764268     
   965708281.77456748     
   1146256395.7171404     
   1476729941.4936917     
   1957270738.8310709     
   1161047665.8062029     
   1009943148.2753959     
   985925904.31163228     
   1161644874.1674182     
   1544642378.9940078     
   1683731662.7533133     
   1385098765.8940816     
   1129900216.0397809     
   1010213975.9980259     
   1154343594.9248738     
 </DataArray>
 <DataArray  type="Float64" Name="strain" NumberOfComponents="3" format="ascii">
   6.5901395027878173E-002   4.7819351832814716E-002  -3.7782998510455412E-002
   7.2143906366622046E-002   1.1521287635579025E-002  -1.9605264400644695E-002
   7.8386417705365807E-002  -1.3626083386277743E-002  -9.5270033691519096E-003
   8.4628929044109680E-002  -2.7622761232755325E-002  -7.5482154159758896E-003
   9.0871440382853441E-002  -3.0468745903853733E-002  -1.3668900541117912E-002
   8.7823940746279194E-002   2.7057364748366730E-002  -7.0759665439739106E-003
   8.7679886222783554E-002   1.8703307158924320E-003   4.8727332272327506E-003
   8.7535831699287747E-002  -1.5516193856709382E-002   1.2147774352277318E-002
   8.7391777175791968E-002  -2.5102208969438364E-002   1.4749156831160265E-002
   8.7247722652296189E-002  -2.6887714622294889E-002   1.2676880663881063E-002
   9.2328943592372870E-002   6.2953776639188552E-003   3.6417187445022370E-002
   8.9224137638793000E-002  -7.7806262037942719E-003   3.8786669162118370E-002
   8.6119331685213213E-002  -1.7406304327140937E-002   3.9908306665208310E-002
   8.3014525731633398E-002  -2.2581656706121452E-002   3.9782099954291814E-002
   7.9909719778053612E-002  -2.3306683340735823E-002   3.8408049029369118E-002
   7.9416403566158700E-002  -1.4466609420529131E-002   9.2696463456533137E-002
   7.6776660614650410E-002  -1.7431583123480643E-002   8.2136543404012427E-002
   7.4136917663142135E-002  -1.9296414797572534E-002   7.3754593569640731E-002
   7.1497174711633804E-002  -2.0061104442804515E-002   6.7550613953418853E-002
   6.8857431760125584E-002  -1.9725652059176868E-002   6.3524604555345726E-002
   4.9086320667636907E-002  -3.5228596504977061E-002  0.16176186149055871     
   5.0337455150355703E-002  -2.7082540043167291E-002  0.13492235595291457     
   5.1588589633074527E-002  -2.1186525268004019E-002  0.11368663506557525     
   5.2839724115793338E-002  -1.7540552179487606E-002   9.8054698828540787E-002
   5.4090858598512093E-002  -1.6144620777617913E-002   8.8026547241811304E-002
   9.0871440382853441E-002  -3.0468745903853733E-002  -1.3668900541117912E-002
   8.8170919908062362E-002  -2.8017424562177817E-002  -9.5322044448439280E-003
   8.5470399433271338E-002  -2.6122184370331869E-002  -6.1599997363354086E-003
   8.2769878958480314E-002  -2.4783025328316555E-002  -3.5522864155920486E-003
   8.0069358483689235E-002  -2.3999947436130764E-002  -1.7090644826140977E-003
   8.7247722652296189E-002  -2.6887714622294889E-002   1.2676880663881063E-002
   8.4110678417532642E-002  -2.4969447183768811E-002   1.2952737030793249E-002
   8.0973634182769039E-002  -2.3444143022350539E-002   1.3120037265525714E-002
   7.7836589948005463E-002  -2.2311802138039960E-002   1.3178781368078069E-002
   7.4699545713241888E-002  -2.1572424530837631E-002   1.3128969338450980E-002
   7.9909719778053612E-002  -2.3306683340735823E-002   3.8408049029369118E-002
   7.6992087038902951E-002  -2.1921469805359695E-002   3.4986183539642113E-002
   7.4074454299752346E-002  -2.0766101674369208E-002   3.2111697173320353E-002
   7.1156821560601713E-002  -1.9840578947764032E-002   2.9784589930404656E-002
   6.8239188821451108E-002  -1.9144901625544386E-002   2.8004861810894788E-002
   6.8857431760125584E-002  -1.9725652059176868E-002   6.3524604555345726E-002
   6.6815145772173345E-002  -1.8873492426950800E-002   5.6568135081701665E-002
   6.4772859784221176E-002  -1.8088060326387934E-002   5.0814979987048786E-002
   6.2730573796268979E-002  -1.7369355757487881E-002   4.6265139271386986E-002
   6.0688287808316768E-002  -1.6717378720251197E-002   4.2918612934716521E-002
   5.4090858598512093E-002  -1.6144620777617913E-002   8.8026547241811304E-002
   5.3579854617343825E-002  -1.5825515048541849E-002   7.7698591656972571E-002
   5.3068850636175585E-002  -1.5410018978406548E-002   6.9229885706710681E-002
   5.2557846655007331E-002  -1.4898132567211897E-002   6.2620429391025467E-002
   5.2046842673839078E-002  -1.4289855814958008E-002   5.7870222709916708E-002
   8.0069358483689235E-002  -2.3999947436130764E-002  -1.7090644826140977E-003
   7.6801868505029791E-002  -2.3414838743163302E-002  -1.8925320747675833E-003
   7.3534378526370459E-002  -2.2669587298801530E-002  -1.7985266809915079E-003
   7.0266888547711015E-002  -2.1764193103045587E-002  -1.4270483012855939E-003
   6.6999398569051682E-002  -2.0698656155895501E-002  -7.7809693565067395E-004
   7.4699545713241888E-002  -2.1572424530837631E-002   1.3128969338450980E-002
   7.1749001533739087E-002  -2.0979471243497583E-002   1.2024559132569779E-002
   6.8798457354236286E-002  -2.0286403318775265E-002   1.1276567539071913E-002
   6.5847913174733486E-002  -1.9493220756669587E-002   1.0884994557958147E-002
   6.2897368995230685E-002  -1.8599923557181874E-002   1.0849840189227966E-002
   6.8239188821451108E-002  -1.9144901625544386E-002   2.8004861810894788E-002
   6.5684536067559030E-002  -1.8544103743831919E-002   2.5919480877273832E-002
   6.3129883313666951E-002  -1.7903219338748333E-002   2.4269464182490680E-002
   6.0575230559774873E-002  -1.7222248410293697E-002   2.3054811726545554E-002
   5.8020577805882795E-002  -1.6501190958468137E-002   2.2275523509438178E-002
   6.0688287808316768E-002  -1.6717378720251197E-002   4.2918612934716521E-002
   5.8608472106489590E-002  -1.6108736244166116E-002   3.9792233159344471E-002
   5.6528656404662390E-002  -1.5520035358721734E-002   3.7180163249264403E-002
   5.4448840702835177E-002  -1.4951276063917641E-002   3.5082403204476649E-002
   5.2369025001008047E-002  -1.4402458359754344E-002   3.3498953024980252E-002
   5.2046842673839078E-002  -1.4289855814958008E-002   5.7870222709916708E-002
   5.0520809650530907E-002  -1.3673368744500536E-002   5.3642815978782066E-002
   4.8994776627222680E-002  -1.3136851378695136E-002   5.0008664739393527E-002
   4.7468743603914454E-002  -1.2680303717541697E-002   4.6967768991750841E-002
   4.5942710580606283E-002  -1.2303725761040551E-002   4.4520128735854758E-002
   6.6999398569051682E-002  -2.0698656155895501E-002  -7.7809693565067395E-004
   6.3540092792123914E-002  -1.9592592930674502E-002  -9.9049376715198978E-004
   6.0080787015196147E-002  -1.8565619900706321E-002  -9.5038765284249926E-004
   5.6621481238268351E-002  -1.7617737065990194E-002  -6.5777859272383998E-004
   5.3162175461340611E-002  -1.6748944426526746E-002  -1.1266658679409680E-004
   6.2897368995230685E-002  -1.8599923557181874E-002   1.0849840189227966E-002
   5.9694098085318725E-002  -1.7670570824027565E-002   9.8126667807541534E-003
   5.6490827175406821E-002  -1.6769221660923095E-002   9.0350601605015401E-003
   5.3287556265494890E-002  -1.5895876067868381E-002   8.5170203284714030E-003
   5.0084285355583069E-002  -1.5050534044862784E-002   8.2585472846621322E-003
   5.8020577805882795E-002  -1.6501190958468137E-002   2.2275523509438178E-002
   5.5080405605398064E-002  -1.5748548717380240E-002   2.0464660149194847E-002
   5.2140233404913236E-002  -1.4972823421139619E-002   1.8920427419584024E-002
   4.9200061204428401E-002  -1.4174015069745895E-002   1.7642825320606487E-002
   4.6259889003943649E-002  -1.3352123663199378E-002   1.6631853852261291E-002
   5.2369025001008047E-002  -1.4402458359754344E-002   3.3498953024980252E-002
   4.9699015352361653E-002  -1.3826526610733220E-002   3.0965486338170034E-002
   4.7029005703715293E-002  -1.3176425181356491E-002   2.8705714124403800E-002
   4.4358996055068961E-002  -1.2452154071623856E-002   2.6719636383681803E-002
   4.1688986406422643E-002  -1.1653713281535583E-002   2.5007253116003880E-002
   4.5942710580606283E-002  -1.2303725761040551E-002   4.4520128735854758E-002
   4.3549927326209686E-002  -1.1904504504085978E-002   4.1315145347680271E-002
   4.1157144071813090E-002  -1.1380026941573168E-002   3.8390920274961104E-002
   3.8764360817416466E-002  -1.0730293073501547E-002   3.5747453517697397E-002
   3.6371577563019841E-002  -9.9553028998718984E-003   3.3384745075889177E-002
   5.3162175461340611E-002  -1.6748944426526746E-002  -1.1266658679409680E-004
   5.0130460109697683E-002  -1.5869616224447602E-002   2.4362250279874598E-004
   4.7098744758054589E-002  -1.4890126701884832E-002   4.3990446289576823E-004
   4.4067029406411606E-002  -1.3810475858837323E-002   4.7617929349608179E-004
   4.1035314054768568E-002  -1.2630663695306188E-002   3.5244699460057483E-004
   5.0084285355583069E-002  -1.5050534044862784E-002   8.2585472846621322E-003
   4.6984689362063514E-002  -1.4192857411286619E-002   8.0368736718319234E-003
   4.3885093368544015E-002  -1.3282507986517977E-002   7.8394459047448906E-003
   4.0785497375024515E-002  -1.2319485770556471E-002   7.6662639834013668E-003
   3.7685901381505127E-002  -1.1303790763402377E-002   7.5173279078014632E-003
   4.6259889003943649E-002  -1.3352123663199378E-002   1.6631853852261291E-002
   4.3276665343787490E-002  -1.2516098598125525E-002   1.5784729007716380E-002
   4.0293441683631276E-002  -1.1674889271150901E-002   1.5146102984154114E-002
   3.7310218023475061E-002  -1.0828495682275174E-002   1.4715975781575269E-002
   3.4326994363318902E-002  -9.9769178314984552E-003   1.4494347399979568E-002
   4.1688986406422643E-002  -1.1653713281535583E-002   2.5007253116003880E-002
   3.9006388054869529E-002  -1.0839339784964486E-002   2.3487188510451923E-002
   3.6323789703316352E-002  -1.0067270555784269E-002   2.2359875701123147E-002
   3.3641191351763175E-002  -9.3375055939943219E-003   2.1625314688017164E-002
   3.0958593000210012E-002  -8.6500448995949220E-003   2.1283505471134487E-002
   3.6371577563019841E-002  -9.9553028998718984E-003   3.3384745075889177E-002
   3.4173857495309545E-002  -9.1625809718036688E-003   3.1144252180039578E-002
   3.1976137427599194E-002  -8.4596518404174981E-003   2.9480764055652253E-002
   2.9778417359888856E-002  -7.8465155057135458E-003   2.8394280702727898E-002
   2.7580697292178546E-002  -7.3231719676910556E-003   2.7884802121266095E-002
   4.1035314054768568E-002  -1.2630663695306188E-002   3.5244699460057483E-004
   3.8373780816840508E-002  -1.1524545967083744E-002  -1.5134708575414990E-004
   3.5712247578912504E-002  -1.0665978429962697E-002  -4.5647005090265758E-004
   3.3050714340984472E-002  -1.0054961083944866E-002  -5.6292190084500371E-004
   3.0389181103056440E-002  -9.6914939290271285E-003  -4.7070263558124381E-004
   3.7685901381505127E-002  -1.1303790763402377E-002   7.5173279078014632E-003
   3.5199728587330392E-002  -1.0342198240116618E-002   6.7765148360556804E-003
   3.2713555793155630E-002  -9.5414834757616140E-003   6.1877515366111080E-003
   3.0227382998980853E-002  -8.9016464703360193E-003   5.7510380094664970E-003
   2.7741210204806133E-002  -8.4226872238408745E-003   5.4663742546234850E-003
   3.4326994363318902E-002  -9.9769178314984552E-003   1.4494347399979568E-002
   3.1969560669992292E-002  -9.1598505131503249E-003   1.3603187769014424E-002
   2.9612126976665668E-002  -8.4169885215605589E-003   1.2817456567444901E-002
   2.7254693283339008E-002  -7.7483318567289558E-003   1.2137153795270528E-002
   2.4897259590012349E-002  -7.1538805186552867E-003   1.1562279452492163E-002
   3.0958593000210012E-002  -8.6500448995949220E-003   2.1283505471134487E-002
   2.8683277064826318E-002  -7.9775027861838377E-003   2.0328671713121527E-002
   2.6407961129442593E-002  -7.2924935673590457E-003   1.9432645041599340E-002
   2.4132645194058826E-002  -6.5950172431211117E-003   1.8595425456567196E-002
   2.1857329258675166E-002  -5.8850738134695879E-003   1.7817012958025374E-002
   2.7580697292178546E-002  -7.3231719676910556E-003   2.7884802121266095E-002
   2.5340877771832526E-002  -6.7951550592169618E-003   2.6952966668377876E-002
   2.3101058251486478E-002  -6.1679986131579767E-003   2.6033316959074404E-002
   2.0861238731140458E-002  -5.4417026295131010E-003   2.5125852993355569E-002
   1.8621419210794410E-002  -4.6162671082833340E-003   2.4230574771222702E-002
   3.0389181103056440E-002  -9.6914939290271285E-003  -4.7070263558124381E-004
   2.9744574410187519E-002  -9.2390896190100991E-003  -2.5776956372247639E-004
   2.9099967717318764E-002  -8.3612608076903960E-003  -1.7340914304608823E-003
   2.8455361024449982E-002  -7.0580074950680194E-003  -4.8996682357957955E-003
   2.7810754331581089E-002  -5.3293296811429691E-003  -9.7544999797274379E-003
   2.7741210204806133E-002  -8.4226872238408745E-003   5.4663742546234850E-003
   2.5681729025131717E-002  -7.9112338131894777E-003   6.0833533560025188E-003
   2.3622247845457189E-002  -7.1739143152947937E-003   5.5598384223675690E-003
   2.1562766665782690E-002  -6.2107287301564618E-003   3.8958294537178861E-003
   1.9503285486108135E-002  -5.0216770577751202E-003   1.0913264500538311E-003
   2.4897259590012349E-002  -7.1538805186552867E-003   1.1562279452492163E-002
   2.1971664827114629E-002  -6.5833780073692449E-003   1.2383746169333298E-002
   1.9046070064216922E-002  -5.9865678228991914E-003   1.2613479754741252E-002
   1.6120475301319152E-002  -5.3634499652457923E-003   1.2251480208717858E-002
   1.3194880538421383E-002  -4.7140244344079374E-003   1.1297747531262337E-002
   2.1857329258675166E-002  -5.8850738134695879E-003   1.7817012958025374E-002
   1.8614381816136540E-002  -5.2555222015488179E-003   1.8643408876267753E-002
   1.5371434373597812E-002  -4.7992213305035891E-003   1.9426832566660501E-002
   1.2128486931059166E-002  -4.5161712003346788E-003   2.0167284029203578E-002
   8.8855394885204581E-003  -4.4063718110404215E-003   2.0864763263897107E-002
   1.8621419210794410E-002  -4.6162671082833340E-003   2.4230574771222702E-002
   1.5609879992197262E-002  -3.9276663957282798E-003   2.4862341476807548E-002
   1.2598340773600031E-002  -3.6118748381077925E-003   2.5999896858124816E-002
   9.5868015550028413E-003  -3.6688924354231836E-003   2.7643240915175255E-002
   6.5752623364056517E-003  -4.0987191876731277E-003   2.9792373647958170E-002
   2.7810754331581089E-002  -5.3293296811429691E-003  -9.7544999797274379E-003
   2.3373659883711762E-002  -4.2128294162604440E-003  -4.2119418460015989E-003
   1.8936565435842323E-002  -4.7461087507673083E-003   2.5939706216480118E-003
   1.4499470987973107E-002  -6.9291676846627570E-003   1.0663237423220617E-002
   1.0062376540103557E-002  -1.0762006217946762E-002   1.9995858558717217E-002
   1.9503285486108135E-002  -5.0216770577751202E-003   1.0913264500538311E-003
   1.6257999194277006E-002  -4.6837431442172672E-003   6.7724617015413324E-003
   1.3012712902445767E-002  -6.2739108355504003E-003   1.3573858931181570E-002
   9.7674266106145269E-003  -9.7921801317738810E-003   2.1495518138973990E-002
   6.5221403187831761E-003  -1.5238551032887848E-002   3.0537439324919813E-002
   1.3194880538421383E-002  -4.7140244344079374E-003   1.1297747531262337E-002
   1.0998310046857807E-002  -5.1546568721743125E-003   1.6839137895008349E-002
   8.8017395552942024E-003  -7.8017129203335478E-003   2.3357697881137229E-002
   6.6051690637307092E-003  -1.2655192578884797E-002   3.0853427489648311E-002
   4.4085985721671328E-003  -1.9715095847828490E-002   3.9326326720542149E-002
   8.8855394885204581E-003  -4.4063718110404215E-003   2.0864763263897107E-002
   7.5945924414541205E-003  -5.6255706001314687E-003   2.5988086734400812E-002
   6.3036453943877205E-003  -9.3295150051162234E-003   3.1945487471515918E-002
   5.0126983473211678E-003  -1.5518205025995595E-002   3.8736965475243933E-002
   3.7217513002548719E-003  -2.4191640662768910E-002   4.6362520745583169E-002
   6.5752623364056517E-003  -4.0987191876731277E-003   2.9792373647958170E-002
   6.0468463780659065E-003  -6.0964843280887360E-003   3.4219308219717415E-002
   5.5184304197261336E-003  -1.0857317089899954E-002   3.9337227702318844E-002
   4.9900144613863467E-003  -1.8381217473106767E-002   4.5146132095761071E-002
   4.4615985030466154E-003  -2.8668185477709773E-002   5.1646021400045150E-002
   4.9086320667636907E-002  -3.5228596504977061E-002  0.16176186149055871     
   5.0337455150355703E-002  -2.7082540043167291E-002  0.13492235595291457     
   5.1588589633074527E-002  -2.1186525268004019E-002  0.11368663506557525     
   5.2839724115793338E-002  -1.7540552179487606E-002   9.8054698828540787E-002
   5.4090858598512093E-002  -1.6144620777617913E-002   8.8026547241811304E-002
   1.8590252160548354E-002  -3.0853911794611055E-002   9.3064088638034614E-002
   2.4088050802744315E-002  -2.4869036730164440E-002   8.0044604971794608E-002
   2.9585849444940235E-002  -2.0450978564955730E-002   6.9914664974203927E-002
   3.5083648087136175E-002  -1.7599737298984792E-002   6.2674268645262793E-002
   4.0581446729332116E-002  -1.6315312932251747E-002   5.8323415984970983E-002
   5.1797553086338627E-003  -2.6479227084244994E-002   2.1863521994442942E-002
   1.2209977128651461E-002  -2.2655533417161727E-002   2.3347284987015784E-002
   1.9240198948669233E-002  -1.9715431861907440E-002   2.5006350666582605E-002
   2.6270420768686905E-002  -1.7658922418482062E-002   2.6840719033143536E-002
   3.3300642588704563E-002  -1.6486005086885747E-002   2.8850390086698402E-002
   8.8548301118932422E-003  -2.2104542373878960E-002  -5.1839838440216487E-002
   1.4703234128077322E-002  -2.0442030104158918E-002  -3.5169604001421932E-002
   2.0551638144261294E-002  -1.8979885158859094E-002  -2.1038307857288694E-002
   2.6400042160445319E-002  -1.7718107537979262E-002  -9.4459500078167592E-003
   3.2248446176629350E-002  -1.6656697241519663E-002  -3.9253045300637057E-004
   2.9615476570326926E-002  -1.7729857663512927E-002 -0.12804599266594358     
   3.1567821801021800E-002  -1.8228526791156191E-002  -9.5506061993518410E-002
   3.3520167031716702E-002  -1.8244338455810846E-002  -6.8219310597409877E-002
   3.5472512262411576E-002  -1.7777292657476487E-002  -4.6185738477618268E-002
   3.7424857493106478E-002  -1.6827389396153636E-002  -2.9405345634143543E-002
   5.4090858598512093E-002  -1.6144620777617913E-002   8.8026547241811304E-002
   5.3579854617343825E-002  -1.5825515048541849E-002   7.7698591656972571E-002
   5.3068850636175585E-002  -1.5410018978406548E-002   6.9229885706710681E-002
   5.2557846655007331E-002  -1.4898132567211897E-002   6.2620429391025467E-002
   5.2046842673839078E-002  -1.4289855814958008E-002   5.7870222709916708E-002
   4.0581446729332116E-002  -1.6315312932251747E-002   5.8323415984970983E-002
   4.1471254160814222E-002  -1.5792160498409938E-002   5.3835961594015755E-002
   4.2361061592296287E-002  -1.5224735031112602E-002   5.0290880393784432E-002
   4.3250869023778345E-002  -1.4613036530359849E-002   4.7688172384277208E-002
   4.4140676455260458E-002  -1.3957064996151458E-002   4.6027837565493890E-002
   3.3300642588704563E-002  -1.6486005086885747E-002   2.8850390086698402E-002
   3.4674384988984286E-002  -1.5758805948278082E-002   3.0151319582022731E-002
   3.6048127389263947E-002  -1.5039451083818656E-002   3.1477745824218445E-002
   3.7421869789543663E-002  -1.4327940493507579E-002   3.2829668813285286E-002
   3.8795612189823331E-002  -1.3624274177344797E-002   3.4207088549223608E-002
   3.2248446176629350E-002  -1.6656697241519663E-002  -3.9253045300637057E-004
   3.3189247101853968E-002  -1.5725451398146142E-002   6.6446656209937713E-003
   3.4130048027078620E-002  -1.4854167136524793E-002   1.2790481998012481E-002
   3.5070848952303259E-002  -1.4042844456655393E-002   1.8044918678049974E-002
   3.6011649877527939E-002  -1.3291483358538220E-002   2.2407975661105722E-002
   3.7424857493106478E-002  -1.6827389396153636E-002  -2.9405345634143543E-002
   3.7015840499423358E-002  -1.5692096848014286E-002  -1.6684000289071299E-002
   3.6606823505740266E-002  -1.4668883189230805E-002  -5.7709110848332135E-003
   3.6197806512057118E-002  -1.3757748419803272E-002   3.3339219785706586E-003
   3.5788789518374026E-002  -1.2958692539731587E-002   1.0630498901140650E-002
   5.2046842673839078E-002  -1.4289855814958008E-002   5.7870222709916708E-002
   5.0520809650530907E-002  -1.3673368744500536E-002   5.3642815978782066E-002
   4.8994776627222680E-002  -1.3136851378695136E-002   5.0008664739393527E-002
   4.7468743603914454E-002  -1.2680303717541697E-002   4.6967768991750841E-002
   4.5942710580606283E-002  -1.2303725761040551E-002   4.4520128735854758E-002
   4.4140676455260458E-002  -1.3957064996151458E-002   4.6027837565493890E-002
   4.3077645993540775E-002  -1.3312704055949393E-002   4.4157547894283056E-002
   4.2014615531821065E-002  -1.2735837337216060E-002   4.2620007854503067E-002
   4.0951585070101416E-002  -1.2226464839950685E-002   4.1415217446154284E-002
   3.9888554608381671E-002  -1.1784586564154043E-002   4.0543176669236236E-002
   3.8795612189823331E-002  -1.3624274177344797E-002   3.4207088549223608E-002
   3.7935078429377100E-002  -1.2952039367398471E-002   3.4706391421120267E-002
   3.7074544668930814E-002  -1.2334823295736930E-002   3.5277938064132902E-002
   3.6214010908484529E-002  -1.1772625962359784E-002   3.5921728478261333E-002
   3.5353477148038284E-002  -1.1265447367267534E-002   3.6637762663505519E-002
   3.6011649877527939E-002  -1.3291483358538220E-002   2.2407975661105722E-002
   3.5093106958039931E-002  -1.2591374678847411E-002   2.5289346559293761E-002
   3.4174564038551951E-002  -1.1933809254257771E-002   2.7982455368282519E-002
   3.3256021119063943E-002  -1.1318787084768828E-002   3.0487302088071953E-002
   3.2337478199575963E-002  -1.0746308170380914E-002   3.2803886718662072E-002
   3.5788789518374026E-002  -1.2958692539731587E-002   1.0630498901140650E-002
   3.4551731579529232E-002  -1.2230709990296434E-002   1.5906413308803602E-002
   3.3314673640684425E-002  -1.1532795212778696E-002   2.0733559766952125E-002
   3.2077615701839611E-002  -1.0864948207177837E-002   2.5111938275586276E-002
   3.0840557762994797E-002  -1.0227168973494516E-002   2.9041548834706221E-002
   4.5942710580606283E-002  -1.2303725761040551E-002   4.4520128735854758E-002
   4.3549927326209686E-002  -1.1904504504085978E-002   4.1315145347680271E-002
   4.1157144071813090E-002  -1.1380026941573168E-002   3.8390920274961104E-002
   3.8764360817416466E-002  -1.0730293073501547E-002   3.5747453517697397E-002
   3.6371577563019841E-002  -9.9553028998718984E-003   3.3384745075889177E-002
   3.9888554608381671E-002  -1.1784586564154043E-002   4.0543176669236236E-002
   3.7743471092786696E-002  -1.1318629644547745E-002   3.8944667123612303E-002
   3.5598387577191609E-002  -1.0737021215854153E-002   3.7560798740135876E-002
   3.3453304061596550E-002  -1.0039761278072983E-002   3.6391571518807203E-002
   3.1308220546001547E-002  -9.2268498312046976E-003   3.5436985459626258E-002
   3.5353477148038284E-002  -1.1265447367267534E-002   3.6637762663505519E-002
   3.3389976217937149E-002  -1.0732754785009346E-002   3.6636122163960561E-002
   3.1426475287836084E-002  -1.0094015490135014E-002   3.6783005673255653E-002
   2.9462974357734956E-002  -9.3492294826443591E-003   3.7078413191390887E-002
   2.7499473427633883E-002  -8.4983967625375523E-003   3.7522344718366074E-002
   3.2337478199575963E-002  -1.0746308170380914E-002   3.2803886718662072E-002
   3.0489442701661179E-002  -1.0146879925470864E-002   3.4389510468725133E-002
   2.8641407203746420E-002  -9.4510097644158811E-003   3.6057541074320576E-002
   2.6793371705831619E-002  -8.6586976872156541E-003   3.7807978535448539E-002
   2.4945336207916880E-002  -7.7699436938704902E-003   3.9640822852109063E-002
   3.0840557762994797E-002  -1.0227168973494516E-002   2.9041548834706221E-002
   2.9041870543958764E-002  -9.5610050659326040E-003   3.2204832037905917E-002
   2.7243183324922662E-002  -8.8080040386969705E-003   3.5384404943330672E-002
   2.5444496105886595E-002  -7.9681658917870601E-003   3.8580267550980096E-002
   2.3645808886850528E-002  -7.0414906252033171E-003   4.1792419860854801E-002
   3.6371577563019841E-002  -9.9553028998718984E-003   3.3384745075889177E-002
   3.4173857495309545E-002  -9.1625809718036688E-003   3.1144252180039578E-002
   3.1976137427599194E-002  -8.4596518404174981E-003   2.9480764055652253E-002
   2.9778417359888856E-002  -7.8465155057135458E-003   2.8394280702727898E-002
   2.7580697292178546E-002  -7.3231719676910556E-003   2.7884802121266095E-002
   3.1308220546001547E-002  -9.2268498312046976E-003   3.5436985459626258E-002
   2.9568729163670815E-002  -8.4011247657345689E-003   3.4242417842061112E-002
   2.7829237781340124E-002  -7.6654239721486439E-003   3.3387302823792403E-002
   2.6089746399009468E-002  -7.0197474504465895E-003   3.2871640404820157E-002
   2.4350255016678729E-002  -6.4640952006284058E-003   3.2695430585144514E-002
   2.7499473427633883E-002  -8.4983967625375523E-003   3.7522344718366074E-002
   2.5980658558516639E-002  -7.6396685596655800E-003   3.7373470903883266E-002
   2.4461843689399389E-002  -6.8711961038798036E-003   3.7326497516531040E-002
   2.2943028820282128E-002  -6.1929793951798588E-003   3.7381424556309141E-002
   2.1424213951164880E-002  -5.6050184335659226E-003   3.7538252023217533E-002
   2.4945336207916880E-002  -7.7699436938704902E-003   3.9640822852109063E-002
   2.3409645679846915E-002  -6.8782123535967021E-003   4.0537411365506926E-002
   2.1873955151776946E-002  -6.0769682356107899E-003   4.1298348133868984E-002
   2.0338264623707008E-002  -5.3662113399133484E-003   4.1923633157195057E-002
   1.8802574095637070E-002  -4.7459416665034115E-003   4.2413266435485708E-002
   2.3645808886850528E-002  -7.0414906252033171E-003   4.1792419860854801E-002
   2.1855690527661703E-002  -6.1167561475274912E-003   4.3734239226931149E-002
   2.0065572168472851E-002  -5.2827403673420537E-003   4.5302854675805471E-002
   1.8275453809284012E-002  -4.5394432846462690E-003   4.6498266207477990E-002
   1.6485335450095173E-002  -3.8868648994407895E-003   4.7320473821948483E-002
   2.7580697292178546E-002  -7.3231719676910556E-003   2.7884802121266095E-002
   2.5340877771832526E-002  -6.7951550592169618E-003   2.6952966668377876E-002
   2.3101058251486478E-002  -6.1679986131579767E-003   2.6033316959074404E-002
   2.0861238731140458E-002  -5.4417026295131010E-003   2.5125852993355569E-002
   1.8621419210794410E-002  -4.6162671082833340E-003   2.4230574771222702E-002
   2.4350255016678729E-002  -6.4640952006284058E-003   3.2695430585144514E-002
   2.2144309649505256E-002  -5.9320787891759541E-003   3.2160630818198310E-002
   1.9938364282331686E-002  -5.3573097825707072E-003   3.1681393614012204E-002
   1.7732418915158088E-002  -4.7397881808127068E-003   3.1257718972586043E-002
   1.5526473547984643E-002  -4.0795139839019390E-003   3.0889606893919619E-002
   2.1424213951164880E-002  -5.6050184335659226E-003   3.7538252023217533E-002
   1.9295519556338736E-002  -5.0690025191349186E-003   3.7344100999781554E-002
   1.7166825161512494E-002  -4.5466209519836598E-003   3.7248889358280246E-002
   1.5038130766686329E-002  -4.0378737321120906E-003   3.7252617098713706E-002
   1.2909436371860122E-002  -3.5427608595203774E-003   3.7355284221081891E-002
   1.8802574095637070E-002  -4.7459416665034115E-003   4.2413266435485708E-002
   1.6794507492333063E-002  -4.2059262490936195E-003   4.2503377213127108E-002
   1.4786440889029029E-002  -3.7359321213967234E-003   4.2735804191877697E-002
   1.2778374285724960E-002  -3.3359592834115853E-003   4.3110547371738056E-002
   1.0770307682420991E-002  -3.0060077351387327E-003   4.3627606752708166E-002
   1.6485335450095173E-002  -3.8868648994407895E-003   4.7320473821948483E-002
   1.4641273457488169E-002  -3.3428499790528754E-003   4.7638459458234639E-002
   1.2797211464881136E-002  -2.9252432908093151E-003   4.8142138114805055E-002
   1.0953149472274146E-002  -2.6340448347111287E-003   4.8831509791660233E-002
   9.1090874796671550E-003  -2.4692546107573099E-003   4.9706574488799338E-002
   1.8621419210794410E-002  -4.6162671082833340E-003   2.4230574771222702E-002
   1.5609879992197262E-002  -3.9276663957282798E-003   2.4862341476807548E-002
   1.2598340773600031E-002  -3.6118748381077925E-003   2.5999896858124816E-002
   9.5868015550028413E-003  -3.6688924354231836E-003   2.7643240915175255E-002
   6.5752623364056517E-003  -4.0987191876731277E-003   2.9792373647958170E-002
   1.5526473547984643E-002  -4.0795139839019390E-003   3.0889606893919619E-002
   1.2995513233130807E-002  -3.6122888579876999E-003   3.1573242368160337E-002
   1.0464552918277081E-002  -3.5739144692192581E-003   3.2712246974155146E-002
   7.9335926034233353E-003  -3.9643908175973006E-003   3.4306620711904018E-002
   5.4026322885695754E-003  -4.7837179031210431E-003   3.6356363581407147E-002
   1.2909436371860122E-002  -3.5427608595203774E-003   3.7355284221081891E-002
   1.0808635416771392E-002  -3.2969113202470646E-003   3.8034746881766751E-002
   8.7078344616826134E-003  -3.5359541003304878E-003   3.9119159130227718E-002
   6.6070335065938866E-003  -4.2598891997714140E-003   4.0608520966464216E-002
   4.5062325515051044E-003  -5.4687166185690694E-003   4.2502832390476752E-002
   1.0770307682420991E-002  -3.0060077351387327E-003   4.3627606752708166E-002
   9.0492465431187795E-003  -2.9815337825061794E-003   4.4246855017627131E-002
   7.3281854038166217E-003  -3.4979937314418355E-003   4.5220633326342741E-002
   5.6071242645144631E-003  -4.5553875819451962E-003   4.6548941678856176E-002
   3.8860631252122489E-003  -6.1537153340170403E-003   4.8231780075166902E-002
   9.1090874796671550E-003  -2.4692546107573099E-003   4.9706574488799338E-002
   7.7173466121731038E-003  -2.6661562447658493E-003   5.0209566775740511E-002
   6.3256057446790803E-003  -3.4600333625528223E-003   5.1016669562500616E-002
   4.9338648771850430E-003  -4.8508859641194987E-003   5.2127882849079626E-002
   3.5421240096910611E-003  -6.8387140494650112E-003   5.3543206635477514E-002
   6.5752623364056517E-003  -4.0987191876731277E-003   2.9792373647958170E-002
   6.0468463780659065E-003  -6.0964843280887360E-003   3.4219308219717415E-002
   5.5184304197261336E-003  -1.0857317089899954E-002   3.9337227702318844E-002
   4.9900144613863467E-003  -1.8381217473106767E-002   4.5146132095761071E-002
   4.4615985030466154E-003  -2.8668185477709773E-002   5.1646021400045150E-002
   5.4026322885695754E-003  -4.7837179031210431E-003   3.6356363581407147E-002
   5.4606425953000748E-003  -6.9323944274654048E-003   3.8458511937221718E-002
   5.5186529020304631E-003  -1.1310919092304528E-002   4.1042527912335036E-002
   5.5766632087609555E-003  -1.7919291897638606E-002   4.4108411506748268E-002
   5.6346735154913508E-003  -2.6757512843467168E-002   4.7656162720459694E-002
   4.5062325515051044E-003  -5.4687166185690694E-003   4.2502832390476752E-002
   4.9415518317632995E-003  -7.7683045268424622E-003   4.2813414011247442E-002
   5.3768711120216126E-003  -1.1764521094709351E-002   4.3396745959774524E-002
   5.8121903922797834E-003  -1.7457366322169952E-002   4.4252828236058542E-002
   6.2475096725381762E-003  -2.4846840209224785E-002   4.5381660840098870E-002
   3.8860631252122489E-003  -6.1537153340170403E-003   4.8231780075166902E-002
   4.4895740874558686E-003  -8.6042146262193253E-003   4.7284014441795003E-002
   5.0930850496994622E-003  -1.2218123097114161E-002   4.6399881844636719E-002
   5.6965960119429856E-003  -1.6995440746701878E-002   4.5579382283692724E-002
   6.3001069741866200E-003  -2.2936167574982291E-002   4.4822515758963372E-002
   3.5421240096910611E-003  -6.8387140494650112E-003   5.3543206635477514E-002
   4.1047093623775566E-003  -9.4401247255961884E-003   5.1870313228863596E-002
   4.6672947150641075E-003  -1.2671725099518860E-002   5.0051935566921557E-002
   5.2298800677506169E-003  -1.6533515171233110E-002   4.8088073649650676E-002
   5.7924654204372095E-003  -2.1025494940739797E-002   4.5978727477051784E-002
   2.9615476570326926E-002  -1.7729857663512927E-002 -0.12804599266594358     
   3.1567821801021800E-002  -1.8228526791156191E-002  -9.5506061993518410E-002
   3.3520167031716702E-002  -1.8244338455810846E-002  -6.8219310597409877E-002
   3.5472512262411576E-002  -1.7777292657476487E-002  -4.6185738477618268E-002
   3.7424857493106478E-002  -1.6827389396153636E-002  -2.9405345634143543E-002
   5.1135284521660662E-002  -1.4990930418457837E-002  -5.0500737221225667E-002
   4.9037886825907984E-002  -1.5242777256742335E-002  -3.1924332589692239E-002
   4.6940489130155166E-002  -1.5176909000790675E-002  -1.6194234534737395E-002
   4.4843091434402474E-002  -1.4793325650602738E-002  -3.3104430563610857E-003
   4.2745693738649712E-002  -1.4092027206178581E-002   6.7270418454369041E-003
   5.7087843803620864E-002  -1.2252003173402776E-002   2.7373911697227429E-002
   5.3347575881158821E-002  -1.2257027722328576E-002   3.1821647919116305E-002
   4.9607307958696820E-002  -1.2109479545770678E-002   3.5829950264165071E-002
   4.5867040036234839E-002  -1.1809358643728991E-002   3.9398818732373705E-002
   4.2126772113772817E-002  -1.1356665016203610E-002   4.2528253323742313E-002
   4.7473154416207343E-002  -9.5130759283477001E-003  0.10557795408941537     
   4.4496888966774457E-002  -9.2712781879147957E-003   9.5731879532907391E-002
   4.1520623517341551E-002  -9.0420500907506772E-003   8.7853243799297445E-002
   3.8544358067908673E-002  -8.8253916368552440E-003   8.1942046888585932E-002
   3.5568092618475766E-002  -8.6213028262285413E-003   7.7998288800772753E-002
   2.2291216359420246E-002  -6.7741486832926245E-003  0.18411138995533827     
   2.2485826082754845E-002  -6.2855286535009602E-003  0.15980636225168071     
   2.2680435806089430E-002  -5.9746206357305653E-003  0.13987564607065983     
   2.2875045529424015E-002  -5.8414246299814537E-003  0.12431924141227574     
   2.3069655252758614E-002  -5.8859406362535838E-003  0.11313714827652821     
   3.7424857493106478E-002  -1.6827389396153636E-002  -2.9405345634143543E-002
   3.7015840499423358E-002  -1.5692096848014286E-002  -1.6684000289071299E-002
   3.6606823505740266E-002  -1.4668883189230805E-002  -5.7709110848332135E-003
   3.6197806512057118E-002  -1.3757748419803272E-002   3.3339219785706586E-003
   3.5788789518374026E-002  -1.2958692539731587E-002   1.0630498901140650E-002
   4.2745693738649712E-002  -1.4092027206178581E-002   6.7270418454369041E-003
   4.0964073186979241E-002  -1.3261801239072182E-002   1.3858312433821837E-002
   3.9182452635308777E-002  -1.2491435320837269E-002   2.0052632047066268E-002
   3.7400832083638341E-002  -1.1780929451474305E-002   2.5310000685170149E-002
   3.5619211531967856E-002  -1.1130283630982563E-002   2.9630418348133181E-002
   4.2126772113772817E-002  -1.1356665016203610E-002   4.2528253323742313E-002
   3.9843853169808444E-002  -1.0831505630130009E-002   4.4121667995924457E-002
   3.7560934225844077E-002  -1.0313987452443794E-002   4.5649436858659277E-002
   3.5278015281879724E-002  -9.8041104831451172E-003   4.7111559911947043E-002
   3.2995096337915343E-002  -9.3018747222337050E-003   4.8508037155787581E-002
   3.5568092618475766E-002  -8.6213028262285413E-003   7.7998288800772753E-002
   3.3655180447910972E-002  -8.4012100211878701E-003   7.4106066397236159E-002
   3.1742268277346199E-002  -8.1365395840502612E-003   7.1019503349945806E-002
   2.9829356106781415E-002  -7.8272915148159018E-003   6.8738599658901819E-002
   2.7916443936216631E-002  -7.4734658134847642E-003   6.7263355324104074E-002
   2.3069655252758614E-002  -5.8859406362535838E-003  0.11313714827652821     
   2.2398055021286854E-002  -5.9709144122457591E-003  0.10381150763775718     
   2.1726454789815094E-002  -5.9590917156568113E-003   9.6162831520925751E-002
   2.1054854558343321E-002  -5.8504725464869414E-003   9.0191119926034180E-002
   2.0383254326871575E-002  -5.6450569047358234E-003   8.5896372853082381E-002
   3.5788789518374026E-002  -1.2958692539731587E-002   1.0630498901140650E-002
   3.4551731579529232E-002  -1.2230709990296434E-002   1.5906413308803602E-002
   3.3314673640684425E-002  -1.1532795212778696E-002   2.0733559766952125E-002
   3.2077615701839611E-002  -1.0864948207177837E-002   2.5111938275586276E-002
   3.0840557762994797E-002  -1.0227168973494516E-002   2.9041548834706221E-002
   3.5619211531967856E-002  -1.1130283630982563E-002   2.9630418348133181E-002
   3.4065546392794563E-002  -1.0516533885405688E-002   3.2561956360898481E-002
   3.2511881253621318E-002  -9.9167162407861609E-003   3.5309047922521278E-002
   3.0958216114448042E-002  -9.3308306971239541E-003   3.7871693033001426E-002
   2.9404550975274779E-002  -8.7588772544189841E-003   4.0249891692339279E-002
   3.2995096337915343E-002  -9.3018747222337050E-003   4.8508037155787581E-002
   3.1389145496785488E-002  -8.8023577805149272E-003   4.9111334444615101E-002
   2.9783194655655636E-002  -8.3006372687936397E-003   4.9794506780671918E-002
   2.8177243814525785E-002  -7.7967131870699639E-003   5.0557554163958011E-002
   2.6571292973395937E-002  -7.2905855353436744E-003   5.1400476594473554E-002
   2.7916443936216631E-002  -7.4734658134847642E-003   6.7263355324104074E-002
   2.6522528891501987E-002  -7.0881816756240903E-003   6.5554547559953533E-002
   2.5128613846787405E-002  -6.6845582968011116E-003   6.4189936341404213E-002
   2.3734698802072775E-002  -6.2625956770158610E-003   6.3169521668456130E-002
   2.2340783757358179E-002  -5.8222938162684201E-003   6.2493303541109047E-002
   2.0383254326871575E-002  -5.6450569047358234E-003   8.5896372853082381E-002
   1.9465696576944080E-002  -5.3740055707334200E-003   8.1891595706913678E-002
   1.8548138827016586E-002  -5.0684793248085835E-003   7.8495336604718080E-002
   1.7630581077089091E-002  -4.7284781669619802E-003   7.5707595546495365E-002
   1.6713023327161597E-002  -4.3540020971929438E-003   7.3528372532245867E-002
   3.0840557762994797E-002  -1.0227168973494516E-002   2.9041548834706221E-002
   2.9041870543958764E-002  -9.5610050659326040E-003   3.2204832037905917E-002
   2.7243183324922662E-002  -8.8080040386969705E-003   3.5384404943330672E-002
   2.5444496105886595E-002  -7.9681658917870601E-003   3.8580267550980096E-002
   2.3645808886850528E-002  -7.0414906252033171E-003   4.1792419860854801E-002
   2.9404550975274779E-002  -8.7588772544189841E-003   4.0249891692339279E-002
   2.7665448564178644E-002  -8.1687487947800230E-003   4.2127778414345063E-002
   2.5926346153082494E-002  -7.5283382003152877E-003   4.4108545050005915E-002
   2.4187243741986358E-002  -6.8376454710247225E-003   4.6192191599321433E-002
   2.2448141330890209E-002  -6.0966706069082721E-003   4.8378718062292436E-002
   2.6571292973395937E-002  -7.2905855353436744E-003   5.1400476594473554E-002
   2.4978365581669791E-002  -6.7764925236274975E-003   5.1956411850437229E-002
   2.3385438189943635E-002  -6.2486723619337714E-003   5.2701817231485898E-002
   2.1792510798217500E-002  -5.7071250502623294E-003   5.3636692737619812E-002
   2.0199583406491334E-002  -5.1518505886132826E-003   5.4761038368838583E-002
   2.2340783757358179E-002  -5.8222938162684201E-003   6.2493303541109047E-002
   2.0980621596432110E-002  -5.3842362524749443E-003   6.1690732346182386E-002
   1.9620459435506041E-002  -4.9690065235523384E-003   6.1164221487770995E-002
   1.8260297274579968E-002  -4.5766046294999640E-003   6.0913770965874581E-002
   1.6900135113653906E-002  -4.2070305703183764E-003   6.0939380780493629E-002
   1.6713023327161597E-002  -4.3540020971929438E-003   7.3528372532245867E-002
   1.5672216608465683E-002  -3.9919799813223911E-003   7.1330739901581008E-002
   1.4631409889769742E-002  -3.6893406851707666E-003   6.9495757818860970E-002
   1.3590603171073808E-002  -3.4460842087376750E-003   6.8023426284086141E-002
   1.2549796452377887E-002  -3.2622105520232481E-003   6.6913745297256577E-002
   2.3645808886850528E-002  -7.0414906252033171E-003   4.1792419860854801E-002
   2.1855690527661703E-002  -6.1167561475274912E-003   4.3734239226931149E-002
   2.0065572168472851E-002  -5.2827403673420537E-003   4.5302854675805471E-002
   1.8275453809284012E-002  -4.5394432846462690E-003   4.6498266207477990E-002
   1.6485335450095173E-002  -3.8868648994407895E-003   4.7320473821948483E-002
   2.2448141330890209E-002  -6.0966706069082721E-003   4.8378718062292436E-002
   2.0419233316330651E-002  -5.3569217443426020E-003   4.9332334904052755E-002
   1.8390325301771093E-002  -4.6699070197047804E-003   5.0181576352273466E-002
   1.6361417287211528E-002  -4.0356264329936171E-003   5.0926442406954958E-002
   1.4332509272651978E-002  -3.4540799842105452E-003   5.1566933068096454E-002
   2.0199583406491334E-002  -5.1518505886132826E-003   5.4761038368838583E-002
   1.8200714260223516E-002  -4.5970873411579349E-003   5.4764437245845440E-002
   1.6201845113955712E-002  -4.0570736720672851E-003   5.4932289252975497E-002
   1.4202975967687912E-002  -3.5318095813412984E-003   5.5264594390228461E-002
   1.2204106821420091E-002  -3.0212950689801898E-003   5.5761352657604568E-002
   1.6900135113653906E-002  -4.2070305703183764E-003   6.0939380780493629E-002
   1.5200133359340312E-002  -3.8372529379729903E-003   6.0030546252309705E-002
   1.3500131605026723E-002  -3.4442403244297898E-003   5.9554993377911168E-002
   1.1800129850713131E-002  -3.0279927296887575E-003   5.9512722157298290E-002
   1.0100128096399569E-002  -2.5885101537497790E-003   5.9903732590470819E-002
   1.2549796452377887E-002  -3.2622105520232481E-003   6.6913745297256577E-002
   1.1417490613680997E-002  -3.0774185347884342E-003   6.5130661923444799E-002
   1.0285184774984121E-002  -2.8314069767925720E-003   6.4049688727080778E-002
   9.1528789362872454E-003  -2.5241758780362861E-003   6.3670825708164902E-002
   8.0205730975903555E-003  -2.1557252385195902E-003   6.3994072866696561E-002
   1.6485335450095173E-002  -3.8868648994407895E-003   4.7320473821948483E-002
   1.4641273457488169E-002  -3.3428499790528754E-003   4.7638459458234639E-002
   1.2797211464881136E-002  -2.9252432908093151E-003   4.8142138114805055E-002
   1.0953149472274146E-002  -2.6340448347111287E-003   4.8831509791660233E-002
   9.1090874796671550E-003  -2.4692546107573099E-003   4.9706574488799338E-002
   1.4332509272651978E-002  -3.4540799842105452E-003   5.1566933068096454E-002
   1.2681585604447890E-002  -2.9638424903625227E-003   5.1788641732668672E-002
   1.1030661936243830E-002  -2.6034887684579788E-003   5.2210934025761768E-002
   9.3797382680397418E-003  -2.3730188184969761E-003   5.2833809947376714E-002
   7.7288145998356816E-003  -2.2724326404791606E-003   5.3657269497512705E-002
   1.2204106821420091E-002  -3.0212950689801898E-003   5.5761352657604568E-002
   1.0761212085855995E-002  -2.5848350016723920E-003   5.5883308810663307E-002
   9.3183173502918853E-003  -2.2817342461064344E-003   5.6220739200480860E-002
   7.8754226147277652E-003  -2.1119928022829380E-003   5.6773643827056693E-002
   6.4325278791636797E-003  -2.0756106702010668E-003   5.7542022690391020E-002
   1.0100128096399569E-002  -2.5885101537497790E-003   5.9903732590470819E-002
   8.8801529017124500E-003  -2.2058275129822058E-003   5.9922460692218314E-002
   7.6601777070253400E-003  -1.9599797237553271E-003   6.0171553638961359E-002
   6.4402025123382152E-003  -1.8509667860688427E-003   6.0651011430700022E-002
   5.2202273176511077E-003  -1.8787886999227232E-003   6.1360834067433971E-002
   8.0205730975903555E-003  -2.1557252385195902E-003   6.3994072866696561E-002
   7.0384080520172754E-003  -1.8268200242919086E-003   6.3906097377334214E-002
   6.0562430064441813E-003  -1.6382252014037202E-003   6.4063377341204208E-002
   5.0740779608711012E-003  -1.5899407698546225E-003   6.4465912758306709E-002
   4.0919129152980072E-003  -1.6819667296448237E-003   6.5113703628641995E-002
   9.1090874796671550E-003  -2.4692546107573099E-003   4.9706574488799338E-002
   7.7173466121731038E-003  -2.6661562447658493E-003   5.0209566775740511E-002
   6.3256057446790803E-003  -3.4600333625528223E-003   5.1016669562500616E-002
   4.9338648771850430E-003  -4.8508859641194987E-003   5.2127882849079626E-002
   3.5421240096910611E-003  -6.8387140494650112E-003   5.3543206635477514E-002
   7.7288145998356816E-003  -2.2724326404791606E-003   5.3657269497512705E-002
   6.6196270806844204E-003  -2.4902448831075064E-003   5.3670746515573187E-002
   5.5104395615331592E-003  -3.2149701950852094E-003   5.3945219730500149E-002
   4.4012520423819049E-003  -4.4466085764114927E-003   5.4480689142293842E-002
   3.2920645232306367E-003  -6.1851600270870222E-003   5.5277154750953628E-002
   6.4325278791636797E-003  -2.0756106702010668E-003   5.7542022690391020E-002
   5.5627794054027985E-003  -2.3143335214497185E-003   5.7156046854000997E-002
   4.6930309316419311E-003  -2.9699070276172773E-003   5.6987952911524684E-002
   3.8232824578810602E-003  -4.0423311887033790E-003   5.7037740862962795E-002
   2.9535339841201824E-003  -5.5316060047085891E-003   5.7305410708315074E-002
   5.2202273176511077E-003  -1.8787886999227232E-003   6.1360834067433971E-002
   4.5468035863282796E-003  -2.1384221597917641E-003   6.0665467791023137E-002
   3.8733798550054307E-003  -2.7248438601492828E-003   6.0144869105574400E-002
   3.1999561236826053E-003  -3.6380538009955412E-003   5.9799038011087317E-002
   2.5265323923597538E-003  -4.8780519823304891E-003   5.9627974507561951E-002
   4.0919129152980072E-003  -1.6819667296448237E-003   6.5113703628641995E-002
   3.5716996234608223E-003  -1.9625107981335876E-003   6.4199009326640577E-002
   3.0514863316236374E-003  -2.4797806926813437E-003   6.3415968312649007E-002
   2.5312730397864663E-003  -3.2337764132871621E-003   6.2764580586666840E-002
   2.0110597479492676E-003  -4.2244979599519450E-003   6.2244846148694188E-002
   3.5421240096910611E-003  -6.8387140494650112E-003   5.3543206635477514E-002
   4.1047093623775566E-003  -9.4401247255961884E-003   5.1870313228863596E-002
   4.6672947150641075E-003  -1.2671725099518860E-002   5.0051935566921557E-002
   5.2298800677506169E-003  -1.6533515171233110E-002   4.8088073649650676E-002
   5.7924654204372095E-003  -2.1025494940739797E-002   4.5978727477051784E-002
   3.2920645232306367E-003  -6.1851600270870222E-003   5.5277154750953628E-002
   3.7260838986431510E-003  -8.4619520017692462E-003   5.2932829731515474E-002
   4.1601032740556515E-003  -1.1308311955116196E-002   5.0476857012858201E-002
   4.5941226494681450E-003  -1.4724239887128045E-002   4.7909236594980142E-002
   5.0281420248806663E-003  -1.8709735797804550E-002   4.5229968477883187E-002
   2.9535339841201824E-003  -5.5316060047085891E-003   5.7305410708315074E-002
   3.2928239383672175E-003  -7.4837792779420820E-003   5.4350275795180175E-002
   3.6321138926141971E-003  -9.9448988107134206E-003   5.1317329738933881E-002
   3.9714038468611663E-003  -1.2914964603022647E-002   4.8206572539576387E-002
   4.3106938011081841E-003  -1.6393976654869524E-002   4.5018004197107442E-002
   2.5265323923597538E-003  -4.8780519823304891E-003   5.9627974507561951E-002
   2.8049294815497630E-003  -6.5056065541150288E-003   5.6122651419856555E-002
   3.0833265707398104E-003  -8.5814856663107009E-003   5.2573353745148765E-002
   3.3617236599297962E-003  -1.1105689318917082E-002   4.8980081483438347E-002
   3.6401207491198392E-003  -1.4078217511934499E-002   4.5342834634724938E-002
   2.0110597479492676E-003  -4.2244979599519450E-003   6.2244846148694188E-002
   2.2624005281908360E-003  -5.5274338302880865E-003   5.8249956605545661E-002
   2.5137413084324184E-003  -7.2180725219080366E-003   5.4244929031502909E-002
   2.7650820886740077E-003  -9.2964140348119756E-003   5.0229763426566154E-002
   3.0164228689155692E-003  -1.1762458368999251E-002   4.6204459790735619E-002
   2.2291216359420246E-002  -6.7741486832926245E-003  0.18411138995533827     
   2.2485826082754845E-002  -6.2855286535009602E-003  0.15980636225168071     
   2.2680435806089430E-002  -5.9746206357305653E-003  0.13987564607065983     
   2.2875045529424015E-002  -5.8414246299814537E-003  0.12431924141227574     
   2.3069655252758614E-002  -5.8859406362535838E-003  0.11313714827652821     
  -3.8261564563249195E-003  -5.0806114979790595E-003  0.12374974760375318     
  -3.6297619865855585E-004  -4.7141464797851029E-003  0.11187986005313563     
   3.1002040590078078E-003  -4.4809654697951368E-003  0.10217280204854509     
   6.5633843166741611E-003  -4.3810684680091160E-003   9.4628573589981321E-002
   1.0026564574340535E-002  -4.4144554744270648E-003   8.9247174677444474E-002
  -1.6247150120612626E-002  -3.3870743126655500E-003   6.3243736238661863E-002
  -1.1726881305224250E-002  -3.1427643060692179E-003   6.3853416844901603E-002
  -7.2066124898359091E-003  -2.9873103038595972E-003   6.4414445020558403E-002
  -2.6863436744475368E-003  -2.9207123060367782E-003   6.4926820765632359E-002
   1.8339251409408078E-003  -2.9429703126006568E-003   6.5390544080123264E-002
  -1.4971764633442785E-002  -1.6935371273520405E-003   2.5933558600641018E-003
  -1.1605889236942236E-002  -1.5713821323533606E-003   1.5727032626978412E-002
  -8.2400138404416755E-003  -1.4936551379241408E-003   2.6600574986699939E-002
  -4.8741384439411279E-003  -1.4603561440644681E-003   3.5213982939228811E-002
  -1.5082630474405664E-003  -1.4714851507741655E-003   4.1567256484564996E-002
   5.1845056026067482E-012   5.7961524468908010E-011  -5.8201393532039680E-002
   6.1874949608409224E-012   4.1362552272161679E-011  -3.2499292600633722E-002
   7.1904565634994810E-012   2.8011426511653781E-011  -1.1268808053030210E-002
   8.1934251050519435E-012   1.7907897387203775E-011   5.4900601107707586E-003
   9.1963936466044061E-012   1.1052214698992202E-011   1.7777311890769310E-002
   2.3069655252758614E-002  -5.8859406362535838E-003  0.11313714827652821     
   2.2398055021286854E-002  -5.9709144122457591E-003  0.10381150763775718     
   2.1726454789815094E-002  -5.9590917156568113E-003   9.6162831520925751E-002
   2.1054854558343321E-002  -5.8504725464869414E-003   9.0191119926034180E-002
   2.0383254326871575E-002  -5.6450569047358234E-003   8.5896372853082381E-002
   1.0026564574340535E-002  -4.4144554744270648E-003   8.9247174677444474E-002
   1.0654662748736325E-002  -4.4781858075983449E-003   8.4479416081258613E-002
   1.1282760923132115E-002  -4.4693187860722003E-003   8.0634089774868148E-002
   1.1910859097527912E-002  -4.3878544098488580E-003   7.7711195758273094E-002
   1.2538957271923702E-002  -4.2337926789280944E-003   7.5710734031473215E-002
   1.8339251409408078E-003  -2.9429703126006568E-003   6.5390544080123264E-002
   3.0071894890597081E-003  -2.9854572029510279E-003   6.5156468408639173E-002
   4.1804538371785979E-003  -2.9795458564878113E-003   6.5090292794805840E-002
   5.3537181852974982E-003  -2.9252362732108857E-003   6.5192017238623445E-002
   6.5269825334163881E-003  -2.8225284531203654E-003   6.5461641740091892E-002
  -1.5082630474405664E-003  -1.4714851507741655E-003   4.1567256484564996E-002
  -5.4436475774301881E-004  -1.4927285983037178E-003   4.5842664619898776E-002
   4.1953353195453569E-004  -1.4897729269033391E-003   4.9531440580738911E-002
   1.3834318216520932E-003  -1.4626181365728855E-003   5.2633584367085567E-002
   2.3473301113496447E-003  -1.4112642273126086E-003   5.5149095978938634E-002
   9.1963936466044061E-012   1.1052214698992202E-011   1.7777311890769310E-002
   8.3281645468780141E-012   6.3436478292544507E-012   2.6538004715037339E-002
   7.4599354471516222E-012   2.6811747266819452E-012   3.3957533132667306E-002
   6.5917098168721822E-012   6.5138866522929106E-014   4.0035897143659196E-002
   5.7234772476988383E-012  -1.5048517987281684E-012   4.4773096748013108E-002
   2.0383254326871575E-002  -5.6450569047358234E-003   8.5896372853082381E-002
   1.9465696576944080E-002  -5.3740055707334200E-003   8.1891595706913678E-002
   1.8548138827016586E-002  -5.0684793248085835E-003   7.8495336604718080E-002
   1.7630581077089091E-002  -4.7284781669619802E-003   7.5707595546495365E-002
   1.6713023327161597E-002  -4.3540020971929438E-003   7.3528372532245867E-002
   1.2538957271923702E-002  -4.2337926789280944E-003   7.5710734031473215E-002
   1.2135135414339381E-002  -4.0305041786737328E-003   7.3473662598061290E-002
   1.1731313556755042E-002  -3.8013594944491524E-003   7.1655544905362717E-002
   1.1327491699170711E-002  -3.5463586262546865E-003   7.0256380953377412E-002
   1.0923669841586395E-002  -3.2655015740901683E-003   6.9276170742105347E-002
   6.5269825334163881E-003  -2.8225284531203654E-003   6.5461641740091892E-002
   6.4473322649154854E-003  -2.6870027866141011E-003   6.4983657291484725E-002
   6.3676819964145828E-003  -2.5342396640898324E-003   6.4735062280331032E-002
   6.2880317279136837E-003  -2.3642390855475592E-003   6.4715856706630784E-002
   6.2083814594127776E-003  -2.1770010509874482E-003   6.4926040570384341E-002
   2.3473301113496447E-003  -1.4112642273126086E-003   5.5149095978938634E-002
   2.4022871286724229E-003  -1.3435013945544416E-003   5.6421579787183970E-002
   2.4572441459952046E-003  -1.2671198337302902E-003   5.7733888729623123E-002
   2.5122011633179854E-003  -1.1821195448405153E-003   5.9086022806256008E-002
   2.5671581806407644E-003  -1.0885005278848114E-003   6.0477982017082994E-002
   5.7234772476988383E-012  -1.5048517987281684E-012   4.4773096748013108E-002
   5.6101998047175528E-012  -2.4947821586351893E-012   4.7787430085159011E-002
   5.4969119533954114E-012  -3.3709701696693628E-012   5.0652024253238920E-002
   5.3836293062436980E-012  -4.1332492983769953E-012   5.3366879252252919E-002
   5.2703466590919845E-012  -4.7818971005142430E-012   5.5931995082201091E-002
   1.6713023327161597E-002  -4.3540020971929438E-003   7.3528372532245867E-002
   1.5672216608465683E-002  -3.9919799813223911E-003   7.1330739901581008E-002
   1.4631409889769742E-002  -3.6893406851707666E-003   6.9495757818860970E-002
   1.3590603171073808E-002  -3.4460842087376750E-003   6.8023426284086141E-002
   1.2549796452377887E-002  -3.2622105520232481E-003   6.6913745297256577E-002
   1.0923669841586395E-002  -3.2655015740901683E-003   6.9276170742105347E-002
   1.0219901453762621E-002  -2.9939849873058810E-003   6.8075031030544325E-002
   9.5161330659388685E-003  -2.7670055152514417E-003   6.7185317432782637E-002
   8.8123646781151088E-003  -2.5845631579274331E-003   6.6607029948819896E-002
   8.1085962902913422E-003  -2.4466579153332169E-003   6.6340168578656378E-002
   6.2083814594127776E-003  -2.1770010509874482E-003   6.4926040570384341E-002
   5.7904269683151689E-003  -1.9959899932890934E-003   6.4736239482916180E-002
   5.3724724772175568E-003  -1.8446703453324081E-003   6.4806640075101049E-002
   4.9545179861199499E-003  -1.7230421071170836E-003   6.5137242346939156E-002
   4.5365634950223360E-003  -1.6311052786432967E-003   6.5728046298430404E-002
   2.5671581806407644E-003  -1.0885005278848114E-003   6.0477982017082994E-002
   2.3837931521232866E-003  -9.9799499927233359E-004   6.1314365258696019E-002
   2.2004281236058095E-003  -9.2233517541322890E-004   6.2359725745816386E-002
   2.0170630950883347E-003  -8.6152105630689889E-004   6.3614063478443714E-002
   1.8336980665708547E-003  -8.1555264195332100E-004   6.5077378456578183E-002
   5.2703466590919845E-012  -4.7818971005142430E-012   5.5931995082201091E-002
   5.1869897266243470E-012  -5.2558513097267223E-012   5.7809408357884118E-002
   5.1036258552628055E-012  -5.4940357818722418E-012   5.9844574444928383E-002
   5.0202637186247401E-012  -5.4965997031697356E-012   6.2037493343333736E-002
   4.9369050514336266E-012  -5.2632342928404796E-012   6.4388165053100299E-002
   1.2549796452377887E-002  -3.2622105520232481E-003   6.6913745297256577E-002
   1.1417490613680997E-002  -3.0774185347884342E-003   6.5130661923444799E-002
   1.0285184774984121E-002  -2.8314069767925720E-003   6.4049688727080778E-002
   9.1528789362872454E-003  -2.5241758780362861E-003   6.3670825708164902E-002
   8.0205730975903555E-003  -2.1557252385195902E-003   6.3994072866696561E-002
   8.1085962902913422E-003  -2.4466579153332169E-003   6.6340168578656378E-002
   7.5736421995311470E-003  -2.3080639022968197E-003   6.5375061240338650E-002
   7.0386881087709241E-003  -2.1235552336452551E-003   6.4902547220446249E-002
   6.5037340180107116E-003  -1.8931319093783115E-003   6.4922626518979162E-002
   5.9687799272505060E-003  -1.6167939294964295E-003   6.5435299135937597E-002
   4.5365634950223360E-003  -1.6311052786432967E-003   6.5728046298430404E-002
   4.3894442931762430E-003  -1.5387092698056215E-003   6.5565610110461289E-002
   4.2423250913301500E-003  -1.4157034904978272E-003   6.5686250381895073E-002
   4.0952058894840569E-003  -1.2620879407206700E-003   6.6089967112731532E-002
   3.9480866876379639E-003  -1.0778626204736019E-003   6.6776760302971111E-002
   1.8336980665708547E-003  -8.1555264195332100E-004   6.5077378456578183E-002
   1.8648968946163311E-003  -7.6935463731427067E-004   6.5702308533812509E-002
   1.8960957226618076E-003  -7.0785174735045475E-004   6.6400798211426859E-002
   1.9272945507072805E-003  -6.3104397206297305E-004   6.7172847489421525E-002
   1.9584933787527604E-003  -5.3893131145060780E-004   6.8018456367796493E-002
   4.9369050514336266E-012  -5.2632342928404796E-012   6.4388165053100299E-002
   3.8513914280002837E-012  -4.8228088189716800E-012   6.5785156510392184E-002
   2.7658882129077966E-012  -4.2031933489283801E-012   6.7046190709042053E-002
   1.6803815283683576E-012  -3.4050817721009707E-012   6.8171267649049572E-002
   5.9487137438196669E-013  -2.4277246879478298E-012   6.9160387330414852E-002
   8.0205730975903555E-003  -2.1557252385195902E-003   6.3994072866696561E-002
   7.0384080520172754E-003  -1.8268200242919086E-003   6.3906097377334214E-002
   6.0562430064441813E-003  -1.6382252014037202E-003   6.4063377341204208E-002
   5.0740779608711012E-003  -1.5899407698546225E-003   6.4465912758306709E-002
   4.0919129152980072E-003  -1.6819667296448237E-003   6.5113703628641995E-002
   5.9687799272505060E-003  -1.6167939294964295E-003   6.5435299135937597E-002
   5.2319417869324675E-003  -1.3701150185844169E-003   6.5255723436878021E-002
   4.4951036466144151E-003  -1.2286689012264707E-003   6.5321546095096106E-002
   3.7582655062963731E-003  -1.1924555774236040E-003   6.5632767110591683E-002
   3.0214273659783381E-003  -1.2614750471748870E-003   6.6189386483364920E-002
   3.9480866876379639E-003  -1.0778626204736019E-003   6.6776760302971111E-002
   3.4567183566199915E-003  -9.1341001287659207E-004   6.6540661991999206E-002
   2.9653500256020225E-003  -8.1911260104947092E-004   6.6550104942349642E-002
   2.4739816945840466E-003  -7.9497038499214828E-004   6.6805089154022959E-002
   1.9826133635660811E-003  -8.4098336470472823E-004   6.7305614627018673E-002
   1.9584933787527604E-003  -5.3893131145060780E-004   6.8018456367796493E-002
   1.7127377610798708E-003  -4.5670500716893381E-004   6.7760913042696991E-002
   1.4669821434069958E-003  -4.0955630087217976E-004   6.7749053882965121E-002
   1.2212265257341070E-003  -3.9748519256102219E-004   6.7982878888600592E-002
   9.7547090806123123E-004  -4.2049168223479150E-004   6.8462388059604071E-002
   5.9487137438196669E-013  -2.4277246879478298E-012   6.9160387330414852E-002
   3.1210450890384323E-013  -1.4612200338603998E-012   6.8916476588972375E-002
   2.9334173978767808E-014  -6.9530492474711991E-013   6.8918392916942239E-002
  -2.5343442622283163E-013  -1.2969486595793001E-013   6.9166136314325027E-002
  -5.3620302642443107E-013   2.3525625891807067E-013   6.9659706781120434E-002
   4.0919129152980072E-003  -1.6819667296448237E-003   6.5113703628641995E-002
   3.5716996234608223E-003  -1.9625107981335876E-003   6.4199009326640577E-002
   3.0514863316236374E-003  -2.4797806926813437E-003   6.3415968312649007E-002
   2.5312730397864663E-003  -3.2337764132871621E-003   6.2764580586666840E-002
   2.0110597479492676E-003  -4.2244979599519450E-003   6.2244846148694188E-002
   3.0214273659783381E-003  -1.2614750471748870E-003   6.6189386483364920E-002
   2.6324673708882362E-003  -1.4718830984752906E-003   6.5098828639207407E-002
   2.2435073757981483E-003  -1.8598355193197302E-003   6.4139124100534961E-002
   1.8545473807080777E-003  -2.4253323097080809E-003   6.3310272867346945E-002
   1.4655873856179724E-003  -3.1683734696404953E-003   6.2612274939643608E-002
   1.9826133635660811E-003  -8.4098336470472823E-004   6.7305614627018673E-002
   1.7241066826983176E-003  -9.8125539881666057E-004   6.6098374697219853E-002
   1.4656000018305540E-003  -1.2398903459583110E-003   6.5021188090380960E-002
   1.2070933209627939E-003  -1.6168882061286596E-003   6.4074054806501926E-002
   9.4858664009502686E-004  -2.1122489793287125E-003   6.3256974845583069E-002
   9.7547090806123123E-004  -4.2049168223479150E-004   6.8462388059604071E-002
   8.4661755889103157E-004  -4.9062769915853011E-004   6.7197647500678345E-002
   7.1776420972083192E-004  -6.1994517259657267E-004   6.6062160282187615E-002
   5.8891086055063834E-004  -8.0844410254940838E-004   6.5055926404132353E-002
   4.6005751138043262E-004  -1.0561244890169852E-003   6.4178945866512002E-002
  -5.3620302642443107E-013   2.3525625891807067E-013   6.9659706781120434E-002
  -5.3360094121046586E-013   5.0015547259363302E-013   6.8396647049582149E-002
  -5.3099538654954870E-013   7.6488815281550160E-013   6.7262040675954704E-002
  -5.2838983188863153E-013   1.0298289998544874E-012   6.6255887660237545E-002
  -5.2578774667466632E-013   1.2946310690153950E-012   6.5378188002430782E-002
   2.0110597479492676E-003  -4.2244979599519450E-003   6.2244846148694188E-002
   2.2624005281908360E-003  -5.5274338302880865E-003   5.8249956605545661E-002
   2.5137413084324184E-003  -7.2180725219080366E-003   5.4244929031502909E-002
   2.7650820886740077E-003  -9.2964140348119756E-003   5.0229763426566154E-002
   3.0164228689155692E-003  -1.1762458368999251E-002   4.6204459790735619E-002
   1.4655873856179724E-003  -3.1683734696404953E-003   6.2612274939643608E-002
   1.6936158439204846E-003  -4.1455753723217970E-003   5.8293442753639846E-002
   1.9216443022230106E-003  -5.4135543909575312E-003   5.3938123954651973E-002
   2.1496727605255193E-003  -6.9723105255473233E-003   4.9546318542680129E-002
   2.3777012188280489E-003  -8.8218437760914092E-003   4.5118026517724230E-002
   9.4858664009502686E-004  -2.1122489793287125E-003   6.3256974845583069E-002
   1.1269541943687289E-003  -2.7637169143555629E-003   5.8711125722052976E-002
   1.3053217486424275E-003  -3.6090362600069981E-003   5.4102441403449303E-002
   1.4836893029161035E-003  -4.6482070162831082E-003   4.9430921889771787E-002
   1.6620568571898281E-003  -5.8812291831837893E-003   4.4696567181020774E-002
   4.6005751138043262E-004  -1.0561244890169852E-003   6.4178945866512002E-002
   5.6241557953554643E-004  -1.3818584563894121E-003   5.9503005510785495E-002
   6.6477364769066804E-004  -1.8045181290564788E-003   5.4737881377895793E-002
   7.6713171584576493E-004  -2.3241035070188966E-003   4.9883573467842932E-002
   8.6948978400088958E-004  -2.9406145902759473E-003   4.4940081780626029E-002
  -5.2578774667466632E-013   1.2946310690153950E-012   6.5378188002430782E-002
  -5.7902294070544258E-013   1.5768497618751098E-012   6.0669082119837681E-002
  -6.3226160418317079E-013   1.8938461909812077E-012   5.5844443877991312E-002
  -6.8548638987309118E-013   2.2455995396519768E-012   5.0904273276892092E-002
  -7.3872852279777135E-013   2.6316726575714711E-012   4.5848570316539217E-002
   5.1845056026067482E-012   5.7961524468908010E-011  -5.8201393532039680E-002
   6.1874949608409224E-012   4.1362552272161679E-011  -3.2499292600633722E-002
   7.1904565634994810E-012   2.8011426511653781E-011  -1.1268808053030210E-002
   8.1934251050519435E-012   1.7907897387203775E-011   5.4900601107707586E-003
   9.1963936466044061E-012   1.1052214698992202E-011   1.7777311890769310E-002
   1.4971764640859767E-002   1.6935372434987439E-003   2.5933558754972497E-003
   1.1605889246523796E-002   1.5713822153272106E-003   1.5727032643284705E-002
   8.2400138521878247E-003   1.4936551944666199E-003   2.6600575004196519E-002
   4.8741384578518468E-003   1.4603561809168331E-003   3.5213982958233012E-002
   1.5082630635158793E-003   1.4714851746779889E-003   4.1567256505394029E-002
   1.6247150119173451E-002   3.3870744290359633E-003   6.3243736269430390E-002
   1.1726881306425595E-002   3.1427643892918411E-003   6.3853416877661995E-002
   7.2066124936777699E-003   2.9873103609217855E-003   6.4414445055945402E-002
   2.6863436809299139E-003   2.9207123439257687E-003   6.4926820804280402E-002
  -1.8339251318179265E-003   2.9429703383036798E-003   6.5390544122667024E-002
   3.8261564401255062E-003   5.0806116145731828E-003  0.12374974764975916     
   3.6297618589286283E-004   4.7141465632564439E-003  0.11187986010249837     
  -3.1002040683397658E-003   4.4809655273769372E-003  0.10217280210221637     
  -6.5633843225723944E-003   4.3810685069346489E-003   9.4628573648912986E-002
  -1.0026564576805038E-002   4.4144555019293569E-003   8.9247174742588503E-002
  -2.2291216396284036E-002   6.7741488001104022E-003  0.18411139001648391     
  -2.2485826115074381E-002   6.2855287372212132E-003  0.15980636231779388     
  -2.2680435833864740E-002   5.9746206938321722E-003  0.13987564614300946     
  -2.2875045552655092E-002   5.8414246699436470E-003  0.12431924149213089     
  -2.3069655271445437E-002   5.8859406655550894E-003  0.11313714836515826     
   9.1963936466044061E-012   1.1052214698992202E-011   1.7777311890769310E-002
   8.3281645468780141E-012   6.3436478292544507E-012   2.6538004715037339E-002
   7.4599354471516222E-012   2.6811747266819452E-012   3.3957533132667306E-002
   6.5917098168721822E-012   6.5138866522929106E-014   4.0035897143659196E-002
   5.7234772476988383E-012  -1.5048517987281684E-012   4.4773096748013108E-002
   1.5082630635158793E-003   1.4714851746779889E-003   4.1567256505394029E-002
   5.4436477238782588E-004   1.4927286134692602E-003   4.5842664638284639E-002
  -4.1953351874022930E-004   1.4897729350096395E-003   4.9531440597293516E-002
  -1.3834318098682845E-003   1.4626181392993244E-003   5.2633584382420759E-002
  -2.3473301009963449E-003   1.4112642263382491E-003   5.5149095993666353E-002
  -1.8339251318179265E-003   2.9429703383036798E-003   6.5390544122667024E-002
  -3.0071894804494445E-003   2.9854572205947616E-003   6.5156468445883187E-002
  -4.1804538290809755E-003   2.9795458673380001E-003   6.5090292827974044E-002
  -5.3537181777125109E-003   2.9252362785335117E-003   6.5192017268939736E-002
  -6.5269825263440245E-003   2.8225284541812112E-003   6.5461641768779943E-002
  -1.0026564576805038E-002   4.4144555019293569E-003   8.9247174742588503E-002
  -1.0654662750183664E-002   4.4781858277202352E-003   8.4479416137833205E-002
  -1.1282760923562302E-002   4.4693187996664129E-003   8.0634089824708974E-002
  -1.1910859096940936E-002   4.3878544177676981E-003   7.7711195803215824E-002
  -1.2538957270319562E-002   4.2337926820241040E-003   7.5710734073353797E-002
  -2.3069655271445437E-002   5.8859406655550894E-003  0.11313714836515826     
  -2.2398055036814829E-002   5.9709144348458754E-003  0.10381150771413447     
  -2.1726454802184211E-002   5.9590917319948533E-003   9.6162831587498193E-002
  -2.1054854567553592E-002   5.8504725570019470E-003   9.0191119985249313E-002
  -2.0383254332922984E-002   5.6450569098672743E-003   8.5896372907387997E-002
   5.7234772476988383E-012  -1.5048517987281684E-012   4.4773096748013108E-002
   5.6101998047175528E-012  -2.4947821586351893E-012   4.7787430085159011E-002
   5.4969119533954114E-012  -3.3709701696693628E-012   5.0652024253238920E-002
   5.3836293062436980E-012  -4.1332492983769953E-012   5.3366879252252919E-002
   5.2703466590919845E-012  -4.7818971005142430E-012   5.5931995082201091E-002
  -2.3473301009963449E-003   1.4112642263382491E-003   5.5149095993666353E-002
  -2.4022871184436051E-003   1.3435013909266491E-003   5.6421579800148169E-002
  -2.4572441358908671E-003   1.2671198278649820E-003   5.7733888741028028E-002
  -2.5122011533381281E-003   1.1821195371535254E-003   5.9086022816305789E-002
  -2.5671581707853892E-003   1.0885005187920016E-003   6.0477982025981536E-002
  -6.5269825263440245E-003   2.8225284541812112E-003   6.5461641768779943E-002
  -6.4473322576613498E-003   2.6870027843480804E-003   6.4983657316833976E-002
  -6.3676819889787037E-003   2.5342396591011007E-003   6.4735062302749793E-002
  -6.2880317202960497E-003   2.3642390784403555E-003   6.4715856726527424E-002
  -6.2083814516133828E-003   2.1770010423657615E-003   6.4926040588167158E-002
  -1.2538957270319562E-002   4.2337926820241040E-003   7.5710734073353797E-002
  -1.2135135412043078E-002   4.0305041777694561E-003   7.3473662635216153E-002
  -1.1731313553766599E-002   3.8013594903371639E-003   7.1655544938404231E-002
  -1.1327491695490110E-002   3.5463586197271579E-003   7.0256380982918240E-002
  -1.0923669837213622E-002   3.2655015659396464E-003   6.9276170768757861E-002
  -2.0383254332922984E-002   5.6450569098672743E-003   8.5896372907387997E-002
  -1.9465696581588754E-002   5.3740055711908874E-003   8.1891595755294921E-002
  -1.8548138830254544E-002   5.0684793215730745E-003   7.8495336647991493E-002
  -1.7630581078920318E-002   4.7284781610139916E-003   7.5707595585477752E-002
  -1.6713023327586105E-002   4.3540020895134757E-003   7.3528372567753741E-002
   5.2703466590919845E-012  -4.7818971005142430E-012   5.5931995082201091E-002
   5.1869897266243470E-012  -5.2558513097267223E-012   5.7809408357884118E-002
   5.1036258552628055E-012  -5.4940357818722418E-012   5.9844574444928383E-002
   5.0202637186247401E-012  -5.4965997031697356E-012   6.2037493343333736E-002
   4.9369050514336266E-012  -5.2632342928404796E-012   6.4388165053100299E-002
  -2.5671581707853892E-003   1.0885005187920016E-003   6.0477982025981536E-002
  -2.3837931424539709E-003   9.9799498927327646E-004   6.1314365266731785E-002
  -2.2004281141225560E-003   9.2233516509078461E-004   6.2359725752950762E-002
  -2.0170630857911367E-003   8.6152104624396056E-004   6.3614063484638148E-002
  -1.8336980574597227E-003   8.1555263273336287E-004   6.5077378461793844E-002
  -6.2083814516133828E-003   2.1770010423657615E-003   6.4926040588167158E-002
  -5.7904269607598237E-003   1.9959899838024320E-003   6.4736239499085121E-002
  -5.3724724699062872E-003   1.8446703356753760E-003   6.4806640089578926E-002
  -4.9545179790527506E-003   1.7230420979846301E-003   6.5137242359648503E-002
  -4.5365634881991915E-003   1.6311052707301266E-003   6.5728046309293964E-002
  -1.0923669837213622E-002   3.2655015659396464E-003   6.9276170768757861E-002
  -1.0219901449730600E-002   2.9939849783314626E-003   6.8075031054943780E-002
  -9.5161330622475851E-003   2.7670055062600819E-003   6.7185317454812626E-002
  -8.8123646747645633E-003   2.5845631497250785E-003   6.6607029968364803E-002
  -8.1085962872815467E-003   2.4466579087269180E-003   6.6340168595600019E-002
  -1.6713023327586105E-002   4.3540020895134757E-003   7.3528372567753741E-002
  -1.5672216609366255E-002   3.9919799728607153E-003   7.1330739934307719E-002
  -1.4631409891146425E-002   3.6893406768446352E-003   6.9495757848652223E-002
  -1.3590603172926593E-002   3.4460842014658495E-003   6.8023426310787241E-002
  -1.2549796454706746E-002   3.2622105467235984E-003   6.6913745320712703E-002
   4.9369050514336266E-012  -5.2632342928404796E-012   6.4388165053100299E-002
   3.8513914280002837E-012  -4.8228088189716800E-012   6.5785156510392184E-002
   2.7658882129077966E-012  -4.2031933489283801E-012   6.7046190709042053E-002
   1.6803815283683576E-012  -3.4050817721009707E-012   6.8171267649049572E-002
   5.9487137438196669E-013  -2.4277246879478298E-012   6.9160387330414852E-002
  -1.8336980574597227E-003   8.1555263273336287E-004   6.5077378461793844E-002
  -1.8648968875414583E-003   7.6935462929494935E-004   6.5702308537882670E-002
  -1.8960957176231974E-003   7.0785174066514966E-004   6.6400798214621498E-002
  -1.9272945477049296E-003   6.3104396684358216E-004   6.7172847492010190E-002
  -1.9584933777866721E-003   5.3893130783078114E-004   6.8018456370048552E-002
  -4.5365634881991915E-003   1.6311052707301266E-003   6.5728046309293964E-002
  -4.3894442879851099E-003   1.5387092634128186E-003   6.5565610118809375E-002
  -4.2423250877710351E-003   1.4157034855336037E-003   6.5686250388266587E-002
  -4.0952058875569535E-003   1.2620879370924681E-003   6.6089967117665613E-002
  -3.9480866873428649E-003   1.0778626180895645E-003   6.6776760307006661E-002
  -8.1085962872815467E-003   2.4466579087269180E-003   6.6340168595600019E-002
  -7.5736421974795824E-003   2.3080638975306322E-003   6.5375061253171440E-002
  -7.0386881076776242E-003   2.1235552304021688E-003   6.4902547229976890E-002
  -6.5037340178756590E-003   1.8931319073412431E-003   6.4922626526016297E-002
  -5.9687799280737017E-003   1.6167939283482646E-003   6.5435299141289455E-002
  -1.2549796454706746E-002   3.2622105467235984E-003   6.6913745320712703E-002
  -1.1417490616024858E-002   3.0774185316484459E-003   6.5130661940969892E-002
  -1.0285184777342964E-002   2.8314069752703452E-003   6.4049688739752919E-002
  -9.1528789386610791E-003   2.5241758775901152E-003   6.3670825717062035E-002
  -8.0205730999791877E-003   2.1557252386068537E-003   6.3994072872896934E-002
   5.9487137438196669E-013  -2.4277246879478298E-012   6.9160387330414852E-002
   3.1210450890384323E-013  -1.4612200338603998E-012   6.8916476588972375E-002
   2.9334173978767808E-014  -6.9530492474711991E-013   6.8918392916942239E-002
  -2.5343442622283163E-013  -1.2969486595793001E-013   6.9166136314325027E-002
  -5.3620302642443107E-013   2.3525625891807067E-013   6.9659706781120434E-002
  -1.9584933777866721E-003   5.3893130783078114E-004   6.8018456370048552E-002
  -1.7127377606327363E-003   4.5670500506744816E-004   6.7760913044200233E-002
  -1.4669821434787952E-003   4.0955629999522847E-004   6.7749053883813276E-002
  -1.2212265263248602E-003   3.9748519261333104E-004   6.7982878888886669E-002
  -9.7547090917091822E-004   4.2049168292213057E-004   6.8462388059421064E-002
  -3.9480866873428649E-003   1.0778626180895645E-003   6.6776760307006661E-002
  -3.4567183567040510E-003   9.1341001159653268E-004   6.6540661994644257E-002
  -2.9653500260652518E-003   8.1911260068552594E-004   6.6550104943790919E-002
  -2.4739816954264453E-003   7.9497038535646450E-004   6.6805089154446495E-002
  -1.9826133647876387E-003   8.4098336560906040E-004   6.7305614626610943E-002
  -5.9687799280737017E-003   1.6167939283482646E-003   6.5435299141289455E-002
  -5.2319417879018726E-003   1.3701150181254645E-003   6.5255723440304073E-002
  -4.4951036477300227E-003   1.2286689013757193E-003   6.5321546096875849E-002
  -3.7582655075581901E-003   1.1924555780995442E-003   6.5632767111004769E-002
  -3.0214273673863437E-003   1.2614750482959070E-003   6.6189386482691029E-002
  -8.0205730999791877E-003   2.1557252386068537E-003   6.3994072872896934E-002
  -7.0384080542261473E-003   1.8268200246543964E-003   6.3906097381179583E-002
  -6.0562430084731209E-003   1.6382252020664401E-003   6.4063377343067773E-002
  -5.0740779627200874E-003   1.5899407708425892E-003   6.4465912758560978E-002
  -4.0919129169670540E-003   1.6819667309828645E-003   6.5113703627659669E-002
  -5.3620302642443107E-013   2.3525625891807067E-013   6.9659706781120434E-002
  -5.3360094121046586E-013   5.0015547259363302E-013   6.8396647049582149E-002
  -5.3099538654954870E-013   7.6488815281550160E-013   6.7262040675954704E-002
  -5.2838983188863153E-013   1.0298289998544874E-012   6.6255887660237545E-002
  -5.2578774667466632E-013   1.2946310690153950E-012   6.5378188002430782E-002
  -9.7547090917091822E-004   4.2049168292213057E-004   6.8462388059421064E-002
  -8.4661755998786253E-004   4.9062770033209135E-004   6.7197647500426450E-002
  -7.1776421080479644E-004   6.1994517425162377E-004   6.6062160281882221E-002
  -5.8891086162173555E-004   8.0844410468287886E-004   6.5055926403788544E-002
  -4.6005751243868853E-004   1.0561244916243995E-003   6.4178945866145365E-002
  -1.9826133647876387E-003   8.4098336560906040E-004   6.7305614626610943E-002
  -1.7241066838840427E-003   9.8125540016330559E-004   6.6098374696670348E-002
  -1.4656000029804389E-003   1.2398903477389422E-003   6.5021188089720378E-002
  -1.2070933220768420E-003   1.6168882083356026E-003   6.4074054805760963E-002
  -9.4858664117323903E-004   2.1122489819536683E-003   6.3256974844792063E-002
  -3.0214273673863437E-003   1.2614750482959070E-003   6.6189386482691029E-002
  -2.6324673722221345E-003   1.4718830999949917E-003   6.5098828638314690E-002
  -2.2435073770579184E-003   1.8598355212256362E-003   6.4139124099469286E-002
  -1.8545473818937053E-003   2.4253323119887114E-003   6.3310272866154371E-002
  -1.4655873867294926E-003   3.1683734722829648E-003   6.2612274938370127E-002
  -4.0919129169670540E-003   1.6819667309828645E-003   6.5113703627659669E-002
  -3.5716996250021449E-003   1.9625107998264557E-003   6.4199009325358714E-002
  -3.0514863330372358E-003   2.4797806947130796E-003   6.3415968311128501E-002
  -2.5312730410723249E-003   3.2337764156414525E-003   6.2764580584969115E-002
  -2.0110597491074175E-003   4.2244979626125945E-003   6.2244846146880195E-002
  -5.2578774667466632E-013   1.2946310690153950E-012   6.5378188002430782E-002
  -5.7902294070544258E-013   1.5768497618751098E-012   6.0669082119837681E-002
  -6.3226160418317079E-013   1.8938461909812077E-012   5.5844443877991312E-002
  -6.8548638987309118E-013   2.2455995396519768E-012   5.0904273276892092E-002
  -7.3872852279777135E-013   2.6316726575714711E-012   4.5848570316539217E-002
  -4.6005751243868853E-004   1.0561244916243995E-003   6.4178945866145365E-002
  -5.6241558069535305E-004   1.3818584595088890E-003   5.9503005510485873E-002
  -6.6477364895204186E-004   1.8045181327701332E-003   5.4737881377672493E-002
  -7.6713171720870291E-004   2.3241035114074868E-003   4.9883573467705861E-002
  -8.6948978546538130E-004   2.9406145954207208E-003   4.4940081780585173E-002
  -9.4858664117323903E-004   2.1122489819536683E-003   6.3256974844792063E-002
  -1.1269541955337779E-003   2.7637169174407616E-003   5.8711125721407603E-002
  -1.3053217498943228E-003   3.6090362636459622E-003   5.4102441402969062E-002
  -1.4836893042548521E-003   4.6482070205690375E-003   4.9430921889476571E-002
  -1.6620568586154065E-003   5.8812291882095469E-003   4.4696567180929514E-002
  -1.4655873867294926E-003   3.1683734722829648E-003   6.2612274938370127E-002
  -1.6936158450943273E-003   4.1455753753729396E-003   5.8293442752602530E-002
  -1.9216443034591687E-003   5.4135543945224643E-003   5.3938123953879841E-002
  -2.1496727618239750E-003   6.9723105297306454E-003   4.9546318542202719E-002
  -2.3777012201888449E-003   8.8218437809984840E-003   4.5118026517571463E-002
  -2.0110597491074175E-003   4.2244979626125945E-003   6.2244846146880195E-002
  -2.2624005293769636E-003   5.5274338333046735E-003   5.8249956604070618E-002
  -2.5137413096465132E-003   7.2180725253982170E-003   5.4244929030405842E-002
  -2.7650820899160766E-003   9.2964140388925101E-003   5.0229763425886503E-002
  -3.0164228701856088E-003   1.1762458373787421E-002   4.6204459790511798E-002
  -2.2291216396284036E-002   6.7741488001104022E-003  0.18411139001648391     
  -2.2485826115074381E-002   6.2855287372212132E-003  0.15980636231779388     
  -2.2680435833864740E-002   5.9746206938321722E-003  0.13987564614300946     
  -2.2875045552655092E-002   5.8414246699436470E-003  0.12431924149213089     
  -2.3069655271445437E-002   5.8859406655550894E-003  0.11313714836515826     
  -4.7473154472098392E-002   9.5130759665857934E-003  0.10557795405293485     
  -4.4496889017176272E-002   9.2712782223322299E-003   9.5731879513930335E-002
  -4.1520623562254187E-002   9.0420501212325199E-003   8.7853243798444836E-002
  -3.8544358107332075E-002   8.8253916632864346E-003   8.1942046906478411E-002
  -3.5568092652409955E-002   8.6213028484939669E-003   7.7998288838031227E-002
  -5.7087843869360798E-002   1.2252003133061101E-002   2.7373911596194872E-002
  -5.3347575941112904E-002   1.2257027707443358E-002   3.1821647840529321E-002
  -4.9607308012865128E-002   1.2109479548632687E-002   3.5829950207996175E-002
  -4.5867040084617262E-002   1.1809358656629191E-002   3.9398818698595343E-002
  -4.2126772156369424E-002   1.1356665031432817E-002   4.2528253312326847E-002
  -5.1135284588071185E-002   1.4990930299536437E-002  -5.0500737353736252E-002
  -4.9037886886884319E-002   1.5242777192554374E-002  -3.1924332702409311E-002
  -4.6940489185697522E-002   1.5176908976032917E-002  -1.6194234628336641E-002
  -4.4843091484510676E-002   1.4793325649972018E-002  -3.3104431315184291E-003
  -4.2745693783323865E-002   1.4092027214371652E-002   6.7270417880454236E-003
  -2.9615476628229581E-002   1.7729857466011800E-002 -0.12804599279685819     
  -3.1567821854490433E-002   1.8228526677665557E-002  -9.5506062114885271E-002
  -3.3520167080751409E-002   1.8244338403433202E-002  -6.8219310710553566E-002
  -3.5472512307012330E-002   1.7777292643314832E-002  -4.6185738583862990E-002
  -3.7424857533273209E-002   1.6827389397310544E-002  -2.9405345734813348E-002
  -2.3069655271445437E-002   5.8859406655550894E-003  0.11313714836515826     
  -2.2398055036814829E-002   5.9709144348458754E-003  0.10381150771413447     
  -2.1726454802184211E-002   5.9590917319948533E-003   9.6162831587498193E-002
  -2.1054854567553592E-002   5.8504725570019470E-003   9.0191119985249313E-002
  -2.0383254332922984E-002   5.6450569098672743E-003   8.5896372907387997E-002
  -3.5568092652409955E-002   8.6213028484939669E-003   7.7998288838031227E-002
  -3.3655180476672097E-002   8.4012100392373001E-003   7.4106066428620249E-002
  -3.1742268300934226E-002   8.1365395978983610E-003   7.1019503377036441E-002
  -2.9829356125196327E-002   7.8272915244768562E-003   6.8738599683279694E-002
  -2.7916443949458490E-002   7.4734658189732905E-003   6.7263355347350062E-002
  -4.2126772156369424E-002   1.1356665031432817E-002   4.2528253312326847E-002
  -3.9843853206084634E-002   1.0831505643628669E-002   4.4121667984588352E-002
  -3.7560934255799865E-002   1.0313987463801702E-002   4.5649436848116426E-002
  -3.5278015305515054E-002   9.8041104919518764E-003   4.7111559902911347E-002
  -3.2995096355230305E-002   9.3018747280793068E-003   4.8508037148973074E-002
  -4.2745693783323865E-002   1.4092027214371652E-002   6.7270417880454236E-003
  -4.0964073225052501E-002   1.3261801248020039E-002   1.3858312382038612E-002
  -3.9182452666781137E-002   1.2491435329705126E-002   2.0052632000738344E-002
  -3.7400832108509759E-002   1.1780929459426924E-002   2.5310000644144348E-002
  -3.5619211550238408E-002   1.1130283637185268E-002   2.9630418312256757E-002
  -3.7424857533273209E-002   1.6827389397310544E-002  -2.9405345734813348E-002
  -3.7015840533575609E-002   1.5692096852411463E-002  -1.6684000379028785E-002
  -3.6606823533878029E-002   1.4668883195608537E-002  -5.7709111650980638E-003
  -3.6197806534180463E-002   1.3757748426901830E-002   3.3339219069785653E-003
  -3.5788789534482876E-002   1.2958692546291395E-002   1.0630498837201408E-002
  -2.0383254332922984E-002   5.6450569098672743E-003   8.5896372907387997E-002
  -1.9465696581588754E-002   5.3740055711908874E-003   8.1891595755294921E-002
  -1.8548138830254544E-002   5.0684793215730745E-003   7.8495336647991493E-002
  -1.7630581078920318E-002   4.7284781610139916E-003   7.5707595585477752E-002
  -1.6713023327586105E-002   4.3540020895134757E-003   7.3528372567753741E-002
  -2.7916443949458490E-002   7.4734658189732905E-003   6.7263355347350062E-002
  -2.6522528902682158E-002   7.0881816773642470E-003   6.5554547581138128E-002
  -2.5128613855905865E-002   6.6845582956264055E-003   6.4189936361020605E-002
  -2.3734698809129547E-002   6.2625956737601095E-003   6.3169521686997632E-002
  -2.2340783762353243E-002   5.8222938117651890E-003   6.2493303559069013E-002
  -3.2995096355230305E-002   9.3018747280793068E-003   4.8508037148973074E-002
  -3.1389145511707114E-002   8.8023577835374123E-003   4.9111334439454951E-002
  -2.9783194668183875E-002   8.3006372696797295E-003   4.9794506777336135E-002
  -2.8177243824660671E-002   7.7967131865062256E-003   5.0557554162616633E-002
  -2.6571292981137477E-002   7.2905855340168746E-003   5.1400476595296521E-002
  -3.5619211550238408E-002   1.1130283637185268E-002   2.9630418312256757E-002
  -3.4065546408663515E-002   1.0516533889710564E-002   3.2561956330245362E-002
  -3.2511881267088587E-002   9.9167162437330571E-003   3.5309047896938117E-002
  -3.0958216125513662E-002   9.3308306992520643E-003   3.7871693012334888E-002
  -2.9404550983938762E-002   8.7588772562685741E-003   4.0249891676435806E-002
  -3.5788789534482876E-002   1.2958692546291395E-002   1.0630498837201408E-002
  -3.4551731593551419E-002   1.2230709995883937E-002   1.5906413253509499E-002
  -3.3314673652619996E-002   1.1532795217786287E-002   2.0733559719826405E-002
  -3.2077615711688559E-002   1.0864948211998435E-002   2.5111938236152376E-002
  -3.0840557770757129E-002   1.0227168978520274E-002   2.9041548802487216E-002
  -1.6713023327586105E-002   4.3540020895134757E-003   7.3528372567753741E-002
  -1.5672216609366255E-002   3.9919799728607153E-003   7.1330739934307719E-002
  -1.4631409891146425E-002   3.6893406768446352E-003   6.9495757848652223E-002
  -1.3590603172926593E-002   3.4460842014658495E-003   6.8023426310787241E-002
  -1.2549796454706746E-002   3.2622105467235984E-003   6.6913745320712703E-002
  -2.2340783762353243E-002   5.8222938117651890E-003   6.2493303559069013E-002
  -2.0980621602018090E-002   5.3842362474561256E-003   6.1690732363999551E-002
  -1.9620459441682919E-002   4.9690065186478172E-003   6.1164221505370209E-002
  -1.8260297281347752E-002   4.5766046253399237E-003   6.0913770983180904E-002
  -1.6900135121012610E-002   4.2070305675325215E-003   6.0939380797431886E-002
  -2.6571292981137477E-002   7.2905855340168746E-003   5.1400476595296521E-002
  -2.4978365590037341E-002   6.7764925220517025E-003   5.1956411853467083E-002
  -2.3385438198937201E-002   6.2486723604508257E-003   5.2701817236727504E-002
  -2.1792510807837052E-002   5.7071250492138851E-003   5.3636692745077777E-002
  -2.0199583416736933E-002   5.1518505883415000E-003   5.4761038378517757E-002
  -2.9404550983938762E-002   8.7588772562685741E-003   4.0249891676435806E-002
  -2.7665448573423998E-002   8.1687487966471961E-003   4.2127778402710196E-002
  -2.5926346162909210E-002   7.5283382022537544E-003   4.4108545042724025E-002
  -2.4187243752394446E-002   6.8376454730882360E-003   4.6192191596477326E-002
  -2.2448141341879651E-002   6.0966706091506728E-003   4.8378718063970177E-002
  -3.0840557770757129E-002   1.0227168978520274E-002   2.9041548802487216E-002
  -2.9041870552178051E-002   9.5610050712426897E-003   3.2204832011729079E-002
  -2.7243183333599007E-002   8.8080040440569052E-003   3.5384404923360036E-002
  -2.5444496115019959E-002   7.9681658969621427E-003   3.8580267537380197E-002
  -2.3645808896440884E-002   7.0414906299595126E-003   4.1792419853789342E-002
  -1.2549796454706746E-002   3.2622105467235984E-003   6.6913745320712703E-002
  -1.1417490616024858E-002   3.0774185316484459E-003   6.5130661940969892E-002
  -1.0285184777342964E-002   2.8314069752703452E-003   6.4049688739752919E-002
  -9.1528789386610791E-003   2.5241758775901152E-003   6.3670825717062035E-002
  -8.0205730999791877E-003   2.1557252386068537E-003   6.3994072872896934E-002
  -1.6900135121012610E-002   4.2070305675325215E-003   6.0939380797431886E-002
  -1.5200133365818772E-002   3.8372529366786923E-003   6.0030546264808193E-002
  -1.3500131610624905E-002   3.4442403242305880E-003   5.9554993386682603E-002
  -1.1800129855431041E-002   3.0279927301890171E-003   5.9512722163054782E-002
  -1.0100128100237228E-002   2.5885101545530809E-003   5.9903732593925174E-002
  -2.0199583416736933E-002   5.1518505883415000E-003   5.4761038378517757E-002
  -1.8200714269059101E-002   4.5970873417087166E-003   5.4764437252722301E-002
  -1.6201845121381279E-002   4.0570736731906087E-003   5.4932289257396655E-002
  -1.4202975973703461E-002   3.5318095827878079E-003   5.5264594392541014E-002
  -1.2204106826025626E-002   3.0212950704996411E-003   5.5761352658155572E-002
  -2.2448141341879651E-002   6.0966706091506728E-003   4.8378718063970177E-002
  -2.0419233325745891E-002   5.3569217467387409E-003   4.9332334904711492E-002
  -1.8390325309612082E-002   4.6699070221507960E-003   5.0181576351894956E-002
  -1.6361417293478300E-002   4.0356264353865988E-003   5.0926442405520286E-002
  -1.4332509277344509E-002   3.4540799864462013E-003   5.1566933065587815E-002
  -2.3645808896440884E-002   7.0414906299595126E-003   4.1792419853789342E-002
  -2.1855690535879102E-002   6.1167561517690983E-003   4.3734239220776461E-002
  -2.0065572175317320E-002   5.2827403711108167E-003   4.5302854670177750E-002
  -1.8275453814755524E-002   4.5394432879854868E-003   4.6498266201992933E-002
  -1.6485335454193756E-002   3.8868649023925395E-003   4.7320473816221953E-002
  -8.0205730999791877E-003   2.1557252386068537E-003   6.3994072872896934E-002
  -7.0384080542261473E-003   1.8268200246543964E-003   6.3906097381179583E-002
  -6.0562430084731209E-003   1.6382252020664401E-003   6.4063377343067773E-002
  -5.0740779627200874E-003   1.5899407708425892E-003   6.4465912758560978E-002
  -4.0919129169670540E-003   1.6819667309828645E-003   6.5113703627659669E-002
  -1.0100128100237228E-002   2.5885101545530809E-003   5.9903732593925174E-002
  -8.8801529050630094E-003   2.2058275139099082E-003   5.9922460693965007E-002
  -7.6601777098888428E-003   1.9599797248451845E-003   6.0171553639241482E-002
  -6.4402025147146623E-003   1.8509667873588820E-003   6.0651011429755430E-002
  -5.2202273195404887E-003   1.8787887014513061E-003   6.1360834065506187E-002
  -1.2204106826025626E-002   3.0212950704996411E-003   5.5761352658155572E-002
  -1.0761212089798574E-002   2.5848350031656975E-003   5.5883308810166232E-002
  -9.3183173535714928E-003   2.2817342476242758E-003   5.6220739199045702E-002
  -7.8754226173444394E-003   2.1119928038757334E-003   5.6773643824794003E-002
  -6.4325278811173583E-003   2.0756106719199696E-003   5.7542022687411126E-002
  -1.4332509277344509E-002   3.4540799864462013E-003   5.1566933065587815E-002
  -1.2681585608432785E-002   2.9638424924211260E-003   5.1788641729783855E-002
  -1.1030661939521116E-002   2.6034887704031381E-003   5.2210934022480657E-002
  -9.3797382706094050E-003   2.3730188203924720E-003   5.2833809943677972E-002
  -7.7288146016977251E-003   2.2724326423886332E-003   5.3657269493375341E-002
  -1.6485335454193756E-002   3.8868649023925395E-003   4.7320473816221953E-002
  -1.4641273460965692E-002   3.3428499816769430E-003   4.7638459452817750E-002
  -1.2797211467737643E-002   2.9252432931821948E-003   4.8142138109545929E-002
  -1.0953149474509614E-002   2.6340448369088984E-003   4.8831509786406241E-002
  -9.1090874812815303E-003   2.4692546128570747E-003   4.9706574483398880E-002
  -4.0919129169670540E-003   1.6819667309828645E-003   6.5113703627659669E-002
  -3.5716996250021449E-003   1.9625107998264557E-003   6.4199009325358714E-002
  -3.0514863330372358E-003   2.4797806947130796E-003   6.3415968311128501E-002
  -2.5312730410723249E-003   3.2337764156414525E-003   6.2764580584969115E-002
  -2.0110597491074175E-003   4.2244979626125945E-003   6.2244846146880195E-002
  -5.2202273195404887E-003   1.8787887014513061E-003   6.1360834065506187E-002
  -4.5468035880397092E-003   2.1384221615756149E-003   6.0665467788930560E-002
  -3.8733798565389627E-003   2.7248438621854110E-003   6.0144869103355980E-002
  -3.1999561250382015E-003   3.6380538032800280E-003   5.9799038008782196E-002
  -2.5265323935374402E-003   4.8780519848596882E-003   5.9627974505209846E-002
  -6.4325278811173583E-003   2.0756106719199696E-003   5.7542022687411126E-002
  -5.5627794071505046E-003   2.3143335233245521E-003   5.7156046851004061E-002
  -4.6930309331836657E-003   2.9699070296576452E-003   5.6987952908527997E-002
  -3.8232824592168038E-003   4.0423311909183850E-003   5.7037740859983151E-002
  -2.9535339852499731E-003   5.5316060071072815E-003   5.7305410705369680E-002
  -7.7288146016977251E-003   2.2724326423886332E-003   5.3657269493375341E-002
  -6.6196270823345544E-003   2.4902448850736003E-003   5.3670746511579354E-002
  -5.5104395629713690E-003   3.2149701971298170E-003   5.3945219726644789E-002
  -4.4012520436081965E-003   4.4466085785568512E-003   5.4480689138571618E-002
  -3.2920645242450128E-003   6.1851600293547360E-003   5.5277154747359995E-002
  -9.1090874812815303E-003   2.4692546128570747E-003   4.9706574483398880E-002
  -7.7173466135918023E-003   2.6661562468227040E-003   5.0209566770656577E-002
  -6.3256057459020465E-003   3.4600333646023773E-003   5.1016669557706396E-002
  -4.9338648782123184E-003   4.8508859661954701E-003   5.2127882844547668E-002
  -3.5421240105225626E-003   6.8387140516021905E-003   5.3543206631180951E-002
  -2.0110597491074175E-003   4.2244979626125945E-003   6.2244846146880195E-002
  -2.2624005293769636E-003   5.5274338333046735E-003   5.8249956604070618E-002
  -2.5137413096465132E-003   7.2180725253982170E-003   5.4244929030405842E-002
  -2.7650820899160766E-003   9.2964140388925101E-003   5.0229763425886503E-002
  -3.0164228701856088E-003   1.1762458373787421E-002   4.6204459790511798E-002
  -2.5265323935374402E-003   4.8780519848596882E-003   5.9627974505209846E-002
  -2.8049294827240216E-003   6.5056065569405463E-003   5.6122651418013980E-002
  -3.0833265719105735E-003   8.5814856695376474E-003   5.2573353743839368E-002
  -3.3617236610971124E-003   1.1105689322651213E-002   4.8980081482685622E-002
  -3.6401207502836791E-003   1.4078217516280800E-002   4.5342834634552354E-002
  -2.9535339852499731E-003   5.5316060071072815E-003   5.7305410705369680E-002
  -3.2928239394777702E-003   7.4837792805761971E-003   5.4350275792903496E-002
  -3.6321138937055672E-003   9.9448988136772859E-003   5.1317329737333980E-002
  -3.9714038479334128E-003   1.2914964606409746E-002   4.8206572538661153E-002
  -4.3106938021612168E-003   1.6393976658774401E-002   4.5018004196884842E-002
  -3.2920645242450128E-003   6.1851600293547360E-003   5.5277154747359995E-002
  -3.7260838996382639E-003   8.4619520042120699E-003   5.2932829728738584E-002
  -4.1601032750314595E-003   1.1308311957816598E-002   5.0476857010890011E-002
  -4.5941226504246620E-003   1.4724239890168586E-002   4.7909236593813999E-002
  -5.0281420258179348E-003   1.8709735801267890E-002   4.5229968477510235E-002
  -3.5421240105225626E-003   6.8387140516021905E-003   5.3543206631180951E-002
  -4.1047093632053944E-003   9.4401247278476097E-003   5.1870313225520159E-002
  -4.6672947158882816E-003   1.2671725101956188E-002   5.0051935564507710E-002
  -5.2298800685711827E-003   1.6533515173927052E-002   4.8088073648143881E-002
  -5.7924654212540005E-003   2.1025494943761380E-002   4.5978727476428283E-002
  -2.9615476628229581E-002   1.7729857466011800E-002 -0.12804599279685819     
  -3.1567821854490433E-002   1.8228526677665557E-002  -9.5506062114885271E-002
  -3.3520167080751409E-002   1.8244338403433202E-002  -6.8219310710553566E-002
  -3.5472512307012330E-002   1.7777292643314832E-002  -4.6185738583862990E-002
  -3.7424857533273209E-002   1.6827389397310544E-002  -2.9405345734813348E-002
  -8.8548301550507649E-003   2.2104542265142135E-002  -5.1839838527367149E-002
  -1.4703234168148858E-002   2.0442030043352016E-002  -3.5169604093806706E-002
  -2.0551638181246935E-002   1.8979885132770338E-002  -2.1038307956279478E-002
  -2.6400042194344997E-002   1.7718107533396924E-002  -9.4459501147855160E-003
  -3.2248446207443118E-002   1.6656697245231999E-002  -3.9253056932470054E-004
  -5.1797553337495708E-003   2.6479227064272470E-002   2.1863521910132883E-002
  -1.2209977152076966E-002   2.2655533409038614E-002   2.3347284892375322E-002
  -1.9240198970404243E-002   1.9715431862107446E-002   2.5006350560192306E-002
  -2.6270420788731610E-002   1.7658922423479044E-002   2.6840718913584041E-002
  -3.3300642607059033E-002   1.6486005093153344E-002   2.8850389952550334E-002
  -1.8590252164325825E-002   3.0853911863402778E-002   9.3064088515642143E-002
  -2.4088050806274609E-002   2.4869036774725226E-002   8.0044604843660730E-002
  -2.9585849448223445E-002   2.0450978591444596E-002   6.9914664838861967E-002
  -3.5083648090172226E-002   1.7599737313561150E-002   6.2674268501245703E-002
  -4.0581446732121058E-002   1.6315312941074772E-002   5.8323415830811881E-002
  -4.9086320646779757E-002   3.5228596662533140E-002  0.16176186128916031     
  -5.0337455130742059E-002   2.7082540140411782E-002  0.13492235576004957     
  -5.1588589614704417E-002   2.1186525320781704E-002  0.11368663487972927     
  -5.2839724098666718E-002   1.7540552203643204E-002   9.8054698648199393E-002
  -5.4090858582629048E-002   1.6144620788996089E-002   8.8026547065459926E-002
  -3.7424857533273209E-002   1.6827389397310544E-002  -2.9405345734813348E-002
  -3.7015840533575609E-002   1.5692096852411463E-002  -1.6684000379028785E-002
  -3.6606823533878029E-002   1.4668883195608537E-002  -5.7709111650980638E-003
  -3.6197806534180463E-002   1.3757748426901830E-002   3.3339219069785653E-003
  -3.5788789534482876E-002   1.2958692546291395E-002   1.0630498837201408E-002
  -3.2248446207443118E-002   1.6656697245231999E-002  -3.9253056932470054E-004
  -3.3189247127932912E-002   1.5725451403150154E-002   6.6446655172073266E-003
  -3.4130048048422811E-002   1.4854167142026101E-002   1.2790481905218407E-002
  -3.5070848968912660E-002   1.4042844461860039E-002   1.8044918594708526E-002
  -3.6011649889402510E-002   1.3291483362651790E-002   2.2407975585677697E-002
  -3.3300642607059033E-002   1.6486005093153344E-002   2.8850389952550334E-002
  -3.4674385004403369E-002   1.5758805953888788E-002   3.0151319462691506E-002
  -3.6048127401747683E-002   1.5039451088443727E-002   3.1477745717644688E-002
  -3.7421869799092053E-002   1.4327940496818138E-002   3.2829668717409957E-002
  -3.8795612196436388E-002   1.3624274179012047E-002   3.4207088461987098E-002
  -4.0581446732121058E-002   1.6315312941074772E-002   5.8323415830811881E-002
  -4.1471254162986824E-002   1.5792160504627478E-002   5.3835961457423823E-002
  -4.2361061593852702E-002   1.5224735034861294E-002   5.0290880272180642E-002
  -4.3250869024718558E-002   1.4613036531776237E-002   4.7688172275082506E-002
  -4.4140676455584352E-002   1.3957064995372373E-002   4.6027837466129387E-002
  -5.4090858582629048E-002   1.6144620788996089E-002   8.8026547065459926E-002
  -5.3579854603683419E-002   1.5825515055366141E-002   7.7698591501404235E-002
  -5.3068850624737804E-002   1.5410018981278875E-002   6.9229885568826477E-002
  -5.2557846645792182E-002   1.4898132566734435E-002   6.2620429267726638E-002
  -5.2046842666846616E-002   1.4289855811732699E-002   5.7870222598104759E-002
  -3.5788789534482876E-002   1.2958692546291395E-002   1.0630498837201408E-002
  -3.4551731593551419E-002   1.2230709995883937E-002   1.5906413253509499E-002
  -3.3314673652619996E-002   1.1532795217786287E-002   2.0733559719826405E-002
  -3.2077615711688559E-002   1.0864948211998435E-002   2.5111938236152376E-002
  -3.0840557770757129E-002   1.0227168978520274E-002   2.9041548802487216E-002
  -3.6011649889402510E-002   1.3291483362651790E-002   2.2407975585677697E-002
  -3.5093106968316030E-002   1.2591374681669959E-002   2.5289346493920201E-002
  -3.4174564047229544E-002   1.1933809256183411E-002   2.7982455312463878E-002
  -3.3256021126143065E-002   1.1318787086192005E-002   3.0487302041308811E-002
  -3.2337478205056600E-002   1.0746308171695806E-002   3.2803886680454974E-002
  -3.8795612196436388E-002   1.3624274179012047E-002   3.4207088461987098E-002
  -3.7935078434902583E-002   1.2952039367455981E-002   3.4706391345349419E-002
  -3.7074544673368709E-002   1.2334823294580528E-002   3.5277937999305349E-002
  -3.6214010911834911E-002   1.1772625960385629E-002   3.5921728423854563E-002
  -3.5353477150301085E-002   1.1265447364871450E-002   3.6637762618997344E-002
  -4.4140676455584352E-002   1.3957064995372373E-002   4.6027837466129387E-002
  -4.3077645993310980E-002   1.3312704053242114E-002   4.4157547807797001E-002
  -4.2014615531037511E-002   1.2735837332977760E-002   4.2620007780350418E-002
  -4.0951585068764104E-002   1.2226464834579558E-002   4.1415217383789608E-002
  -3.9888554606490670E-002   1.1784586558047094E-002   4.0543176618114407E-002
  -5.2046842666846616E-002   1.4289855811732699E-002   5.7870222598104759E-002
  -5.0520809643541276E-002   1.3673368739028052E-002   5.3642815881263073E-002
  -4.8994776620235936E-002   1.3136851371374908E-002   5.0008664655599444E-002
  -4.7468743596930624E-002   1.2680303708773023E-002   4.6967768921113762E-002
  -4.5942710573625284E-002   1.2303725751222738E-002   4.4520128677806192E-002
  -3.0840557770757129E-002   1.0227168978520274E-002   2.9041548802487216E-002
  -2.9041870552178051E-002   9.5610050712426897E-003   3.2204832011729079E-002
  -2.7243183333599007E-002   8.8080040440569052E-003   3.5384404923360036E-002
  -2.5444496115019959E-002   7.9681658969621427E-003   3.8580267537380197E-002
  -2.3645808896440884E-002   7.0414906299595126E-003   4.1792419853789342E-002
  -3.2337478205056600E-002   1.0746308171695806E-002   3.2803886680454974E-002
  -3.0489442707470608E-002   1.0146879926892977E-002   3.4389510437360993E-002
  -2.8641407209884687E-002   9.4510097659813441E-003   3.6057541049891756E-002
  -2.6793371712298730E-002   8.6586976889610756E-003   3.7807978518047042E-002
  -2.4945336214712774E-002   7.7699436958323376E-003   3.9640822841827295E-002
  -3.5353477150301085E-002   1.1265447364871450E-002   3.6637762618997344E-002
  -3.3389976220472649E-002   1.0732754782543097E-002   3.6636122127367360E-002
  -3.1426475290644275E-002   1.0094015487905839E-002   3.6783005644597619E-002
  -2.9462974360815877E-002   9.3492294809599530E-003   3.7078413170688024E-002
  -2.7499473430987471E-002   8.4983967617052181E-003   3.7522344705638755E-002
  -3.9888554606490670E-002   1.1784586558047094E-002   4.0543176618114407E-002
  -3.7743471091184262E-002   1.1318629638193356E-002   3.8944667081748249E-002
  -3.5598387575877903E-002   1.0737021209830472E-002   3.7560798707477749E-002
  -3.3453304060571468E-002   1.0039761272958747E-002   3.6391571495303254E-002
  -3.1308220545265136E-002   9.2268498275777933E-003   3.5436985445224417E-002
  -4.5942710573625284E-002   1.2303725751222738E-002   4.4520128677806192E-002
  -4.3549927319605358E-002   1.1904504493843615E-002   4.1315145300503620E-002
  -4.1157144065585419E-002   1.1380026931754827E-002   3.8390920238532300E-002
  -3.8764360811565444E-002   1.0730293064957555E-002   3.5747453491892317E-002
  -3.6371577557545554E-002   9.9553028934508125E-003   3.3384745060583865E-002
  -2.3645808896440884E-002   7.0414906299595126E-003   4.1792419853789342E-002
  -2.1855690535879102E-002   6.1167561517690983E-003   4.3734239220776461E-002
  -2.0065572175317320E-002   5.2827403711108167E-003   4.5302854670177750E-002
  -1.8275453814755524E-002   4.5394432879854868E-003   4.6498266201992933E-002
  -1.6485335454193756E-002   3.8868649023925395E-003   4.7320473816221953E-002
  -2.4945336214712774E-002   7.7699436958323376E-003   3.9640822841827295E-002
  -2.3409645685706706E-002   6.8782123557450392E-003   4.0537411356703690E-002
  -2.1873955156700639E-002   6.0769682378486040E-003   4.1298348126054873E-002
  -2.0338264627694596E-002   5.3662113421439790E-003   4.1923633149880374E-002
  -1.8802574098688504E-002   4.7459416686301825E-003   4.2413266428180718E-002
  -2.7499473430987471E-002   8.4983967617052181E-003   3.7522344705638755E-002
  -2.5980658561476577E-002   7.6396685597209246E-003   3.7373470893063490E-002
  -2.4461843691965683E-002   6.8711961045865022E-003   3.7326497507023076E-002
  -2.2943028822454803E-002   6.1929793963021382E-003   3.7381424547517875E-002
  -2.1424213952943895E-002   5.6050184348677701E-003   3.7538252014547885E-002
  -3.1308220545265136E-002   9.2268498275777933E-003   3.5436985445224417E-002
  -2.9568729163188767E-002   8.4011247636969488E-003   3.4242417829855584E-002
  -2.7829237781112459E-002   7.6654239713244560E-003   3.3387302813082650E-002
  -2.6089746399036173E-002   7.0197474504607414E-003   3.2871640394905227E-002
  -2.4350255016959838E-002   6.4640952011052744E-003   3.2695430575323613E-002
  -3.6371577557545554E-002   9.9553028934508125E-003   3.3384745060583865E-002
  -3.4173857490843229E-002   9.1625809676726955E-003   3.1144252167080277E-002
  -3.1976137424140988E-002   8.4596518380621599E-003   2.9480764044233221E-002
  -2.9778417357438663E-002   7.8465155046187826E-003   2.8394280692042306E-002
  -2.7580697290736422E-002   7.3231719673428897E-003   2.7884802110507589E-002
  -1.6485335454193756E-002   3.8868649023925395E-003   4.7320473816221953E-002
  -1.4641273460965692E-002   3.3428499816769430E-003   4.7638459452817750E-002
  -1.2797211467737643E-002   2.9252432931821948E-003   4.8142138109545929E-002
  -1.0953149474509614E-002   2.6340448369088984E-003   4.8831509786406241E-002
  -9.1090874812815303E-003   2.4692546128570747E-003   4.9706574483398880E-002
  -1.8802574098688504E-002   4.7459416686301825E-003   4.2413266428180718E-002
  -1.6794507494921507E-002   4.2059262510790729E-003   4.2503377206400295E-002
  -1.4786440891154412E-002   3.7359321232614540E-003   4.2735804185565385E-002
  -1.2778374287387366E-002   3.3359592851782277E-003   4.3110547365676502E-002
  -1.0770307683620375E-002   3.0060077368281313E-003   4.3627606746732883E-002
  -2.1424213952943895E-002   5.6050184348677701E-003   3.7538252014547885E-002
  -1.9295519557824346E-002   5.0690025204812306E-003   3.7344100991903550E-002
  -1.7166825162704780E-002   4.5466209533409491E-003   3.7248889351018402E-002
  -1.5038130767585192E-002   4.0378737334470054E-003   3.7252617091892530E-002
  -1.2909436372465666E-002   3.5427608607991878E-003   3.7355284214525886E-002
  -2.4350255016959838E-002   6.4640952011052744E-003   3.2695430575323613E-002
  -2.2144309649674225E-002   5.9320787898834298E-003   3.2160630809327642E-002
  -1.9938364282388647E-002   5.3573097834205483E-003   3.1681393605904606E-002
  -1.7732418915103052E-002   4.7397881817160589E-003   3.1257718965054332E-002
  -1.5526473547817513E-002   4.0795139847702999E-003   3.0889606886776888E-002
  -2.7580697290736422E-002   7.3231719673428897E-003   2.7884802110507589E-002
  -2.5340877770471254E-002   6.7951550592855181E-003   2.6952966658672861E-002
  -2.3101058250206113E-002   6.1679986134998144E-003   2.6033316950224483E-002
  -2.0861238729940945E-002   5.4417026299850846E-003   2.5125852985162178E-002
  -1.8621419209675805E-002   4.6162671087414120E-003   2.4230574763486334E-002
  -9.1090874812815303E-003   2.4692546128570747E-003   4.9706574483398880E-002
  -7.7173466135918023E-003   2.6661562468227040E-003   5.0209566770656577E-002
  -6.3256057459020465E-003   3.4600333646023773E-003   5.1016669557706396E-002
  -4.9338648782123184E-003   4.8508859661954701E-003   5.2127882844547668E-002
  -3.5421240105225626E-003   6.8387140516021905E-003   5.3543206631180951E-002
  -1.0770307683620375E-002   3.0060077368281313E-003   4.3627606746732883E-002
  -9.0492465441682074E-003   2.9815337841496148E-003   4.4246855012166908E-002
  -7.3281854047161851E-003   3.4979937330812394E-003   4.5220633321333886E-002
  -5.6071242652640969E-003   4.5553875836218394E-003   4.6548941674233749E-002
  -3.8860631258119949E-003   6.1537153357726915E-003   4.8231780070866370E-002
  -1.2909436372465666E-002   3.5427608607991878E-003   3.7355284214525886E-002
  -1.0808635417309944E-002   3.2969113214771639E-003   3.8034746875931391E-002
  -8.7078344621542431E-003   3.5359541015603513E-003   3.9119159125011072E-002
  -6.6070335069984797E-003   4.2598892010491038E-003   4.0608520961764885E-002
  -4.5062325518428203E-003   5.4687166199430814E-003   4.2502832386193179E-002
  -1.5526473547817513E-002   4.0795139847702999E-003   3.0889606886776888E-002
  -1.2995513233016849E-002   3.6122888588042829E-003   3.1573242361949624E-002
  -1.0464552918216210E-002   3.5739144700395603E-003   3.2712246968738264E-002
  -7.9335926034155603E-003   3.9643908184759206E-003   3.4306620707142313E-002
  -5.4026322886149072E-003   4.7837179041134159E-003   3.6356363577161946E-002
  -1.8621419209675805E-002   4.6162671087414120E-003   2.4230574763486334E-002
  -1.5609879991288961E-002   3.9276663961319014E-003   2.4862341470222149E-002
  -1.2598340772902089E-002   3.6118748385185195E-003   2.5999896852515192E-002
  -9.5868015545152174E-003   3.6688924359030636E-003   2.7643240910364825E-002
  -6.5752623361283735E-003   4.0987191882839724E-003   2.9792373643771297E-002
  -3.5421240105225626E-003   6.8387140516021905E-003   5.3543206631180951E-002
  -4.1047093632053944E-003   9.4401247278476097E-003   5.1870313225520159E-002
  -4.6672947158882816E-003   1.2671725101956188E-002   5.0051935564507710E-002
  -5.2298800685711827E-003   1.6533515173927052E-002   4.8088073648143881E-002
  -5.7924654212540005E-003   2.1025494943761380E-002   4.5978727476428283E-002
  -3.8860631258119949E-003   6.1537153357726915E-003   4.8231780070866370E-002
  -4.4895740880787349E-003   8.6042146280895793E-003   4.7284014438525701E-002
  -5.0930850503455166E-003   1.2218123099131062E-002   4.6399881842369262E-002
  -5.6965960126122844E-003   1.6995440748896057E-002   4.5579382282396136E-002
  -6.3001069748790384E-003   2.2936167577384925E-002   4.4822515758607517E-002
  -4.5062325518428203E-003   5.4687166199430814E-003   4.2502832386193179E-002
  -4.9415518321577444E-003   7.7683045283320484E-003   4.2813414008033623E-002
  -5.3768711124726754E-003   1.1764521096306130E-002   4.3396745957593547E-002
  -5.8121903927877173E-003   1.7457366323864666E-002   4.4252828234872893E-002
  -6.2475096731025304E-003   2.4846840211008248E-002   4.5381660839872384E-002
  -5.4026322886149072E-003   4.7837179041134159E-003   3.6356363577161946E-002
  -5.4606425954423421E-003   6.9323944285742678E-003   3.8458511934043871E-002
  -5.5186529022697786E-003   1.1310919093480878E-002   4.1042527910181266E-002
  -5.5766632090972707E-003   1.7919291898833140E-002   4.4108411505574374E-002
  -5.6346735159246500E-003   2.6757512844631570E-002   4.7656162720222051E-002
  -6.5752623361283735E-003   4.0987191882839724E-003   2.9792373643771297E-002
  -6.0468463779326243E-003   6.0964843288162651E-003   3.4219308216556166E-002
  -5.5184304197368750E-003   1.0857317090656238E-002   3.9337227700132038E-002
  -4.9900144615411118E-003   1.8381217473802156E-002   4.5146132094498748E-002
  -4.4615985033453764E-003   2.8668185478255115E-002   5.1646021399657016E-002
  -4.9086320646779757E-002   3.5228596662533140E-002  0.16176186128916031     
  -5.0337455130742059E-002   2.7082540140411782E-002  0.13492235576004957     
  -5.1588589614704417E-002   2.1186525320781704E-002  0.11368663487972927     
  -5.2839724098666718E-002   1.7540552203643204E-002   9.8054698648199393E-002
  -5.4090858582629048E-002   1.6144620788996089E-002   8.8026547065459926E-002
  -7.9416403525392698E-002   1.4466609553134224E-002   9.2696463290383779E-002
  -7.6776660576226674E-002   1.7431583203554146E-002   8.2136543248980870E-002
  -7.4136917627060761E-002   1.9296414839103451E-002   7.3754593425044229E-002
  -7.1497174677894820E-002   2.0061104459782059E-002   6.7550613818573579E-002
  -6.8857431728728880E-002   1.9725652065589960E-002   6.3524604429568976E-002
  -9.2328943544445680E-002  -6.2953775562647751E-003   3.6417187322829545E-002
  -8.9224137593475805E-002   7.7806262666966219E-003   3.8786669051772596E-002
  -8.6119331642505945E-002   1.7406304357425191E-002   3.9908306566857267E-002
  -8.3014525691536112E-002   2.2581656715920911E-002   3.9782099868083690E-002
  -7.9909719740566237E-002   2.3306683342183693E-002   3.8408048955451995E-002
  -8.7823940703939174E-002  -2.7057364665663761E-002  -7.0759666135018461E-003
  -8.7679886182489702E-002  -1.8703306701608746E-003   4.8727331684242890E-003
  -8.7535831661040203E-002   1.5516193875746907E-002   1.2147774305168587E-002
  -8.7391777139590704E-002   2.5102208972059822E-002   1.4749156796730056E-002
  -8.7247722618141205E-002   2.6887714618777467E-002   1.2676880643108793E-002
  -6.5901395003872931E-002  -4.7819351775062691E-002  -3.7782998518611111E-002
  -7.2143906343268172E-002  -1.1521287607018538E-002  -1.9605264401063083E-002
  -7.8386417682663301E-002   1.3626083394068622E-002  -9.5270033600220461E-003
  -8.4628929022058486E-002   2.7622761228198470E-002  -7.5482153954878478E-003
  -9.0871440361453670E-002   3.0468745895371296E-002  -1.3668900507460446E-002
  -5.4090858582629048E-002   1.6144620788996089E-002   8.8026547065459926E-002
  -5.3579854603683419E-002   1.5825515055366141E-002   7.7698591501404235E-002
  -5.3068850624737804E-002   1.5410018981278875E-002   6.9229885568826477E-002
  -5.2557846645792182E-002   1.4898132566734435E-002   6.2620429267726638E-002
  -5.2046842666846616E-002   1.4289855811732699E-002   5.7870222598104759E-002
  -6.8857431728728880E-002   1.9725652065589960E-002   6.3524604429568976E-002
  -6.6815145745324739E-002   1.8873492430046560E-002   5.6568134968611752E-002
  -6.4772859761920598E-002   1.8088060326671179E-002   5.0814979885093634E-002
  -6.2730573778516457E-002   1.7369355755464465E-002   4.6265139179014585E-002
  -6.0688287795112331E-002   1.6717378716425479E-002   4.2918612850374543E-002
  -7.9909719740566237E-002   2.3306683342183693E-002   3.8408048955451995E-002
  -7.6992087006742538E-002   2.1921469804726992E-002   3.4986183470218743E-002
  -7.4074454272918727E-002   2.0766101672063809E-002   3.2111697108385649E-002
  -7.1156821539094958E-002   1.9840578944194269E-002   2.9784589869952815E-002
  -6.8239188805271259E-002   1.9144901621118204E-002   2.8004861754919966E-002
  -8.7247722618141205E-002   2.6887714618777467E-002   1.2676880643108793E-002
  -8.4110678387936677E-002   2.4969447179407279E-002   1.2952737006224960E-002
  -8.0973634157732149E-002   2.3444143017456166E-002   1.3120037238702172E-002
  -7.7836589927527594E-002   2.2311802132924188E-002   1.3178781340541023E-002
  -7.4699545697323094E-002   2.1572424525811179E-002   1.3128969311741026E-002
  -9.0871440361453670E-002   3.0468745895371296E-002  -1.3668900507460446E-002
  -8.8170919888907240E-002   2.8017424554087900E-002  -9.5322044233698278E-003
  -8.5470399416360865E-002   2.6122184362848466E-002  -6.1599997239562693E-003
  -8.2769878943814518E-002   2.4783025321654259E-002  -3.5522864092205793E-003
  -8.0069358471268059E-002   2.3999947430503710E-002  -1.7090644791623033E-003
  -5.2046842666846616E-002   1.4289855811732699E-002   5.7870222598104759E-002
  -5.0520809643541276E-002   1.3673368739028052E-002   5.3642815881263073E-002
  -4.8994776620235936E-002   1.3136851371374908E-002   5.0008664655599444E-002
  -4.7468743596930624E-002   1.2680303708773023E-002   4.6967768921113762E-002
  -4.5942710573625284E-002   1.2303725751222738E-002   4.4520128677806192E-002
  -6.0688287795112331E-002   1.6717378716425479E-002   4.2918612850374543E-002
  -5.8608472093901257E-002   1.6108736238898691E-002   3.9792233086321294E-002
  -5.6528656392690051E-002   1.5520035352227624E-002   3.7180163186901635E-002
  -5.4448840691478928E-002   1.4951276056412624E-002   3.5082403152115728E-002
  -5.2369024990267771E-002   1.4402458351453318E-002   3.3498952981963370E-002
  -6.8239188805271259E-002   1.9144901621118204E-002   2.8004861754919966E-002
  -6.5684536052698625E-002   1.8544103738769205E-002   2.5919480829459496E-002
  -6.3129883300125950E-002   1.7903219333080492E-002   2.4269464142088124E-002
  -6.0575230547553371E-002   1.7222248404052166E-002   2.3054811692806612E-002
  -5.8020577794980648E-002   1.6501190951683842E-002   2.2275523481613768E-002
  -7.4699545697323094E-002   2.1572424525811179E-002   1.3128969311741026E-002
  -7.1749001519933367E-002   2.0979471238639753E-002   1.2024559110677600E-002
  -6.8798457342543612E-002   2.0286403313933173E-002   1.1276567521159415E-002
  -6.5847913165153885E-002   1.9493220751691513E-002   1.0884994543185892E-002
  -6.2897368987764143E-002   1.8599923551914116E-002   1.0849840176757192E-002
  -8.0069358471268059E-002   2.3999947430503710E-002  -1.7090644791623033E-003
  -7.6801868495605663E-002   2.3414838738510524E-002  -1.8925320700238224E-003
  -7.3534378519943100E-002   2.2669587294785881E-002  -1.7985266758852037E-003
  -7.0266888544280676E-002   2.1764193099331065E-002  -1.4270482967455866E-003
  -6.6999398568618140E-002   2.0698656152144834E-002  -7.7809693260566526E-004
  -4.5942710573625284E-002   1.2303725751222738E-002   4.4520128677806192E-002
  -4.3549927319605358E-002   1.1904504493843615E-002   4.1315145300503620E-002
  -4.1157144065585419E-002   1.1380026931754827E-002   3.8390920238532300E-002
  -3.8764360811565444E-002   1.0730293064957555E-002   3.5747453491892317E-002
  -3.6371577557545554E-002   9.9553028934508125E-003   3.3384745060583865E-002
  -5.2369024990267771E-002   1.4402458351453318E-002   3.3498952981963370E-002
  -4.9699015341913316E-002   1.3826526602064515E-002   3.0965486303381529E-002
  -4.7029005693558862E-002   1.3176425172961290E-002   2.8705714098137491E-002
  -4.4358996045204421E-002   1.2452154064143833E-002   2.6719636366231203E-002
  -4.1688986396849953E-002   1.1653713275611377E-002   2.5007253107662497E-002
  -5.8020577794980648E-002   1.6501190951683842E-002   2.2275523481613768E-002
  -5.5080405594285328E-002   1.5748548710285581E-002   2.0464660126747330E-002
  -5.2140233393590057E-002   1.4972823414167641E-002   1.8920427403225262E-002
  -4.9200061192894752E-002   1.4174015063329833E-002   1.7642825311047071E-002
  -4.6259888992199460E-002   1.3352123657771997E-002   1.6631853850213124E-002
  -6.2897368987764143E-002   1.8599923551914116E-002   1.0849840176757192E-002
  -5.9694098076721588E-002   1.7670570818506787E-002   9.8126667706012298E-003
  -5.6490827165679026E-002   1.6769221655373825E-002   9.0350601537958347E-003
  -5.3287556254636458E-002   1.5895876062516471E-002   8.5170203263403195E-003
  -5.0084285343593916E-002   1.5050534039932922E-002   8.2585472882355168E-003
  -6.6999398568618140E-002   2.0698656152144834E-002  -7.7809693260566526E-004
  -6.3540092789221903E-002   1.9592592926727215E-002  -9.9049376505699893E-004
  -6.0080787009825776E-002   1.8565619896580315E-002  -9.5038765015145743E-004
  -5.6621481230429593E-002   1.7617737061702297E-002  -6.5777858788943627E-004
  -5.3162175451033411E-002   1.6748944422093404E-002  -1.1266657827013749E-004
  -3.6371577557545554E-002   9.9553028934508125E-003   3.3384745060583865E-002
  -3.4173857490843229E-002   9.1625809676726955E-003   3.1144252167080277E-002
  -3.1976137424140988E-002   8.4596518380621599E-003   2.9480764044233221E-002
  -2.9778417357438663E-002   7.8465155046187826E-003   2.8394280692042306E-002
  -2.7580697290736422E-002   7.3231719673428897E-003   2.7884802110507589E-002
  -4.1688986396849953E-002   1.1653713275611377E-002   2.5007253107662497E-002
  -3.9006388046836010E-002   1.0839339780750745E-002   2.3487188502381573E-002
  -3.6323789696822081E-002   1.0067270552947066E-002   2.2359875693067965E-002
  -3.3641191346808132E-002   9.3375055922010272E-003   2.1625314679721286E-002
  -3.0958592996794210E-002   8.6500448985118439E-003   2.1283505462341423E-002
  -4.6259888992199460E-002   1.3352123657771997E-002   1.6631853850213124E-002
  -4.3276665333563051E-002   1.2516098593828268E-002   1.5784729004045012E-002
  -4.0293441674926711E-002   1.1674889267831876E-002   1.5146102979154641E-002
  -3.7310218016290329E-002   1.0828495679782831E-002   1.4715975775542324E-002
  -3.4326994357654017E-002   9.9769178296810757E-003   1.4494347393207679E-002
  -5.0084285343593916E-002   1.5050534039932922E-002   8.2585472882355168E-003
  -4.6984689351024359E-002   1.4192857406906387E-002   8.0368736720701633E-003
  -4.3885093358454766E-002   1.3282507982716400E-002   7.8394459024935005E-003
  -4.0785497365885208E-002   1.2319485767364855E-002   7.6662639795056203E-003
  -3.7685901373315608E-002   1.1303790760850280E-002   7.5173279031061982E-003
  -5.3162175451033411E-002   1.6748944422093404E-002  -1.1266657827013749E-004
  -5.0130460099219842E-002   1.5869616219983840E-002   2.4362250645770800E-004
  -4.7098744747406329E-002   1.4890126697601369E-002   4.3990446308442288E-004
  -4.4067029395592761E-002   1.3810475854946824E-002   4.7617929161140188E-004
  -4.1035314043779247E-002   1.2630663692019484E-002   3.5244699203662577E-004
  -2.7580697290736422E-002   7.3231719673428897E-003   2.7884802110507589E-002
  -2.5340877770471254E-002   6.7951550592855181E-003   2.6952966658672861E-002
  -2.3101058250206113E-002   6.1679986134998144E-003   2.6033316950224483E-002
  -2.0861238729940945E-002   5.4417026299850846E-003   2.5125852985162178E-002
  -1.8621419209675805E-002   4.6162671087414120E-003   2.4230574763486334E-002
  -3.0958592996794210E-002   8.6500448985118439E-003   2.1283505462341423E-002
  -2.8683277061753235E-002   7.9775027855768510E-003   2.0328671705455104E-002
  -2.6407961126712245E-002   7.2924935670928559E-003   1.9432645034734325E-002
  -2.4132645191671229E-002   6.5950172430591439E-003   1.8595425450178754E-002
  -2.1857329256630281E-002   5.8850738134762492E-003   1.7817012951788558E-002
  -3.4326994357654017E-002   9.9769178296810757E-003   1.4494347393207679E-002
  -3.1969560665058079E-002   9.1598505118680729E-003   1.3603187763449348E-002
  -2.9612126972462148E-002   8.4169885206860084E-003   1.2817456562635512E-002
  -2.7254693279866161E-002   7.7483318561333142E-003   1.2137153790766450E-002
  -2.4897259587270279E-002   7.1538805182112530E-003   1.1562279447841495E-002
  -3.7685901373315608E-002   1.1303790760850280E-002   7.5173279031061982E-003
  -3.5199728580385690E-002   1.0342198238159961E-002   6.7765148326556016E-003
  -3.2713555787455786E-002   9.5414834742786614E-003   6.1877515339287051E-003
  -3.0227382994525931E-002   8.9016464692077621E-003   5.7510380069249120E-003
  -2.7741210201595971E-002   8.4226872229461736E-003   5.4663742516450273E-003
  -4.1035314043779247E-002   1.2630663692019484E-002   3.5244699203662577E-004
  -3.8373780807736235E-002   1.1524545964450517E-002  -1.5134708692648990E-004
  -3.5712247571693279E-002   1.0665978427871814E-002  -4.5647005138743646E-004
  -3.3050714335650266E-002   1.0054961082281724E-002  -5.6292190134572817E-004
  -3.0389181099607310E-002   9.6914939276810941E-003  -4.7070263680115687E-004
  -1.8621419209675805E-002   4.6162671087414120E-003   2.4230574763486334E-002
  -1.5609879991288961E-002   3.9276663961319014E-003   2.4862341470222149E-002
  -1.2598340772902089E-002   3.6118748385185195E-003   2.5999896852515192E-002
  -9.5868015545152174E-003   3.6688924359030636E-003   2.7643240910364825E-002
  -6.5752623361283735E-003   4.0987191882839724E-003   2.9792373643771297E-002
  -2.1857329256630281E-002   5.8850738134762492E-003   1.7817012951788558E-002
  -1.8614381814466355E-002   5.2555222015783776E-003   1.8643408871017231E-002
  -1.5371434372302373E-002   4.7992213306003728E-003   1.9426832562243174E-002
  -1.2128486930138488E-002   4.5161712005412288E-003   2.0167284025466234E-002
  -8.8855394879745753E-003   4.4063718114017991E-003   2.0864763260686647E-002
  -2.4897259587270279E-002   7.1538805182112530E-003   1.1562279447841495E-002
  -2.1971664824888902E-002   6.5833780070254921E-003   1.2383746165485238E-002
  -1.9046070062507602E-002   5.9865678226814628E-003   1.2613479751566958E-002
  -1.6120475300126239E-002   5.3634499651797306E-003   1.2251480206085845E-002
  -1.3194880537744924E-002   4.7140244345196258E-003   1.1297747529042834E-002
  -2.7741210201595971E-002   8.4226872229461736E-003   5.4663742516450273E-003
  -2.5681729022556839E-002   7.9112338124726206E-003   6.0833533536265305E-003
  -2.3622247843517730E-002   7.1739143147627124E-003   5.5598384204863412E-003
  -2.1562766664478643E-002   6.2107287298186192E-003   3.8958294522239752E-003
  -1.9503285485439486E-002   5.0216770576376746E-003   1.0913264488400243E-003
  -3.0389181099607310E-002   9.6914939276810941E-003  -4.7070263680115687E-004
  -2.9744574407470026E-002   9.2390896179188609E-003  -2.5776956455897393E-004
  -2.9099967715332742E-002   8.3612608068439620E-003  -1.7340914309985078E-003
  -2.8455361023195430E-002   7.0580074944563975E-003  -4.8996682361192728E-003
  -2.7810754331058174E-002   5.3293296807557233E-003  -9.7544999799223930E-003
  -6.5752623361283735E-003   4.0987191882839724E-003   2.9792373643771297E-002
  -6.0468463779326243E-003   6.0964843288162651E-003   3.4219308216556166E-002
  -5.5184304197368750E-003   1.0857317090656238E-002   3.9337227700132038E-002
  -4.9900144615411118E-003   1.8381217473802156E-002   4.5146132094498748E-002
  -4.4615985033453764E-003   2.8668185478255115E-002   5.1646021399657016E-002
  -8.8855394879745753E-003   4.4063718114017991E-003   2.0864763260686647E-002
  -7.5945924410933396E-003   5.6255706006235195E-003   2.5988086731996429E-002
  -6.3036453942120346E-003   9.3295150056472154E-003   3.1945487469886347E-002
  -5.0126983473307227E-003   1.5518205026474344E-002   3.8736965474356011E-002
  -3.7217513004493830E-003   2.4191640663103753E-002   4.6362520745406144E-002
  -1.3194880537744924E-002   4.7140244345196258E-003   1.1297747529042834E-002
  -1.0998310046389320E-002   5.1546568724302189E-003   1.6839137893373490E-002
  -8.8017395550336192E-003   7.8017129206385538E-003   2.3357697880072997E-002
  -6.6051690636779424E-003   1.2655192579146206E-002   3.0853427489141369E-002
  -4.4085985723224252E-003   1.9715095847952169E-002   3.9326326720578675E-002
  -1.9503285485439486E-002   5.0216770576376746E-003   1.0913264488400243E-003
  -1.6257999193820462E-002   4.6837431442368627E-003   6.7724617006871407E-003
  -1.3012712902201551E-002   6.2739108356303780E-003   1.3573858930692080E-002
  -9.7674266105826080E-003   9.7921801318187861E-003   2.1495518138855137E-002
  -6.5221403189636082E-003   1.5238551032800585E-002   3.0537439325175914E-002
  -2.7810754331058174E-002   5.3293296807557233E-003  -9.7544999799223930E-003
  -2.3373659883387021E-002   4.2128294160441726E-003  -4.2119418460623281E-003
  -1.8936565435715758E-002   4.7461087506213140E-003   2.5939706217441016E-003
  -1.4499470988044522E-002   6.9291676844905892E-003   1.0663237423497382E-002
  -1.0062376540373341E-002   1.0762006217649223E-002   1.9995858559197499E-002
 </DataArray>
 </PointData>
 </Piece>
 </UnstructuredGrid>
 </VTKFile>
