 <VTKFile type="UnstructuredGrid"  version="0.1"   >
 <UnstructuredGrid>
 <Piece  NumberOfPoints="          1600 "  NumberOfCells="         1024 ">
 <Points>
 <DataArray  type="Float64" NumberOfComponents="3"  format="ascii" >
   0.0000000000000000        0.0000000000000000        0.0000000000000000     
   3.1250000000000000E-002   0.0000000000000000        0.0000000000000000     
   6.2500000000000000E-002   0.0000000000000000        0.0000000000000000     
   9.3750000000000000E-002   0.0000000000000000        0.0000000000000000     
  0.12500000000000000        0.0000000000000000        0.0000000000000000     
   0.0000000000000000        3.1250000000000000E-002   0.0000000000000000     
   3.1250000000000000E-002   3.1250000000000000E-002   0.0000000000000000     
   6.2500000000000000E-002   3.1250000000000000E-002   0.0000000000000000     
   9.3750000000000000E-002   3.1250000000000000E-002   0.0000000000000000     
  0.12500000000000000        3.1250000000000000E-002   0.0000000000000000     
   0.0000000000000000        6.2500000000000000E-002   0.0000000000000000     
   3.1250000000000000E-002   6.2500000000000000E-002   0.0000000000000000     
   6.2500000000000000E-002   6.2500000000000000E-002   0.0000000000000000     
   9.3750000000000000E-002   6.2500000000000000E-002   0.0000000000000000     
  0.12500000000000000        6.2500000000000000E-002   0.0000000000000000     
   0.0000000000000000        9.3750000000000000E-002   0.0000000000000000     
   3.1250000000000000E-002   9.3750000000000000E-002   0.0000000000000000     
   6.2500000000000000E-002   9.3750000000000000E-002   0.0000000000000000     
   9.3750000000000000E-002   9.3750000000000000E-002   0.0000000000000000     
  0.12500000000000000        9.3750000000000000E-002   0.0000000000000000     
   0.0000000000000000       0.12500000000000000        0.0000000000000000     
   3.1250000000000000E-002  0.12500000000000000        0.0000000000000000     
   6.2500000000000000E-002  0.12500000000000000        0.0000000000000000     
   9.3750000000000000E-002  0.12500000000000000        0.0000000000000000     
  0.12500000000000000       0.12500000000000000        0.0000000000000000     
  0.12500000000000000        0.0000000000000000        0.0000000000000000     
  0.15625000000000000        0.0000000000000000        0.0000000000000000     
  0.18750000000000000        0.0000000000000000        0.0000000000000000     
  0.21875000000000000        0.0000000000000000        0.0000000000000000     
  0.25000000000000000        0.0000000000000000        0.0000000000000000     
  0.12500000000000000        3.1250000000000000E-002   0.0000000000000000     
  0.15625000000000000        3.1250000000000000E-002   0.0000000000000000     
  0.18750000000000000        3.1250000000000000E-002   0.0000000000000000     
  0.21875000000000000        3.1250000000000000E-002   0.0000000000000000     
  0.25000000000000000        3.1250000000000000E-002   0.0000000000000000     
  0.12500000000000000        6.2500000000000000E-002   0.0000000000000000     
  0.15625000000000000        6.2500000000000000E-002   0.0000000000000000     
  0.18750000000000000        6.2500000000000000E-002   0.0000000000000000     
  0.21875000000000000        6.2500000000000000E-002   0.0000000000000000     
  0.25000000000000000        6.2500000000000000E-002   0.0000000000000000     
  0.12500000000000000        9.3750000000000000E-002   0.0000000000000000     
  0.15625000000000000        9.3750000000000000E-002   0.0000000000000000     
  0.18750000000000000        9.3750000000000000E-002   0.0000000000000000     
  0.21875000000000000        9.3750000000000000E-002   0.0000000000000000     
  0.25000000000000000        9.3750000000000000E-002   0.0000000000000000     
  0.12500000000000000       0.12500000000000000        0.0000000000000000     
  0.15625000000000000       0.12500000000000000        0.0000000000000000     
  0.18750000000000000       0.12500000000000000        0.0000000000000000     
  0.21875000000000000       0.12500000000000000        0.0000000000000000     
  0.25000000000000000       0.12500000000000000        0.0000000000000000     
  0.25000000000000000        0.0000000000000000        0.0000000000000000     
  0.28125000000000000        0.0000000000000000        0.0000000000000000     
  0.31250000000000000        0.0000000000000000        0.0000000000000000     
  0.34375000000000000        0.0000000000000000        0.0000000000000000     
  0.37500000000000000        0.0000000000000000        0.0000000000000000     
  0.25000000000000000        3.1250000000000000E-002   0.0000000000000000     
  0.28125000000000000        3.1250000000000000E-002   0.0000000000000000     
  0.31250000000000000        3.1250000000000000E-002   0.0000000000000000     
  0.34375000000000000        3.1250000000000000E-002   0.0000000000000000     
  0.37500000000000000        3.1250000000000000E-002   0.0000000000000000     
  0.25000000000000000        6.2500000000000000E-002   0.0000000000000000     
  0.28125000000000000        6.2500000000000000E-002   0.0000000000000000     
  0.31250000000000000        6.2500000000000000E-002   0.0000000000000000     
  0.34375000000000000        6.2500000000000000E-002   0.0000000000000000     
  0.37500000000000000        6.2500000000000000E-002   0.0000000000000000     
  0.25000000000000000        9.3750000000000000E-002   0.0000000000000000     
  0.28125000000000000        9.3750000000000000E-002   0.0000000000000000     
  0.31250000000000000        9.3750000000000000E-002   0.0000000000000000     
  0.34375000000000000        9.3750000000000000E-002   0.0000000000000000     
  0.37500000000000000        9.3750000000000000E-002   0.0000000000000000     
  0.25000000000000000       0.12500000000000000        0.0000000000000000     
  0.28125000000000000       0.12500000000000000        0.0000000000000000     
  0.31250000000000000       0.12500000000000000        0.0000000000000000     
  0.34375000000000000       0.12500000000000000        0.0000000000000000     
  0.37500000000000000       0.12500000000000000        0.0000000000000000     
  0.37500000000000000        0.0000000000000000        0.0000000000000000     
  0.40625000000000000        0.0000000000000000        0.0000000000000000     
  0.43750000000000000        0.0000000000000000        0.0000000000000000     
  0.46875000000000000        0.0000000000000000        0.0000000000000000     
  0.50000000000000000        0.0000000000000000        0.0000000000000000     
  0.37500000000000000        3.1250000000000000E-002   0.0000000000000000     
  0.40625000000000000        3.1250000000000000E-002   0.0000000000000000     
  0.43750000000000000        3.1250000000000000E-002   0.0000000000000000     
  0.46875000000000000        3.1250000000000000E-002   0.0000000000000000     
  0.50000000000000000        3.1250000000000000E-002   0.0000000000000000     
  0.37500000000000000        6.2500000000000000E-002   0.0000000000000000     
  0.40625000000000000        6.2500000000000000E-002   0.0000000000000000     
  0.43750000000000000        6.2500000000000000E-002   0.0000000000000000     
  0.46875000000000000        6.2500000000000000E-002   0.0000000000000000     
  0.50000000000000000        6.2500000000000000E-002   0.0000000000000000     
  0.37500000000000000        9.3750000000000000E-002   0.0000000000000000     
  0.40625000000000000        9.3750000000000000E-002   0.0000000000000000     
  0.43750000000000000        9.3750000000000000E-002   0.0000000000000000     
  0.46875000000000000        9.3750000000000000E-002   0.0000000000000000     
  0.50000000000000000        9.3750000000000000E-002   0.0000000000000000     
  0.37500000000000000       0.12500000000000000        0.0000000000000000     
  0.40625000000000000       0.12500000000000000        0.0000000000000000     
  0.43750000000000000       0.12500000000000000        0.0000000000000000     
  0.46875000000000000       0.12500000000000000        0.0000000000000000     
  0.50000000000000000       0.12500000000000000        0.0000000000000000     
  0.50000000000000000        0.0000000000000000        0.0000000000000000     
  0.53125000000000000        0.0000000000000000        0.0000000000000000     
  0.56250000000000000        0.0000000000000000        0.0000000000000000     
  0.59375000000000000        0.0000000000000000        0.0000000000000000     
  0.62500000000000000        0.0000000000000000        0.0000000000000000     
  0.50000000000000000        3.1250000000000000E-002   0.0000000000000000     
  0.53125000000000000        3.1250000000000000E-002   0.0000000000000000     
  0.56250000000000000        3.1250000000000000E-002   0.0000000000000000     
  0.59375000000000000        3.1250000000000000E-002   0.0000000000000000     
  0.62500000000000000        3.1250000000000000E-002   0.0000000000000000     
  0.50000000000000000        6.2500000000000000E-002   0.0000000000000000     
  0.53125000000000000        6.2500000000000000E-002   0.0000000000000000     
  0.56250000000000000        6.2500000000000000E-002   0.0000000000000000     
  0.59375000000000000        6.2500000000000000E-002   0.0000000000000000     
  0.62500000000000000        6.2500000000000000E-002   0.0000000000000000     
  0.50000000000000000        9.3750000000000000E-002   0.0000000000000000     
  0.53125000000000000        9.3750000000000000E-002   0.0000000000000000     
  0.56250000000000000        9.3750000000000000E-002   0.0000000000000000     
  0.59375000000000000        9.3750000000000000E-002   0.0000000000000000     
  0.62500000000000000        9.3750000000000000E-002   0.0000000000000000     
  0.50000000000000000       0.12500000000000000        0.0000000000000000     
  0.53125000000000000       0.12500000000000000        0.0000000000000000     
  0.56250000000000000       0.12500000000000000        0.0000000000000000     
  0.59375000000000000       0.12500000000000000        0.0000000000000000     
  0.62500000000000000       0.12500000000000000        0.0000000000000000     
  0.62500000000000000        0.0000000000000000        0.0000000000000000     
  0.65625000000000000        0.0000000000000000        0.0000000000000000     
  0.68750000000000000        0.0000000000000000        0.0000000000000000     
  0.71875000000000000        0.0000000000000000        0.0000000000000000     
  0.75000000000000000        0.0000000000000000        0.0000000000000000     
  0.62500000000000000        3.1250000000000000E-002   0.0000000000000000     
  0.65625000000000000        3.1250000000000000E-002   0.0000000000000000     
  0.68750000000000000        3.1250000000000000E-002   0.0000000000000000     
  0.71875000000000000        3.1250000000000000E-002   0.0000000000000000     
  0.75000000000000000        3.1250000000000000E-002   0.0000000000000000     
  0.62500000000000000        6.2500000000000000E-002   0.0000000000000000     
  0.65625000000000000        6.2500000000000000E-002   0.0000000000000000     
  0.68750000000000000        6.2500000000000000E-002   0.0000000000000000     
  0.71875000000000000        6.2500000000000000E-002   0.0000000000000000     
  0.75000000000000000        6.2500000000000000E-002   0.0000000000000000     
  0.62500000000000000        9.3750000000000000E-002   0.0000000000000000     
  0.65625000000000000        9.3750000000000000E-002   0.0000000000000000     
  0.68750000000000000        9.3750000000000000E-002   0.0000000000000000     
  0.71875000000000000        9.3750000000000000E-002   0.0000000000000000     
  0.75000000000000000        9.3750000000000000E-002   0.0000000000000000     
  0.62500000000000000       0.12500000000000000        0.0000000000000000     
  0.65625000000000000       0.12500000000000000        0.0000000000000000     
  0.68750000000000000       0.12500000000000000        0.0000000000000000     
  0.71875000000000000       0.12500000000000000        0.0000000000000000     
  0.75000000000000000       0.12500000000000000        0.0000000000000000     
  0.75000000000000000        0.0000000000000000        0.0000000000000000     
  0.78125000000000000        0.0000000000000000        0.0000000000000000     
  0.81250000000000000        0.0000000000000000        0.0000000000000000     
  0.84375000000000000        0.0000000000000000        0.0000000000000000     
  0.87500000000000000        0.0000000000000000        0.0000000000000000     
  0.75000000000000000        3.1250000000000000E-002   0.0000000000000000     
  0.78125000000000000        3.1250000000000000E-002   0.0000000000000000     
  0.81250000000000000        3.1250000000000000E-002   0.0000000000000000     
  0.84375000000000000        3.1250000000000000E-002   0.0000000000000000     
  0.87500000000000000        3.1250000000000000E-002   0.0000000000000000     
  0.75000000000000000        6.2500000000000000E-002   0.0000000000000000     
  0.78125000000000000        6.2500000000000000E-002   0.0000000000000000     
  0.81250000000000000        6.2500000000000000E-002   0.0000000000000000     
  0.84375000000000000        6.2500000000000000E-002   0.0000000000000000     
  0.87500000000000000        6.2500000000000000E-002   0.0000000000000000     
  0.75000000000000000        9.3750000000000000E-002   0.0000000000000000     
  0.78125000000000000        9.3750000000000000E-002   0.0000000000000000     
  0.81250000000000000        9.3750000000000000E-002   0.0000000000000000     
  0.84375000000000000        9.3750000000000000E-002   0.0000000000000000     
  0.87500000000000000        9.3750000000000000E-002   0.0000000000000000     
  0.75000000000000000       0.12500000000000000        0.0000000000000000     
  0.78125000000000000       0.12500000000000000        0.0000000000000000     
  0.81250000000000000       0.12500000000000000        0.0000000000000000     
  0.84375000000000000       0.12500000000000000        0.0000000000000000     
  0.87500000000000000       0.12500000000000000        0.0000000000000000     
  0.87500000000000000        0.0000000000000000        0.0000000000000000     
  0.90625000000000000        0.0000000000000000        0.0000000000000000     
  0.93750000000000000        0.0000000000000000        0.0000000000000000     
  0.96875000000000000        0.0000000000000000        0.0000000000000000     
   1.0000000000000000        0.0000000000000000        0.0000000000000000     
  0.87500000000000000        3.1250000000000000E-002   0.0000000000000000     
  0.90625000000000000        3.1250000000000000E-002   0.0000000000000000     
  0.93750000000000000        3.1250000000000000E-002   0.0000000000000000     
  0.96875000000000000        3.1250000000000000E-002   0.0000000000000000     
   1.0000000000000000        3.1250000000000000E-002   0.0000000000000000     
  0.87500000000000000        6.2500000000000000E-002   0.0000000000000000     
  0.90625000000000000        6.2500000000000000E-002   0.0000000000000000     
  0.93750000000000000        6.2500000000000000E-002   0.0000000000000000     
  0.96875000000000000        6.2500000000000000E-002   0.0000000000000000     
   1.0000000000000000        6.2500000000000000E-002   0.0000000000000000     
  0.87500000000000000        9.3750000000000000E-002   0.0000000000000000     
  0.90625000000000000        9.3750000000000000E-002   0.0000000000000000     
  0.93750000000000000        9.3750000000000000E-002   0.0000000000000000     
  0.96875000000000000        9.3750000000000000E-002   0.0000000000000000     
   1.0000000000000000        9.3750000000000000E-002   0.0000000000000000     
  0.87500000000000000       0.12500000000000000        0.0000000000000000     
  0.90625000000000000       0.12500000000000000        0.0000000000000000     
  0.93750000000000000       0.12500000000000000        0.0000000000000000     
  0.96875000000000000       0.12500000000000000        0.0000000000000000     
   1.0000000000000000       0.12500000000000000        0.0000000000000000     
   0.0000000000000000       0.12500000000000000        0.0000000000000000     
   3.1250000000000000E-002  0.12500000000000000        0.0000000000000000     
   6.2500000000000000E-002  0.12500000000000000        0.0000000000000000     
   9.3750000000000000E-002  0.12500000000000000        0.0000000000000000     
  0.12500000000000000       0.12500000000000000        0.0000000000000000     
   0.0000000000000000       0.15625000000000000        0.0000000000000000     
   3.1250000000000000E-002  0.15625000000000000        0.0000000000000000     
   6.2500000000000000E-002  0.15625000000000000        0.0000000000000000     
   9.3750000000000000E-002  0.15625000000000000        0.0000000000000000     
  0.12500000000000000       0.15625000000000000        0.0000000000000000     
   0.0000000000000000       0.18750000000000000        0.0000000000000000     
   3.1250000000000000E-002  0.18750000000000000        0.0000000000000000     
   6.2500000000000000E-002  0.18750000000000000        0.0000000000000000     
   9.3750000000000000E-002  0.18750000000000000        0.0000000000000000     
  0.12500000000000000       0.18750000000000000        0.0000000000000000     
   0.0000000000000000       0.21875000000000000        0.0000000000000000     
   3.1250000000000000E-002  0.21875000000000000        0.0000000000000000     
   6.2500000000000000E-002  0.21875000000000000        0.0000000000000000     
   9.3750000000000000E-002  0.21875000000000000        0.0000000000000000     
  0.12500000000000000       0.21875000000000000        0.0000000000000000     
   0.0000000000000000       0.25000000000000000        0.0000000000000000     
   3.1250000000000000E-002  0.25000000000000000        0.0000000000000000     
   6.2500000000000000E-002  0.25000000000000000        0.0000000000000000     
   9.3750000000000000E-002  0.25000000000000000        0.0000000000000000     
  0.12500000000000000       0.25000000000000000        0.0000000000000000     
  0.12500000000000000       0.12500000000000000        0.0000000000000000     
  0.15625000000000000       0.12500000000000000        0.0000000000000000     
  0.18750000000000000       0.12500000000000000        0.0000000000000000     
  0.21875000000000000       0.12500000000000000        0.0000000000000000     
  0.25000000000000000       0.12500000000000000        0.0000000000000000     
  0.12500000000000000       0.15625000000000000        0.0000000000000000     
  0.15625000000000000       0.15625000000000000        0.0000000000000000     
  0.18750000000000000       0.15625000000000000        0.0000000000000000     
  0.21875000000000000       0.15625000000000000        0.0000000000000000     
  0.25000000000000000       0.15625000000000000        0.0000000000000000     
  0.12500000000000000       0.18750000000000000        0.0000000000000000     
  0.15625000000000000       0.18750000000000000        0.0000000000000000     
  0.18750000000000000       0.18750000000000000        0.0000000000000000     
  0.21875000000000000       0.18750000000000000        0.0000000000000000     
  0.25000000000000000       0.18750000000000000        0.0000000000000000     
  0.12500000000000000       0.21875000000000000        0.0000000000000000     
  0.15625000000000000       0.21875000000000000        0.0000000000000000     
  0.18750000000000000       0.21875000000000000        0.0000000000000000     
  0.21875000000000000       0.21875000000000000        0.0000000000000000     
  0.25000000000000000       0.21875000000000000        0.0000000000000000     
  0.12500000000000000       0.25000000000000000        0.0000000000000000     
  0.15625000000000000       0.25000000000000000        0.0000000000000000     
  0.18750000000000000       0.25000000000000000        0.0000000000000000     
  0.21875000000000000       0.25000000000000000        0.0000000000000000     
  0.25000000000000000       0.25000000000000000        0.0000000000000000     
  0.25000000000000000       0.12500000000000000        0.0000000000000000     
  0.28125000000000000       0.12500000000000000        0.0000000000000000     
  0.31250000000000000       0.12500000000000000        0.0000000000000000     
  0.34375000000000000       0.12500000000000000        0.0000000000000000     
  0.37500000000000000       0.12500000000000000        0.0000000000000000     
  0.25000000000000000       0.15625000000000000        0.0000000000000000     
  0.28125000000000000       0.15625000000000000        0.0000000000000000     
  0.31250000000000000       0.15625000000000000        0.0000000000000000     
  0.34375000000000000       0.15625000000000000        0.0000000000000000     
  0.37500000000000000       0.15625000000000000        0.0000000000000000     
  0.25000000000000000       0.18750000000000000        0.0000000000000000     
  0.28125000000000000       0.18750000000000000        0.0000000000000000     
  0.31250000000000000       0.18750000000000000        0.0000000000000000     
  0.34375000000000000       0.18750000000000000        0.0000000000000000     
  0.37500000000000000       0.18750000000000000        0.0000000000000000     
  0.25000000000000000       0.21875000000000000        0.0000000000000000     
  0.28125000000000000       0.21875000000000000        0.0000000000000000     
  0.31250000000000000       0.21875000000000000        0.0000000000000000     
  0.34375000000000000       0.21875000000000000        0.0000000000000000     
  0.37500000000000000       0.21875000000000000        0.0000000000000000     
  0.25000000000000000       0.25000000000000000        0.0000000000000000     
  0.28125000000000000       0.25000000000000000        0.0000000000000000     
  0.31250000000000000       0.25000000000000000        0.0000000000000000     
  0.34375000000000000       0.25000000000000000        0.0000000000000000     
  0.37500000000000000       0.25000000000000000        0.0000000000000000     
  0.37500000000000000       0.12500000000000000        0.0000000000000000     
  0.40625000000000000       0.12500000000000000        0.0000000000000000     
  0.43750000000000000       0.12500000000000000        0.0000000000000000     
  0.46875000000000000       0.12500000000000000        0.0000000000000000     
  0.50000000000000000       0.12500000000000000        0.0000000000000000     
  0.37500000000000000       0.15625000000000000        0.0000000000000000     
  0.40625000000000000       0.15625000000000000        0.0000000000000000     
  0.43750000000000000       0.15625000000000000        0.0000000000000000     
  0.46875000000000000       0.15625000000000000        0.0000000000000000     
  0.50000000000000000       0.15625000000000000        0.0000000000000000     
  0.37500000000000000       0.18750000000000000        0.0000000000000000     
  0.40625000000000000       0.18750000000000000        0.0000000000000000     
  0.43750000000000000       0.18750000000000000        0.0000000000000000     
  0.46875000000000000       0.18750000000000000        0.0000000000000000     
  0.50000000000000000       0.18750000000000000        0.0000000000000000     
  0.37500000000000000       0.21875000000000000        0.0000000000000000     
  0.40625000000000000       0.21875000000000000        0.0000000000000000     
  0.43750000000000000       0.21875000000000000        0.0000000000000000     
  0.46875000000000000       0.21875000000000000        0.0000000000000000     
  0.50000000000000000       0.21875000000000000        0.0000000000000000     
  0.37500000000000000       0.25000000000000000        0.0000000000000000     
  0.40625000000000000       0.25000000000000000        0.0000000000000000     
  0.43750000000000000       0.25000000000000000        0.0000000000000000     
  0.46875000000000000       0.25000000000000000        0.0000000000000000     
  0.50000000000000000       0.25000000000000000        0.0000000000000000     
  0.50000000000000000       0.12500000000000000        0.0000000000000000     
  0.53125000000000000       0.12500000000000000        0.0000000000000000     
  0.56250000000000000       0.12500000000000000        0.0000000000000000     
  0.59375000000000000       0.12500000000000000        0.0000000000000000     
  0.62500000000000000       0.12500000000000000        0.0000000000000000     
  0.50000000000000000       0.15625000000000000        0.0000000000000000     
  0.53125000000000000       0.15625000000000000        0.0000000000000000     
  0.56250000000000000       0.15625000000000000        0.0000000000000000     
  0.59375000000000000       0.15625000000000000        0.0000000000000000     
  0.62500000000000000       0.15625000000000000        0.0000000000000000     
  0.50000000000000000       0.18750000000000000        0.0000000000000000     
  0.53125000000000000       0.18750000000000000        0.0000000000000000     
  0.56250000000000000       0.18750000000000000        0.0000000000000000     
  0.59375000000000000       0.18750000000000000        0.0000000000000000     
  0.62500000000000000       0.18750000000000000        0.0000000000000000     
  0.50000000000000000       0.21875000000000000        0.0000000000000000     
  0.53125000000000000       0.21875000000000000        0.0000000000000000     
  0.56250000000000000       0.21875000000000000        0.0000000000000000     
  0.59375000000000000       0.21875000000000000        0.0000000000000000     
  0.62500000000000000       0.21875000000000000        0.0000000000000000     
  0.50000000000000000       0.25000000000000000        0.0000000000000000     
  0.53125000000000000       0.25000000000000000        0.0000000000000000     
  0.56250000000000000       0.25000000000000000        0.0000000000000000     
  0.59375000000000000       0.25000000000000000        0.0000000000000000     
  0.62500000000000000       0.25000000000000000        0.0000000000000000     
  0.62500000000000000       0.12500000000000000        0.0000000000000000     
  0.65625000000000000       0.12500000000000000        0.0000000000000000     
  0.68750000000000000       0.12500000000000000        0.0000000000000000     
  0.71875000000000000       0.12500000000000000        0.0000000000000000     
  0.75000000000000000       0.12500000000000000        0.0000000000000000     
  0.62500000000000000       0.15625000000000000        0.0000000000000000     
  0.65625000000000000       0.15625000000000000        0.0000000000000000     
  0.68750000000000000       0.15625000000000000        0.0000000000000000     
  0.71875000000000000       0.15625000000000000        0.0000000000000000     
  0.75000000000000000       0.15625000000000000        0.0000000000000000     
  0.62500000000000000       0.18750000000000000        0.0000000000000000     
  0.65625000000000000       0.18750000000000000        0.0000000000000000     
  0.68750000000000000       0.18750000000000000        0.0000000000000000     
  0.71875000000000000       0.18750000000000000        0.0000000000000000     
  0.75000000000000000       0.18750000000000000        0.0000000000000000     
  0.62500000000000000       0.21875000000000000        0.0000000000000000     
  0.65625000000000000       0.21875000000000000        0.0000000000000000     
  0.68750000000000000       0.21875000000000000        0.0000000000000000     
  0.71875000000000000       0.21875000000000000        0.0000000000000000     
  0.75000000000000000       0.21875000000000000        0.0000000000000000     
  0.62500000000000000       0.25000000000000000        0.0000000000000000     
  0.65625000000000000       0.25000000000000000        0.0000000000000000     
  0.68750000000000000       0.25000000000000000        0.0000000000000000     
  0.71875000000000000       0.25000000000000000        0.0000000000000000     
  0.75000000000000000       0.25000000000000000        0.0000000000000000     
  0.75000000000000000       0.12500000000000000        0.0000000000000000     
  0.78125000000000000       0.12500000000000000        0.0000000000000000     
  0.81250000000000000       0.12500000000000000        0.0000000000000000     
  0.84375000000000000       0.12500000000000000        0.0000000000000000     
  0.87500000000000000       0.12500000000000000        0.0000000000000000     
  0.75000000000000000       0.15625000000000000        0.0000000000000000     
  0.78125000000000000       0.15625000000000000        0.0000000000000000     
  0.81250000000000000       0.15625000000000000        0.0000000000000000     
  0.84375000000000000       0.15625000000000000        0.0000000000000000     
  0.87500000000000000       0.15625000000000000        0.0000000000000000     
  0.75000000000000000       0.18750000000000000        0.0000000000000000     
  0.78125000000000000       0.18750000000000000        0.0000000000000000     
  0.81250000000000000       0.18750000000000000        0.0000000000000000     
  0.84375000000000000       0.18750000000000000        0.0000000000000000     
  0.87500000000000000       0.18750000000000000        0.0000000000000000     
  0.75000000000000000       0.21875000000000000        0.0000000000000000     
  0.78125000000000000       0.21875000000000000        0.0000000000000000     
  0.81250000000000000       0.21875000000000000        0.0000000000000000     
  0.84375000000000000       0.21875000000000000        0.0000000000000000     
  0.87500000000000000       0.21875000000000000        0.0000000000000000     
  0.75000000000000000       0.25000000000000000        0.0000000000000000     
  0.78125000000000000       0.25000000000000000        0.0000000000000000     
  0.81250000000000000       0.25000000000000000        0.0000000000000000     
  0.84375000000000000       0.25000000000000000        0.0000000000000000     
  0.87500000000000000       0.25000000000000000        0.0000000000000000     
  0.87500000000000000       0.12500000000000000        0.0000000000000000     
  0.90625000000000000       0.12500000000000000        0.0000000000000000     
  0.93750000000000000       0.12500000000000000        0.0000000000000000     
  0.96875000000000000       0.12500000000000000        0.0000000000000000     
   1.0000000000000000       0.12500000000000000        0.0000000000000000     
  0.87500000000000000       0.15625000000000000        0.0000000000000000     
  0.90625000000000000       0.15625000000000000        0.0000000000000000     
  0.93750000000000000       0.15625000000000000        0.0000000000000000     
  0.96875000000000000       0.15625000000000000        0.0000000000000000     
   1.0000000000000000       0.15625000000000000        0.0000000000000000     
  0.87500000000000000       0.18750000000000000        0.0000000000000000     
  0.90625000000000000       0.18750000000000000        0.0000000000000000     
  0.93750000000000000       0.18750000000000000        0.0000000000000000     
  0.96875000000000000       0.18750000000000000        0.0000000000000000     
   1.0000000000000000       0.18750000000000000        0.0000000000000000     
  0.87500000000000000       0.21875000000000000        0.0000000000000000     
  0.90625000000000000       0.21875000000000000        0.0000000000000000     
  0.93750000000000000       0.21875000000000000        0.0000000000000000     
  0.96875000000000000       0.21875000000000000        0.0000000000000000     
   1.0000000000000000       0.21875000000000000        0.0000000000000000     
  0.87500000000000000       0.25000000000000000        0.0000000000000000     
  0.90625000000000000       0.25000000000000000        0.0000000000000000     
  0.93750000000000000       0.25000000000000000        0.0000000000000000     
  0.96875000000000000       0.25000000000000000        0.0000000000000000     
   1.0000000000000000       0.25000000000000000        0.0000000000000000     
   0.0000000000000000       0.25000000000000000        0.0000000000000000     
   3.1250000000000000E-002  0.25000000000000000        0.0000000000000000     
   6.2500000000000000E-002  0.25000000000000000        0.0000000000000000     
   9.3750000000000000E-002  0.25000000000000000        0.0000000000000000     
  0.12500000000000000       0.25000000000000000        0.0000000000000000     
   0.0000000000000000       0.28125000000000000        0.0000000000000000     
   3.1250000000000000E-002  0.28125000000000000        0.0000000000000000     
   6.2500000000000000E-002  0.28125000000000000        0.0000000000000000     
   9.3750000000000000E-002  0.28125000000000000        0.0000000000000000     
  0.12500000000000000       0.28125000000000000        0.0000000000000000     
   0.0000000000000000       0.31250000000000000        0.0000000000000000     
   3.1250000000000000E-002  0.31250000000000000        0.0000000000000000     
   6.2500000000000000E-002  0.31250000000000000        0.0000000000000000     
   9.3750000000000000E-002  0.31250000000000000        0.0000000000000000     
  0.12500000000000000       0.31250000000000000        0.0000000000000000     
   0.0000000000000000       0.34375000000000000        0.0000000000000000     
   3.1250000000000000E-002  0.34375000000000000        0.0000000000000000     
   6.2500000000000000E-002  0.34375000000000000        0.0000000000000000     
   9.3750000000000000E-002  0.34375000000000000        0.0000000000000000     
  0.12500000000000000       0.34375000000000000        0.0000000000000000     
   0.0000000000000000       0.37500000000000000        0.0000000000000000     
   3.1250000000000000E-002  0.37500000000000000        0.0000000000000000     
   6.2500000000000000E-002  0.37500000000000000        0.0000000000000000     
   9.3750000000000000E-002  0.37500000000000000        0.0000000000000000     
  0.12500000000000000       0.37500000000000000        0.0000000000000000     
  0.12500000000000000       0.25000000000000000        0.0000000000000000     
  0.15625000000000000       0.25000000000000000        0.0000000000000000     
  0.18750000000000000       0.25000000000000000        0.0000000000000000     
  0.21875000000000000       0.25000000000000000        0.0000000000000000     
  0.25000000000000000       0.25000000000000000        0.0000000000000000     
  0.12500000000000000       0.28125000000000000        0.0000000000000000     
  0.15625000000000000       0.28125000000000000        0.0000000000000000     
  0.18750000000000000       0.28125000000000000        0.0000000000000000     
  0.21875000000000000       0.28125000000000000        0.0000000000000000     
  0.25000000000000000       0.28125000000000000        0.0000000000000000     
  0.12500000000000000       0.31250000000000000        0.0000000000000000     
  0.15625000000000000       0.31250000000000000        0.0000000000000000     
  0.18750000000000000       0.31250000000000000        0.0000000000000000     
  0.21875000000000000       0.31250000000000000        0.0000000000000000     
  0.25000000000000000       0.31250000000000000        0.0000000000000000     
  0.12500000000000000       0.34375000000000000        0.0000000000000000     
  0.15625000000000000       0.34375000000000000        0.0000000000000000     
  0.18750000000000000       0.34375000000000000        0.0000000000000000     
  0.21875000000000000       0.34375000000000000        0.0000000000000000     
  0.25000000000000000       0.34375000000000000        0.0000000000000000     
  0.12500000000000000       0.37500000000000000        0.0000000000000000     
  0.15625000000000000       0.37500000000000000        0.0000000000000000     
  0.18750000000000000       0.37500000000000000        0.0000000000000000     
  0.21875000000000000       0.37500000000000000        0.0000000000000000     
  0.25000000000000000       0.37500000000000000        0.0000000000000000     
  0.25000000000000000       0.25000000000000000        0.0000000000000000     
  0.28125000000000000       0.25000000000000000        0.0000000000000000     
  0.31250000000000000       0.25000000000000000        0.0000000000000000     
  0.34375000000000000       0.25000000000000000        0.0000000000000000     
  0.37500000000000000       0.25000000000000000        0.0000000000000000     
  0.25000000000000000       0.28125000000000000        0.0000000000000000     
  0.28125000000000000       0.28125000000000000        0.0000000000000000     
  0.31250000000000000       0.28125000000000000        0.0000000000000000     
  0.34375000000000000       0.28125000000000000        0.0000000000000000     
  0.37500000000000000       0.28125000000000000        0.0000000000000000     
  0.25000000000000000       0.31250000000000000        0.0000000000000000     
  0.28125000000000000       0.31250000000000000        0.0000000000000000     
  0.31250000000000000       0.31250000000000000        0.0000000000000000     
  0.34375000000000000       0.31250000000000000        0.0000000000000000     
  0.37500000000000000       0.31250000000000000        0.0000000000000000     
  0.25000000000000000       0.34375000000000000        0.0000000000000000     
  0.28125000000000000       0.34375000000000000        0.0000000000000000     
  0.31250000000000000       0.34375000000000000        0.0000000000000000     
  0.34375000000000000       0.34375000000000000        0.0000000000000000     
  0.37500000000000000       0.34375000000000000        0.0000000000000000     
  0.25000000000000000       0.37500000000000000        0.0000000000000000     
  0.28125000000000000       0.37500000000000000        0.0000000000000000     
  0.31250000000000000       0.37500000000000000        0.0000000000000000     
  0.34375000000000000       0.37500000000000000        0.0000000000000000     
  0.37500000000000000       0.37500000000000000        0.0000000000000000     
  0.37500000000000000       0.25000000000000000        0.0000000000000000     
  0.40625000000000000       0.25000000000000000        0.0000000000000000     
  0.43750000000000000       0.25000000000000000        0.0000000000000000     
  0.46875000000000000       0.25000000000000000        0.0000000000000000     
  0.50000000000000000       0.25000000000000000        0.0000000000000000     
  0.37500000000000000       0.28125000000000000        0.0000000000000000     
  0.40625000000000000       0.28125000000000000        0.0000000000000000     
  0.43750000000000000       0.28125000000000000        0.0000000000000000     
  0.46875000000000000       0.28125000000000000        0.0000000000000000     
  0.50000000000000000       0.28125000000000000        0.0000000000000000     
  0.37500000000000000       0.31250000000000000        0.0000000000000000     
  0.40625000000000000       0.31250000000000000        0.0000000000000000     
  0.43750000000000000       0.31250000000000000        0.0000000000000000     
  0.46875000000000000       0.31250000000000000        0.0000000000000000     
  0.50000000000000000       0.31250000000000000        0.0000000000000000     
  0.37500000000000000       0.34375000000000000        0.0000000000000000     
  0.40625000000000000       0.34375000000000000        0.0000000000000000     
  0.43750000000000000       0.34375000000000000        0.0000000000000000     
  0.46875000000000000       0.34375000000000000        0.0000000000000000     
  0.50000000000000000       0.34375000000000000        0.0000000000000000     
  0.37500000000000000       0.37500000000000000        0.0000000000000000     
  0.40625000000000000       0.37500000000000000        0.0000000000000000     
  0.43750000000000000       0.37500000000000000        0.0000000000000000     
  0.46875000000000000       0.37500000000000000        0.0000000000000000     
  0.50000000000000000       0.37500000000000000        0.0000000000000000     
  0.50000000000000000       0.25000000000000000        0.0000000000000000     
  0.53125000000000000       0.25000000000000000        0.0000000000000000     
  0.56250000000000000       0.25000000000000000        0.0000000000000000     
  0.59375000000000000       0.25000000000000000        0.0000000000000000     
  0.62500000000000000       0.25000000000000000        0.0000000000000000     
  0.50000000000000000       0.28125000000000000        0.0000000000000000     
  0.53125000000000000       0.28125000000000000        0.0000000000000000     
  0.56250000000000000       0.28125000000000000        0.0000000000000000     
  0.59375000000000000       0.28125000000000000        0.0000000000000000     
  0.62500000000000000       0.28125000000000000        0.0000000000000000     
  0.50000000000000000       0.31250000000000000        0.0000000000000000     
  0.53125000000000000       0.31250000000000000        0.0000000000000000     
  0.56250000000000000       0.31250000000000000        0.0000000000000000     
  0.59375000000000000       0.31250000000000000        0.0000000000000000     
  0.62500000000000000       0.31250000000000000        0.0000000000000000     
  0.50000000000000000       0.34375000000000000        0.0000000000000000     
  0.53125000000000000       0.34375000000000000        0.0000000000000000     
  0.56250000000000000       0.34375000000000000        0.0000000000000000     
  0.59375000000000000       0.34375000000000000        0.0000000000000000     
  0.62500000000000000       0.34375000000000000        0.0000000000000000     
  0.50000000000000000       0.37500000000000000        0.0000000000000000     
  0.53125000000000000       0.37500000000000000        0.0000000000000000     
  0.56250000000000000       0.37500000000000000        0.0000000000000000     
  0.59375000000000000       0.37500000000000000        0.0000000000000000     
  0.62500000000000000       0.37500000000000000        0.0000000000000000     
  0.62500000000000000       0.25000000000000000        0.0000000000000000     
  0.65625000000000000       0.25000000000000000        0.0000000000000000     
  0.68750000000000000       0.25000000000000000        0.0000000000000000     
  0.71875000000000000       0.25000000000000000        0.0000000000000000     
  0.75000000000000000       0.25000000000000000        0.0000000000000000     
  0.62500000000000000       0.28125000000000000        0.0000000000000000     
  0.65625000000000000       0.28125000000000000        0.0000000000000000     
  0.68750000000000000       0.28125000000000000        0.0000000000000000     
  0.71875000000000000       0.28125000000000000        0.0000000000000000     
  0.75000000000000000       0.28125000000000000        0.0000000000000000     
  0.62500000000000000       0.31250000000000000        0.0000000000000000     
  0.65625000000000000       0.31250000000000000        0.0000000000000000     
  0.68750000000000000       0.31250000000000000        0.0000000000000000     
  0.71875000000000000       0.31250000000000000        0.0000000000000000     
  0.75000000000000000       0.31250000000000000        0.0000000000000000     
  0.62500000000000000       0.34375000000000000        0.0000000000000000     
  0.65625000000000000       0.34375000000000000        0.0000000000000000     
  0.68750000000000000       0.34375000000000000        0.0000000000000000     
  0.71875000000000000       0.34375000000000000        0.0000000000000000     
  0.75000000000000000       0.34375000000000000        0.0000000000000000     
  0.62500000000000000       0.37500000000000000        0.0000000000000000     
  0.65625000000000000       0.37500000000000000        0.0000000000000000     
  0.68750000000000000       0.37500000000000000        0.0000000000000000     
  0.71875000000000000       0.37500000000000000        0.0000000000000000     
  0.75000000000000000       0.37500000000000000        0.0000000000000000     
  0.75000000000000000       0.25000000000000000        0.0000000000000000     
  0.78125000000000000       0.25000000000000000        0.0000000000000000     
  0.81250000000000000       0.25000000000000000        0.0000000000000000     
  0.84375000000000000       0.25000000000000000        0.0000000000000000     
  0.87500000000000000       0.25000000000000000        0.0000000000000000     
  0.75000000000000000       0.28125000000000000        0.0000000000000000     
  0.78125000000000000       0.28125000000000000        0.0000000000000000     
  0.81250000000000000       0.28125000000000000        0.0000000000000000     
  0.84375000000000000       0.28125000000000000        0.0000000000000000     
  0.87500000000000000       0.28125000000000000        0.0000000000000000     
  0.75000000000000000       0.31250000000000000        0.0000000000000000     
  0.78125000000000000       0.31250000000000000        0.0000000000000000     
  0.81250000000000000       0.31250000000000000        0.0000000000000000     
  0.84375000000000000       0.31250000000000000        0.0000000000000000     
  0.87500000000000000       0.31250000000000000        0.0000000000000000     
  0.75000000000000000       0.34375000000000000        0.0000000000000000     
  0.78125000000000000       0.34375000000000000        0.0000000000000000     
  0.81250000000000000       0.34375000000000000        0.0000000000000000     
  0.84375000000000000       0.34375000000000000        0.0000000000000000     
  0.87500000000000000       0.34375000000000000        0.0000000000000000     
  0.75000000000000000       0.37500000000000000        0.0000000000000000     
  0.78125000000000000       0.37500000000000000        0.0000000000000000     
  0.81250000000000000       0.37500000000000000        0.0000000000000000     
  0.84375000000000000       0.37500000000000000        0.0000000000000000     
  0.87500000000000000       0.37500000000000000        0.0000000000000000     
  0.87500000000000000       0.25000000000000000        0.0000000000000000     
  0.90625000000000000       0.25000000000000000        0.0000000000000000     
  0.93750000000000000       0.25000000000000000        0.0000000000000000     
  0.96875000000000000       0.25000000000000000        0.0000000000000000     
   1.0000000000000000       0.25000000000000000        0.0000000000000000     
  0.87500000000000000       0.28125000000000000        0.0000000000000000     
  0.90625000000000000       0.28125000000000000        0.0000000000000000     
  0.93750000000000000       0.28125000000000000        0.0000000000000000     
  0.96875000000000000       0.28125000000000000        0.0000000000000000     
   1.0000000000000000       0.28125000000000000        0.0000000000000000     
  0.87500000000000000       0.31250000000000000        0.0000000000000000     
  0.90625000000000000       0.31250000000000000        0.0000000000000000     
  0.93750000000000000       0.31250000000000000        0.0000000000000000     
  0.96875000000000000       0.31250000000000000        0.0000000000000000     
   1.0000000000000000       0.31250000000000000        0.0000000000000000     
  0.87500000000000000       0.34375000000000000        0.0000000000000000     
  0.90625000000000000       0.34375000000000000        0.0000000000000000     
  0.93750000000000000       0.34375000000000000        0.0000000000000000     
  0.96875000000000000       0.34375000000000000        0.0000000000000000     
   1.0000000000000000       0.34375000000000000        0.0000000000000000     
  0.87500000000000000       0.37500000000000000        0.0000000000000000     
  0.90625000000000000       0.37500000000000000        0.0000000000000000     
  0.93750000000000000       0.37500000000000000        0.0000000000000000     
  0.96875000000000000       0.37500000000000000        0.0000000000000000     
   1.0000000000000000       0.37500000000000000        0.0000000000000000     
   0.0000000000000000       0.37500000000000000        0.0000000000000000     
   3.1250000000000000E-002  0.37500000000000000        0.0000000000000000     
   6.2500000000000000E-002  0.37500000000000000        0.0000000000000000     
   9.3750000000000000E-002  0.37500000000000000        0.0000000000000000     
  0.12500000000000000       0.37500000000000000        0.0000000000000000     
   0.0000000000000000       0.40625000000000000        0.0000000000000000     
   3.1250000000000000E-002  0.40625000000000000        0.0000000000000000     
   6.2500000000000000E-002  0.40625000000000000        0.0000000000000000     
   9.3750000000000000E-002  0.40625000000000000        0.0000000000000000     
  0.12500000000000000       0.40625000000000000        0.0000000000000000     
   0.0000000000000000       0.43750000000000000        0.0000000000000000     
   3.1250000000000000E-002  0.43750000000000000        0.0000000000000000     
   6.2500000000000000E-002  0.43750000000000000        0.0000000000000000     
   9.3750000000000000E-002  0.43750000000000000        0.0000000000000000     
  0.12500000000000000       0.43750000000000000        0.0000000000000000     
   0.0000000000000000       0.46875000000000000        0.0000000000000000     
   3.1250000000000000E-002  0.46875000000000000        0.0000000000000000     
   6.2500000000000000E-002  0.46875000000000000        0.0000000000000000     
   9.3750000000000000E-002  0.46875000000000000        0.0000000000000000     
  0.12500000000000000       0.46875000000000000        0.0000000000000000     
   0.0000000000000000       0.50000000000000000        0.0000000000000000     
   3.1250000000000000E-002  0.50000000000000000        0.0000000000000000     
   6.2500000000000000E-002  0.50000000000000000        0.0000000000000000     
   9.3750000000000000E-002  0.50000000000000000        0.0000000000000000     
  0.12500000000000000       0.50000000000000000        0.0000000000000000     
  0.12500000000000000       0.37500000000000000        0.0000000000000000     
  0.15625000000000000       0.37500000000000000        0.0000000000000000     
  0.18750000000000000       0.37500000000000000        0.0000000000000000     
  0.21875000000000000       0.37500000000000000        0.0000000000000000     
  0.25000000000000000       0.37500000000000000        0.0000000000000000     
  0.12500000000000000       0.40625000000000000        0.0000000000000000     
  0.15625000000000000       0.40625000000000000        0.0000000000000000     
  0.18750000000000000       0.40625000000000000        0.0000000000000000     
  0.21875000000000000       0.40625000000000000        0.0000000000000000     
  0.25000000000000000       0.40625000000000000        0.0000000000000000     
  0.12500000000000000       0.43750000000000000        0.0000000000000000     
  0.15625000000000000       0.43750000000000000        0.0000000000000000     
  0.18750000000000000       0.43750000000000000        0.0000000000000000     
  0.21875000000000000       0.43750000000000000        0.0000000000000000     
  0.25000000000000000       0.43750000000000000        0.0000000000000000     
  0.12500000000000000       0.46875000000000000        0.0000000000000000     
  0.15625000000000000       0.46875000000000000        0.0000000000000000     
  0.18750000000000000       0.46875000000000000        0.0000000000000000     
  0.21875000000000000       0.46875000000000000        0.0000000000000000     
  0.25000000000000000       0.46875000000000000        0.0000000000000000     
  0.12500000000000000       0.50000000000000000        0.0000000000000000     
  0.15625000000000000       0.50000000000000000        0.0000000000000000     
  0.18750000000000000       0.50000000000000000        0.0000000000000000     
  0.21875000000000000       0.50000000000000000        0.0000000000000000     
  0.25000000000000000       0.50000000000000000        0.0000000000000000     
  0.25000000000000000       0.37500000000000000        0.0000000000000000     
  0.28125000000000000       0.37500000000000000        0.0000000000000000     
  0.31250000000000000       0.37500000000000000        0.0000000000000000     
  0.34375000000000000       0.37500000000000000        0.0000000000000000     
  0.37500000000000000       0.37500000000000000        0.0000000000000000     
  0.25000000000000000       0.40625000000000000        0.0000000000000000     
  0.28125000000000000       0.40625000000000000        0.0000000000000000     
  0.31250000000000000       0.40625000000000000        0.0000000000000000     
  0.34375000000000000       0.40625000000000000        0.0000000000000000     
  0.37500000000000000       0.40625000000000000        0.0000000000000000     
  0.25000000000000000       0.43750000000000000        0.0000000000000000     
  0.28125000000000000       0.43750000000000000        0.0000000000000000     
  0.31250000000000000       0.43750000000000000        0.0000000000000000     
  0.34375000000000000       0.43750000000000000        0.0000000000000000     
  0.37500000000000000       0.43750000000000000        0.0000000000000000     
  0.25000000000000000       0.46875000000000000        0.0000000000000000     
  0.28125000000000000       0.46875000000000000        0.0000000000000000     
  0.31250000000000000       0.46875000000000000        0.0000000000000000     
  0.34375000000000000       0.46875000000000000        0.0000000000000000     
  0.37500000000000000       0.46875000000000000        0.0000000000000000     
  0.25000000000000000       0.50000000000000000        0.0000000000000000     
  0.28125000000000000       0.50000000000000000        0.0000000000000000     
  0.31250000000000000       0.50000000000000000        0.0000000000000000     
  0.34375000000000000       0.50000000000000000        0.0000000000000000     
  0.37500000000000000       0.50000000000000000        0.0000000000000000     
  0.37500000000000000       0.37500000000000000        0.0000000000000000     
  0.40625000000000000       0.37500000000000000        0.0000000000000000     
  0.43750000000000000       0.37500000000000000        0.0000000000000000     
  0.46875000000000000       0.37500000000000000        0.0000000000000000     
  0.50000000000000000       0.37500000000000000        0.0000000000000000     
  0.37500000000000000       0.40625000000000000        0.0000000000000000     
  0.40625000000000000       0.40625000000000000        0.0000000000000000     
  0.43750000000000000       0.40625000000000000        0.0000000000000000     
  0.46875000000000000       0.40625000000000000        0.0000000000000000     
  0.50000000000000000       0.40625000000000000        0.0000000000000000     
  0.37500000000000000       0.43750000000000000        0.0000000000000000     
  0.40625000000000000       0.43750000000000000        0.0000000000000000     
  0.43750000000000000       0.43750000000000000        0.0000000000000000     
  0.46875000000000000       0.43750000000000000        0.0000000000000000     
  0.50000000000000000       0.43750000000000000        0.0000000000000000     
  0.37500000000000000       0.46875000000000000        0.0000000000000000     
  0.40625000000000000       0.46875000000000000        0.0000000000000000     
  0.43750000000000000       0.46875000000000000        0.0000000000000000     
  0.46875000000000000       0.46875000000000000        0.0000000000000000     
  0.50000000000000000       0.46875000000000000        0.0000000000000000     
  0.37500000000000000       0.50000000000000000        0.0000000000000000     
  0.40625000000000000       0.50000000000000000        0.0000000000000000     
  0.43750000000000000       0.50000000000000000        0.0000000000000000     
  0.46875000000000000       0.50000000000000000        0.0000000000000000     
  0.50000000000000000       0.50000000000000000        0.0000000000000000     
  0.50000000000000000       0.37500000000000000        0.0000000000000000     
  0.53125000000000000       0.37500000000000000        0.0000000000000000     
  0.56250000000000000       0.37500000000000000        0.0000000000000000     
  0.59375000000000000       0.37500000000000000        0.0000000000000000     
  0.62500000000000000       0.37500000000000000        0.0000000000000000     
  0.50000000000000000       0.40625000000000000        0.0000000000000000     
  0.53125000000000000       0.40625000000000000        0.0000000000000000     
  0.56250000000000000       0.40625000000000000        0.0000000000000000     
  0.59375000000000000       0.40625000000000000        0.0000000000000000     
  0.62500000000000000       0.40625000000000000        0.0000000000000000     
  0.50000000000000000       0.43750000000000000        0.0000000000000000     
  0.53125000000000000       0.43750000000000000        0.0000000000000000     
  0.56250000000000000       0.43750000000000000        0.0000000000000000     
  0.59375000000000000       0.43750000000000000        0.0000000000000000     
  0.62500000000000000       0.43750000000000000        0.0000000000000000     
  0.50000000000000000       0.46875000000000000        0.0000000000000000     
  0.53125000000000000       0.46875000000000000        0.0000000000000000     
  0.56250000000000000       0.46875000000000000        0.0000000000000000     
  0.59375000000000000       0.46875000000000000        0.0000000000000000     
  0.62500000000000000       0.46875000000000000        0.0000000000000000     
  0.50000000000000000       0.50000000000000000        0.0000000000000000     
  0.53125000000000000       0.50000000000000000        0.0000000000000000     
  0.56250000000000000       0.50000000000000000        0.0000000000000000     
  0.59375000000000000       0.50000000000000000        0.0000000000000000     
  0.62500000000000000       0.50000000000000000        0.0000000000000000     
  0.62500000000000000       0.37500000000000000        0.0000000000000000     
  0.65625000000000000       0.37500000000000000        0.0000000000000000     
  0.68750000000000000       0.37500000000000000        0.0000000000000000     
  0.71875000000000000       0.37500000000000000        0.0000000000000000     
  0.75000000000000000       0.37500000000000000        0.0000000000000000     
  0.62500000000000000       0.40625000000000000        0.0000000000000000     
  0.65625000000000000       0.40625000000000000        0.0000000000000000     
  0.68750000000000000       0.40625000000000000        0.0000000000000000     
  0.71875000000000000       0.40625000000000000        0.0000000000000000     
  0.75000000000000000       0.40625000000000000        0.0000000000000000     
  0.62500000000000000       0.43750000000000000        0.0000000000000000     
  0.65625000000000000       0.43750000000000000        0.0000000000000000     
  0.68750000000000000       0.43750000000000000        0.0000000000000000     
  0.71875000000000000       0.43750000000000000        0.0000000000000000     
  0.75000000000000000       0.43750000000000000        0.0000000000000000     
  0.62500000000000000       0.46875000000000000        0.0000000000000000     
  0.65625000000000000       0.46875000000000000        0.0000000000000000     
  0.68750000000000000       0.46875000000000000        0.0000000000000000     
  0.71875000000000000       0.46875000000000000        0.0000000000000000     
  0.75000000000000000       0.46875000000000000        0.0000000000000000     
  0.62500000000000000       0.50000000000000000        0.0000000000000000     
  0.65625000000000000       0.50000000000000000        0.0000000000000000     
  0.68750000000000000       0.50000000000000000        0.0000000000000000     
  0.71875000000000000       0.50000000000000000        0.0000000000000000     
  0.75000000000000000       0.50000000000000000        0.0000000000000000     
  0.75000000000000000       0.37500000000000000        0.0000000000000000     
  0.78125000000000000       0.37500000000000000        0.0000000000000000     
  0.81250000000000000       0.37500000000000000        0.0000000000000000     
  0.84375000000000000       0.37500000000000000        0.0000000000000000     
  0.87500000000000000       0.37500000000000000        0.0000000000000000     
  0.75000000000000000       0.40625000000000000        0.0000000000000000     
  0.78125000000000000       0.40625000000000000        0.0000000000000000     
  0.81250000000000000       0.40625000000000000        0.0000000000000000     
  0.84375000000000000       0.40625000000000000        0.0000000000000000     
  0.87500000000000000       0.40625000000000000        0.0000000000000000     
  0.75000000000000000       0.43750000000000000        0.0000000000000000     
  0.78125000000000000       0.43750000000000000        0.0000000000000000     
  0.81250000000000000       0.43750000000000000        0.0000000000000000     
  0.84375000000000000       0.43750000000000000        0.0000000000000000     
  0.87500000000000000       0.43750000000000000        0.0000000000000000     
  0.75000000000000000       0.46875000000000000        0.0000000000000000     
  0.78125000000000000       0.46875000000000000        0.0000000000000000     
  0.81250000000000000       0.46875000000000000        0.0000000000000000     
  0.84375000000000000       0.46875000000000000        0.0000000000000000     
  0.87500000000000000       0.46875000000000000        0.0000000000000000     
  0.75000000000000000       0.50000000000000000        0.0000000000000000     
  0.78125000000000000       0.50000000000000000        0.0000000000000000     
  0.81250000000000000       0.50000000000000000        0.0000000000000000     
  0.84375000000000000       0.50000000000000000        0.0000000000000000     
  0.87500000000000000       0.50000000000000000        0.0000000000000000     
  0.87500000000000000       0.37500000000000000        0.0000000000000000     
  0.90625000000000000       0.37500000000000000        0.0000000000000000     
  0.93750000000000000       0.37500000000000000        0.0000000000000000     
  0.96875000000000000       0.37500000000000000        0.0000000000000000     
   1.0000000000000000       0.37500000000000000        0.0000000000000000     
  0.87500000000000000       0.40625000000000000        0.0000000000000000     
  0.90625000000000000       0.40625000000000000        0.0000000000000000     
  0.93750000000000000       0.40625000000000000        0.0000000000000000     
  0.96875000000000000       0.40625000000000000        0.0000000000000000     
   1.0000000000000000       0.40625000000000000        0.0000000000000000     
  0.87500000000000000       0.43750000000000000        0.0000000000000000     
  0.90625000000000000       0.43750000000000000        0.0000000000000000     
  0.93750000000000000       0.43750000000000000        0.0000000000000000     
  0.96875000000000000       0.43750000000000000        0.0000000000000000     
   1.0000000000000000       0.43750000000000000        0.0000000000000000     
  0.87500000000000000       0.46875000000000000        0.0000000000000000     
  0.90625000000000000       0.46875000000000000        0.0000000000000000     
  0.93750000000000000       0.46875000000000000        0.0000000000000000     
  0.96875000000000000       0.46875000000000000        0.0000000000000000     
   1.0000000000000000       0.46875000000000000        0.0000000000000000     
  0.87500000000000000       0.50000000000000000        0.0000000000000000     
  0.90625000000000000       0.50000000000000000        0.0000000000000000     
  0.93750000000000000       0.50000000000000000        0.0000000000000000     
  0.96875000000000000       0.50000000000000000        0.0000000000000000     
   1.0000000000000000       0.50000000000000000        0.0000000000000000     
   0.0000000000000000       0.50000000000000000        0.0000000000000000     
   3.1250000000000000E-002  0.50000000000000000        0.0000000000000000     
   6.2500000000000000E-002  0.50000000000000000        0.0000000000000000     
   9.3750000000000000E-002  0.50000000000000000        0.0000000000000000     
  0.12500000000000000       0.50000000000000000        0.0000000000000000     
   0.0000000000000000       0.53125000000000000        0.0000000000000000     
   3.1250000000000000E-002  0.53125000000000000        0.0000000000000000     
   6.2500000000000000E-002  0.53125000000000000        0.0000000000000000     
   9.3750000000000000E-002  0.53125000000000000        0.0000000000000000     
  0.12500000000000000       0.53125000000000000        0.0000000000000000     
   0.0000000000000000       0.56250000000000000        0.0000000000000000     
   3.1250000000000000E-002  0.56250000000000000        0.0000000000000000     
   6.2500000000000000E-002  0.56250000000000000        0.0000000000000000     
   9.3750000000000000E-002  0.56250000000000000        0.0000000000000000     
  0.12500000000000000       0.56250000000000000        0.0000000000000000     
   0.0000000000000000       0.59375000000000000        0.0000000000000000     
   3.1250000000000000E-002  0.59375000000000000        0.0000000000000000     
   6.2500000000000000E-002  0.59375000000000000        0.0000000000000000     
   9.3750000000000000E-002  0.59375000000000000        0.0000000000000000     
  0.12500000000000000       0.59375000000000000        0.0000000000000000     
   0.0000000000000000       0.62500000000000000        0.0000000000000000     
   3.1250000000000000E-002  0.62500000000000000        0.0000000000000000     
   6.2500000000000000E-002  0.62500000000000000        0.0000000000000000     
   9.3750000000000000E-002  0.62500000000000000        0.0000000000000000     
  0.12500000000000000       0.62500000000000000        0.0000000000000000     
  0.12500000000000000       0.50000000000000000        0.0000000000000000     
  0.15625000000000000       0.50000000000000000        0.0000000000000000     
  0.18750000000000000       0.50000000000000000        0.0000000000000000     
  0.21875000000000000       0.50000000000000000        0.0000000000000000     
  0.25000000000000000       0.50000000000000000        0.0000000000000000     
  0.12500000000000000       0.53125000000000000        0.0000000000000000     
  0.15625000000000000       0.53125000000000000        0.0000000000000000     
  0.18750000000000000       0.53125000000000000        0.0000000000000000     
  0.21875000000000000       0.53125000000000000        0.0000000000000000     
  0.25000000000000000       0.53125000000000000        0.0000000000000000     
  0.12500000000000000       0.56250000000000000        0.0000000000000000     
  0.15625000000000000       0.56250000000000000        0.0000000000000000     
  0.18750000000000000       0.56250000000000000        0.0000000000000000     
  0.21875000000000000       0.56250000000000000        0.0000000000000000     
  0.25000000000000000       0.56250000000000000        0.0000000000000000     
  0.12500000000000000       0.59375000000000000        0.0000000000000000     
  0.15625000000000000       0.59375000000000000        0.0000000000000000     
  0.18750000000000000       0.59375000000000000        0.0000000000000000     
  0.21875000000000000       0.59375000000000000        0.0000000000000000     
  0.25000000000000000       0.59375000000000000        0.0000000000000000     
  0.12500000000000000       0.62500000000000000        0.0000000000000000     
  0.15625000000000000       0.62500000000000000        0.0000000000000000     
  0.18750000000000000       0.62500000000000000        0.0000000000000000     
  0.21875000000000000       0.62500000000000000        0.0000000000000000     
  0.25000000000000000       0.62500000000000000        0.0000000000000000     
  0.25000000000000000       0.50000000000000000        0.0000000000000000     
  0.28125000000000000       0.50000000000000000        0.0000000000000000     
  0.31250000000000000       0.50000000000000000        0.0000000000000000     
  0.34375000000000000       0.50000000000000000        0.0000000000000000     
  0.37500000000000000       0.50000000000000000        0.0000000000000000     
  0.25000000000000000       0.53125000000000000        0.0000000000000000     
  0.28125000000000000       0.53125000000000000        0.0000000000000000     
  0.31250000000000000       0.53125000000000000        0.0000000000000000     
  0.34375000000000000       0.53125000000000000        0.0000000000000000     
  0.37500000000000000       0.53125000000000000        0.0000000000000000     
  0.25000000000000000       0.56250000000000000        0.0000000000000000     
  0.28125000000000000       0.56250000000000000        0.0000000000000000     
  0.31250000000000000       0.56250000000000000        0.0000000000000000     
  0.34375000000000000       0.56250000000000000        0.0000000000000000     
  0.37500000000000000       0.56250000000000000        0.0000000000000000     
  0.25000000000000000       0.59375000000000000        0.0000000000000000     
  0.28125000000000000       0.59375000000000000        0.0000000000000000     
  0.31250000000000000       0.59375000000000000        0.0000000000000000     
  0.34375000000000000       0.59375000000000000        0.0000000000000000     
  0.37500000000000000       0.59375000000000000        0.0000000000000000     
  0.25000000000000000       0.62500000000000000        0.0000000000000000     
  0.28125000000000000       0.62500000000000000        0.0000000000000000     
  0.31250000000000000       0.62500000000000000        0.0000000000000000     
  0.34375000000000000       0.62500000000000000        0.0000000000000000     
  0.37500000000000000       0.62500000000000000        0.0000000000000000     
  0.37500000000000000       0.50000000000000000        0.0000000000000000     
  0.40625000000000000       0.50000000000000000        0.0000000000000000     
  0.43750000000000000       0.50000000000000000        0.0000000000000000     
  0.46875000000000000       0.50000000000000000        0.0000000000000000     
  0.50000000000000000       0.50000000000000000        0.0000000000000000     
  0.37500000000000000       0.53125000000000000        0.0000000000000000     
  0.40625000000000000       0.53125000000000000        0.0000000000000000     
  0.43750000000000000       0.53125000000000000        0.0000000000000000     
  0.46875000000000000       0.53125000000000000        0.0000000000000000     
  0.50000000000000000       0.53125000000000000        0.0000000000000000     
  0.37500000000000000       0.56250000000000000        0.0000000000000000     
  0.40625000000000000       0.56250000000000000        0.0000000000000000     
  0.43750000000000000       0.56250000000000000        0.0000000000000000     
  0.46875000000000000       0.56250000000000000        0.0000000000000000     
  0.50000000000000000       0.56250000000000000        0.0000000000000000     
  0.37500000000000000       0.59375000000000000        0.0000000000000000     
  0.40625000000000000       0.59375000000000000        0.0000000000000000     
  0.43750000000000000       0.59375000000000000        0.0000000000000000     
  0.46875000000000000       0.59375000000000000        0.0000000000000000     
  0.50000000000000000       0.59375000000000000        0.0000000000000000     
  0.37500000000000000       0.62500000000000000        0.0000000000000000     
  0.40625000000000000       0.62500000000000000        0.0000000000000000     
  0.43750000000000000       0.62500000000000000        0.0000000000000000     
  0.46875000000000000       0.62500000000000000        0.0000000000000000     
  0.50000000000000000       0.62500000000000000        0.0000000000000000     
  0.50000000000000000       0.50000000000000000        0.0000000000000000     
  0.53125000000000000       0.50000000000000000        0.0000000000000000     
  0.56250000000000000       0.50000000000000000        0.0000000000000000     
  0.59375000000000000       0.50000000000000000        0.0000000000000000     
  0.62500000000000000       0.50000000000000000        0.0000000000000000     
  0.50000000000000000       0.53125000000000000        0.0000000000000000     
  0.53125000000000000       0.53125000000000000        0.0000000000000000     
  0.56250000000000000       0.53125000000000000        0.0000000000000000     
  0.59375000000000000       0.53125000000000000        0.0000000000000000     
  0.62500000000000000       0.53125000000000000        0.0000000000000000     
  0.50000000000000000       0.56250000000000000        0.0000000000000000     
  0.53125000000000000       0.56250000000000000        0.0000000000000000     
  0.56250000000000000       0.56250000000000000        0.0000000000000000     
  0.59375000000000000       0.56250000000000000        0.0000000000000000     
  0.62500000000000000       0.56250000000000000        0.0000000000000000     
  0.50000000000000000       0.59375000000000000        0.0000000000000000     
  0.53125000000000000       0.59375000000000000        0.0000000000000000     
  0.56250000000000000       0.59375000000000000        0.0000000000000000     
  0.59375000000000000       0.59375000000000000        0.0000000000000000     
  0.62500000000000000       0.59375000000000000        0.0000000000000000     
  0.50000000000000000       0.62500000000000000        0.0000000000000000     
  0.53125000000000000       0.62500000000000000        0.0000000000000000     
  0.56250000000000000       0.62500000000000000        0.0000000000000000     
  0.59375000000000000       0.62500000000000000        0.0000000000000000     
  0.62500000000000000       0.62500000000000000        0.0000000000000000     
  0.62500000000000000       0.50000000000000000        0.0000000000000000     
  0.65625000000000000       0.50000000000000000        0.0000000000000000     
  0.68750000000000000       0.50000000000000000        0.0000000000000000     
  0.71875000000000000       0.50000000000000000        0.0000000000000000     
  0.75000000000000000       0.50000000000000000        0.0000000000000000     
  0.62500000000000000       0.53125000000000000        0.0000000000000000     
  0.65625000000000000       0.53125000000000000        0.0000000000000000     
  0.68750000000000000       0.53125000000000000        0.0000000000000000     
  0.71875000000000000       0.53125000000000000        0.0000000000000000     
  0.75000000000000000       0.53125000000000000        0.0000000000000000     
  0.62500000000000000       0.56250000000000000        0.0000000000000000     
  0.65625000000000000       0.56250000000000000        0.0000000000000000     
  0.68750000000000000       0.56250000000000000        0.0000000000000000     
  0.71875000000000000       0.56250000000000000        0.0000000000000000     
  0.75000000000000000       0.56250000000000000        0.0000000000000000     
  0.62500000000000000       0.59375000000000000        0.0000000000000000     
  0.65625000000000000       0.59375000000000000        0.0000000000000000     
  0.68750000000000000       0.59375000000000000        0.0000000000000000     
  0.71875000000000000       0.59375000000000000        0.0000000000000000     
  0.75000000000000000       0.59375000000000000        0.0000000000000000     
  0.62500000000000000       0.62500000000000000        0.0000000000000000     
  0.65625000000000000       0.62500000000000000        0.0000000000000000     
  0.68750000000000000       0.62500000000000000        0.0000000000000000     
  0.71875000000000000       0.62500000000000000        0.0000000000000000     
  0.75000000000000000       0.62500000000000000        0.0000000000000000     
  0.75000000000000000       0.50000000000000000        0.0000000000000000     
  0.78125000000000000       0.50000000000000000        0.0000000000000000     
  0.81250000000000000       0.50000000000000000        0.0000000000000000     
  0.84375000000000000       0.50000000000000000        0.0000000000000000     
  0.87500000000000000       0.50000000000000000        0.0000000000000000     
  0.75000000000000000       0.53125000000000000        0.0000000000000000     
  0.78125000000000000       0.53125000000000000        0.0000000000000000     
  0.81250000000000000       0.53125000000000000        0.0000000000000000     
  0.84375000000000000       0.53125000000000000        0.0000000000000000     
  0.87500000000000000       0.53125000000000000        0.0000000000000000     
  0.75000000000000000       0.56250000000000000        0.0000000000000000     
  0.78125000000000000       0.56250000000000000        0.0000000000000000     
  0.81250000000000000       0.56250000000000000        0.0000000000000000     
  0.84375000000000000       0.56250000000000000        0.0000000000000000     
  0.87500000000000000       0.56250000000000000        0.0000000000000000     
  0.75000000000000000       0.59375000000000000        0.0000000000000000     
  0.78125000000000000       0.59375000000000000        0.0000000000000000     
  0.81250000000000000       0.59375000000000000        0.0000000000000000     
  0.84375000000000000       0.59375000000000000        0.0000000000000000     
  0.87500000000000000       0.59375000000000000        0.0000000000000000     
  0.75000000000000000       0.62500000000000000        0.0000000000000000     
  0.78125000000000000       0.62500000000000000        0.0000000000000000     
  0.81250000000000000       0.62500000000000000        0.0000000000000000     
  0.84375000000000000       0.62500000000000000        0.0000000000000000     
  0.87500000000000000       0.62500000000000000        0.0000000000000000     
  0.87500000000000000       0.50000000000000000        0.0000000000000000     
  0.90625000000000000       0.50000000000000000        0.0000000000000000     
  0.93750000000000000       0.50000000000000000        0.0000000000000000     
  0.96875000000000000       0.50000000000000000        0.0000000000000000     
   1.0000000000000000       0.50000000000000000        0.0000000000000000     
  0.87500000000000000       0.53125000000000000        0.0000000000000000     
  0.90625000000000000       0.53125000000000000        0.0000000000000000     
  0.93750000000000000       0.53125000000000000        0.0000000000000000     
  0.96875000000000000       0.53125000000000000        0.0000000000000000     
   1.0000000000000000       0.53125000000000000        0.0000000000000000     
  0.87500000000000000       0.56250000000000000        0.0000000000000000     
  0.90625000000000000       0.56250000000000000        0.0000000000000000     
  0.93750000000000000       0.56250000000000000        0.0000000000000000     
  0.96875000000000000       0.56250000000000000        0.0000000000000000     
   1.0000000000000000       0.56250000000000000        0.0000000000000000     
  0.87500000000000000       0.59375000000000000        0.0000000000000000     
  0.90625000000000000       0.59375000000000000        0.0000000000000000     
  0.93750000000000000       0.59375000000000000        0.0000000000000000     
  0.96875000000000000       0.59375000000000000        0.0000000000000000     
   1.0000000000000000       0.59375000000000000        0.0000000000000000     
  0.87500000000000000       0.62500000000000000        0.0000000000000000     
  0.90625000000000000       0.62500000000000000        0.0000000000000000     
  0.93750000000000000       0.62500000000000000        0.0000000000000000     
  0.96875000000000000       0.62500000000000000        0.0000000000000000     
   1.0000000000000000       0.62500000000000000        0.0000000000000000     
   0.0000000000000000       0.62500000000000000        0.0000000000000000     
   3.1250000000000000E-002  0.62500000000000000        0.0000000000000000     
   6.2500000000000000E-002  0.62500000000000000        0.0000000000000000     
   9.3750000000000000E-002  0.62500000000000000        0.0000000000000000     
  0.12500000000000000       0.62500000000000000        0.0000000000000000     
   0.0000000000000000       0.65625000000000000        0.0000000000000000     
   3.1250000000000000E-002  0.65625000000000000        0.0000000000000000     
   6.2500000000000000E-002  0.65625000000000000        0.0000000000000000     
   9.3750000000000000E-002  0.65625000000000000        0.0000000000000000     
  0.12500000000000000       0.65625000000000000        0.0000000000000000     
   0.0000000000000000       0.68750000000000000        0.0000000000000000     
   3.1250000000000000E-002  0.68750000000000000        0.0000000000000000     
   6.2500000000000000E-002  0.68750000000000000        0.0000000000000000     
   9.3750000000000000E-002  0.68750000000000000        0.0000000000000000     
  0.12500000000000000       0.68750000000000000        0.0000000000000000     
   0.0000000000000000       0.71875000000000000        0.0000000000000000     
   3.1250000000000000E-002  0.71875000000000000        0.0000000000000000     
   6.2500000000000000E-002  0.71875000000000000        0.0000000000000000     
   9.3750000000000000E-002  0.71875000000000000        0.0000000000000000     
  0.12500000000000000       0.71875000000000000        0.0000000000000000     
   0.0000000000000000       0.75000000000000000        0.0000000000000000     
   3.1250000000000000E-002  0.75000000000000000        0.0000000000000000     
   6.2500000000000000E-002  0.75000000000000000        0.0000000000000000     
   9.3750000000000000E-002  0.75000000000000000        0.0000000000000000     
  0.12500000000000000       0.75000000000000000        0.0000000000000000     
  0.12500000000000000       0.62500000000000000        0.0000000000000000     
  0.15625000000000000       0.62500000000000000        0.0000000000000000     
  0.18750000000000000       0.62500000000000000        0.0000000000000000     
  0.21875000000000000       0.62500000000000000        0.0000000000000000     
  0.25000000000000000       0.62500000000000000        0.0000000000000000     
  0.12500000000000000       0.65625000000000000        0.0000000000000000     
  0.15625000000000000       0.65625000000000000        0.0000000000000000     
  0.18750000000000000       0.65625000000000000        0.0000000000000000     
  0.21875000000000000       0.65625000000000000        0.0000000000000000     
  0.25000000000000000       0.65625000000000000        0.0000000000000000     
  0.12500000000000000       0.68750000000000000        0.0000000000000000     
  0.15625000000000000       0.68750000000000000        0.0000000000000000     
  0.18750000000000000       0.68750000000000000        0.0000000000000000     
  0.21875000000000000       0.68750000000000000        0.0000000000000000     
  0.25000000000000000       0.68750000000000000        0.0000000000000000     
  0.12500000000000000       0.71875000000000000        0.0000000000000000     
  0.15625000000000000       0.71875000000000000        0.0000000000000000     
  0.18750000000000000       0.71875000000000000        0.0000000000000000     
  0.21875000000000000       0.71875000000000000        0.0000000000000000     
  0.25000000000000000       0.71875000000000000        0.0000000000000000     
  0.12500000000000000       0.75000000000000000        0.0000000000000000     
  0.15625000000000000       0.75000000000000000        0.0000000000000000     
  0.18750000000000000       0.75000000000000000        0.0000000000000000     
  0.21875000000000000       0.75000000000000000        0.0000000000000000     
  0.25000000000000000       0.75000000000000000        0.0000000000000000     
  0.25000000000000000       0.62500000000000000        0.0000000000000000     
  0.28125000000000000       0.62500000000000000        0.0000000000000000     
  0.31250000000000000       0.62500000000000000        0.0000000000000000     
  0.34375000000000000       0.62500000000000000        0.0000000000000000     
  0.37500000000000000       0.62500000000000000        0.0000000000000000     
  0.25000000000000000       0.65625000000000000        0.0000000000000000     
  0.28125000000000000       0.65625000000000000        0.0000000000000000     
  0.31250000000000000       0.65625000000000000        0.0000000000000000     
  0.34375000000000000       0.65625000000000000        0.0000000000000000     
  0.37500000000000000       0.65625000000000000        0.0000000000000000     
  0.25000000000000000       0.68750000000000000        0.0000000000000000     
  0.28125000000000000       0.68750000000000000        0.0000000000000000     
  0.31250000000000000       0.68750000000000000        0.0000000000000000     
  0.34375000000000000       0.68750000000000000        0.0000000000000000     
  0.37500000000000000       0.68750000000000000        0.0000000000000000     
  0.25000000000000000       0.71875000000000000        0.0000000000000000     
  0.28125000000000000       0.71875000000000000        0.0000000000000000     
  0.31250000000000000       0.71875000000000000        0.0000000000000000     
  0.34375000000000000       0.71875000000000000        0.0000000000000000     
  0.37500000000000000       0.71875000000000000        0.0000000000000000     
  0.25000000000000000       0.75000000000000000        0.0000000000000000     
  0.28125000000000000       0.75000000000000000        0.0000000000000000     
  0.31250000000000000       0.75000000000000000        0.0000000000000000     
  0.34375000000000000       0.75000000000000000        0.0000000000000000     
  0.37500000000000000       0.75000000000000000        0.0000000000000000     
  0.37500000000000000       0.62500000000000000        0.0000000000000000     
  0.40625000000000000       0.62500000000000000        0.0000000000000000     
  0.43750000000000000       0.62500000000000000        0.0000000000000000     
  0.46875000000000000       0.62500000000000000        0.0000000000000000     
  0.50000000000000000       0.62500000000000000        0.0000000000000000     
  0.37500000000000000       0.65625000000000000        0.0000000000000000     
  0.40625000000000000       0.65625000000000000        0.0000000000000000     
  0.43750000000000000       0.65625000000000000        0.0000000000000000     
  0.46875000000000000       0.65625000000000000        0.0000000000000000     
  0.50000000000000000       0.65625000000000000        0.0000000000000000     
  0.37500000000000000       0.68750000000000000        0.0000000000000000     
  0.40625000000000000       0.68750000000000000        0.0000000000000000     
  0.43750000000000000       0.68750000000000000        0.0000000000000000     
  0.46875000000000000       0.68750000000000000        0.0000000000000000     
  0.50000000000000000       0.68750000000000000        0.0000000000000000     
  0.37500000000000000       0.71875000000000000        0.0000000000000000     
  0.40625000000000000       0.71875000000000000        0.0000000000000000     
  0.43750000000000000       0.71875000000000000        0.0000000000000000     
  0.46875000000000000       0.71875000000000000        0.0000000000000000     
  0.50000000000000000       0.71875000000000000        0.0000000000000000     
  0.37500000000000000       0.75000000000000000        0.0000000000000000     
  0.40625000000000000       0.75000000000000000        0.0000000000000000     
  0.43750000000000000       0.75000000000000000        0.0000000000000000     
  0.46875000000000000       0.75000000000000000        0.0000000000000000     
  0.50000000000000000       0.75000000000000000        0.0000000000000000     
  0.50000000000000000       0.62500000000000000        0.0000000000000000     
  0.53125000000000000       0.62500000000000000        0.0000000000000000     
  0.56250000000000000       0.62500000000000000        0.0000000000000000     
  0.59375000000000000       0.62500000000000000        0.0000000000000000     
  0.62500000000000000       0.62500000000000000        0.0000000000000000     
  0.50000000000000000       0.65625000000000000        0.0000000000000000     
  0.53125000000000000       0.65625000000000000        0.0000000000000000     
  0.56250000000000000       0.65625000000000000        0.0000000000000000     
  0.59375000000000000       0.65625000000000000        0.0000000000000000     
  0.62500000000000000       0.65625000000000000        0.0000000000000000     
  0.50000000000000000       0.68750000000000000        0.0000000000000000     
  0.53125000000000000       0.68750000000000000        0.0000000000000000     
  0.56250000000000000       0.68750000000000000        0.0000000000000000     
  0.59375000000000000       0.68750000000000000        0.0000000000000000     
  0.62500000000000000       0.68750000000000000        0.0000000000000000     
  0.50000000000000000       0.71875000000000000        0.0000000000000000     
  0.53125000000000000       0.71875000000000000        0.0000000000000000     
  0.56250000000000000       0.71875000000000000        0.0000000000000000     
  0.59375000000000000       0.71875000000000000        0.0000000000000000     
  0.62500000000000000       0.71875000000000000        0.0000000000000000     
  0.50000000000000000       0.75000000000000000        0.0000000000000000     
  0.53125000000000000       0.75000000000000000        0.0000000000000000     
  0.56250000000000000       0.75000000000000000        0.0000000000000000     
  0.59375000000000000       0.75000000000000000        0.0000000000000000     
  0.62500000000000000       0.75000000000000000        0.0000000000000000     
  0.62500000000000000       0.62500000000000000        0.0000000000000000     
  0.65625000000000000       0.62500000000000000        0.0000000000000000     
  0.68750000000000000       0.62500000000000000        0.0000000000000000     
  0.71875000000000000       0.62500000000000000        0.0000000000000000     
  0.75000000000000000       0.62500000000000000        0.0000000000000000     
  0.62500000000000000       0.65625000000000000        0.0000000000000000     
  0.65625000000000000       0.65625000000000000        0.0000000000000000     
  0.68750000000000000       0.65625000000000000        0.0000000000000000     
  0.71875000000000000       0.65625000000000000        0.0000000000000000     
  0.75000000000000000       0.65625000000000000        0.0000000000000000     
  0.62500000000000000       0.68750000000000000        0.0000000000000000     
  0.65625000000000000       0.68750000000000000        0.0000000000000000     
  0.68750000000000000       0.68750000000000000        0.0000000000000000     
  0.71875000000000000       0.68750000000000000        0.0000000000000000     
  0.75000000000000000       0.68750000000000000        0.0000000000000000     
  0.62500000000000000       0.71875000000000000        0.0000000000000000     
  0.65625000000000000       0.71875000000000000        0.0000000000000000     
  0.68750000000000000       0.71875000000000000        0.0000000000000000     
  0.71875000000000000       0.71875000000000000        0.0000000000000000     
  0.75000000000000000       0.71875000000000000        0.0000000000000000     
  0.62500000000000000       0.75000000000000000        0.0000000000000000     
  0.65625000000000000       0.75000000000000000        0.0000000000000000     
  0.68750000000000000       0.75000000000000000        0.0000000000000000     
  0.71875000000000000       0.75000000000000000        0.0000000000000000     
  0.75000000000000000       0.75000000000000000        0.0000000000000000     
  0.75000000000000000       0.62500000000000000        0.0000000000000000     
  0.78125000000000000       0.62500000000000000        0.0000000000000000     
  0.81250000000000000       0.62500000000000000        0.0000000000000000     
  0.84375000000000000       0.62500000000000000        0.0000000000000000     
  0.87500000000000000       0.62500000000000000        0.0000000000000000     
  0.75000000000000000       0.65625000000000000        0.0000000000000000     
  0.78125000000000000       0.65625000000000000        0.0000000000000000     
  0.81250000000000000       0.65625000000000000        0.0000000000000000     
  0.84375000000000000       0.65625000000000000        0.0000000000000000     
  0.87500000000000000       0.65625000000000000        0.0000000000000000     
  0.75000000000000000       0.68750000000000000        0.0000000000000000     
  0.78125000000000000       0.68750000000000000        0.0000000000000000     
  0.81250000000000000       0.68750000000000000        0.0000000000000000     
  0.84375000000000000       0.68750000000000000        0.0000000000000000     
  0.87500000000000000       0.68750000000000000        0.0000000000000000     
  0.75000000000000000       0.71875000000000000        0.0000000000000000     
  0.78125000000000000       0.71875000000000000        0.0000000000000000     
  0.81250000000000000       0.71875000000000000        0.0000000000000000     
  0.84375000000000000       0.71875000000000000        0.0000000000000000     
  0.87500000000000000       0.71875000000000000        0.0000000000000000     
  0.75000000000000000       0.75000000000000000        0.0000000000000000     
  0.78125000000000000       0.75000000000000000        0.0000000000000000     
  0.81250000000000000       0.75000000000000000        0.0000000000000000     
  0.84375000000000000       0.75000000000000000        0.0000000000000000     
  0.87500000000000000       0.75000000000000000        0.0000000000000000     
  0.87500000000000000       0.62500000000000000        0.0000000000000000     
  0.90625000000000000       0.62500000000000000        0.0000000000000000     
  0.93750000000000000       0.62500000000000000        0.0000000000000000     
  0.96875000000000000       0.62500000000000000        0.0000000000000000     
   1.0000000000000000       0.62500000000000000        0.0000000000000000     
  0.87500000000000000       0.65625000000000000        0.0000000000000000     
  0.90625000000000000       0.65625000000000000        0.0000000000000000     
  0.93750000000000000       0.65625000000000000        0.0000000000000000     
  0.96875000000000000       0.65625000000000000        0.0000000000000000     
   1.0000000000000000       0.65625000000000000        0.0000000000000000     
  0.87500000000000000       0.68750000000000000        0.0000000000000000     
  0.90625000000000000       0.68750000000000000        0.0000000000000000     
  0.93750000000000000       0.68750000000000000        0.0000000000000000     
  0.96875000000000000       0.68750000000000000        0.0000000000000000     
   1.0000000000000000       0.68750000000000000        0.0000000000000000     
  0.87500000000000000       0.71875000000000000        0.0000000000000000     
  0.90625000000000000       0.71875000000000000        0.0000000000000000     
  0.93750000000000000       0.71875000000000000        0.0000000000000000     
  0.96875000000000000       0.71875000000000000        0.0000000000000000     
   1.0000000000000000       0.71875000000000000        0.0000000000000000     
  0.87500000000000000       0.75000000000000000        0.0000000000000000     
  0.90625000000000000       0.75000000000000000        0.0000000000000000     
  0.93750000000000000       0.75000000000000000        0.0000000000000000     
  0.96875000000000000       0.75000000000000000        0.0000000000000000     
   1.0000000000000000       0.75000000000000000        0.0000000000000000     
   0.0000000000000000       0.75000000000000000        0.0000000000000000     
   3.1250000000000000E-002  0.75000000000000000        0.0000000000000000     
   6.2500000000000000E-002  0.75000000000000000        0.0000000000000000     
   9.3750000000000000E-002  0.75000000000000000        0.0000000000000000     
  0.12500000000000000       0.75000000000000000        0.0000000000000000     
   0.0000000000000000       0.78125000000000000        0.0000000000000000     
   3.1250000000000000E-002  0.78125000000000000        0.0000000000000000     
   6.2500000000000000E-002  0.78125000000000000        0.0000000000000000     
   9.3750000000000000E-002  0.78125000000000000        0.0000000000000000     
  0.12500000000000000       0.78125000000000000        0.0000000000000000     
   0.0000000000000000       0.81250000000000000        0.0000000000000000     
   3.1250000000000000E-002  0.81250000000000000        0.0000000000000000     
   6.2500000000000000E-002  0.81250000000000000        0.0000000000000000     
   9.3750000000000000E-002  0.81250000000000000        0.0000000000000000     
  0.12500000000000000       0.81250000000000000        0.0000000000000000     
   0.0000000000000000       0.84375000000000000        0.0000000000000000     
   3.1250000000000000E-002  0.84375000000000000        0.0000000000000000     
   6.2500000000000000E-002  0.84375000000000000        0.0000000000000000     
   9.3750000000000000E-002  0.84375000000000000        0.0000000000000000     
  0.12500000000000000       0.84375000000000000        0.0000000000000000     
   0.0000000000000000       0.87500000000000000        0.0000000000000000     
   3.1250000000000000E-002  0.87500000000000000        0.0000000000000000     
   6.2500000000000000E-002  0.87500000000000000        0.0000000000000000     
   9.3750000000000000E-002  0.87500000000000000        0.0000000000000000     
  0.12500000000000000       0.87500000000000000        0.0000000000000000     
  0.12500000000000000       0.75000000000000000        0.0000000000000000     
  0.15625000000000000       0.75000000000000000        0.0000000000000000     
  0.18750000000000000       0.75000000000000000        0.0000000000000000     
  0.21875000000000000       0.75000000000000000        0.0000000000000000     
  0.25000000000000000       0.75000000000000000        0.0000000000000000     
  0.12500000000000000       0.78125000000000000        0.0000000000000000     
  0.15625000000000000       0.78125000000000000        0.0000000000000000     
  0.18750000000000000       0.78125000000000000        0.0000000000000000     
  0.21875000000000000       0.78125000000000000        0.0000000000000000     
  0.25000000000000000       0.78125000000000000        0.0000000000000000     
  0.12500000000000000       0.81250000000000000        0.0000000000000000     
  0.15625000000000000       0.81250000000000000        0.0000000000000000     
  0.18750000000000000       0.81250000000000000        0.0000000000000000     
  0.21875000000000000       0.81250000000000000        0.0000000000000000     
  0.25000000000000000       0.81250000000000000        0.0000000000000000     
  0.12500000000000000       0.84375000000000000        0.0000000000000000     
  0.15625000000000000       0.84375000000000000        0.0000000000000000     
  0.18750000000000000       0.84375000000000000        0.0000000000000000     
  0.21875000000000000       0.84375000000000000        0.0000000000000000     
  0.25000000000000000       0.84375000000000000        0.0000000000000000     
  0.12500000000000000       0.87500000000000000        0.0000000000000000     
  0.15625000000000000       0.87500000000000000        0.0000000000000000     
  0.18750000000000000       0.87500000000000000        0.0000000000000000     
  0.21875000000000000       0.87500000000000000        0.0000000000000000     
  0.25000000000000000       0.87500000000000000        0.0000000000000000     
  0.25000000000000000       0.75000000000000000        0.0000000000000000     
  0.28125000000000000       0.75000000000000000        0.0000000000000000     
  0.31250000000000000       0.75000000000000000        0.0000000000000000     
  0.34375000000000000       0.75000000000000000        0.0000000000000000     
  0.37500000000000000       0.75000000000000000        0.0000000000000000     
  0.25000000000000000       0.78125000000000000        0.0000000000000000     
  0.28125000000000000       0.78125000000000000        0.0000000000000000     
  0.31250000000000000       0.78125000000000000        0.0000000000000000     
  0.34375000000000000       0.78125000000000000        0.0000000000000000     
  0.37500000000000000       0.78125000000000000        0.0000000000000000     
  0.25000000000000000       0.81250000000000000        0.0000000000000000     
  0.28125000000000000       0.81250000000000000        0.0000000000000000     
  0.31250000000000000       0.81250000000000000        0.0000000000000000     
  0.34375000000000000       0.81250000000000000        0.0000000000000000     
  0.37500000000000000       0.81250000000000000        0.0000000000000000     
  0.25000000000000000       0.84375000000000000        0.0000000000000000     
  0.28125000000000000       0.84375000000000000        0.0000000000000000     
  0.31250000000000000       0.84375000000000000        0.0000000000000000     
  0.34375000000000000       0.84375000000000000        0.0000000000000000     
  0.37500000000000000       0.84375000000000000        0.0000000000000000     
  0.25000000000000000       0.87500000000000000        0.0000000000000000     
  0.28125000000000000       0.87500000000000000        0.0000000000000000     
  0.31250000000000000       0.87500000000000000        0.0000000000000000     
  0.34375000000000000       0.87500000000000000        0.0000000000000000     
  0.37500000000000000       0.87500000000000000        0.0000000000000000     
  0.37500000000000000       0.75000000000000000        0.0000000000000000     
  0.40625000000000000       0.75000000000000000        0.0000000000000000     
  0.43750000000000000       0.75000000000000000        0.0000000000000000     
  0.46875000000000000       0.75000000000000000        0.0000000000000000     
  0.50000000000000000       0.75000000000000000        0.0000000000000000     
  0.37500000000000000       0.78125000000000000        0.0000000000000000     
  0.40625000000000000       0.78125000000000000        0.0000000000000000     
  0.43750000000000000       0.78125000000000000        0.0000000000000000     
  0.46875000000000000       0.78125000000000000        0.0000000000000000     
  0.50000000000000000       0.78125000000000000        0.0000000000000000     
  0.37500000000000000       0.81250000000000000        0.0000000000000000     
  0.40625000000000000       0.81250000000000000        0.0000000000000000     
  0.43750000000000000       0.81250000000000000        0.0000000000000000     
  0.46875000000000000       0.81250000000000000        0.0000000000000000     
  0.50000000000000000       0.81250000000000000        0.0000000000000000     
  0.37500000000000000       0.84375000000000000        0.0000000000000000     
  0.40625000000000000       0.84375000000000000        0.0000000000000000     
  0.43750000000000000       0.84375000000000000        0.0000000000000000     
  0.46875000000000000       0.84375000000000000        0.0000000000000000     
  0.50000000000000000       0.84375000000000000        0.0000000000000000     
  0.37500000000000000       0.87500000000000000        0.0000000000000000     
  0.40625000000000000       0.87500000000000000        0.0000000000000000     
  0.43750000000000000       0.87500000000000000        0.0000000000000000     
  0.46875000000000000       0.87500000000000000        0.0000000000000000     
  0.50000000000000000       0.87500000000000000        0.0000000000000000     
  0.50000000000000000       0.75000000000000000        0.0000000000000000     
  0.53125000000000000       0.75000000000000000        0.0000000000000000     
  0.56250000000000000       0.75000000000000000        0.0000000000000000     
  0.59375000000000000       0.75000000000000000        0.0000000000000000     
  0.62500000000000000       0.75000000000000000        0.0000000000000000     
  0.50000000000000000       0.78125000000000000        0.0000000000000000     
  0.53125000000000000       0.78125000000000000        0.0000000000000000     
  0.56250000000000000       0.78125000000000000        0.0000000000000000     
  0.59375000000000000       0.78125000000000000        0.0000000000000000     
  0.62500000000000000       0.78125000000000000        0.0000000000000000     
  0.50000000000000000       0.81250000000000000        0.0000000000000000     
  0.53125000000000000       0.81250000000000000        0.0000000000000000     
  0.56250000000000000       0.81250000000000000        0.0000000000000000     
  0.59375000000000000       0.81250000000000000        0.0000000000000000     
  0.62500000000000000       0.81250000000000000        0.0000000000000000     
  0.50000000000000000       0.84375000000000000        0.0000000000000000     
  0.53125000000000000       0.84375000000000000        0.0000000000000000     
  0.56250000000000000       0.84375000000000000        0.0000000000000000     
  0.59375000000000000       0.84375000000000000        0.0000000000000000     
  0.62500000000000000       0.84375000000000000        0.0000000000000000     
  0.50000000000000000       0.87500000000000000        0.0000000000000000     
  0.53125000000000000       0.87500000000000000        0.0000000000000000     
  0.56250000000000000       0.87500000000000000        0.0000000000000000     
  0.59375000000000000       0.87500000000000000        0.0000000000000000     
  0.62500000000000000       0.87500000000000000        0.0000000000000000     
  0.62500000000000000       0.75000000000000000        0.0000000000000000     
  0.65625000000000000       0.75000000000000000        0.0000000000000000     
  0.68750000000000000       0.75000000000000000        0.0000000000000000     
  0.71875000000000000       0.75000000000000000        0.0000000000000000     
  0.75000000000000000       0.75000000000000000        0.0000000000000000     
  0.62500000000000000       0.78125000000000000        0.0000000000000000     
  0.65625000000000000       0.78125000000000000        0.0000000000000000     
  0.68750000000000000       0.78125000000000000        0.0000000000000000     
  0.71875000000000000       0.78125000000000000        0.0000000000000000     
  0.75000000000000000       0.78125000000000000        0.0000000000000000     
  0.62500000000000000       0.81250000000000000        0.0000000000000000     
  0.65625000000000000       0.81250000000000000        0.0000000000000000     
  0.68750000000000000       0.81250000000000000        0.0000000000000000     
  0.71875000000000000       0.81250000000000000        0.0000000000000000     
  0.75000000000000000       0.81250000000000000        0.0000000000000000     
  0.62500000000000000       0.84375000000000000        0.0000000000000000     
  0.65625000000000000       0.84375000000000000        0.0000000000000000     
  0.68750000000000000       0.84375000000000000        0.0000000000000000     
  0.71875000000000000       0.84375000000000000        0.0000000000000000     
  0.75000000000000000       0.84375000000000000        0.0000000000000000     
  0.62500000000000000       0.87500000000000000        0.0000000000000000     
  0.65625000000000000       0.87500000000000000        0.0000000000000000     
  0.68750000000000000       0.87500000000000000        0.0000000000000000     
  0.71875000000000000       0.87500000000000000        0.0000000000000000     
  0.75000000000000000       0.87500000000000000        0.0000000000000000     
  0.75000000000000000       0.75000000000000000        0.0000000000000000     
  0.78125000000000000       0.75000000000000000        0.0000000000000000     
  0.81250000000000000       0.75000000000000000        0.0000000000000000     
  0.84375000000000000       0.75000000000000000        0.0000000000000000     
  0.87500000000000000       0.75000000000000000        0.0000000000000000     
  0.75000000000000000       0.78125000000000000        0.0000000000000000     
  0.78125000000000000       0.78125000000000000        0.0000000000000000     
  0.81250000000000000       0.78125000000000000        0.0000000000000000     
  0.84375000000000000       0.78125000000000000        0.0000000000000000     
  0.87500000000000000       0.78125000000000000        0.0000000000000000     
  0.75000000000000000       0.81250000000000000        0.0000000000000000     
  0.78125000000000000       0.81250000000000000        0.0000000000000000     
  0.81250000000000000       0.81250000000000000        0.0000000000000000     
  0.84375000000000000       0.81250000000000000        0.0000000000000000     
  0.87500000000000000       0.81250000000000000        0.0000000000000000     
  0.75000000000000000       0.84375000000000000        0.0000000000000000     
  0.78125000000000000       0.84375000000000000        0.0000000000000000     
  0.81250000000000000       0.84375000000000000        0.0000000000000000     
  0.84375000000000000       0.84375000000000000        0.0000000000000000     
  0.87500000000000000       0.84375000000000000        0.0000000000000000     
  0.75000000000000000       0.87500000000000000        0.0000000000000000     
  0.78125000000000000       0.87500000000000000        0.0000000000000000     
  0.81250000000000000       0.87500000000000000        0.0000000000000000     
  0.84375000000000000       0.87500000000000000        0.0000000000000000     
  0.87500000000000000       0.87500000000000000        0.0000000000000000     
  0.87500000000000000       0.75000000000000000        0.0000000000000000     
  0.90625000000000000       0.75000000000000000        0.0000000000000000     
  0.93750000000000000       0.75000000000000000        0.0000000000000000     
  0.96875000000000000       0.75000000000000000        0.0000000000000000     
   1.0000000000000000       0.75000000000000000        0.0000000000000000     
  0.87500000000000000       0.78125000000000000        0.0000000000000000     
  0.90625000000000000       0.78125000000000000        0.0000000000000000     
  0.93750000000000000       0.78125000000000000        0.0000000000000000     
  0.96875000000000000       0.78125000000000000        0.0000000000000000     
   1.0000000000000000       0.78125000000000000        0.0000000000000000     
  0.87500000000000000       0.81250000000000000        0.0000000000000000     
  0.90625000000000000       0.81250000000000000        0.0000000000000000     
  0.93750000000000000       0.81250000000000000        0.0000000000000000     
  0.96875000000000000       0.81250000000000000        0.0000000000000000     
   1.0000000000000000       0.81250000000000000        0.0000000000000000     
  0.87500000000000000       0.84375000000000000        0.0000000000000000     
  0.90625000000000000       0.84375000000000000        0.0000000000000000     
  0.93750000000000000       0.84375000000000000        0.0000000000000000     
  0.96875000000000000       0.84375000000000000        0.0000000000000000     
   1.0000000000000000       0.84375000000000000        0.0000000000000000     
  0.87500000000000000       0.87500000000000000        0.0000000000000000     
  0.90625000000000000       0.87500000000000000        0.0000000000000000     
  0.93750000000000000       0.87500000000000000        0.0000000000000000     
  0.96875000000000000       0.87500000000000000        0.0000000000000000     
   1.0000000000000000       0.87500000000000000        0.0000000000000000     
   0.0000000000000000       0.87500000000000000        0.0000000000000000     
   3.1250000000000000E-002  0.87500000000000000        0.0000000000000000     
   6.2500000000000000E-002  0.87500000000000000        0.0000000000000000     
   9.3750000000000000E-002  0.87500000000000000        0.0000000000000000     
  0.12500000000000000       0.87500000000000000        0.0000000000000000     
   0.0000000000000000       0.90625000000000000        0.0000000000000000     
   3.1250000000000000E-002  0.90625000000000000        0.0000000000000000     
   6.2500000000000000E-002  0.90625000000000000        0.0000000000000000     
   9.3750000000000000E-002  0.90625000000000000        0.0000000000000000     
  0.12500000000000000       0.90625000000000000        0.0000000000000000     
   0.0000000000000000       0.93750000000000000        0.0000000000000000     
   3.1250000000000000E-002  0.93750000000000000        0.0000000000000000     
   6.2500000000000000E-002  0.93750000000000000        0.0000000000000000     
   9.3750000000000000E-002  0.93750000000000000        0.0000000000000000     
  0.12500000000000000       0.93750000000000000        0.0000000000000000     
   0.0000000000000000       0.96875000000000000        0.0000000000000000     
   3.1250000000000000E-002  0.96875000000000000        0.0000000000000000     
   6.2500000000000000E-002  0.96875000000000000        0.0000000000000000     
   9.3750000000000000E-002  0.96875000000000000        0.0000000000000000     
  0.12500000000000000       0.96875000000000000        0.0000000000000000     
   0.0000000000000000        1.0000000000000000        0.0000000000000000     
   3.1250000000000000E-002   1.0000000000000000        0.0000000000000000     
   6.2500000000000000E-002   1.0000000000000000        0.0000000000000000     
   9.3750000000000000E-002   1.0000000000000000        0.0000000000000000     
  0.12500000000000000        1.0000000000000000        0.0000000000000000     
  0.12500000000000000       0.87500000000000000        0.0000000000000000     
  0.15625000000000000       0.87500000000000000        0.0000000000000000     
  0.18750000000000000       0.87500000000000000        0.0000000000000000     
  0.21875000000000000       0.87500000000000000        0.0000000000000000     
  0.25000000000000000       0.87500000000000000        0.0000000000000000     
  0.12500000000000000       0.90625000000000000        0.0000000000000000     
  0.15625000000000000       0.90625000000000000        0.0000000000000000     
  0.18750000000000000       0.90625000000000000        0.0000000000000000     
  0.21875000000000000       0.90625000000000000        0.0000000000000000     
  0.25000000000000000       0.90625000000000000        0.0000000000000000     
  0.12500000000000000       0.93750000000000000        0.0000000000000000     
  0.15625000000000000       0.93750000000000000        0.0000000000000000     
  0.18750000000000000       0.93750000000000000        0.0000000000000000     
  0.21875000000000000       0.93750000000000000        0.0000000000000000     
  0.25000000000000000       0.93750000000000000        0.0000000000000000     
  0.12500000000000000       0.96875000000000000        0.0000000000000000     
  0.15625000000000000       0.96875000000000000        0.0000000000000000     
  0.18750000000000000       0.96875000000000000        0.0000000000000000     
  0.21875000000000000       0.96875000000000000        0.0000000000000000     
  0.25000000000000000       0.96875000000000000        0.0000000000000000     
  0.12500000000000000        1.0000000000000000        0.0000000000000000     
  0.15625000000000000        1.0000000000000000        0.0000000000000000     
  0.18750000000000000        1.0000000000000000        0.0000000000000000     
  0.21875000000000000        1.0000000000000000        0.0000000000000000     
  0.25000000000000000        1.0000000000000000        0.0000000000000000     
  0.25000000000000000       0.87500000000000000        0.0000000000000000     
  0.28125000000000000       0.87500000000000000        0.0000000000000000     
  0.31250000000000000       0.87500000000000000        0.0000000000000000     
  0.34375000000000000       0.87500000000000000        0.0000000000000000     
  0.37500000000000000       0.87500000000000000        0.0000000000000000     
  0.25000000000000000       0.90625000000000000        0.0000000000000000     
  0.28125000000000000       0.90625000000000000        0.0000000000000000     
  0.31250000000000000       0.90625000000000000        0.0000000000000000     
  0.34375000000000000       0.90625000000000000        0.0000000000000000     
  0.37500000000000000       0.90625000000000000        0.0000000000000000     
  0.25000000000000000       0.93750000000000000        0.0000000000000000     
  0.28125000000000000       0.93750000000000000        0.0000000000000000     
  0.31250000000000000       0.93750000000000000        0.0000000000000000     
  0.34375000000000000       0.93750000000000000        0.0000000000000000     
  0.37500000000000000       0.93750000000000000        0.0000000000000000     
  0.25000000000000000       0.96875000000000000        0.0000000000000000     
  0.28125000000000000       0.96875000000000000        0.0000000000000000     
  0.31250000000000000       0.96875000000000000        0.0000000000000000     
  0.34375000000000000       0.96875000000000000        0.0000000000000000     
  0.37500000000000000       0.96875000000000000        0.0000000000000000     
  0.25000000000000000        1.0000000000000000        0.0000000000000000     
  0.28125000000000000        1.0000000000000000        0.0000000000000000     
  0.31250000000000000        1.0000000000000000        0.0000000000000000     
  0.34375000000000000        1.0000000000000000        0.0000000000000000     
  0.37500000000000000        1.0000000000000000        0.0000000000000000     
  0.37500000000000000       0.87500000000000000        0.0000000000000000     
  0.40625000000000000       0.87500000000000000        0.0000000000000000     
  0.43750000000000000       0.87500000000000000        0.0000000000000000     
  0.46875000000000000       0.87500000000000000        0.0000000000000000     
  0.50000000000000000       0.87500000000000000        0.0000000000000000     
  0.37500000000000000       0.90625000000000000        0.0000000000000000     
  0.40625000000000000       0.90625000000000000        0.0000000000000000     
  0.43750000000000000       0.90625000000000000        0.0000000000000000     
  0.46875000000000000       0.90625000000000000        0.0000000000000000     
  0.50000000000000000       0.90625000000000000        0.0000000000000000     
  0.37500000000000000       0.93750000000000000        0.0000000000000000     
  0.40625000000000000       0.93750000000000000        0.0000000000000000     
  0.43750000000000000       0.93750000000000000        0.0000000000000000     
  0.46875000000000000       0.93750000000000000        0.0000000000000000     
  0.50000000000000000       0.93750000000000000        0.0000000000000000     
  0.37500000000000000       0.96875000000000000        0.0000000000000000     
  0.40625000000000000       0.96875000000000000        0.0000000000000000     
  0.43750000000000000       0.96875000000000000        0.0000000000000000     
  0.46875000000000000       0.96875000000000000        0.0000000000000000     
  0.50000000000000000       0.96875000000000000        0.0000000000000000     
  0.37500000000000000        1.0000000000000000        0.0000000000000000     
  0.40625000000000000        1.0000000000000000        0.0000000000000000     
  0.43750000000000000        1.0000000000000000        0.0000000000000000     
  0.46875000000000000        1.0000000000000000        0.0000000000000000     
  0.50000000000000000        1.0000000000000000        0.0000000000000000     
  0.50000000000000000       0.87500000000000000        0.0000000000000000     
  0.53125000000000000       0.87500000000000000        0.0000000000000000     
  0.56250000000000000       0.87500000000000000        0.0000000000000000     
  0.59375000000000000       0.87500000000000000        0.0000000000000000     
  0.62500000000000000       0.87500000000000000        0.0000000000000000     
  0.50000000000000000       0.90625000000000000        0.0000000000000000     
  0.53125000000000000       0.90625000000000000        0.0000000000000000     
  0.56250000000000000       0.90625000000000000        0.0000000000000000     
  0.59375000000000000       0.90625000000000000        0.0000000000000000     
  0.62500000000000000       0.90625000000000000        0.0000000000000000     
  0.50000000000000000       0.93750000000000000        0.0000000000000000     
  0.53125000000000000       0.93750000000000000        0.0000000000000000     
  0.56250000000000000       0.93750000000000000        0.0000000000000000     
  0.59375000000000000       0.93750000000000000        0.0000000000000000     
  0.62500000000000000       0.93750000000000000        0.0000000000000000     
  0.50000000000000000       0.96875000000000000        0.0000000000000000     
  0.53125000000000000       0.96875000000000000        0.0000000000000000     
  0.56250000000000000       0.96875000000000000        0.0000000000000000     
  0.59375000000000000       0.96875000000000000        0.0000000000000000     
  0.62500000000000000       0.96875000000000000        0.0000000000000000     
  0.50000000000000000        1.0000000000000000        0.0000000000000000     
  0.53125000000000000        1.0000000000000000        0.0000000000000000     
  0.56250000000000000        1.0000000000000000        0.0000000000000000     
  0.59375000000000000        1.0000000000000000        0.0000000000000000     
  0.62500000000000000        1.0000000000000000        0.0000000000000000     
  0.62500000000000000       0.87500000000000000        0.0000000000000000     
  0.65625000000000000       0.87500000000000000        0.0000000000000000     
  0.68750000000000000       0.87500000000000000        0.0000000000000000     
  0.71875000000000000       0.87500000000000000        0.0000000000000000     
  0.75000000000000000       0.87500000000000000        0.0000000000000000     
  0.62500000000000000       0.90625000000000000        0.0000000000000000     
  0.65625000000000000       0.90625000000000000        0.0000000000000000     
  0.68750000000000000       0.90625000000000000        0.0000000000000000     
  0.71875000000000000       0.90625000000000000        0.0000000000000000     
  0.75000000000000000       0.90625000000000000        0.0000000000000000     
  0.62500000000000000       0.93750000000000000        0.0000000000000000     
  0.65625000000000000       0.93750000000000000        0.0000000000000000     
  0.68750000000000000       0.93750000000000000        0.0000000000000000     
  0.71875000000000000       0.93750000000000000        0.0000000000000000     
  0.75000000000000000       0.93750000000000000        0.0000000000000000     
  0.62500000000000000       0.96875000000000000        0.0000000000000000     
  0.65625000000000000       0.96875000000000000        0.0000000000000000     
  0.68750000000000000       0.96875000000000000        0.0000000000000000     
  0.71875000000000000       0.96875000000000000        0.0000000000000000     
  0.75000000000000000       0.96875000000000000        0.0000000000000000     
  0.62500000000000000        1.0000000000000000        0.0000000000000000     
  0.65625000000000000        1.0000000000000000        0.0000000000000000     
  0.68750000000000000        1.0000000000000000        0.0000000000000000     
  0.71875000000000000        1.0000000000000000        0.0000000000000000     
  0.75000000000000000        1.0000000000000000        0.0000000000000000     
  0.75000000000000000       0.87500000000000000        0.0000000000000000     
  0.78125000000000000       0.87500000000000000        0.0000000000000000     
  0.81250000000000000       0.87500000000000000        0.0000000000000000     
  0.84375000000000000       0.87500000000000000        0.0000000000000000     
  0.87500000000000000       0.87500000000000000        0.0000000000000000     
  0.75000000000000000       0.90625000000000000        0.0000000000000000     
  0.78125000000000000       0.90625000000000000        0.0000000000000000     
  0.81250000000000000       0.90625000000000000        0.0000000000000000     
  0.84375000000000000       0.90625000000000000        0.0000000000000000     
  0.87500000000000000       0.90625000000000000        0.0000000000000000     
  0.75000000000000000       0.93750000000000000        0.0000000000000000     
  0.78125000000000000       0.93750000000000000        0.0000000000000000     
  0.81250000000000000       0.93750000000000000        0.0000000000000000     
  0.84375000000000000       0.93750000000000000        0.0000000000000000     
  0.87500000000000000       0.93750000000000000        0.0000000000000000     
  0.75000000000000000       0.96875000000000000        0.0000000000000000     
  0.78125000000000000       0.96875000000000000        0.0000000000000000     
  0.81250000000000000       0.96875000000000000        0.0000000000000000     
  0.84375000000000000       0.96875000000000000        0.0000000000000000     
  0.87500000000000000       0.96875000000000000        0.0000000000000000     
  0.75000000000000000        1.0000000000000000        0.0000000000000000     
  0.78125000000000000        1.0000000000000000        0.0000000000000000     
  0.81250000000000000        1.0000000000000000        0.0000000000000000     
  0.84375000000000000        1.0000000000000000        0.0000000000000000     
  0.87500000000000000        1.0000000000000000        0.0000000000000000     
  0.87500000000000000       0.87500000000000000        0.0000000000000000     
  0.90625000000000000       0.87500000000000000        0.0000000000000000     
  0.93750000000000000       0.87500000000000000        0.0000000000000000     
  0.96875000000000000       0.87500000000000000        0.0000000000000000     
   1.0000000000000000       0.87500000000000000        0.0000000000000000     
  0.87500000000000000       0.90625000000000000        0.0000000000000000     
  0.90625000000000000       0.90625000000000000        0.0000000000000000     
  0.93750000000000000       0.90625000000000000        0.0000000000000000     
  0.96875000000000000       0.90625000000000000        0.0000000000000000     
   1.0000000000000000       0.90625000000000000        0.0000000000000000     
  0.87500000000000000       0.93750000000000000        0.0000000000000000     
  0.90625000000000000       0.93750000000000000        0.0000000000000000     
  0.93750000000000000       0.93750000000000000        0.0000000000000000     
  0.96875000000000000       0.93750000000000000        0.0000000000000000     
   1.0000000000000000       0.93750000000000000        0.0000000000000000     
  0.87500000000000000       0.96875000000000000        0.0000000000000000     
  0.90625000000000000       0.96875000000000000        0.0000000000000000     
  0.93750000000000000       0.96875000000000000        0.0000000000000000     
  0.96875000000000000       0.96875000000000000        0.0000000000000000     
   1.0000000000000000       0.96875000000000000        0.0000000000000000     
  0.87500000000000000        1.0000000000000000        0.0000000000000000     
  0.90625000000000000        1.0000000000000000        0.0000000000000000     
  0.93750000000000000        1.0000000000000000        0.0000000000000000     
  0.96875000000000000        1.0000000000000000        0.0000000000000000     
   1.0000000000000000        1.0000000000000000        0.0000000000000000     
 </DataArray>
 </Points>
 <Cells>
 <DataArray  type="Int32"  Name="connectivity"  format="ascii">
           0           1           6           5
           1           2           7           6
           2           3           8           7
           3           4           9           8
           5           6          11          10
           6           7          12          11
           7           8          13          12
           8           9          14          13
          10          11          16          15
          11          12          17          16
          12          13          18          17
          13          14          19          18
          15          16          21          20
          16          17          22          21
          17          18          23          22
          18          19          24          23
          25          26          31          30
          26          27          32          31
          27          28          33          32
          28          29          34          33
          30          31          36          35
          31          32          37          36
          32          33          38          37
          33          34          39          38
          35          36          41          40
          36          37          42          41
          37          38          43          42
          38          39          44          43
          40          41          46          45
          41          42          47          46
          42          43          48          47
          43          44          49          48
          50          51          56          55
          51          52          57          56
          52          53          58          57
          53          54          59          58
          55          56          61          60
          56          57          62          61
          57          58          63          62
          58          59          64          63
          60          61          66          65
          61          62          67          66
          62          63          68          67
          63          64          69          68
          65          66          71          70
          66          67          72          71
          67          68          73          72
          68          69          74          73
          75          76          81          80
          76          77          82          81
          77          78          83          82
          78          79          84          83
          80          81          86          85
          81          82          87          86
          82          83          88          87
          83          84          89          88
          85          86          91          90
          86          87          92          91
          87          88          93          92
          88          89          94          93
          90          91          96          95
          91          92          97          96
          92          93          98          97
          93          94          99          98
         100         101         106         105
         101         102         107         106
         102         103         108         107
         103         104         109         108
         105         106         111         110
         106         107         112         111
         107         108         113         112
         108         109         114         113
         110         111         116         115
         111         112         117         116
         112         113         118         117
         113         114         119         118
         115         116         121         120
         116         117         122         121
         117         118         123         122
         118         119         124         123
         125         126         131         130
         126         127         132         131
         127         128         133         132
         128         129         134         133
         130         131         136         135
         131         132         137         136
         132         133         138         137
         133         134         139         138
         135         136         141         140
         136         137         142         141
         137         138         143         142
         138         139         144         143
         140         141         146         145
         141         142         147         146
         142         143         148         147
         143         144         149         148
         150         151         156         155
         151         152         157         156
         152         153         158         157
         153         154         159         158
         155         156         161         160
         156         157         162         161
         157         158         163         162
         158         159         164         163
         160         161         166         165
         161         162         167         166
         162         163         168         167
         163         164         169         168
         165         166         171         170
         166         167         172         171
         167         168         173         172
         168         169         174         173
         175         176         181         180
         176         177         182         181
         177         178         183         182
         178         179         184         183
         180         181         186         185
         181         182         187         186
         182         183         188         187
         183         184         189         188
         185         186         191         190
         186         187         192         191
         187         188         193         192
         188         189         194         193
         190         191         196         195
         191         192         197         196
         192         193         198         197
         193         194         199         198
         200         201         206         205
         201         202         207         206
         202         203         208         207
         203         204         209         208
         205         206         211         210
         206         207         212         211
         207         208         213         212
         208         209         214         213
         210         211         216         215
         211         212         217         216
         212         213         218         217
         213         214         219         218
         215         216         221         220
         216         217         222         221
         217         218         223         222
         218         219         224         223
         225         226         231         230
         226         227         232         231
         227         228         233         232
         228         229         234         233
         230         231         236         235
         231         232         237         236
         232         233         238         237
         233         234         239         238
         235         236         241         240
         236         237         242         241
         237         238         243         242
         238         239         244         243
         240         241         246         245
         241         242         247         246
         242         243         248         247
         243         244         249         248
         250         251         256         255
         251         252         257         256
         252         253         258         257
         253         254         259         258
         255         256         261         260
         256         257         262         261
         257         258         263         262
         258         259         264         263
         260         261         266         265
         261         262         267         266
         262         263         268         267
         263         264         269         268
         265         266         271         270
         266         267         272         271
         267         268         273         272
         268         269         274         273
         275         276         281         280
         276         277         282         281
         277         278         283         282
         278         279         284         283
         280         281         286         285
         281         282         287         286
         282         283         288         287
         283         284         289         288
         285         286         291         290
         286         287         292         291
         287         288         293         292
         288         289         294         293
         290         291         296         295
         291         292         297         296
         292         293         298         297
         293         294         299         298
         300         301         306         305
         301         302         307         306
         302         303         308         307
         303         304         309         308
         305         306         311         310
         306         307         312         311
         307         308         313         312
         308         309         314         313
         310         311         316         315
         311         312         317         316
         312         313         318         317
         313         314         319         318
         315         316         321         320
         316         317         322         321
         317         318         323         322
         318         319         324         323
         325         326         331         330
         326         327         332         331
         327         328         333         332
         328         329         334         333
         330         331         336         335
         331         332         337         336
         332         333         338         337
         333         334         339         338
         335         336         341         340
         336         337         342         341
         337         338         343         342
         338         339         344         343
         340         341         346         345
         341         342         347         346
         342         343         348         347
         343         344         349         348
         350         351         356         355
         351         352         357         356
         352         353         358         357
         353         354         359         358
         355         356         361         360
         356         357         362         361
         357         358         363         362
         358         359         364         363
         360         361         366         365
         361         362         367         366
         362         363         368         367
         363         364         369         368
         365         366         371         370
         366         367         372         371
         367         368         373         372
         368         369         374         373
         375         376         381         380
         376         377         382         381
         377         378         383         382
         378         379         384         383
         380         381         386         385
         381         382         387         386
         382         383         388         387
         383         384         389         388
         385         386         391         390
         386         387         392         391
         387         388         393         392
         388         389         394         393
         390         391         396         395
         391         392         397         396
         392         393         398         397
         393         394         399         398
         400         401         406         405
         401         402         407         406
         402         403         408         407
         403         404         409         408
         405         406         411         410
         406         407         412         411
         407         408         413         412
         408         409         414         413
         410         411         416         415
         411         412         417         416
         412         413         418         417
         413         414         419         418
         415         416         421         420
         416         417         422         421
         417         418         423         422
         418         419         424         423
         425         426         431         430
         426         427         432         431
         427         428         433         432
         428         429         434         433
         430         431         436         435
         431         432         437         436
         432         433         438         437
         433         434         439         438
         435         436         441         440
         436         437         442         441
         437         438         443         442
         438         439         444         443
         440         441         446         445
         441         442         447         446
         442         443         448         447
         443         444         449         448
         450         451         456         455
         451         452         457         456
         452         453         458         457
         453         454         459         458
         455         456         461         460
         456         457         462         461
         457         458         463         462
         458         459         464         463
         460         461         466         465
         461         462         467         466
         462         463         468         467
         463         464         469         468
         465         466         471         470
         466         467         472         471
         467         468         473         472
         468         469         474         473
         475         476         481         480
         476         477         482         481
         477         478         483         482
         478         479         484         483
         480         481         486         485
         481         482         487         486
         482         483         488         487
         483         484         489         488
         485         486         491         490
         486         487         492         491
         487         488         493         492
         488         489         494         493
         490         491         496         495
         491         492         497         496
         492         493         498         497
         493         494         499         498
         500         501         506         505
         501         502         507         506
         502         503         508         507
         503         504         509         508
         505         506         511         510
         506         507         512         511
         507         508         513         512
         508         509         514         513
         510         511         516         515
         511         512         517         516
         512         513         518         517
         513         514         519         518
         515         516         521         520
         516         517         522         521
         517         518         523         522
         518         519         524         523
         525         526         531         530
         526         527         532         531
         527         528         533         532
         528         529         534         533
         530         531         536         535
         531         532         537         536
         532         533         538         537
         533         534         539         538
         535         536         541         540
         536         537         542         541
         537         538         543         542
         538         539         544         543
         540         541         546         545
         541         542         547         546
         542         543         548         547
         543         544         549         548
         550         551         556         555
         551         552         557         556
         552         553         558         557
         553         554         559         558
         555         556         561         560
         556         557         562         561
         557         558         563         562
         558         559         564         563
         560         561         566         565
         561         562         567         566
         562         563         568         567
         563         564         569         568
         565         566         571         570
         566         567         572         571
         567         568         573         572
         568         569         574         573
         575         576         581         580
         576         577         582         581
         577         578         583         582
         578         579         584         583
         580         581         586         585
         581         582         587         586
         582         583         588         587
         583         584         589         588
         585         586         591         590
         586         587         592         591
         587         588         593         592
         588         589         594         593
         590         591         596         595
         591         592         597         596
         592         593         598         597
         593         594         599         598
         600         601         606         605
         601         602         607         606
         602         603         608         607
         603         604         609         608
         605         606         611         610
         606         607         612         611
         607         608         613         612
         608         609         614         613
         610         611         616         615
         611         612         617         616
         612         613         618         617
         613         614         619         618
         615         616         621         620
         616         617         622         621
         617         618         623         622
         618         619         624         623
         625         626         631         630
         626         627         632         631
         627         628         633         632
         628         629         634         633
         630         631         636         635
         631         632         637         636
         632         633         638         637
         633         634         639         638
         635         636         641         640
         636         637         642         641
         637         638         643         642
         638         639         644         643
         640         641         646         645
         641         642         647         646
         642         643         648         647
         643         644         649         648
         650         651         656         655
         651         652         657         656
         652         653         658         657
         653         654         659         658
         655         656         661         660
         656         657         662         661
         657         658         663         662
         658         659         664         663
         660         661         666         665
         661         662         667         666
         662         663         668         667
         663         664         669         668
         665         666         671         670
         666         667         672         671
         667         668         673         672
         668         669         674         673
         675         676         681         680
         676         677         682         681
         677         678         683         682
         678         679         684         683
         680         681         686         685
         681         682         687         686
         682         683         688         687
         683         684         689         688
         685         686         691         690
         686         687         692         691
         687         688         693         692
         688         689         694         693
         690         691         696         695
         691         692         697         696
         692         693         698         697
         693         694         699         698
         700         701         706         705
         701         702         707         706
         702         703         708         707
         703         704         709         708
         705         706         711         710
         706         707         712         711
         707         708         713         712
         708         709         714         713
         710         711         716         715
         711         712         717         716
         712         713         718         717
         713         714         719         718
         715         716         721         720
         716         717         722         721
         717         718         723         722
         718         719         724         723
         725         726         731         730
         726         727         732         731
         727         728         733         732
         728         729         734         733
         730         731         736         735
         731         732         737         736
         732         733         738         737
         733         734         739         738
         735         736         741         740
         736         737         742         741
         737         738         743         742
         738         739         744         743
         740         741         746         745
         741         742         747         746
         742         743         748         747
         743         744         749         748
         750         751         756         755
         751         752         757         756
         752         753         758         757
         753         754         759         758
         755         756         761         760
         756         757         762         761
         757         758         763         762
         758         759         764         763
         760         761         766         765
         761         762         767         766
         762         763         768         767
         763         764         769         768
         765         766         771         770
         766         767         772         771
         767         768         773         772
         768         769         774         773
         775         776         781         780
         776         777         782         781
         777         778         783         782
         778         779         784         783
         780         781         786         785
         781         782         787         786
         782         783         788         787
         783         784         789         788
         785         786         791         790
         786         787         792         791
         787         788         793         792
         788         789         794         793
         790         791         796         795
         791         792         797         796
         792         793         798         797
         793         794         799         798
         800         801         806         805
         801         802         807         806
         802         803         808         807
         803         804         809         808
         805         806         811         810
         806         807         812         811
         807         808         813         812
         808         809         814         813
         810         811         816         815
         811         812         817         816
         812         813         818         817
         813         814         819         818
         815         816         821         820
         816         817         822         821
         817         818         823         822
         818         819         824         823
         825         826         831         830
         826         827         832         831
         827         828         833         832
         828         829         834         833
         830         831         836         835
         831         832         837         836
         832         833         838         837
         833         834         839         838
         835         836         841         840
         836         837         842         841
         837         838         843         842
         838         839         844         843
         840         841         846         845
         841         842         847         846
         842         843         848         847
         843         844         849         848
         850         851         856         855
         851         852         857         856
         852         853         858         857
         853         854         859         858
         855         856         861         860
         856         857         862         861
         857         858         863         862
         858         859         864         863
         860         861         866         865
         861         862         867         866
         862         863         868         867
         863         864         869         868
         865         866         871         870
         866         867         872         871
         867         868         873         872
         868         869         874         873
         875         876         881         880
         876         877         882         881
         877         878         883         882
         878         879         884         883
         880         881         886         885
         881         882         887         886
         882         883         888         887
         883         884         889         888
         885         886         891         890
         886         887         892         891
         887         888         893         892
         888         889         894         893
         890         891         896         895
         891         892         897         896
         892         893         898         897
         893         894         899         898
         900         901         906         905
         901         902         907         906
         902         903         908         907
         903         904         909         908
         905         906         911         910
         906         907         912         911
         907         908         913         912
         908         909         914         913
         910         911         916         915
         911         912         917         916
         912         913         918         917
         913         914         919         918
         915         916         921         920
         916         917         922         921
         917         918         923         922
         918         919         924         923
         925         926         931         930
         926         927         932         931
         927         928         933         932
         928         929         934         933
         930         931         936         935
         931         932         937         936
         932         933         938         937
         933         934         939         938
         935         936         941         940
         936         937         942         941
         937         938         943         942
         938         939         944         943
         940         941         946         945
         941         942         947         946
         942         943         948         947
         943         944         949         948
         950         951         956         955
         951         952         957         956
         952         953         958         957
         953         954         959         958
         955         956         961         960
         956         957         962         961
         957         958         963         962
         958         959         964         963
         960         961         966         965
         961         962         967         966
         962         963         968         967
         963         964         969         968
         965         966         971         970
         966         967         972         971
         967         968         973         972
         968         969         974         973
         975         976         981         980
         976         977         982         981
         977         978         983         982
         978         979         984         983
         980         981         986         985
         981         982         987         986
         982         983         988         987
         983         984         989         988
         985         986         991         990
         986         987         992         991
         987         988         993         992
         988         989         994         993
         990         991         996         995
         991         992         997         996
         992         993         998         997
         993         994         999         998
        1000        1001        1006        1005
        1001        1002        1007        1006
        1002        1003        1008        1007
        1003        1004        1009        1008
        1005        1006        1011        1010
        1006        1007        1012        1011
        1007        1008        1013        1012
        1008        1009        1014        1013
        1010        1011        1016        1015
        1011        1012        1017        1016
        1012        1013        1018        1017
        1013        1014        1019        1018
        1015        1016        1021        1020
        1016        1017        1022        1021
        1017        1018        1023        1022
        1018        1019        1024        1023
        1025        1026        1031        1030
        1026        1027        1032        1031
        1027        1028        1033        1032
        1028        1029        1034        1033
        1030        1031        1036        1035
        1031        1032        1037        1036
        1032        1033        1038        1037
        1033        1034        1039        1038
        1035        1036        1041        1040
        1036        1037        1042        1041
        1037        1038        1043        1042
        1038        1039        1044        1043
        1040        1041        1046        1045
        1041        1042        1047        1046
        1042        1043        1048        1047
        1043        1044        1049        1048
        1050        1051        1056        1055
        1051        1052        1057        1056
        1052        1053        1058        1057
        1053        1054        1059        1058
        1055        1056        1061        1060
        1056        1057        1062        1061
        1057        1058        1063        1062
        1058        1059        1064        1063
        1060        1061        1066        1065
        1061        1062        1067        1066
        1062        1063        1068        1067
        1063        1064        1069        1068
        1065        1066        1071        1070
        1066        1067        1072        1071
        1067        1068        1073        1072
        1068        1069        1074        1073
        1075        1076        1081        1080
        1076        1077        1082        1081
        1077        1078        1083        1082
        1078        1079        1084        1083
        1080        1081        1086        1085
        1081        1082        1087        1086
        1082        1083        1088        1087
        1083        1084        1089        1088
        1085        1086        1091        1090
        1086        1087        1092        1091
        1087        1088        1093        1092
        1088        1089        1094        1093
        1090        1091        1096        1095
        1091        1092        1097        1096
        1092        1093        1098        1097
        1093        1094        1099        1098
        1100        1101        1106        1105
        1101        1102        1107        1106
        1102        1103        1108        1107
        1103        1104        1109        1108
        1105        1106        1111        1110
        1106        1107        1112        1111
        1107        1108        1113        1112
        1108        1109        1114        1113
        1110        1111        1116        1115
        1111        1112        1117        1116
        1112        1113        1118        1117
        1113        1114        1119        1118
        1115        1116        1121        1120
        1116        1117        1122        1121
        1117        1118        1123        1122
        1118        1119        1124        1123
        1125        1126        1131        1130
        1126        1127        1132        1131
        1127        1128        1133        1132
        1128        1129        1134        1133
        1130        1131        1136        1135
        1131        1132        1137        1136
        1132        1133        1138        1137
        1133        1134        1139        1138
        1135        1136        1141        1140
        1136        1137        1142        1141
        1137        1138        1143        1142
        1138        1139        1144        1143
        1140        1141        1146        1145
        1141        1142        1147        1146
        1142        1143        1148        1147
        1143        1144        1149        1148
        1150        1151        1156        1155
        1151        1152        1157        1156
        1152        1153        1158        1157
        1153        1154        1159        1158
        1155        1156        1161        1160
        1156        1157        1162        1161
        1157        1158        1163        1162
        1158        1159        1164        1163
        1160        1161        1166        1165
        1161        1162        1167        1166
        1162        1163        1168        1167
        1163        1164        1169        1168
        1165        1166        1171        1170
        1166        1167        1172        1171
        1167        1168        1173        1172
        1168        1169        1174        1173
        1175        1176        1181        1180
        1176        1177        1182        1181
        1177        1178        1183        1182
        1178        1179        1184        1183
        1180        1181        1186        1185
        1181        1182        1187        1186
        1182        1183        1188        1187
        1183        1184        1189        1188
        1185        1186        1191        1190
        1186        1187        1192        1191
        1187        1188        1193        1192
        1188        1189        1194        1193
        1190        1191        1196        1195
        1191        1192        1197        1196
        1192        1193        1198        1197
        1193        1194        1199        1198
        1200        1201        1206        1205
        1201        1202        1207        1206
        1202        1203        1208        1207
        1203        1204        1209        1208
        1205        1206        1211        1210
        1206        1207        1212        1211
        1207        1208        1213        1212
        1208        1209        1214        1213
        1210        1211        1216        1215
        1211        1212        1217        1216
        1212        1213        1218        1217
        1213        1214        1219        1218
        1215        1216        1221        1220
        1216        1217        1222        1221
        1217        1218        1223        1222
        1218        1219        1224        1223
        1225        1226        1231        1230
        1226        1227        1232        1231
        1227        1228        1233        1232
        1228        1229        1234        1233
        1230        1231        1236        1235
        1231        1232        1237        1236
        1232        1233        1238        1237
        1233        1234        1239        1238
        1235        1236        1241        1240
        1236        1237        1242        1241
        1237        1238        1243        1242
        1238        1239        1244        1243
        1240        1241        1246        1245
        1241        1242        1247        1246
        1242        1243        1248        1247
        1243        1244        1249        1248
        1250        1251        1256        1255
        1251        1252        1257        1256
        1252        1253        1258        1257
        1253        1254        1259        1258
        1255        1256        1261        1260
        1256        1257        1262        1261
        1257        1258        1263        1262
        1258        1259        1264        1263
        1260        1261        1266        1265
        1261        1262        1267        1266
        1262        1263        1268        1267
        1263        1264        1269        1268
        1265        1266        1271        1270
        1266        1267        1272        1271
        1267        1268        1273        1272
        1268        1269        1274        1273
        1275        1276        1281        1280
        1276        1277        1282        1281
        1277        1278        1283        1282
        1278        1279        1284        1283
        1280        1281        1286        1285
        1281        1282        1287        1286
        1282        1283        1288        1287
        1283        1284        1289        1288
        1285        1286        1291        1290
        1286        1287        1292        1291
        1287        1288        1293        1292
        1288        1289        1294        1293
        1290        1291        1296        1295
        1291        1292        1297        1296
        1292        1293        1298        1297
        1293        1294        1299        1298
        1300        1301        1306        1305
        1301        1302        1307        1306
        1302        1303        1308        1307
        1303        1304        1309        1308
        1305        1306        1311        1310
        1306        1307        1312        1311
        1307        1308        1313        1312
        1308        1309        1314        1313
        1310        1311        1316        1315
        1311        1312        1317        1316
        1312        1313        1318        1317
        1313        1314        1319        1318
        1315        1316        1321        1320
        1316        1317        1322        1321
        1317        1318        1323        1322
        1318        1319        1324        1323
        1325        1326        1331        1330
        1326        1327        1332        1331
        1327        1328        1333        1332
        1328        1329        1334        1333
        1330        1331        1336        1335
        1331        1332        1337        1336
        1332        1333        1338        1337
        1333        1334        1339        1338
        1335        1336        1341        1340
        1336        1337        1342        1341
        1337        1338        1343        1342
        1338        1339        1344        1343
        1340        1341        1346        1345
        1341        1342        1347        1346
        1342        1343        1348        1347
        1343        1344        1349        1348
        1350        1351        1356        1355
        1351        1352        1357        1356
        1352        1353        1358        1357
        1353        1354        1359        1358
        1355        1356        1361        1360
        1356        1357        1362        1361
        1357        1358        1363        1362
        1358        1359        1364        1363
        1360        1361        1366        1365
        1361        1362        1367        1366
        1362        1363        1368        1367
        1363        1364        1369        1368
        1365        1366        1371        1370
        1366        1367        1372        1371
        1367        1368        1373        1372
        1368        1369        1374        1373
        1375        1376        1381        1380
        1376        1377        1382        1381
        1377        1378        1383        1382
        1378        1379        1384        1383
        1380        1381        1386        1385
        1381        1382        1387        1386
        1382        1383        1388        1387
        1383        1384        1389        1388
        1385        1386        1391        1390
        1386        1387        1392        1391
        1387        1388        1393        1392
        1388        1389        1394        1393
        1390        1391        1396        1395
        1391        1392        1397        1396
        1392        1393        1398        1397
        1393        1394        1399        1398
        1400        1401        1406        1405
        1401        1402        1407        1406
        1402        1403        1408        1407
        1403        1404        1409        1408
        1405        1406        1411        1410
        1406        1407        1412        1411
        1407        1408        1413        1412
        1408        1409        1414        1413
        1410        1411        1416        1415
        1411        1412        1417        1416
        1412        1413        1418        1417
        1413        1414        1419        1418
        1415        1416        1421        1420
        1416        1417        1422        1421
        1417        1418        1423        1422
        1418        1419        1424        1423
        1425        1426        1431        1430
        1426        1427        1432        1431
        1427        1428        1433        1432
        1428        1429        1434        1433
        1430        1431        1436        1435
        1431        1432        1437        1436
        1432        1433        1438        1437
        1433        1434        1439        1438
        1435        1436        1441        1440
        1436        1437        1442        1441
        1437        1438        1443        1442
        1438        1439        1444        1443
        1440        1441        1446        1445
        1441        1442        1447        1446
        1442        1443        1448        1447
        1443        1444        1449        1448
        1450        1451        1456        1455
        1451        1452        1457        1456
        1452        1453        1458        1457
        1453        1454        1459        1458
        1455        1456        1461        1460
        1456        1457        1462        1461
        1457        1458        1463        1462
        1458        1459        1464        1463
        1460        1461        1466        1465
        1461        1462        1467        1466
        1462        1463        1468        1467
        1463        1464        1469        1468
        1465        1466        1471        1470
        1466        1467        1472        1471
        1467        1468        1473        1472
        1468        1469        1474        1473
        1475        1476        1481        1480
        1476        1477        1482        1481
        1477        1478        1483        1482
        1478        1479        1484        1483
        1480        1481        1486        1485
        1481        1482        1487        1486
        1482        1483        1488        1487
        1483        1484        1489        1488
        1485        1486        1491        1490
        1486        1487        1492        1491
        1487        1488        1493        1492
        1488        1489        1494        1493
        1490        1491        1496        1495
        1491        1492        1497        1496
        1492        1493        1498        1497
        1493        1494        1499        1498
        1500        1501        1506        1505
        1501        1502        1507        1506
        1502        1503        1508        1507
        1503        1504        1509        1508
        1505        1506        1511        1510
        1506        1507        1512        1511
        1507        1508        1513        1512
        1508        1509        1514        1513
        1510        1511        1516        1515
        1511        1512        1517        1516
        1512        1513        1518        1517
        1513        1514        1519        1518
        1515        1516        1521        1520
        1516        1517        1522        1521
        1517        1518        1523        1522
        1518        1519        1524        1523
        1525        1526        1531        1530
        1526        1527        1532        1531
        1527        1528        1533        1532
        1528        1529        1534        1533
        1530        1531        1536        1535
        1531        1532        1537        1536
        1532        1533        1538        1537
        1533        1534        1539        1538
        1535        1536        1541        1540
        1536        1537        1542        1541
        1537        1538        1543        1542
        1538        1539        1544        1543
        1540        1541        1546        1545
        1541        1542        1547        1546
        1542        1543        1548        1547
        1543        1544        1549        1548
        1550        1551        1556        1555
        1551        1552        1557        1556
        1552        1553        1558        1557
        1553        1554        1559        1558
        1555        1556        1561        1560
        1556        1557        1562        1561
        1557        1558        1563        1562
        1558        1559        1564        1563
        1560        1561        1566        1565
        1561        1562        1567        1566
        1562        1563        1568        1567
        1563        1564        1569        1568
        1565        1566        1571        1570
        1566        1567        1572        1571
        1567        1568        1573        1572
        1568        1569        1574        1573
        1575        1576        1581        1580
        1576        1577        1582        1581
        1577        1578        1583        1582
        1578        1579        1584        1583
        1580        1581        1586        1585
        1581        1582        1587        1586
        1582        1583        1588        1587
        1583        1584        1589        1588
        1585        1586        1591        1590
        1586        1587        1592        1591
        1587        1588        1593        1592
        1588        1589        1594        1593
        1590        1591        1596        1595
        1591        1592        1597        1596
        1592        1593        1598        1597
        1593        1594        1599        1598
 </DataArray>
 <DataArray  type="Int32"  Name="offsets"  format="ascii"> 
           4
           8
          12
          16
          20
          24
          28
          32
          36
          40
          44
          48
          52
          56
          60
          64
          68
          72
          76
          80
          84
          88
          92
          96
         100
         104
         108
         112
         116
         120
         124
         128
         132
         136
         140
         144
         148
         152
         156
         160
         164
         168
         172
         176
         180
         184
         188
         192
         196
         200
         204
         208
         212
         216
         220
         224
         228
         232
         236
         240
         244
         248
         252
         256
         260
         264
         268
         272
         276
         280
         284
         288
         292
         296
         300
         304
         308
         312
         316
         320
         324
         328
         332
         336
         340
         344
         348
         352
         356
         360
         364
         368
         372
         376
         380
         384
         388
         392
         396
         400
         404
         408
         412
         416
         420
         424
         428
         432
         436
         440
         444
         448
         452
         456
         460
         464
         468
         472
         476
         480
         484
         488
         492
         496
         500
         504
         508
         512
         516
         520
         524
         528
         532
         536
         540
         544
         548
         552
         556
         560
         564
         568
         572
         576
         580
         584
         588
         592
         596
         600
         604
         608
         612
         616
         620
         624
         628
         632
         636
         640
         644
         648
         652
         656
         660
         664
         668
         672
         676
         680
         684
         688
         692
         696
         700
         704
         708
         712
         716
         720
         724
         728
         732
         736
         740
         744
         748
         752
         756
         760
         764
         768
         772
         776
         780
         784
         788
         792
         796
         800
         804
         808
         812
         816
         820
         824
         828
         832
         836
         840
         844
         848
         852
         856
         860
         864
         868
         872
         876
         880
         884
         888
         892
         896
         900
         904
         908
         912
         916
         920
         924
         928
         932
         936
         940
         944
         948
         952
         956
         960
         964
         968
         972
         976
         980
         984
         988
         992
         996
        1000
        1004
        1008
        1012
        1016
        1020
        1024
        1028
        1032
        1036
        1040
        1044
        1048
        1052
        1056
        1060
        1064
        1068
        1072
        1076
        1080
        1084
        1088
        1092
        1096
        1100
        1104
        1108
        1112
        1116
        1120
        1124
        1128
        1132
        1136
        1140
        1144
        1148
        1152
        1156
        1160
        1164
        1168
        1172
        1176
        1180
        1184
        1188
        1192
        1196
        1200
        1204
        1208
        1212
        1216
        1220
        1224
        1228
        1232
        1236
        1240
        1244
        1248
        1252
        1256
        1260
        1264
        1268
        1272
        1276
        1280
        1284
        1288
        1292
        1296
        1300
        1304
        1308
        1312
        1316
        1320
        1324
        1328
        1332
        1336
        1340
        1344
        1348
        1352
        1356
        1360
        1364
        1368
        1372
        1376
        1380
        1384
        1388
        1392
        1396
        1400
        1404
        1408
        1412
        1416
        1420
        1424
        1428
        1432
        1436
        1440
        1444
        1448
        1452
        1456
        1460
        1464
        1468
        1472
        1476
        1480
        1484
        1488
        1492
        1496
        1500
        1504
        1508
        1512
        1516
        1520
        1524
        1528
        1532
        1536
        1540
        1544
        1548
        1552
        1556
        1560
        1564
        1568
        1572
        1576
        1580
        1584
        1588
        1592
        1596
        1600
        1604
        1608
        1612
        1616
        1620
        1624
        1628
        1632
        1636
        1640
        1644
        1648
        1652
        1656
        1660
        1664
        1668
        1672
        1676
        1680
        1684
        1688
        1692
        1696
        1700
        1704
        1708
        1712
        1716
        1720
        1724
        1728
        1732
        1736
        1740
        1744
        1748
        1752
        1756
        1760
        1764
        1768
        1772
        1776
        1780
        1784
        1788
        1792
        1796
        1800
        1804
        1808
        1812
        1816
        1820
        1824
        1828
        1832
        1836
        1840
        1844
        1848
        1852
        1856
        1860
        1864
        1868
        1872
        1876
        1880
        1884
        1888
        1892
        1896
        1900
        1904
        1908
        1912
        1916
        1920
        1924
        1928
        1932
        1936
        1940
        1944
        1948
        1952
        1956
        1960
        1964
        1968
        1972
        1976
        1980
        1984
        1988
        1992
        1996
        2000
        2004
        2008
        2012
        2016
        2020
        2024
        2028
        2032
        2036
        2040
        2044
        2048
        2052
        2056
        2060
        2064
        2068
        2072
        2076
        2080
        2084
        2088
        2092
        2096
        2100
        2104
        2108
        2112
        2116
        2120
        2124
        2128
        2132
        2136
        2140
        2144
        2148
        2152
        2156
        2160
        2164
        2168
        2172
        2176
        2180
        2184
        2188
        2192
        2196
        2200
        2204
        2208
        2212
        2216
        2220
        2224
        2228
        2232
        2236
        2240
        2244
        2248
        2252
        2256
        2260
        2264
        2268
        2272
        2276
        2280
        2284
        2288
        2292
        2296
        2300
        2304
        2308
        2312
        2316
        2320
        2324
        2328
        2332
        2336
        2340
        2344
        2348
        2352
        2356
        2360
        2364
        2368
        2372
        2376
        2380
        2384
        2388
        2392
        2396
        2400
        2404
        2408
        2412
        2416
        2420
        2424
        2428
        2432
        2436
        2440
        2444
        2448
        2452
        2456
        2460
        2464
        2468
        2472
        2476
        2480
        2484
        2488
        2492
        2496
        2500
        2504
        2508
        2512
        2516
        2520
        2524
        2528
        2532
        2536
        2540
        2544
        2548
        2552
        2556
        2560
        2564
        2568
        2572
        2576
        2580
        2584
        2588
        2592
        2596
        2600
        2604
        2608
        2612
        2616
        2620
        2624
        2628
        2632
        2636
        2640
        2644
        2648
        2652
        2656
        2660
        2664
        2668
        2672
        2676
        2680
        2684
        2688
        2692
        2696
        2700
        2704
        2708
        2712
        2716
        2720
        2724
        2728
        2732
        2736
        2740
        2744
        2748
        2752
        2756
        2760
        2764
        2768
        2772
        2776
        2780
        2784
        2788
        2792
        2796
        2800
        2804
        2808
        2812
        2816
        2820
        2824
        2828
        2832
        2836
        2840
        2844
        2848
        2852
        2856
        2860
        2864
        2868
        2872
        2876
        2880
        2884
        2888
        2892
        2896
        2900
        2904
        2908
        2912
        2916
        2920
        2924
        2928
        2932
        2936
        2940
        2944
        2948
        2952
        2956
        2960
        2964
        2968
        2972
        2976
        2980
        2984
        2988
        2992
        2996
        3000
        3004
        3008
        3012
        3016
        3020
        3024
        3028
        3032
        3036
        3040
        3044
        3048
        3052
        3056
        3060
        3064
        3068
        3072
        3076
        3080
        3084
        3088
        3092
        3096
        3100
        3104
        3108
        3112
        3116
        3120
        3124
        3128
        3132
        3136
        3140
        3144
        3148
        3152
        3156
        3160
        3164
        3168
        3172
        3176
        3180
        3184
        3188
        3192
        3196
        3200
        3204
        3208
        3212
        3216
        3220
        3224
        3228
        3232
        3236
        3240
        3244
        3248
        3252
        3256
        3260
        3264
        3268
        3272
        3276
        3280
        3284
        3288
        3292
        3296
        3300
        3304
        3308
        3312
        3316
        3320
        3324
        3328
        3332
        3336
        3340
        3344
        3348
        3352
        3356
        3360
        3364
        3368
        3372
        3376
        3380
        3384
        3388
        3392
        3396
        3400
        3404
        3408
        3412
        3416
        3420
        3424
        3428
        3432
        3436
        3440
        3444
        3448
        3452
        3456
        3460
        3464
        3468
        3472
        3476
        3480
        3484
        3488
        3492
        3496
        3500
        3504
        3508
        3512
        3516
        3520
        3524
        3528
        3532
        3536
        3540
        3544
        3548
        3552
        3556
        3560
        3564
        3568
        3572
        3576
        3580
        3584
        3588
        3592
        3596
        3600
        3604
        3608
        3612
        3616
        3620
        3624
        3628
        3632
        3636
        3640
        3644
        3648
        3652
        3656
        3660
        3664
        3668
        3672
        3676
        3680
        3684
        3688
        3692
        3696
        3700
        3704
        3708
        3712
        3716
        3720
        3724
        3728
        3732
        3736
        3740
        3744
        3748
        3752
        3756
        3760
        3764
        3768
        3772
        3776
        3780
        3784
        3788
        3792
        3796
        3800
        3804
        3808
        3812
        3816
        3820
        3824
        3828
        3832
        3836
        3840
        3844
        3848
        3852
        3856
        3860
        3864
        3868
        3872
        3876
        3880
        3884
        3888
        3892
        3896
        3900
        3904
        3908
        3912
        3916
        3920
        3924
        3928
        3932
        3936
        3940
        3944
        3948
        3952
        3956
        3960
        3964
        3968
        3972
        3976
        3980
        3984
        3988
        3992
        3996
        4000
        4004
        4008
        4012
        4016
        4020
        4024
        4028
        4032
        4036
        4040
        4044
        4048
        4052
        4056
        4060
        4064
        4068
        4072
        4076
        4080
        4084
        4088
        4092
        4096
 </DataArray>
 <DataArray  type="UInt8"  Name="types"  format="ascii">
 9
 9
 9
 9
 9
 9
 9
 9
 9
 9
 9
 9
 9
 9
 9
 9
 9
 9
 9
 9
 9
 9
 9
 9
 9
 9
 9
 9
 9
 9
 9
 9
 9
 9
 9
 9
 9
 9
 9
 9
 9
 9
 9
 9
 9
 9
 9
 9
 9
 9
 9
 9
 9
 9
 9
 9
 9
 9
 9
 9
 9
 9
 9
 9
 9
 9
 9
 9
 9
 9
 9
 9
 9
 9
 9
 9
 9
 9
 9
 9
 9
 9
 9
 9
 9
 9
 9
 9
 9
 9
 9
 9
 9
 9
 9
 9
 9
 9
 9
 9
 9
 9
 9
 9
 9
 9
 9
 9
 9
 9
 9
 9
 9
 9
 9
 9
 9
 9
 9
 9
 9
 9
 9
 9
 9
 9
 9
 9
 9
 9
 9
 9
 9
 9
 9
 9
 9
 9
 9
 9
 9
 9
 9
 9
 9
 9
 9
 9
 9
 9
 9
 9
 9
 9
 9
 9
 9
 9
 9
 9
 9
 9
 9
 9
 9
 9
 9
 9
 9
 9
 9
 9
 9
 9
 9
 9
 9
 9
 9
 9
 9
 9
 9
 9
 9
 9
 9
 9
 9
 9
 9
 9
 9
 9
 9
 9
 9
 9
 9
 9
 9
 9
 9
 9
 9
 9
 9
 9
 9
 9
 9
 9
 9
 9
 9
 9
 9
 9
 9
 9
 9
 9
 9
 9
 9
 9
 9
 9
 9
 9
 9
 9
 9
 9
 9
 9
 9
 9
 9
 9
 9
 9
 9
 9
 9
 9
 9
 9
 9
 9
 9
 9
 9
 9
 9
 9
 9
 9
 9
 9
 9
 9
 9
 9
 9
 9
 9
 9
 9
 9
 9
 9
 9
 9
 9
 9
 9
 9
 9
 9
 9
 9
 9
 9
 9
 9
 9
 9
 9
 9
 9
 9
 9
 9
 9
 9
 9
 9
 9
 9
 9
 9
 9
 9
 9
 9
 9
 9
 9
 9
 9
 9
 9
 9
 9
 9
 9
 9
 9
 9
 9
 9
 9
 9
 9
 9
 9
 9
 9
 9
 9
 9
 9
 9
 9
 9
 9
 9
 9
 9
 9
 9
 9
 9
 9
 9
 9
 9
 9
 9
 9
 9
 9
 9
 9
 9
 9
 9
 9
 9
 9
 9
 9
 9
 9
 9
 9
 9
 9
 9
 9
 9
 9
 9
 9
 9
 9
 9
 9
 9
 9
 9
 9
 9
 9
 9
 9
 9
 9
 9
 9
 9
 9
 9
 9
 9
 9
 9
 9
 9
 9
 9
 9
 9
 9
 9
 9
 9
 9
 9
 9
 9
 9
 9
 9
 9
 9
 9
 9
 9
 9
 9
 9
 9
 9
 9
 9
 9
 9
 9
 9
 9
 9
 9
 9
 9
 9
 9
 9
 9
 9
 9
 9
 9
 9
 9
 9
 9
 9
 9
 9
 9
 9
 9
 9
 9
 9
 9
 9
 9
 9
 9
 9
 9
 9
 9
 9
 9
 9
 9
 9
 9
 9
 9
 9
 9
 9
 9
 9
 9
 9
 9
 9
 9
 9
 9
 9
 9
 9
 9
 9
 9
 9
 9
 9
 9
 9
 9
 9
 9
 9
 9
 9
 9
 9
 9
 9
 9
 9
 9
 9
 9
 9
 9
 9
 9
 9
 9
 9
 9
 9
 9
 9
 9
 9
 9
 9
 9
 9
 9
 9
 9
 9
 9
 9
 9
 9
 9
 9
 9
 9
 9
 9
 9
 9
 9
 9
 9
 9
 9
 9
 9
 9
 9
 9
 9
 9
 9
 9
 9
 9
 9
 9
 9
 9
 9
 9
 9
 9
 9
 9
 9
 9
 9
 9
 9
 9
 9
 9
 9
 9
 9
 9
 9
 9
 9
 9
 9
 9
 9
 9
 9
 9
 9
 9
 9
 9
 9
 9
 9
 9
 9
 9
 9
 9
 9
 9
 9
 9
 9
 9
 9
 9
 9
 9
 9
 9
 9
 9
 9
 9
 9
 9
 9
 9
 9
 9
 9
 9
 9
 9
 9
 9
 9
 9
 9
 9
 9
 9
 9
 9
 9
 9
 9
 9
 9
 9
 9
 9
 9
 9
 9
 9
 9
 9
 9
 9
 9
 9
 9
 9
 9
 9
 9
 9
 9
 9
 9
 9
 9
 9
 9
 9
 9
 9
 9
 9
 9
 9
 9
 9
 9
 9
 9
 9
 9
 9
 9
 9
 9
 9
 9
 9
 9
 9
 9
 9
 9
 9
 9
 9
 9
 9
 9
 9
 9
 9
 9
 9
 9
 9
 9
 9
 9
 9
 9
 9
 9
 9
 9
 9
 9
 9
 9
 9
 9
 9
 9
 9
 9
 9
 9
 9
 9
 9
 9
 9
 9
 9
 9
 9
 9
 9
 9
 9
 9
 9
 9
 9
 9
 9
 9
 9
 9
 9
 9
 9
 9
 9
 9
 9
 9
 9
 9
 9
 9
 9
 9
 9
 9
 9
 9
 9
 9
 9
 9
 9
 9
 9
 9
 9
 9
 9
 9
 9
 9
 9
 9
 9
 9
 9
 9
 9
 9
 9
 9
 9
 9
 9
 9
 9
 9
 9
 9
 9
 9
 9
 9
 9
 9
 9
 9
 9
 9
 9
 9
 9
 9
 9
 9
 9
 9
 9
 9
 9
 9
 9
 9
 9
 9
 9
 9
 9
 9
 9
 9
 9
 9
 9
 9
 9
 9
 9
 9
 9
 9
 9
 9
 9
 9
 9
 9
 9
 9
 9
 9
 9
 9
 9
 9
 9
 9
 9
 9
 9
 9
 9
 9
 9
 9
 9
 9
 9
 9
 9
 9
 9
 9
 9
 9
 9
 9
 9
 9
 9
 9
 9
 9
 9
 9
 9
 9
 9
 9
 9
 9
 9
 9
 9
 9
 9
 9
 9
 9
 9
 9
 9
 9
 9
 9
 9
 9
 9
 9
 9
 9
 9
 9
 9
 9
 9
 9
 9
 9
 9
 9
 9
 9
 9
 9
 9
 9
 9
 9
 9
 9
 9
 9
 9
 9
 9
 9
 9
 9
 9
 9
 9
 9
 9
 9
 9
 9
 9
 9
 9
 9
 9
 9
 9
 9
 9
 9
 9
 9
 9
 9
 9
 9
 9
 9
 9
 9
 9
 9
 9
 9
 9
 9
 9
 9
 9
 9
 9
 9
 9
 9
 9
 9
 9
 9
 9
 9
 9
 9
 9
 9
 9
 9
 9
 9
 9
 9
 9
 9
 9
 9
 9
 9
 9
 9
 9
 9
 9
 9
 9
 9
 9
 9
 9
 9
 9
 9
 9
 9
 </DataArray>
 </Cells> 
 <PointData>
 <DataArray  type="Float64" Name="disp" NumberOfComponents="3" format="ascii">
   0.0000000000000000        0.0000000000000000        0.0000000000000000     
   6.0959517429985330E-003   3.7903501247942293E-003   0.0000000000000000     
   1.1665987601287750E-002   7.3237646575926556E-003   0.0000000000000000     
   1.6710107574867655E-002   1.0600243598395277E-002   0.0000000000000000     
   2.1228311663738241E-002   1.3619786947202095E-002   0.0000000000000000     
   0.0000000000000000        0.0000000000000000        0.0000000000000000     
   4.8911510986957684E-003   3.0221058978167504E-003   0.0000000000000000     
   9.5736269268051552E-003   6.0605049506423769E-003   0.0000000000000000     
   1.4047427484328159E-002   9.1151971584768794E-003   0.0000000000000000     
   1.8312552771264777E-002   1.2186182521320256E-002   0.0000000000000000     
   0.0000000000000000        0.0000000000000000        0.0000000000000000     
   3.9535708975445482E-003   2.4251074088968401E-003   0.0000000000000000     
   7.9106173076647114E-003   5.0628997976599191E-003   0.0000000000000000     
   1.1871139230360492E-002   7.9133771662892368E-003   0.0000000000000000     
   1.5835136665631890E-002   1.0976539514784792E-002   0.0000000000000000     
   0.0000000000000000        0.0000000000000000        0.0000000000000000     
   3.2832111395448729E-003   1.9993546580344989E-003   0.0000000000000000     
   6.6769587438664244E-003   4.3309491986452831E-003   0.0000000000000000     
   1.0181242812964657E-002   6.9947836218323522E-003   0.0000000000000000     
   1.3796063346839568E-002   9.9908579275957039E-003   0.0000000000000000     
   0.0000000000000000        0.0000000000000000        0.0000000000000000     
   2.8800718246967420E-003   1.7448476452297265E-003   0.0000000000000000     
   5.8726512354102933E-003   3.8646531535984673E-003   0.0000000000000000     
   8.9777382321406529E-003   6.3594165251062229E-003   0.0000000000000000     
   1.2195332814887822E-002   9.2291377597529933E-003   0.0000000000000000     
   2.1228311663738241E-002   1.3619786947202095E-002   0.0000000000000000     
   2.5433435774984255E-002   1.6612869584740855E-002   0.0000000000000000     
   2.9538315815690431E-002   1.9809966391739306E-002   0.0000000000000000     
   3.3542951785856777E-002   2.3211077368197445E-002   0.0000000000000000     
   3.7447343685483275E-002   2.6816202514115275E-002   0.0000000000000000     
   1.8312552771264777E-002   1.2186182521320256E-002   0.0000000000000000     
   2.2407221748731599E-002   1.5341723522742972E-002   0.0000000000000000     
   2.6369653377845189E-002   1.8650082646315486E-002   0.0000000000000000     
   3.0199847658605554E-002   2.2111259892037802E-002   0.0000000000000000     
   3.3897804591012701E-002   2.5725255259909915E-002   0.0000000000000000     
   1.5835136665631890E-002   1.0976539514784792E-002   0.0000000000000000     
   1.9730861970170956E-002   1.4211149722101479E-002   0.0000000000000000     
   2.3486567500669759E-002   1.7575970667194182E-002   0.0000000000000000     
   2.7102253257128287E-002   2.1071002350062904E-002   0.0000000000000000     
   3.0577919239546551E-002   2.4696244770707646E-002   0.0000000000000000     
   1.3796063346839568E-002   9.9908579275957039E-003   0.0000000000000000     
   1.7404356439302337E-002   1.3221148182816373E-002   0.0000000000000000     
   2.0889058184164141E-002   1.6587630454375391E-002   0.0000000000000000     
   2.4250168581424980E-002   2.0090304742272757E-002   0.0000000000000000     
   2.7487687631084848E-002   2.3729171046508471E-002   0.0000000000000000     
   1.2195332814887822E-002   9.2291377597529933E-003   0.0000000000000000     
   1.5427705156125739E-002   1.2371718904887662E-002   0.0000000000000000     
   1.8577125428328338E-002   1.5685062007859119E-002   0.0000000000000000     
   2.1643593631495622E-002   1.9169167068667357E-002   0.0000000000000000     
   2.4627109765627590E-002   2.2824034087312383E-002   0.0000000000000000     
   3.7447343685483275E-002   2.6816202514115275E-002   0.0000000000000000     
   4.1255976699318908E-002   3.0620983628166405E-002   0.0000000000000000     
   4.4973336012112626E-002   3.4621062509024449E-002   0.0000000000000000     
   4.8599421623864436E-002   3.8816439156689392E-002   0.0000000000000000     
   5.2134233534574317E-002   4.3207113571161256E-002   0.0000000000000000     
   3.3897804591012701E-002   2.5725255259909915E-002   0.0000000000000000     
   3.7486635531624075E-002   2.9521145507394812E-002   0.0000000000000000     
   4.0989451836997155E-002   3.3528007391955474E-002   0.0000000000000000     
   4.4406253507131933E-002   3.7745840913591913E-002   0.0000000000000000     
   4.7737040542028417E-002   4.2174646072304103E-002   0.0000000000000000     
   3.0577919239546551E-002   2.4696244770707646E-002   0.0000000000000000     
   3.3942828799478290E-002   2.8496454469328435E-002   0.0000000000000000     
   3.7226245288477219E-002   3.2516387986125300E-002   0.0000000000000000     
   4.0428168706543366E-002   3.6756045321098232E-002   0.0000000000000000     
   4.3548599053676709E-002   4.1215426474247252E-002   0.0000000000000000     
   2.7487687631084848E-002   2.3729171046508471E-002   0.0000000000000000     
   3.0624556502881539E-002   2.7546910513967272E-002   0.0000000000000000     
   3.3683716366552825E-002   3.1586204291533908E-002   0.0000000000000000     
   3.6665167222098720E-002   3.5847052379208384E-002   0.0000000000000000     
   3.9568909069519202E-002   4.0329454776990702E-002   0.0000000000000000     
   2.4627109765627590E-002   2.2824034087312383E-002   0.0000000000000000     
   2.7531818641833839E-002   2.6672513641311325E-002   0.0000000000000000     
   3.0361865071223976E-002   3.0737456308181314E-002   0.0000000000000000     
   3.3117249053797995E-002   3.5018862087922355E-002   0.0000000000000000     
   3.5797970589555902E-002   3.9516730980534445E-002   0.0000000000000000     
   5.2134233534574317E-002   4.3207113571161256E-002   0.0000000000000000     
   5.5574608367313399E-002   4.7797046516109984E-002   0.0000000000000000     
   5.8917382745152770E-002   5.2590198755205569E-002   0.0000000000000000     
   6.2162556668092443E-002   5.7586570288447984E-002   0.0000000000000000     
   6.5310130136132405E-002   6.2786161115837263E-002   0.0000000000000000     
   4.7737040542028417E-002   4.2174646072304103E-002   0.0000000000000000     
   5.0977893397422154E-002   4.6807377389854216E-002   0.0000000000000000     
   5.4124892529048715E-002   5.1636989388004394E-002   0.0000000000000000     
   5.7178037936908080E-002   5.6663482066754624E-002   0.0000000000000000     
   6.0137329621000268E-002   6.1886855426104927E-002   0.0000000000000000     
   4.3548599053676709E-002   4.1215426474247252E-002   0.0000000000000000     
   4.6583885873417219E-002   4.5881526388946138E-002   0.0000000000000000     
   4.9530378709304830E-002   5.0741340008568690E-002   0.0000000000000000     
   5.2388077561339556E-002   5.5794867333114902E-002   0.0000000000000000     
   5.5156982429521391E-002   6.1042108362584800E-002   0.0000000000000000     
   3.9568909069519202E-002   4.0329454776990702E-002   0.0000000000000000     
   4.2392585795298580E-002   4.5019493513385765E-002   0.0000000000000000     
   4.5133841285921128E-002   4.9903250616898473E-002   0.0000000000000000     
   4.7792675541386866E-002   5.4980726087528839E-002   0.0000000000000000     
   5.0369088561695759E-002   6.0251919925276856E-002   0.0000000000000000     
   3.5797970589555902E-002   3.9516730980534445E-002   0.0000000000000000     
   3.8403993163066266E-002   4.4221278763173069E-002   0.0000000000000000     
   4.0935280258897623E-002   4.9122721212993721E-002   0.0000000000000000     
   4.3391831877050008E-002   5.4221058329996408E-002   0.0000000000000000     
   4.5773648017523393E-002   5.9516290114181122E-002   0.0000000000000000     
   6.5310130136132405E-002   6.2786161115837263E-002   0.0000000000000000     
   6.8364090990965062E-002   6.8176617474080742E-002   0.0000000000000000     
   7.1328427074282816E-002   7.3745585599885796E-002   0.0000000000000000     
   7.4203138386085651E-002   7.9493065493252454E-002   0.0000000000000000     
   7.6988224926373583E-002   8.5419057154180689E-002   0.0000000000000000     
   6.0137329621000268E-002   6.1886855426104927E-002   0.0000000000000000     
   6.3006958132618002E-002   6.7299366269957528E-002   0.0000000000000000     
   6.5791114023054043E-002   7.2893271402214688E-002   0.0000000000000000     
   6.8489797292308349E-002   7.8668570822876399E-002   0.0000000000000000     
   7.1103007940380950E-002   8.4625264531942676E-002   0.0000000000000000     
   5.5156982429521391E-002   6.1042108362584800E-002   0.0000000000000000     
   5.7840959714741853E-002   6.6477735687745579E-002   0.0000000000000000     
   6.0443875817892484E-002   7.2096421899364507E-002   0.0000000000000000     
   6.2965730738973283E-002   7.7898166997441579E-002   0.0000000000000000     
   6.5406524477984229E-002   8.3882970981976793E-002   0.0000000000000000     
   5.0369088561695759E-002   6.0251919925276856E-002   0.0000000000000000     
   5.2866095737336603E-002   6.5711725727444895E-002   0.0000000000000000     
   5.5286712458798168E-002   7.1355037091335255E-002   0.0000000000000000     
   5.7630938726080452E-002   7.7181854016947993E-002   0.0000000000000000     
   5.9898774539183443E-002   8.3192176504283066E-002   0.0000000000000000     
   4.5773648017523393E-002   5.9516290114181122E-002   0.0000000000000000     
   4.8082366200402266E-002   6.5001336389055434E-002   0.0000000000000000     
   5.0319623945771087E-002   7.0669116978126945E-002   0.0000000000000000     
   5.2485421253629864E-002   7.6519631881395614E-002   0.0000000000000000     
   5.4579758123978583E-002   8.2552881098861469E-002   0.0000000000000000     
   7.6988224926373583E-002   8.5419057154180689E-002   0.0000000000000000     
   7.9674106015820312E-002   9.1511549463762623E-002   0.0000000000000000     
   8.2251200975099539E-002   9.7758531303090285E-002   0.0000000000000000     
   8.4719509804211252E-002  0.10416000267216373        0.0000000000000000     
   8.7079032503155435E-002  0.11071596357098293        0.0000000000000000     
   7.1103007940380950E-002   8.4625264531942676E-002   0.0000000000000000     
   7.3621757166942789E-002   9.0748800900947862E-002   0.0000000000000000     
   7.6037056171664827E-002   9.7024628301426399E-002   0.0000000000000000     
   7.8348904954547077E-002  0.10345274673337827        0.0000000000000000     
   8.0557303515589512E-002  0.11003315619680346        0.0000000000000000     
   6.5406524477984229E-002   8.3882970981976793E-002   0.0000000000000000     
   6.7758014281768794E-002   9.0034686532591501E-002   0.0000000000000000     
   7.0011957397170435E-002   9.6337166328907098E-002   0.0000000000000000     
   7.2168353824189110E-002  0.10279041037092355        0.0000000000000000     
   7.4227203562824876E-002  0.10939441865864091        0.0000000000000000     
   5.9898774539183443E-002   8.3192176504283066E-002   0.0000000000000000     
   6.2082877360298348E-002   8.9369206358693512E-002   0.0000000000000000     
   6.4175904651616295E-002   9.5696145385532366E-002   0.0000000000000000     
   6.6177856413137379E-002  0.10217299358479964        0.0000000000000000     
   6.8088732644861510E-002  0.10879975095649533        0.0000000000000000     
   5.4579758123978583E-002   8.2552881098861469E-002   0.0000000000000000     
   5.6596346402531403E-002   8.8752360379253895E-002   0.0000000000000000     
   5.8528897935002482E-002   9.5101565471302218E-002   0.0000000000000000     
   6.0377412721391813E-002  0.10160049637500647        0.0000000000000000     
   6.2141890761699403E-002  0.10824915309036665        0.0000000000000000     
   8.7079032503155435E-002  0.11071596357098293        0.0000000000000000     
   8.9346618475914213E-002  0.11742070835115773        0.0000000000000000     
   9.1539117126469699E-002  0.12426853136429802        0.0000000000000000     
   9.3656528454821836E-002  0.13125943261040376        0.0000000000000000     
   9.5698852460970679E-002  0.13839341208947498        0.0000000000000000     
   8.0557303515589512E-002  0.11003315619680346        0.0000000000000000     
   8.2681868888424145E-002  0.11676258734444167        0.0000000000000000     
   8.4742218106682893E-002  0.12363777082903260        0.0000000000000000     
   8.6738351170365782E-002  0.13065870665057625        0.0000000000000000     
   8.8670268079472842E-002  0.13782539480907263        0.0000000000000000     
   7.4227203562824876E-002  0.10939441865864091        0.0000000000000000     
   7.6209143563206461E-002  0.11614772080123296        0.0000000000000000     
   7.8134810775462610E-002  0.12304884640787352        0.0000000000000000     
   8.0004205199593406E-002  0.13009779547856259        0.0000000000000000     
   8.1817326835598767E-002  0.13729456801330020        0.0000000000000000     
   6.8088732644861510E-002  0.10879975095649533        0.0000000000000000     
   6.9928442500261187E-002  0.11557610872153162        0.0000000000000000     
   7.1716895132808919E-002  0.12250175810082077        0.0000000000000000     
   7.3454090542504652E-002  0.12957669909436278        0.0000000000000000     
   7.5140028729348413E-002  0.13680093170215768        0.0000000000000000     
   6.2141890761699403E-002  0.10824915309036665        0.0000000000000000     
   6.3839765699588352E-002  0.11504775110533765        0.0000000000000000     
   6.5488471178721724E-002  0.12199650590787436        0.0000000000000000     
   6.7088007199099561E-002  0.12909541749797682        0.0000000000000000     
   6.8638373760721835E-002  0.13634448587564504        0.0000000000000000     
   9.5698852460970679E-002  0.13839341208947498        0.0000000000000000     
   9.7654972603027218E-002  0.14565009898282436        0.0000000000000000     
   9.9513772339102441E-002  0.15300912247176460        0.0000000000000000     
  0.10127525166919636       0.16047048255629573        0.0000000000000000     
  0.10293941059330897       0.16803417923641770        0.0000000000000000     
   8.8670268079472842E-002  0.13782539480907263        0.0000000000000000     
   9.0514061549536173E-002  0.14511376599892800        0.0000000000000000     
   9.2245824296087936E-002  0.15249975091454868        0.0000000000000000     
   9.3865556319128129E-002  0.15998334955593468        0.0000000000000000     
   9.5373257618656754E-002  0.16756456192308594        0.0000000000000000     
   8.1817326835598767E-002  0.13729456801330020        0.0000000000000000     
   8.3543602962099769E-002  0.14461243233376403        0.0000000000000000     
   8.5152460857717549E-002  0.15202465676163188        0.0000000000000000     
   8.6643900522452064E-002  0.15953124129690371        0.0000000000000000     
   8.8017921956303341E-002  0.16713218593957954        0.0000000000000000     
   7.5140028729348413E-002  0.13680093170215768        0.0000000000000000     
   7.6743596840718006E-002  0.14414609798733244        0.0000000000000000     
   7.8233682023991266E-002  0.15158384001301414        0.0000000000000000     
   7.9610284279168178E-002  0.15911415777920279        0.0000000000000000     
   8.0873403606248742E-002  0.16673705128589844        0.0000000000000000     
   6.8638373760721835E-002  0.13634448587564504        0.0000000000000000     
   7.0114043185390898E-002  0.14371476295963317        0.0000000000000000     
   7.1489487794909115E-002  0.15117730066869550        0.0000000000000000     
   7.2764707589276445E-002  0.15873209900283200        0.0000000000000000     
   7.3939702568492929E-002  0.16637915796204267        0.0000000000000000     
   0.0000000000000000        0.0000000000000000        0.0000000000000000     
   2.8800718246967420E-003   1.7448476452297265E-003   0.0000000000000000     
   5.8726512354102933E-003   3.8646531535984673E-003   0.0000000000000000     
   8.9777382321406529E-003   6.3594165251062229E-003   0.0000000000000000     
   1.2195332814887822E-002   9.2291377597529933E-003   0.0000000000000000     
   0.0000000000000000        0.0000000000000000        0.0000000000000000     
   2.6103170555395760E-003   1.5889334842459197E-003   0.0000000000000000     
   5.2897218379594473E-003   3.5567080065607064E-003   0.0000000000000000     
   8.0382143472596118E-003   5.9033235669443615E-003   0.0000000000000000     
   1.0855794583440074E-002   8.6287801653968810E-003   0.0000000000000000     
   0.0000000000000000        0.0000000000000000        0.0000000000000000     
   2.3401109346127941E-003   1.4589592888464751E-003   0.0000000000000000     
   4.7201976071770159E-003   3.2998101015732331E-003   0.0000000000000000     
   7.1402600176926657E-003   5.5225524381802759E-003   0.0000000000000000     
   9.6002981661597441E-003   8.1271862986675991E-003   0.0000000000000000     
   0.0000000000000000        0.0000000000000000        0.0000000000000000     
   2.0694534619163972E-003   1.3549250590313929E-003   0.0000000000000000     
   4.1640785430630024E-003   3.0939594386360483E-003   0.0000000000000000     
   6.2838752434398164E-003   5.2171031388139654E-003   0.0000000000000000     
   8.4288435630468384E-003   7.7243561595651466E-003   0.0000000000000000     
   0.0000000000000000        0.0000000000000000        0.0000000000000000     
   1.7983446374503845E-003   1.2768307948006730E-003   0.0000000000000000     
   3.6213646456174052E-003   2.9391560177491512E-003   0.0000000000000000     
   5.4690600245010622E-003   4.9869756688454342E-003   0.0000000000000000     
   7.3414307741013545E-003   7.4202897480895235E-003   0.0000000000000000     
   1.2195332814887822E-002   9.2291377597529933E-003   0.0000000000000000     
   1.5427705156125739E-002   1.2371718904887662E-002   0.0000000000000000     
   1.8577125428328338E-002   1.5685062007859119E-002   0.0000000000000000     
   2.1643593631495622E-002   1.9169167068667357E-002   0.0000000000000000     
   2.4627109765627590E-002   2.2824034087312383E-002   0.0000000000000000     
   1.0855794583440074E-002   8.6287801653968810E-003   0.0000000000000000     
   1.3689106808557191E-002   1.1650795470057469E-002   0.0000000000000000     
   1.6484795284667338E-002   1.4887087149065312E-002   0.0000000000000000     
   1.9242860011770502E-002   1.8337655202420422E-002   0.0000000000000000     
   2.1963300989866697E-002   2.2002499630122786E-002   0.0000000000000000     
   9.6002981661597441E-003   8.1271862986675991E-003   0.0000000000000000     
   1.2076760084512738E-002   1.1046311460067916E-002   0.0000000000000000     
   1.4546093804686123E-002   1.4212527699413937E-002   0.0000000000000000     
   1.7008299326679910E-002   1.7625835016705661E-002   0.0000000000000000     
   1.9463376650494094E-002   2.1286233411943078E-002   0.0000000000000000     
   8.4288435630468384E-003   7.7243561595651466E-003   0.0000000000000000     
   1.0590664983992366E-002   1.0558266874919011E-002   0.0000000000000000     
   1.2761020988384700E-002   1.3661383658904989E-002   0.0000000000000000     
   1.4939911576223840E-002   1.7033706511523077E-002   0.0000000000000000     
   1.7127336747509780E-002   2.0675235432773269E-002   0.0000000000000000     
   7.3414307741013545E-003   7.4202897480895235E-003   0.0000000000000000     
   9.2308215069960894E-003   1.0186661714610754E-002   0.0000000000000000     
   1.1129576835763069E-002   1.3233655027538465E-002   0.0000000000000000     
   1.3037696760402295E-002   1.6561269686872659E-002   0.0000000000000000     
   1.4955181280913764E-002   2.0169505692613339E-002   0.0000000000000000     
   2.4627109765627590E-002   2.2824034087312383E-002   0.0000000000000000     
   2.7531818641833839E-002   2.6672513641311325E-002   0.0000000000000000     
   3.0361865071223976E-002   3.0737456308181314E-002   0.0000000000000000     
   3.3117249053797995E-002   3.5018862087922355E-002   0.0000000000000000     
   3.5797970589555902E-002   3.9516730980534445E-002   0.0000000000000000     
   2.1963300989866697E-002   2.2002499630122786E-002   0.0000000000000000     
   2.4629644491291916E-002   2.5879731322942672E-002   0.0000000000000000     
   2.7225416788382185E-002   2.9967461171650334E-002   0.0000000000000000     
   2.9750617881137482E-002   3.4265689176245770E-002   0.0000000000000000     
   3.2205247769557827E-002   3.8774415336728978E-002   0.0000000000000000     
   1.9463376650494094E-002   2.1286233411943078E-002   0.0000000000000000     
   2.1883063326212496E-002   2.5175031030443398E-002   0.0000000000000000     
   2.4239096903918948E-002   2.9273536017523794E-002   0.0000000000000000     
   2.6531477383613444E-002   3.3581748373184270E-002   0.0000000000000000     
   2.8760204765295987E-002   3.8099668097424821E-002   0.0000000000000000     
   1.7127336747509780E-002   2.0675235432773269E-002   0.0000000000000000     
   1.9292075146595578E-002   2.4558412763813493E-002   0.0000000000000000     
   2.1402905417834281E-002   2.8655680845801685E-002   0.0000000000000000     
   2.3459827561225881E-002   3.2967039678737847E-002   0.0000000000000000     
   2.5462841576770392E-002   3.7492489262621956E-002   0.0000000000000000     
   1.4955181280913764E-002   2.0169505692613339E-002   0.0000000000000000     
   1.6856679952441160E-002   2.4029876523052968E-002   0.0000000000000000     
   1.8716842330128172E-002   2.8113895656484020E-002   0.0000000000000000     
   2.0535668413974795E-002   3.2421563092906495E-002   0.0000000000000000     
   2.2313158203981033E-002   3.6952878832320402E-002   0.0000000000000000     
   3.5797970589555902E-002   3.9516730980534445E-002   0.0000000000000000     
   3.8403993163066266E-002   4.4221278763173069E-002   0.0000000000000000     
   4.0935280258897623E-002   4.9122721212993721E-002   0.0000000000000000     
   4.3391831877050008E-002   5.4221058329996408E-002   0.0000000000000000     
   4.5773648017523393E-002   5.9516290114181122E-002   0.0000000000000000     
   3.2205247769557827E-002   3.8774415336728978E-002   0.0000000000000000     
   3.4591224963369721E-002   4.3488895906427363E-002   0.0000000000000000     
   3.6910467972299688E-002   4.8404387138668355E-002   0.0000000000000000     
   3.9162976796347726E-002   5.3520889033451896E-002   0.0000000000000000     
   4.1348751435513829E-002   5.8838401590778043E-002   0.0000000000000000     
   2.8760204765295987E-002   3.8099668097424821E-002   0.0000000000000000     
   3.0927398182858449E-002   4.2824358711267968E-002   0.0000000000000000     
   3.3035176770192708E-002   4.7752883735736246E-002   0.0000000000000000     
   3.5083540527298764E-002   5.2885243170829613E-002   0.0000000000000000     
   3.7072489454176613E-002   5.8221437016548104E-002   0.0000000000000000     
   2.5462841576770392E-002   3.7492489262621956E-002   0.0000000000000000     
   2.7412512821532443E-002   4.2227667177694869E-002   0.0000000000000000     
   2.9309406652576687E-002   4.7168211004197394E-002   0.0000000000000000     
   3.1153523069903120E-002   5.2314120742129523E-002   0.0000000000000000     
   3.2944862073511744E-002   5.7665396391491291E-002   0.0000000000000000     
   2.2313158203981033E-002   3.6952878832320402E-002   0.0000000000000000     
   2.4046568879391703E-002   4.1698821305708060E-002   0.0000000000000000     
   2.5733157619451625E-002   4.6650368944051807E-002   0.0000000000000000     
   2.7372924424160797E-002   5.1807521747351655E-002   0.0000000000000000     
   2.8965869293519228E-002   5.7170279715607605E-002   0.0000000000000000     
   4.5773648017523393E-002   5.9516290114181122E-002   0.0000000000000000     
   4.8082366200402266E-002   6.5001336389055434E-002   0.0000000000000000     
   5.0319623945771087E-002   7.0669116978126945E-002   0.0000000000000000     
   5.2485421253629864E-002   7.6519631881395614E-002   0.0000000000000000     
   5.4579758123978583E-002   8.2552881098861469E-002   0.0000000000000000     
   4.1348751435513829E-002   5.8838401590778043E-002   0.0000000000000000     
   4.3468055081366176E-002   6.4347304527218055E-002   0.0000000000000000     
   4.5521150925472938E-002   7.0037977559343226E-002   0.0000000000000000     
   4.7508038967834114E-002   7.5910420687153576E-002   0.0000000000000000     
   4.9428719208449712E-002   8.1964633910649093E-002   0.0000000000000000     
   3.7072489454176613E-002   5.8221437016548104E-002   0.0000000000000000     
   3.9001446357655692E-002   6.3750366996573563E-002   0.0000000000000000     
   4.0869834044565435E-002   6.9460934834587859E-002   0.0000000000000000     
   4.2677652514905851E-002   7.5353140530590973E-002   0.0000000000000000     
   4.4424901768676930E-002   8.1426984084582932E-002   0.0000000000000000     
   3.2944862073511744E-002   5.7665396391491291E-002   0.0000000000000000     
   3.4682540029270806E-002   6.3210523797121942E-002   0.0000000000000000     
   3.6365673303048580E-002   6.8937988803860775E-002   0.0000000000000000     
   3.7994261894845047E-002   7.4847791411707790E-002   0.0000000000000000     
   3.9568305804660212E-002   8.0939931620663014E-002   0.0000000000000000     
   2.8965869293519228E-002   5.7170279715607605E-002   0.0000000000000000     
   3.0511336096211539E-002   6.2727774928863195E-002   0.0000000000000000     
   3.2008668700922373E-002   6.8469139467162016E-002   0.0000000000000000     
   3.3457867107651716E-002   7.4394373330504054E-002   0.0000000000000000     
   3.4858931316399583E-002   8.0503476518889311E-002   0.0000000000000000     
   5.4579758123978583E-002   8.2552881098861469E-002   0.0000000000000000     
   5.6596346402531403E-002   8.8752360379253895E-002   0.0000000000000000     
   5.8528897935002482E-002   9.5101565471302218E-002   0.0000000000000000     
   6.0377412721391813E-002  0.10160049637500647        0.0000000000000000     
   6.2141890761699403E-002  0.10824915309036665        0.0000000000000000     
   4.9428719208449712E-002   8.1964633910649093E-002   0.0000000000000000     
   5.1277853821365509E-002   8.8184589858586404E-002   0.0000000000000000     
   5.3050104980627302E-002   9.4554261159722194E-002   0.0000000000000000     
   5.4745472686235072E-002  0.10107364781405645        0.0000000000000000     
   5.6363956938188846E-002  0.10774274982158916        0.0000000000000000     
   4.4424901768676930E-002   8.1426984084582932E-002   0.0000000000000000     
   4.6106832029698182E-002   8.7666336061004838E-002   0.0000000000000000     
   4.7718693521789132E-002   9.4055067024297861E-002   0.0000000000000000     
   4.9260486244949761E-002  0.10059317697446192        0.0000000000000000     
   5.0732210199180082E-002  0.10728066591149710        0.0000000000000000     
   3.9568305804660212E-002   8.0939931620663014E-002   0.0000000000000000     
   4.1083281027529409E-002   8.7197598986509181E-002   0.0000000000000000     
   4.2534663558487951E-002   9.3603983065029164E-002   0.0000000000000000     
   4.3922453397535872E-002  0.10015908385622294        0.0000000000000000     
   4.5246650544673125E-002  0.10686290136009050        0.0000000000000000     
   3.4858931316399583E-002   8.0503476518889311E-002   0.0000000000000000     
   3.6207200814859196E-002   8.6778378635099448E-002   0.0000000000000000     
   3.7498015090723799E-002   9.3201009281916172E-002   0.0000000000000000     
   3.8731374143993386E-002   9.9771368459339455E-002   0.0000000000000000     
   3.9907277974667976E-002  0.10648945616736930        0.0000000000000000     
   6.2141890761699403E-002  0.10824915309036665        0.0000000000000000     
   6.3839765699588352E-002  0.11504775110533765        0.0000000000000000     
   6.5488471178721724E-002  0.12199650590787436        0.0000000000000000     
   6.7088007199099561E-002  0.12909541749797682        0.0000000000000000     
   6.8638373760721835E-002  0.13634448587564504        0.0000000000000000     
   5.6363956938188846E-002  0.10774274982158916        0.0000000000000000     
   5.7920074911720597E-002  0.11456218390723701        0.0000000000000000     
   5.9428343782062326E-002  0.12153256679591667        0.0000000000000000     
   6.0888763549214048E-002  0.12865389848762815        0.0000000000000000     
   6.2301334213175755E-002  0.13592617898237142        0.0000000000000000     
   5.0732210199180082E-002  0.10728066591149710        0.0000000000000000     
   5.2146331887190631E-002  0.11411894308181569        0.0000000000000000     
   5.3515317811691956E-002  0.12110941773183002        0.0000000000000000     
   5.4839167972684053E-002  0.12825208986154010        0.0000000000000000     
   5.6117882370166912E-002  0.13554695947094592        0.0000000000000000     
   4.5246650544673125E-002  0.10686290136009050        0.0000000000000000     
   4.6518536625998468E-002  0.11371802862907369        0.0000000000000000     
   4.7749393267610615E-002  0.12072705871561444        0.0000000000000000     
   4.8939220469509583E-002  0.12788999161971273        0.0000000000000000     
   5.0088018231695342E-002  0.13520682734136855        0.0000000000000000     
   3.9907277974667976E-002  0.10648945616736930        0.0000000000000000     
   4.1036689128144094E-002  0.11335944054901102        0.0000000000000000     
   4.2130570149818303E-002  0.12038548974726994        0.0000000000000000     
   4.3188921039690603E-002  0.12756760376214604        0.0000000000000000     
   4.4211741797760995E-002  0.13490578259363933        0.0000000000000000     
   6.8638373760721835E-002  0.13634448587564504        0.0000000000000000     
   7.0114043185390898E-002  0.14371476295963317        0.0000000000000000     
   7.1489487794909115E-002  0.15117730066869550        0.0000000000000000     
   7.2764707589276445E-002  0.15873209900283200        0.0000000000000000     
   7.3939702568492929E-002  0.16637915796204267        0.0000000000000000     
   6.2301334213175755E-002  0.13592617898237142        0.0000000000000000     
   6.3647598402207739E-002  0.14332012003032207        0.0000000000000000     
   6.4909098744570307E-002  0.15080643338165567        0.0000000000000000     
   6.6085835240263471E-002  0.15838511903637223        0.0000000000000000     
   6.7177807889287219E-002  0.16605617699447170        0.0000000000000000     
   5.6117882370166912E-002  0.13554695947094592        0.0000000000000000     
   5.7336918897257852E-002  0.14296386197905489        0.0000000000000000     
   5.8481735447074155E-002  0.15047263280487438        0.0000000000000000     
   5.9552332019615822E-002  0.15807327194840440        0.0000000000000000     
   6.0548708614882853E-002  0.16576577940964493        0.0000000000000000     
   5.0088018231695342E-002  0.13520682734136855        0.0000000000000000     
   5.1182004670541244E-002  0.14264598880583162        0.0000000000000000     
   5.2207397902420627E-002  0.15017589893835165        0.0000000000000000     
   5.3164197927333498E-002  0.15779655773892859        0.0000000000000000     
   5.4052404745279871E-002  0.16550796520756242        0.0000000000000000     
   4.4211741797760995E-002  0.13490578259363933        0.0000000000000000     
   4.5182855722057914E-002  0.14236650051065228        0.0000000000000000     
   4.6086086110609749E-002  0.14991623178208741        0.0000000000000000     
   4.6921432963416519E-002  0.15755497640794469        0.0000000000000000     
   4.7688896280478232E-002  0.16528273438822411        0.0000000000000000     
   0.0000000000000000        0.0000000000000000        0.0000000000000000     
   1.7983446374503845E-003   1.2768307948006730E-003   0.0000000000000000     
   3.6213646456174052E-003   2.9391560177491512E-003   0.0000000000000000     
   5.4690600245010622E-003   4.9869756688454342E-003   0.0000000000000000     
   7.3414307741013545E-003   7.4202897480895235E-003   0.0000000000000000     
   0.0000000000000000        0.0000000000000000        0.0000000000000000     
   1.5350517627071918E-003   1.2175597424691769E-003   0.0000000000000000     
   3.0994035378191492E-003   2.8208831389390219E-003   0.0000000000000000     
   4.6930553253358726E-003   4.8099701894095351E-003   0.0000000000000000     
   6.3160071252573594E-003   7.1848208938807149E-003   0.0000000000000000     
   0.0000000000000000        0.0000000000000000        0.0000000000000000     
   1.2878421391792562E-003   1.1699951483517663E-003   0.0000000000000000     
   2.6055428426471619E-003   2.7246241022321409E-003   0.0000000000000000     
   3.9531021104037174E-003   4.6638868616411229E-003   0.0000000000000000     
   5.3305199424489207E-003   6.9877834265787142E-003   0.0000000000000000     
   0.0000000000000000        0.0000000000000000        0.0000000000000000     
   1.0567157668665767E-003   1.1341370124484408E-003   0.0000000000000000     
   2.1397825601014425E-003   2.6503789076285081E-003   0.0000000000000000     
   3.2492003797045962E-003   4.5487256855402001E-003   0.0000000000000000     
   4.3849692256760393E-003   6.8291773461835181E-003   0.0000000000000000     
   0.0000000000000000        0.0000000000000000        0.0000000000000000     
   8.4167264576915334E-004   1.1099853347592012E-003   0.0000000000000000     
   1.7021226901819900E-003   2.5981475551281230E-003   0.0000000000000000     
   2.5813501332385101E-003   4.4644866611067650E-003   0.0000000000000000     
   3.4793549749387131E-003   6.7090026526951275E-003   0.0000000000000000     
   7.3414307741013545E-003   7.4202897480895235E-003   0.0000000000000000     
   9.2308215069960894E-003   1.0186661714610754E-002   0.0000000000000000     
   1.1129576835763069E-002   1.3233655027538465E-002   0.0000000000000000     
   1.3037696760402295E-002   1.6561269686872659E-002   0.0000000000000000     
   1.4955181280913764E-002   2.0169505692613339E-002   0.0000000000000000     
   6.3160071252573594E-003   7.1848208938807149E-003   0.0000000000000000     
   7.9555998860238990E-003   9.8958517416669490E-003   0.0000000000000000     
   9.5991745560757742E-003   1.2893479222082617E-002   0.0000000000000000     
   1.1246731135412993E-002   1.6177703335127719E-002   0.0000000000000000     
   1.2898269624035544E-002   1.9748524080802261E-002   0.0000000000000000     
   5.3305199424489207E-003   6.9877834265787142E-003   0.0000000000000000     
   6.7233703535758008E-003   9.6501927186114014E-003   0.0000000000000000     
   8.1172273585773773E-003   1.2604993659305681E-002   0.0000000000000000     
   9.5120909574536536E-003   1.5852186248661547E-002   0.0000000000000000     
   1.0907961150204632E-002   1.9391770486678995E-002   0.0000000000000000     
   4.3849692256760393E-003   6.8291773461835181E-003   0.0000000000000000     
   5.5341329096517920E-003   9.4496846454441182E-003   0.0000000000000000     
   6.6837352432678725E-003   1.2368198339207654E-002   0.0000000000000000     
   7.8337762265242843E-003   1.5584718427474130E-002   0.0000000000000000     
   8.9842558594210239E-003   1.9099244910243542E-002   0.0000000000000000     
   3.4793549749387131E-003   6.7090026526951275E-003   0.0000000000000000     
   4.3878875542518727E-003   9.2943275221650922E-003   0.0000000000000000     
   5.2986982101472608E-003   1.2183093261788545E-002   0.0000000000000000     
   6.2117869426248787E-003   1.5375299871565478E-002   0.0000000000000000     
   7.1271537516847255E-003   1.8870947351495901E-002   0.0000000000000000     
   1.4955181280913764E-002   2.0169505692613339E-002   0.0000000000000000     
   1.6856679952441160E-002   2.4029876523052968E-002   0.0000000000000000     
   1.8716842330128172E-002   2.8113895656484020E-002   0.0000000000000000     
   2.0535668413974795E-002   3.2421563092906495E-002   0.0000000000000000     
   2.2313158203981033E-002   3.6952878832320402E-002   0.0000000000000000     
   1.2898269624035544E-002   1.9748524080802261E-002   0.0000000000000000     
   1.4537327294917121E-002   2.3579905328009038E-002   0.0000000000000000     
   1.6147441421031413E-002   2.7645810945650860E-002   0.0000000000000000     
   1.7728612002378418E-002   3.1946240933727721E-002   0.0000000000000000     
   1.9280839038958136E-002   3.6481195292239622E-002   0.0000000000000000     
   1.0907961150204632E-002   1.9391770486678995E-002   0.0000000000000000     
   1.2294466725191331E-002   2.3198982198528940E-002   0.0000000000000000     
   1.3661236470774780E-002   2.7249057209382272E-002   0.0000000000000000     
   1.5008270386954976E-002   3.1541995519238995E-002   0.0000000000000000     
   1.6335568473731923E-002   3.6077797128099123E-002   0.0000000000000000     
   8.9842558594210239E-003   1.9099244910243542E-002   0.0000000000000000     
   1.0128098243263788E-002   2.2887107134612658E-002   0.0000000000000000     
   1.1258227479358269E-002   2.6923634447678257E-002   0.0000000000000000     
   1.2374643567704470E-002   3.1208826849440336E-002   0.0000000000000000     
   1.3477346508302384E-002   3.5742684339898884E-002   0.0000000000000000     
   7.1271537516847255E-003   1.8870947351495901E-002   0.0000000000000000     
   8.0382218491344970E-003   2.2644280136260211E-002   0.0000000000000000     
   8.9384144467818880E-003   2.6669542660538819E-002   0.0000000000000000     
   9.8277315446268949E-003   3.0946734924331729E-002   0.0000000000000000     
   1.0706173142669525E-002   3.5475856927638931E-002   0.0000000000000000     
   2.2313158203981033E-002   3.6952878832320402E-002   0.0000000000000000     
   2.4046568879391703E-002   4.1698821305708060E-002   0.0000000000000000     
   2.5733157619451625E-002   4.6650368944051807E-002   0.0000000000000000     
   2.7372924424160797E-002   5.1807521747351655E-002   0.0000000000000000     
   2.8965869293519228E-002   5.7170279715607605E-002   0.0000000000000000     
   1.9280839038958136E-002   3.6481195292239622E-002   0.0000000000000000     
   2.0798052499974268E-002   4.1236214641483651E-002   0.0000000000000000     
   2.2274182354630499E-002   4.6196839601756870E-002   0.0000000000000000     
   2.3709228602926832E-002   5.1363070173059279E-002   0.0000000000000000     
   2.5103191244863269E-002   5.6734906355390906E-002   0.0000000000000000     
   1.6335568473731923E-002   3.6077797128099123E-002   0.0000000000000000     
   1.7635449826818170E-002   4.0838240731197725E-002   0.0000000000000000     
   1.8900233541926281E-002   4.5805105023769915E-002   0.0000000000000000     
   2.0129919619056254E-002   5.0978390005815694E-002   0.0000000000000000     
   2.1324508058208083E-002   5.6358095677335053E-002   0.0000000000000000     
   1.3477346508302384E-002   3.5742684339898884E-002   0.0000000000000000     
   1.4558760859923419E-002   4.0504899574850317E-002   0.0000000000000000     
   1.5611311181338976E-002   4.5475165210090970E-002   0.0000000000000000     
   1.6634997472549064E-002   5.0653481245620899E-002   0.0000000000000000     
   1.7629819733553671E-002   5.6039847681440047E-002   0.0000000000000000     
   1.0706173142669525E-002   3.5475856927638931E-002   0.0000000000000000     
   1.1567985599290008E-002   4.0236191172441378E-002   0.0000000000000000     
   1.2407415272868587E-002   4.5207020160720028E-002   0.0000000000000000     
   1.3224462163405256E-002   5.0388343892474867E-002   0.0000000000000000     
   1.4019126270900024E-002   5.5780162367705895E-002   0.0000000000000000     
   2.8965869293519228E-002   5.7170279715607605E-002   0.0000000000000000     
   3.0511336096211539E-002   6.2727774928863195E-002   0.0000000000000000     
   3.2008668700922373E-002   6.8469139467162016E-002   0.0000000000000000     
   3.3457867107651716E-002   7.4394373330504054E-002   0.0000000000000000     
   3.4858931316399583E-002   8.0503476518889311E-002   0.0000000000000000     
   2.5103191244863269E-002   5.6734906355390906E-002   0.0000000000000000     
   2.6455789998926262E-002   6.2302343931094094E-002   0.0000000000000000     
   2.7766744583602249E-002   6.8055378682511242E-002   0.0000000000000000     
   2.9036054998891236E-002   7.3994010609642308E-002   0.0000000000000000     
   3.0263721244793228E-002   8.0118239712487327E-002   0.0000000000000000     
   2.1324508058208083E-002   5.6358095677335053E-002   0.0000000000000000     
   2.2483857177863362E-002   6.1934454343111393E-002   0.0000000000000000     
   2.3607825296503664E-002   6.7697698307928073E-002   0.0000000000000000     
   2.4696412414128992E-002   7.3647827571785132E-002   0.0000000000000000     
   2.5749618530739357E-002   7.9784842134682565E-002   0.0000000000000000     
   1.7629819733553671E-002   5.6039847681440047E-002   0.0000000000000000     
   1.8595537633022838E-002   6.1624106164915066E-002   0.0000000000000000     
   1.9531910839626614E-002   6.7396098343412564E-002   0.0000000000000000     
   2.0438939353364990E-002   7.3355824216932555E-002   0.0000000000000000     
   2.1316623174237975E-002   7.9503283785474985E-002   0.0000000000000000     
   1.4019126270900024E-002   5.5780162367705895E-002   0.0000000000000000     
   1.4790831364404698E-002   6.1371299396505152E-002   0.0000000000000000     
   1.5539001212971099E-002   6.7150578788964702E-002   0.0000000000000000     
   1.6263635816599224E-002   7.3118000545084522E-002   0.0000000000000000     
   1.6964735175289077E-002   7.9273564664864626E-002   0.0000000000000000     
   3.4858931316399583E-002   8.0503476518889311E-002   0.0000000000000000     
   3.6207200814859196E-002   8.6778378635099448E-002   0.0000000000000000     
   3.7498015090723799E-002   9.3201009281916172E-002   0.0000000000000000     
   3.8731374143993386E-002   9.9771368459339455E-002   0.0000000000000000     
   3.9907277974667976E-002  0.10648945616736930        0.0000000000000000     
   3.0263721244793228E-002   8.0118239712487327E-002   0.0000000000000000     
   3.1444949156034026E-002   8.6408641923625309E-002   0.0000000000000000     
   3.2574944567339462E-002   9.2845793175635280E-002   0.0000000000000000     
   3.3653707478709528E-002   9.9429693468517238E-002   0.0000000000000000     
   3.4681237890144226E-002  0.10616034280227114        0.0000000000000000     
   2.5749618530739357E-002   7.9784842134682565E-002   0.0000000000000000     
   2.6762883815400394E-002   8.6088355768936434E-002   0.0000000000000000     
   2.7731648437177774E-002   9.2537982246862938E-002   0.0000000000000000     
   2.8655912396071480E-002   9.9133721568462008E-002   0.0000000000000000     
   2.9535675692081521E-002  0.10587557373373366        0.0000000000000000     
   2.1316623174237975E-002   7.9503283785474985E-002   0.0000000000000000     
   2.2161004792958301E-002   8.5817520171032863E-002   0.0000000000000000     
   2.2968126700238723E-002   9.2277576495599117E-002   0.0000000000000000     
   2.3737988896079237E-002   9.8883452759173762E-002   0.0000000000000000     
   2.4470591380479842E-002  0.10563514896175681        0.0000000000000000     
   1.6964735175289077E-002   7.9273564664864626E-002   0.0000000000000000     
   1.7639312088707747E-002   8.5596135129914541E-002   0.0000000000000000     
   1.8284379356522325E-002   9.2064575921843847E-002   0.0000000000000000     
   1.8899936978732799E-002   9.8678887040652530E-002   0.0000000000000000     
   1.9485984955339188E-002  0.10543906848634060        0.0000000000000000     
   3.9907277974667976E-002  0.10648945616736930        0.0000000000000000     
   4.1036689128144094E-002  0.11335944054901102        0.0000000000000000     
   4.2130570149818303E-002  0.12038548974726994        0.0000000000000000     
   4.3188921039690603E-002  0.12756760376214604        0.0000000000000000     
   4.4211741797760995E-002  0.13490578259363933        0.0000000000000000     
   3.4681237890144226E-002  0.10616034280227114        0.0000000000000000     
   3.5668262456849842E-002  0.11304348731424778        0.0000000000000000     
   3.6625507834032650E-002  0.12008487314179783        0.0000000000000000     
   3.7552974021692637E-002  0.12728450028492128        0.0000000000000000     
   3.8450661019829822E-002  0.13464236874361815        0.0000000000000000     
   2.9535675692081521E-002  0.10587557373373366        0.0000000000000000     
   3.0380729675338058E-002  0.11277047739740408        0.0000000000000000     
   3.1200865695971278E-002  0.11982537121419945        0.0000000000000000     
   3.1996083753981157E-002  0.12704025518411977        0.0000000000000000     
   3.2766383849367704E-002  0.13441512930716501        0.0000000000000000     
   2.4470591380479842E-002  0.10563514896175681        0.0000000000000000     
   2.5174090783608757E-002  0.11254041079847993        0.0000000000000000     
   2.5856643735634191E-002  0.11960698396447482        0.0000000000000000     
   2.6518250236556164E-002  0.12683486845974148        0.0000000000000000     
   2.7158910286374655E-002  0.13422406428427991        0.0000000000000000     
   1.9485984955339188E-002  0.10543906848634060        0.0000000000000000     
   2.0048345781661911E-002  0.11235328751747529        0.0000000000000000     
   2.0592841953021399E-002  0.11942971139262390        0.0000000000000000     
   2.1119473469417647E-002  0.12666834011178640        0.0000000000000000     
   2.1628240330850659E-002  0.13406917367496282        0.0000000000000000     
   4.4211741797760995E-002  0.13490578259363933        0.0000000000000000     
   4.5182855722057914E-002  0.14236650051065228        0.0000000000000000     
   4.6086086110609749E-002  0.14991623178208741        0.0000000000000000     
   4.6921432963416519E-002  0.15755497640794469        0.0000000000000000     
   4.7688896280478232E-002  0.16528273438822411        0.0000000000000000     
   3.8450661019829822E-002  0.13464236874361815        0.0000000000000000     
   3.9299827025808517E-002  0.14212296206304056        0.0000000000000000     
   4.0081730236993067E-002  0.14969076378834067        0.0000000000000000     
   4.0796370653383443E-002  0.15734577391951843        0.0000000000000000     
   4.1443748274979667E-002  0.16508799245657388        0.0000000000000000     
   3.2766383849367704E-002  0.13441512930716501        0.0000000000000000     
   3.3493273555793762E-002  0.14191293843252023        0.0000000000000000     
   3.4158260446922141E-002  0.14949662740937042        0.0000000000000000     
   3.4761344522752854E-002  0.15716619623771552        0.0000000000000000     
   3.5302525783285903E-002  0.16492164491755559        0.0000000000000000     
   2.7158910286374655E-002  0.13422406428427991        0.0000000000000000     
   2.7763195312013610E-002  0.14173642961909122        0.0000000000000000     
   2.8315676740396978E-002  0.14933382264517656        0.0000000000000000     
   2.8816354571524743E-002  0.15701624336253592        0.0000000000000000     
   2.9265228805396924E-002  0.16478369177116925        0.0000000000000000     
   2.1628240330850659E-002  0.13406917367496282        0.0000000000000000     
   2.2109592294468086E-002  0.14159343562275362        0.0000000000000000     
   2.2553979117417570E-002  0.14920234949575920        0.0000000000000000     
   2.2961400799699123E-002  0.15689591529397962        0.0000000000000000     
   2.3331857341312736E-002  0.16467413301741485        0.0000000000000000     
   0.0000000000000000        0.0000000000000000        0.0000000000000000     
   8.4167264576915334E-004   1.1099853347592012E-003   0.0000000000000000     
   1.7021226901819900E-003   2.5981475551281230E-003   0.0000000000000000     
   2.5813501332385101E-003   4.4644866611067650E-003   0.0000000000000000     
   3.4793549749387131E-003   6.7090026526951275E-003   0.0000000000000000     
   0.0000000000000000        0.0000000000000000        0.0000000000000000     
   6.3381698379418429E-004   1.0939741922457119E-003   0.0000000000000000     
   1.2780327743478134E-003   2.5620761776026760E-003   0.0000000000000000     
   1.9326473716608874E-003   4.4043059560708916E-003   0.0000000000000000     
   2.5976607757334062E-003   6.6206635276503606E-003   0.0000000000000000     
   0.0000000000000000        0.0000000000000000        0.0000000000000000     
   4.2425298884886701E-004   1.0825376618696387E-003   0.0000000000000000     
   8.5298235405791955E-004   2.5363109079238580E-003   0.0000000000000000     
   1.2861880956271578E-003   4.3613197381626567E-003   0.0000000000000000     
   1.7238702135565812E-003   6.5575641525860359E-003   0.0000000000000000     
   0.0000000000000000        0.0000000000000000        0.0000000000000000     
   2.1298066093320154E-004   1.0756757436309816E-003   0.0000000000000000     
   4.2697142931230836E-004   2.5208517460916678E-003   0.0000000000000000     
   6.4197230513732045E-004   4.3355280073820585E-003   0.0000000000000000     
   8.5798328840823803E-004   6.5197045275021534E-003   0.0000000000000000     
   0.0000000000000000        0.0000000000000000        0.0000000000000000     
   4.7187866678358170E-014   1.0733884375297403E-003   0.0000000000000000     
   1.1097991015757147E-013   2.5156986921061062E-003   0.0000000000000000     
   1.9137610333258559E-013   4.3269307637290970E-003   0.0000000000000000     
   2.8837641909834622E-013   6.5070846523987130E-003   0.0000000000000000     
   3.4793549749387131E-003   6.7090026526951275E-003   0.0000000000000000     
   4.3878875542518727E-003   9.2943275221650922E-003   0.0000000000000000     
   5.2986982101472608E-003   1.2183093261788545E-002   0.0000000000000000     
   6.2117869426248787E-003   1.5375299871565478E-002   0.0000000000000000     
   7.1271537516847255E-003   1.8870947351495901E-002   0.0000000000000000     
   2.5976607757334062E-003   6.6206635276503606E-003   0.0000000000000000     
   3.2700825987833563E-003   9.1781435798547733E-003   0.0000000000000000     
   3.9469224530287251E-003   1.2043740800197824E-002   0.0000000000000000     
   4.6281803384695111E-003   1.5217455188679507E-002   0.0000000000000000     
   5.3138562551057165E-003   1.8699286745299831E-002   0.0000000000000000     
   1.7238702135565812E-003   6.5575641525860359E-003   0.0000000000000000     
   2.1661663546535554E-003   9.0951550495936059E-003   0.0000000000000000     
   2.6132141657254468E-003   1.1944203327584972E-002   0.0000000000000000     
   3.0650136467722544E-003   1.5104708986560134E-002   0.0000000000000000     
   3.5215647977939789E-003   1.8576672026519095E-002   0.0000000000000000     
   8.5798328840823803E-004   6.5197045275021534E-003   0.0000000000000000     
   1.0761388218624701E-003   9.0453619313815847E-003   0.0000000000000000     
   1.2975733482374270E-003   1.1884480843949987E-002   0.0000000000000000     
   1.5222868675331077E-003   1.5037061265207355E-002   0.0000000000000000     
   1.7502793797495133E-003   1.8503103195153699E-002   0.0000000000000000     
   2.8837641909834622E-013   6.5070846523987130E-003   0.0000000000000000     
   4.1009979700329380E-013   9.0287642252187168E-003   0.0000000000000000     
   5.6466463449478255E-013   1.1864573349292874E-002   0.0000000000000000     
   7.5207147367389870E-013   1.5014512024621179E-002   0.0000000000000000     
   9.7231988085977328E-013   1.8478580251203639E-002   0.0000000000000000     
   7.1271537516847255E-003   1.8870947351495901E-002   0.0000000000000000     
   8.0382218491344970E-003   2.2644280136260211E-002   0.0000000000000000     
   8.9384144467818880E-003   2.6669542660538819E-002   0.0000000000000000     
   9.8277315446268949E-003   3.0946734924331729E-002   0.0000000000000000     
   1.0706173142669525E-002   3.5475856927638931E-002   0.0000000000000000     
   5.3138562551057165E-003   1.8699286745299831E-002   0.0000000000000000     
   5.9971102209670779E-003   2.2462015041351736E-002   0.0000000000000000     
   6.6711022540833350E-003   2.6478419648128158E-002   0.0000000000000000     
   7.3358323544544871E-003   3.0748500565629115E-002   0.0000000000000000     
   7.9913005220805348E-003   3.5272257793854594E-002   0.0000000000000000     
   3.5215647977939789E-003   1.8576672026519095E-002   0.0000000000000000     
   3.9770360369251545E-003   2.2331825687767374E-002   0.0000000000000000     
   4.4255957823003192E-003   2.6341903210610491E-002   0.0000000000000000     
   4.8672440339194703E-003   3.0606904595048438E-002   0.0000000000000000     
   5.3019807917826104E-003   3.5126829841081224E-002   0.0000000000000000     
   1.7502793797495133E-003   1.8503103195153699E-002   0.0000000000000000     
   1.9779992970087282E-003   2.2253712075507141E-002   0.0000000000000000     
   2.2018950314328396E-003   2.6259993347985806E-002   0.0000000000000000     
   2.4219665830218467E-003   3.0521947012589704E-002   0.0000000000000000     
   2.6382139517757480E-003   3.5039573069318826E-002   0.0000000000000000     
   9.7231988085977328E-013   1.8478580251203639E-002   0.0000000000000000     
   1.2177984315409063E-012   2.2227674204571023E-002   0.0000000000000000     
   1.4808966769877530E-012   2.6232690060254110E-002   0.0000000000000000     
   1.7616141022042814E-012   3.0493627818252898E-002   0.0000000000000000     
   2.0599503006146769E-012   3.5010487478567387E-002   0.0000000000000000     
   1.0706173142669525E-002   3.5475856927638931E-002   0.0000000000000000     
   1.1567985599290008E-002   4.0236191172441378E-002   0.0000000000000000     
   1.2407415272868587E-002   4.5207020160720028E-002   0.0000000000000000     
   1.3224462163405256E-002   5.0388343892474867E-002   0.0000000000000000     
   1.4019126270900024E-002   5.5780162367705895E-002   0.0000000000000000     
   7.9913005220805348E-003   3.5272257793854594E-002   0.0000000000000000     
   8.6341226938567509E-003   4.0029348150153826E-002   0.0000000000000000     
   9.2609148066784032E-003   4.4999428451876017E-002   0.0000000000000000     
   9.8716768605454919E-003   5.0182498699021180E-002   0.0000000000000000     
   1.0466408855458020E-002   5.5578558891589289E-002   0.0000000000000000     
   5.3019807917826104E-003   3.5126829841081224E-002   0.0000000000000000     
   5.7281707925624552E-003   3.9881603134170489E-002   0.0000000000000000     
   6.1441787729317248E-003   4.4851148659777872E-002   0.0000000000000000     
   6.5500047328904158E-003   5.0035466417903372E-002   0.0000000000000000     
   6.9456486724385289E-003   5.5434556408546984E-002   0.0000000000000000     
   2.6382139517757480E-003   3.5039573069318826E-002   0.0000000000000000     
   2.8501298954071242E-003   3.9792956124491394E-002   0.0000000000000000     
   3.0572071716285496E-003   4.4762180784425600E-002   0.0000000000000000     
   3.2594457804400252E-003   4.9947247049121464E-002   0.0000000000000000     
   3.4568457218415519E-003   5.5348154918578966E-002   0.0000000000000000     
   2.0599503006146769E-012   3.5010487478567387E-002   0.0000000000000000     
   2.3907559959512881E-012   3.9763407121116506E-002   0.0000000000000000     
   2.7688806109038566E-012   4.4732524825819193E-002   0.0000000000000000     
   3.1943237117915135E-012   4.9917840592675428E-002   0.0000000000000000     
   3.6670868164973003E-012   5.5319354421685230E-002   0.0000000000000000     
   1.4019126270900024E-002   5.5780162367705895E-002   0.0000000000000000     
   1.4790831364404698E-002   6.1371299396505152E-002   0.0000000000000000     
   1.5539001212971099E-002   6.7150578788964702E-002   0.0000000000000000     
   1.6263635816599224E-002   7.3118000545084522E-002   0.0000000000000000     
   1.6964735175289077E-002   7.9273564664864626E-002   0.0000000000000000     
   1.0466408855458020E-002   5.5578558891589289E-002   0.0000000000000000     
   1.1044229681513385E-002   6.1175267840873487E-002   0.0000000000000000     
   1.1604258228808995E-002   6.6960284358166838E-002   0.0000000000000000     
   1.2146494497344843E-002   7.2933608443469369E-002   0.0000000000000000     
   1.2670938487120932E-002   7.9095240096781039E-002   0.0000000000000000     
   6.9456486724385289E-003   5.5434556408546984E-002   0.0000000000000000     
   7.3302238938533536E-003   6.1035245301011926E-002   0.0000000000000000     
   7.7028436994121732E-003   6.6824359764601382E-002   0.0000000000000000     
   8.0635080891149867E-003   7.2801899799315381E-002   0.0000000000000000     
   8.4122170629617951E-003   7.8967865405153867E-002   0.0000000000000000     
   3.4568457218415519E-003   5.5348154918578966E-002   0.0000000000000000     
   3.6488140014245985E-003   6.0951231776920481E-002   0.0000000000000000     
   3.8347576247806324E-003   6.6742805008268347E-002   0.0000000000000000     
   4.0146765919096558E-003   7.2722874612622543E-002   0.0000000000000000     
   4.1885709028116674E-003   7.8891440589983097E-002   0.0000000000000000     
   3.6670868164973003E-012   5.5319354421685230E-002   0.0000000000000000     
   4.2271202814123110E-012   6.0923227268599139E-002   0.0000000000000000     
   4.9143744629276398E-012   6.6715620089167690E-002   0.0000000000000000     
   5.7288513126071972E-012   7.2696532883390869E-002   0.0000000000000000     
   6.6705497462488106E-012   7.8865965651268716E-002   0.0000000000000000     
   1.6964735175289077E-002   7.9273564664864626E-002   0.0000000000000000     
   1.7639312088707747E-002   8.5596135129914541E-002   0.0000000000000000     
   1.8284379356522325E-002   9.2064575921843847E-002   0.0000000000000000     
   1.8899936978732799E-002   9.8678887040652530E-002   0.0000000000000000     
   1.9485984955339188E-002  0.10543906848634060        0.0000000000000000     
   1.2670938487120932E-002   7.9095240096781039E-002   0.0000000000000000     
   1.3175655424775915E-002   8.5424057837478640E-002   0.0000000000000000     
   1.3658710536948448E-002   9.1898940184938882E-002   0.0000000000000000     
   1.4120103823638529E-002   9.8519887139161752E-002   0.0000000000000000     
   1.4559835284846159E-002  0.10528689870014728        0.0000000000000000     
   8.4122170629617951E-003   7.8967865405153867E-002   0.0000000000000000     
   8.7478845232899956E-003   8.5301145485622273E-002   0.0000000000000000     
   9.0694243724369870E-003   9.1780628944225937E-002   0.0000000000000000     
   9.3768366104027695E-003   9.8406315780964912E-002   0.0000000000000000     
   9.6701212371873430E-003  0.10517820599583910        0.0000000000000000     
   4.1885709028116674E-003   7.8891440589983097E-002   0.0000000000000000     
   4.3559993842499879E-003   8.5227398074345456E-002   0.0000000000000000     
   4.5165208629879420E-003   9.1709642199705080E-002   0.0000000000000000     
   4.6701353390255244E-003   9.8338172966061954E-002   0.0000000000000000     
   4.8168428123627387E-003  0.10511299037341609        0.0000000000000000     
   6.6705497462488106E-012   7.8865965651268716E-002   0.0000000000000000     
   7.6558939309662177E-012   8.5202815603648174E-002   0.0000000000000000     
   8.6013079796630476E-012   9.1685979951376242E-002   0.0000000000000000     
   9.5067928003586197E-012   9.8315458694452920E-002   0.0000000000000000     
   1.0372347945819538E-011  0.10509125183287822        0.0000000000000000     
   1.9485984955339188E-002  0.10543906848634060        0.0000000000000000     
   2.0048345781661911E-002  0.11235328751747529        0.0000000000000000     
   2.0592841953021399E-002  0.11942971139262390        0.0000000000000000     
   2.1119473469417647E-002  0.12666834011178640        0.0000000000000000     
   2.1628240330850659E-002  0.13406917367496282        0.0000000000000000     
   1.4559835284846159E-002  0.10528689870014728        0.0000000000000000     
   1.4981350628221625E-002  0.11220834234828343        0.0000000000000000     
   1.5388095561415214E-002  0.11929258556395818        0.0000000000000000     
   1.5780070084426927E-002  0.12653962834717153        0.0000000000000000     
   1.6157274197256766E-002  0.13394947069792348        0.0000000000000000     
   9.6701212371873430E-003  0.10517820599583910        0.0000000000000000     
   9.9509612820119844E-003  0.11210481008479754        0.0000000000000000     
   1.0221039774097978E-002  0.11919463854378909        0.0000000000000000     
   1.0480356713445323E-002  0.12644769137281375        0.0000000000000000     
   1.0728912100054017E-002  0.13386396857187155        0.0000000000000000     
   4.8168428123627387E-003  0.10511299037341609        0.0000000000000000     
   4.9571777430329885E-003  0.11204269072701761        0.0000000000000000     
   5.0916745910696863E-003  0.11913587033211660        0.0000000000000000     
   5.2203333564728241E-003  0.12639252918871308        0.0000000000000000     
   5.3431540392424089E-003  0.13381266729680708        0.0000000000000000     
   1.0372347945819538E-011  0.10509125183287822        0.0000000000000000     
   1.1284640539718782E-011  0.11202198427494366        0.0000000000000000     
   1.2330336513106943E-011  0.11911628092894075        0.0000000000000000     
   1.3509437085711465E-011  0.12637414179486953        0.0000000000000000     
   1.4821942284637402E-011  0.13379556687272998        0.0000000000000000     
   2.1628240330850659E-002  0.13406917367496282        0.0000000000000000     
   2.2109592294468086E-002  0.14159343562275362        0.0000000000000000     
   2.2553979117417570E-002  0.14920234949575920        0.0000000000000000     
   2.2961400799699123E-002  0.15689591529397962        0.0000000000000000     
   2.3331857341312736E-002  0.16467413301741485        0.0000000000000000     
   1.6157274197256766E-002  0.13394947069792348        0.0000000000000000     
   1.6516218723711472E-002  0.14148297860874487        0.0000000000000000     
   1.6853414487597782E-002  0.14910101807216661        0.0000000000000000     
   1.7168861488915700E-002  0.15680358908818864        0.0000000000000000     
   1.7462559727665229E-002  0.16459069165681095        0.0000000000000000     
   1.0728912100054017E-002  0.13386396857187155        0.0000000000000000     
   1.0966828820298063E-002  0.14140408074230262        0.0000000000000000     
   1.1194229760551459E-002  0.14902863848544709        0.0000000000000000     
   1.1411114920814204E-002  0.15673764180130489        0.0000000000000000     
   1.1617484301086304E-002  0.16453109068987615        0.0000000000000000     
   5.3431540392424089E-003  0.13381266729680708        0.0000000000000000     
   5.4614225842278584E-003  0.14135674202342680        0.0000000000000000     
   5.5764249362786015E-003  0.14898521073560056        0.0000000000000000     
   5.6881610953946338E-003  0.15669807343332851        0.0000000000000000     
   5.7966310615759553E-003  0.16449533011661044        0.0000000000000000     
   1.4821942284637402E-011  0.13379556687272998        0.0000000000000000     
   1.5500863179834790E-011  0.14134096245211744        0.0000000000000000     
   1.4779209214950406E-011  0.14897073482262721        0.0000000000000000     
   1.2656981501291478E-011  0.15668488398425934        0.0000000000000000     
   9.1341821259471878E-012  0.16448340993701382        0.0000000000000000     
   0.0000000000000000        0.0000000000000000        0.0000000000000000     
   4.7187866678358170E-014   1.0733884375297403E-003   0.0000000000000000     
   1.1097991015757147E-013   2.5156986921061062E-003   0.0000000000000000     
   1.9137610333258559E-013   4.3269307637290970E-003   0.0000000000000000     
   2.8837641909834622E-013   6.5070846523987130E-003   0.0000000000000000     
   0.0000000000000000        0.0000000000000000        0.0000000000000000     
  -2.1298066084177606E-004   1.0756757435679001E-003   0.0000000000000000     
  -4.2697142909634662E-004   2.5208517459706461E-003   0.0000000000000000     
  -6.4197230476371176E-004   4.3355280072082383E-003   0.0000000000000000     
  -8.5798328784387134E-004   6.5197045272806769E-003   0.0000000000000000     
   0.0000000000000000        0.0000000000000000        0.0000000000000000     
  -4.2425298876629255E-004   1.0825376617474452E-003   0.0000000000000000     
  -8.5298235385995226E-004   2.5363109076887609E-003   0.0000000000000000     
  -1.2861880952809795E-003   4.3613197378239476E-003   0.0000000000000000     
  -1.7238702130293734E-003   6.5575641521530056E-003   0.0000000000000000     
   0.0000000000000000        0.0000000000000000        0.0000000000000000     
  -6.3381698372636127E-004   1.0939741920683763E-003   0.0000000000000000     
  -1.2780327741798367E-003   2.5620761772604515E-003   0.0000000000000000     
  -1.9326473713604264E-003   4.4043059555762265E-003   0.0000000000000000     
  -2.5976607752681304E-003   6.6206635270157016E-003   0.0000000000000000     
   0.0000000000000000        0.0000000000000000        0.0000000000000000     
  -8.4167264572198241E-004   1.1099853345306926E-003   0.0000000000000000     
  -1.7021226900560001E-003   2.5981475546857174E-003   0.0000000000000000     
  -2.5813501330020534E-003   4.4644866604650734E-003   0.0000000000000000     
  -3.4793549745601414E-003   6.7090026518687625E-003   0.0000000000000000     
   2.8837641909834622E-013   6.5070846523987130E-003   0.0000000000000000     
   4.1009979700329380E-013   9.0287642252187168E-003   0.0000000000000000     
   5.6466463449478255E-013   1.1864573349292874E-002   0.0000000000000000     
   7.5207147367389870E-013   1.5014512024621179E-002   0.0000000000000000     
   9.7231988085977328E-013   1.8478580251203639E-002   0.0000000000000000     
  -8.5798328784387134E-004   6.5197045272806769E-003   0.0000000000000000     
  -1.0761388210586951E-003   9.0453619311106539E-003   0.0000000000000000     
  -1.2975733471300523E-003   1.1884480843620863E-002   0.0000000000000000     
  -1.5222868660579438E-003   1.5037061264811302E-002   0.0000000000000000     
  -1.7502793778423689E-003   1.8503103194681979E-002   0.0000000000000000     
  -1.7238702130293734E-003   6.5575641521530056E-003   0.0000000000000000     
  -2.1661663538990535E-003   9.0951550490630494E-003   0.0000000000000000     
  -2.6132141646839383E-003   1.1944203326941193E-002   0.0000000000000000     
  -3.0650136453840271E-003   1.5104708985787439E-002   0.0000000000000000     
  -3.5215647959993199E-003   1.8576672025601790E-002   0.0000000000000000     
  -2.5976607752681304E-003   6.6206635270157016E-003   0.0000000000000000     
  -3.2700825981109767E-003   9.1781435790759050E-003   0.0000000000000000     
  -3.9469224520969929E-003   1.2043740799253865E-002   0.0000000000000000     
  -4.6281803372261784E-003   1.5217455187549588E-002   0.0000000000000000     
  -5.3138562534985334E-003   1.8699286743963067E-002   0.0000000000000000     
  -3.4793549745601414E-003   6.7090026518687625E-003   0.0000000000000000     
  -4.3878875536944627E-003   9.2943275211492191E-003   0.0000000000000000     
  -5.2986982093692148E-003   1.2183093260558879E-002   0.0000000000000000     
  -6.2117869415843968E-003   1.5375299870097748E-002   0.0000000000000000     
  -7.1271537503400095E-003   1.8870947349765820E-002   0.0000000000000000     
   9.7231988085977328E-013   1.8478580251203639E-002   0.0000000000000000     
   1.2177984315409063E-012   2.2227674204571023E-002   0.0000000000000000     
   1.4808966769877530E-012   2.6232690060254110E-002   0.0000000000000000     
   1.7616141022042814E-012   3.0493627818252898E-002   0.0000000000000000     
   2.0599503006146769E-012   3.5010487478567387E-002   0.0000000000000000     
  -1.7502793778423689E-003   1.8503103194681979E-002   0.0000000000000000     
  -1.9779992946191926E-003   2.2253712074973380E-002   0.0000000000000000     
  -2.2018950285242799E-003   2.6259993347426010E-002   0.0000000000000000     
  -2.4219665795576308E-003   3.0521947012039866E-002   0.0000000000000000     
  -2.6382139477192459E-003   3.5039573068814937E-002   0.0000000000000000     
  -3.5215647959993199E-003   1.8576672025601790E-002   0.0000000000000000     
  -3.9770360346738018E-003   2.2331825686728573E-002   0.0000000000000000     
  -4.4255957795514599E-003   2.6341903209512116E-002   0.0000000000000000     
  -4.8672440306322924E-003   3.0606904593952430E-002   0.0000000000000000     
  -5.3019807879163012E-003   3.5126829840049507E-002   0.0000000000000000     
  -5.3138562534985334E-003   1.8699286743963067E-002   0.0000000000000000     
  -5.9971102189460314E-003   2.2462015039836587E-002   0.0000000000000000     
  -6.6711022516006439E-003   2.6478419646512437E-002   0.0000000000000000     
  -7.3358323514623710E-003   3.0748500563990602E-002   0.0000000000000000     
  -7.9913005185312143E-003   3.5272257792271090E-002   0.0000000000000000     
  -7.1271537503400095E-003   1.8870947349765820E-002   0.0000000000000000     
  -8.0382218474358783E-003   2.2644280134297437E-002   0.0000000000000000     
  -8.9384144446718310E-003   2.6669542658426960E-002   0.0000000000000000     
  -9.8277315420478677E-003   3.0946734922154370E-002   0.0000000000000000     
  -1.0706173139563986E-002   3.5475856925479679E-002   0.0000000000000000     
   2.0599503006146769E-012   3.5010487478567387E-002   0.0000000000000000     
   2.3907559959512881E-012   3.9763407121116506E-002   0.0000000000000000     
   2.7688806109038566E-012   4.4732524825819193E-002   0.0000000000000000     
   3.1943237117915135E-012   4.9917840592675428E-002   0.0000000000000000     
   3.6670868164973003E-012   5.5319354421685230E-002   0.0000000000000000     
  -2.6382139477192459E-003   3.5039573068814937E-002   0.0000000000000000     
  -2.8501298906927338E-003   3.9792956124021971E-002   0.0000000000000000     
  -3.0572071661617052E-003   4.4762180783931682E-002   0.0000000000000000     
  -3.2594457741261609E-003   4.9947247048544065E-002   0.0000000000000000     
  -3.4568457145860978E-003   5.5348154917859139E-002   0.0000000000000000     
  -5.3019807879163012E-003   3.5126829840049507E-002   0.0000000000000000     
  -5.7281707880494307E-003   3.9881603133183882E-002   0.0000000000000000     
  -6.1441787676776299E-003   4.4851148658736087E-002   0.0000000000000000     
  -6.5500047268008971E-003   5.0035466416706136E-002   0.0000000000000000     
  -6.9456486654192358E-003   5.5434556407094021E-002   0.0000000000000000     
  -7.9913005185312143E-003   3.5272257792271090E-002   0.0000000000000000     
  -8.6341226896793338E-003   4.0029348148602255E-002   0.0000000000000000     
  -9.2609148017788918E-003   4.4999428450232450E-002   0.0000000000000000     
  -9.8716768548298885E-003   5.0182498697161661E-002   0.0000000000000000     
  -1.0466408848832320E-002   5.5578558889389909E-002   0.0000000000000000     
  -1.0706173139563986E-002   3.5475856925479679E-002   0.0000000000000000     
  -1.1567985595582444E-002   4.0236191170277068E-002   0.0000000000000000     
  -1.2407415268465491E-002   4.5207020158420715E-002   0.0000000000000000     
  -1.3224462158213133E-002   5.0388343889910613E-002   0.0000000000000000     
  -1.4019126264825361E-002   5.5780162364746769E-002   0.0000000000000000     
   3.6670868164973003E-012   5.5319354421685230E-002   0.0000000000000000     
   4.2271202814123110E-012   6.0923227268599139E-002   0.0000000000000000     
   4.9143744629276398E-012   6.6715620089167690E-002   0.0000000000000000     
   5.7288513126071972E-012   7.2696532883390869E-002   0.0000000000000000     
   6.6705497462488106E-012   7.8865965651268716E-002   0.0000000000000000     
  -3.4568457145860978E-003   5.5348154917859139E-002   0.0000000000000000     
  -3.6488139930554411E-003   6.0951231776056852E-002   0.0000000000000000     
  -3.8347576150481147E-003   6.6742805007317219E-002   0.0000000000000000     
  -4.0146765805641159E-003   7.2722874611640217E-002   0.0000000000000000     
  -4.1885708896034456E-003   7.8891440589025877E-002   0.0000000000000000     
  -6.9456486654192358E-003   5.5434556407094021E-002   0.0000000000000000     
  -7.3302238857394474E-003   6.1035245299302605E-002   0.0000000000000000     
  -7.7028436899683472E-003   6.6824359762734750E-002   0.0000000000000000     
  -8.0635080781059337E-003   7.2801899797390435E-002   0.0000000000000000     
  -8.4122170501522032E-003   7.8967865403269707E-002   0.0000000000000000     
  -1.0466408848832320E-002   5.5578558889389909E-002   0.0000000000000000     
  -1.1044229673824900E-002   6.1175267838336371E-002   0.0000000000000000     
  -1.1604258219846324E-002   6.6960284355420230E-002   0.0000000000000000     
  -1.2146494486896602E-002   7.2933608440641520E-002   0.0000000000000000     
  -1.2670938474975725E-002   7.9095240094000194E-002   0.0000000000000000     
  -1.4019126264825361E-002   5.5780162364746769E-002   0.0000000000000000     
  -1.4790831357311797E-002   6.1371299393158156E-002   0.0000000000000000     
  -1.5539001204682049E-002   6.7150578785373727E-002   0.0000000000000000     
  -1.6263635806936124E-002   7.3118000541393460E-002   0.0000000000000000     
  -1.6964735164074013E-002   7.9273564661217391E-002   0.0000000000000000     
   6.6705497462488106E-012   7.8865965651268716E-002   0.0000000000000000     
   7.6558939309662177E-012   8.5202815603648174E-002   0.0000000000000000     
   8.6013079796630476E-012   9.1685979951376242E-002   0.0000000000000000     
   9.5067928003586197E-012   9.8315458694452920E-002   0.0000000000000000     
   1.0372347945819538E-011  0.10509125183287822        0.0000000000000000     
  -4.1885708896034456E-003   7.8891440589025877E-002   0.0000000000000000     
  -4.3559993690915856E-003   8.5227398073537963E-002   0.0000000000000000     
  -4.5165208459540191E-003   9.1709642199240327E-002   0.0000000000000000     
  -4.6701353201907443E-003   9.8338172966132953E-002   0.0000000000000000     
  -4.8168427918017656E-003  0.10511299037421583        0.0000000000000000     
  -8.4122170501522032E-003   7.8967865403269707E-002   0.0000000000000000     
  -8.7478845085917478E-003   8.5301145484022317E-002   0.0000000000000000     
  -9.0694243559091507E-003   9.1780628943298123E-002   0.0000000000000000     
  -9.3768365921044136E-003   9.8406315781097126E-002   0.0000000000000000     
  -9.6701212171775384E-003  0.10517820599741930        0.0000000000000000     
  -1.2670938474975725E-002   7.9095240094000194E-002   0.0000000000000000     
  -1.3175655410844589E-002   8.5424057835101291E-002   0.0000000000000000     
  -1.3658710521264085E-002   9.1898940183549688E-002   0.0000000000000000     
  -1.4120103806234210E-002   9.8519887139345452E-002   0.0000000000000000     
  -1.4559835265754967E-002  0.10528689870248856        0.0000000000000000     
  -1.6964735164074013E-002   7.9273564661217391E-002   0.0000000000000000     
  -1.7639312075850112E-002   8.5596135126774789E-002   0.0000000000000000     
  -1.8284379342018823E-002   9.2064575919994979E-002   0.0000000000000000     
  -1.8899936962580136E-002   9.8678887040877947E-002   0.0000000000000000     
  -1.9485984937534055E-002  0.10543906848942368        0.0000000000000000     
   1.0372347945819538E-011  0.10509125183287822        0.0000000000000000     
   1.1284640539718782E-011  0.11202198427494366        0.0000000000000000     
   1.2330336513106943E-011  0.11911628092894075        0.0000000000000000     
   1.3509437085711465E-011  0.12637414179486953        0.0000000000000000     
   1.4821942284637402E-011  0.13379556687272998        0.0000000000000000     
  -4.8168427918017656E-003  0.10511299037421583        0.0000000000000000     
  -4.9571777206688355E-003  0.11204269072858426        0.0000000000000000     
  -5.0916745666737115E-003  0.11913587033433357        0.0000000000000000     
  -5.2203333298163970E-003  0.12639252919146374        0.0000000000000000     
  -5.3431540100968913E-003  0.13381266729997474        0.0000000000000000     
  -9.6701212171775384E-003  0.10517820599741930        0.0000000000000000     
  -9.9509612602632063E-003  0.11210481008794812        0.0000000000000000     
  -1.0221039750496106E-002  0.11919463854836715        0.0000000000000000     
  -1.0480356687876237E-002  0.12644769137867634        0.0000000000000000     
  -1.0728912072403597E-002  0.13386396857887575        0.0000000000000000     
  -1.4559835265754967E-002  0.10528689870248856        0.0000000000000000     
  -1.4981350607498473E-002  0.11220834235303519        0.0000000000000000     
  -1.5388095539136840E-002  0.11929258557104146        0.0000000000000000     
  -1.5780070060670077E-002  0.12653962835650742        0.0000000000000000     
  -1.6157274172098172E-002  0.13394947070943303        0.0000000000000000     
  -1.9485984937534055E-002  0.10543906848942368        0.0000000000000000     
  -2.0048345762374631E-002  0.11235328752384548        0.0000000000000000     
  -2.0592841932595918E-002  0.11942971140235653        0.0000000000000000     
  -2.1119473448197916E-002  0.12666834012495690        0.0000000000000000     
  -2.1628240309180629E-002  0.13406917369164653        0.0000000000000000     
   1.4821942284637402E-011  0.13379556687272998        0.0000000000000000     
   1.5500863179834790E-011  0.14134096245211744        0.0000000000000000     
   1.4779209214950406E-011  0.14897073482262721        0.0000000000000000     
   1.2656981501291478E-011  0.15668488398425934        0.0000000000000000     
   9.1341821259471878E-012  0.16448340993701382        0.0000000000000000     
  -5.3431540100968913E-003  0.13381266729997474        0.0000000000000000     
  -5.4614225538691663E-003  0.14135674202862322        0.0000000000000000     
  -5.5764249074872034E-003  0.14898521074616575        0.0000000000000000     
  -5.6881610709509974E-003  0.15669807345260231        0.0000000000000000     
  -5.7966310442605484E-003  0.16449533014793297        0.0000000000000000     
  -1.0728912072403597E-002  0.13386396857887575        0.0000000000000000     
  -1.0966828791868466E-002  0.14140408075319280        0.0000000000000000     
  -1.1194229734061117E-002  0.14902863850585496        0.0000000000000000     
  -1.1411114898981554E-002  0.15673764183686217        0.0000000000000000     
  -1.1617484286629773E-002  0.16453109074621453        0.0000000000000000     
  -1.6157274172098172E-002  0.13394947070943303        0.0000000000000000     
  -1.6516218698497034E-002  0.14148297862582618        0.0000000000000000     
  -1.6853414464942536E-002  0.14910101810169477        0.0000000000000000     
  -1.7168861471434687E-002  0.15680358913703890        0.0000000000000000     
  -1.7462559717973489E-002  0.16459069173185850        0.0000000000000000     
  -2.1628240309180629E-002  0.13406917369164653        0.0000000000000000     
  -2.2109592273754870E-002  0.14159343564652341        0.0000000000000000     
  -2.2553979100131454E-002  0.14920234953368536        0.0000000000000000     
  -2.2961400788310403E-002  0.15689591535313252        0.0000000000000000     
  -2.3331857338291698E-002  0.16467413310486484        0.0000000000000000     
   0.0000000000000000        0.0000000000000000        0.0000000000000000     
  -8.4167264572198241E-004   1.1099853345306926E-003   0.0000000000000000     
  -1.7021226900560001E-003   2.5981475546857174E-003   0.0000000000000000     
  -2.5813501330020534E-003   4.4644866604650734E-003   0.0000000000000000     
  -3.4793549745601414E-003   6.7090026518687625E-003   0.0000000000000000     
   0.0000000000000000        0.0000000000000000        0.0000000000000000     
  -1.0567157668425729E-003   1.1341370121758212E-003   0.0000000000000000     
  -2.1397825600235590E-003   2.6503789070984780E-003   0.0000000000000000     
  -3.2492003795429585E-003   4.5487256847679706E-003   0.0000000000000000     
  -4.3849692254007708E-003   6.8291773451843001E-003   0.0000000000000000     
   0.0000000000000000        0.0000000000000000        0.0000000000000000     
  -1.2878421391775499E-003   1.1699951480451886E-003   0.0000000000000000     
  -2.6055428426176304E-003   2.7246241016326543E-003   0.0000000000000000     
  -3.9531021103202408E-003   4.6638868607623988E-003   0.0000000000000000     
  -5.3305199422853805E-003   6.9877834254344212E-003   0.0000000000000000     
   0.0000000000000000        0.0000000000000000        0.0000000000000000     
  -1.5350517627269135E-003   1.2175597421387946E-003   0.0000000000000000     
  -3.0994035378382133E-003   2.8208831382882469E-003   0.0000000000000000     
  -4.6930553253339002E-003   4.8099701884483570E-003   0.0000000000000000     
  -6.3160071252139722E-003   7.1848208926191268E-003   0.0000000000000000     
   0.0000000000000000        0.0000000000000000        0.0000000000000000     
  -1.7983446374906635E-003   1.2768307944566390E-003   0.0000000000000000     
  -3.6213646456853088E-003   2.9391560170652551E-003   0.0000000000000000     
  -5.4690600245839360E-003   4.9869756678258470E-003   0.0000000000000000     
  -7.3414307741865468E-003   7.4202897467384185E-003   0.0000000000000000     
  -3.4793549745601414E-003   6.7090026518687625E-003   0.0000000000000000     
  -4.3878875536944627E-003   9.2943275211492191E-003   0.0000000000000000     
  -5.2986982093692148E-003   1.2183093260558879E-002   0.0000000000000000     
  -6.2117869415843968E-003   1.5375299870097748E-002   0.0000000000000000     
  -7.1271537503400095E-003   1.8870947349765820E-002   0.0000000000000000     
  -4.3849692254007708E-003   6.8291773451843001E-003   0.0000000000000000     
  -5.5341329092326551E-003   9.4496846442126779E-003   0.0000000000000000     
  -6.6837352426742684E-003   1.2368198337718319E-002   0.0000000000000000     
  -7.8337762257256142E-003   1.5584718425701225E-002   0.0000000000000000     
  -8.9842558583866864E-003   1.9099244908161395E-002   0.0000000000000000     
  -5.3305199422853805E-003   6.9877834254344212E-003   0.0000000000000000     
  -6.7233703533086924E-003   9.6501927171959608E-003   0.0000000000000000     
  -8.1172273581858190E-003   1.2604993657594266E-002   0.0000000000000000     
  -9.5120909569167585E-003   1.5852186246629325E-002   0.0000000000000000     
  -1.0907961149501511E-002   1.9391770484301157E-002   0.0000000000000000     
  -6.3160071252139722E-003   7.1848208926191268E-003   0.0000000000000000     
  -7.9555998859225791E-003   9.8958517400990747E-003   0.0000000000000000     
  -9.5991745559038666E-003   1.2893479220186717E-002   0.0000000000000000     
  -1.1246731135157832E-002   1.6177703332882060E-002   0.0000000000000000     
  -1.2898269623684481E-002   1.9748524078185097E-002   0.0000000000000000     
  -7.3414307741865468E-003   7.4202897467384185E-003   0.0000000000000000     
  -9.2308215070743115E-003   1.0186661712922011E-002   0.0000000000000000     
  -1.1129576835828410E-002   1.3233655025495679E-002   0.0000000000000000     
  -1.3037696760448834E-002   1.6561269684459420E-002   0.0000000000000000     
  -1.4955181280935592E-002   2.0169505689813225E-002   0.0000000000000000     
  -7.1271537503400095E-003   1.8870947349765820E-002   0.0000000000000000     
  -8.0382218474358783E-003   2.2644280134297437E-002   0.0000000000000000     
  -8.9384144446718310E-003   2.6669542658426960E-002   0.0000000000000000     
  -9.8277315420478677E-003   3.0946734922154370E-002   0.0000000000000000     
  -1.0706173139563986E-002   3.5475856925479679E-002   0.0000000000000000     
  -8.9842558583866864E-003   1.9099244908161395E-002   0.0000000000000000     
  -1.0128098241946069E-002   2.2887107132248348E-002   0.0000000000000000     
  -1.1258227477692328E-002   2.6923634445111613E-002   0.0000000000000000     
  -1.2374643565625473E-002   3.1208826846751189E-002   0.0000000000000000     
  -1.3477346505745499E-002   3.5742684337167062E-002   0.0000000000000000     
  -1.0907961149501511E-002   1.9391770484301157E-002   0.0000000000000000     
  -1.2294466724279326E-002   2.3198982195826553E-002   0.0000000000000000     
  -1.3661236469589451E-002   2.7249057206422338E-002   0.0000000000000000     
  -1.5008270385431881E-002   3.1541995516088495E-002   0.0000000000000000     
  -1.6335568471806623E-002   3.6077797124825041E-002   0.0000000000000000     
  -1.2898269623684481E-002   1.9748524078185097E-002   0.0000000000000000     
  -1.4537327294435650E-002   2.3579905325032041E-002   0.0000000000000000     
  -1.6147441420363191E-002   2.7645810942359104E-002   0.0000000000000000     
  -1.7728612001467095E-002   3.1946240930166285E-002   0.0000000000000000     
  -1.9280839037747372E-002   3.6481195288453575E-002   0.0000000000000000     
  -1.4955181280935592E-002   2.0169505689813225E-002   0.0000000000000000     
  -1.6856679952415042E-002   2.4029876519864823E-002   0.0000000000000000     
  -1.8716842330013549E-002   2.8113895652921942E-002   0.0000000000000000     
  -2.0535668413731108E-002   3.2421563088984563E-002   0.0000000000000000     
  -2.2313158203567728E-002   3.6952878828052704E-002   0.0000000000000000     
  -1.0706173139563986E-002   3.5475856925479679E-002   0.0000000000000000     
  -1.1567985595582444E-002   4.0236191170277068E-002   0.0000000000000000     
  -1.2407415268465491E-002   4.5207020158420715E-002   0.0000000000000000     
  -1.3224462158213133E-002   5.0388343889910613E-002   0.0000000000000000     
  -1.4019126264825361E-002   5.5780162364746769E-002   0.0000000000000000     
  -1.3477346505745499E-002   3.5742684337167062E-002   0.0000000000000000     
  -1.4558760856811043E-002   4.0504899572054956E-002   0.0000000000000000     
  -1.5611311177580741E-002   4.5475165207110528E-002   0.0000000000000000     
  -1.6634997468054604E-002   5.0653481242333820E-002   0.0000000000000000     
  -1.7629819728232615E-002   5.6039847677724776E-002   0.0000000000000000     
  -1.6335568471806623E-002   3.6077797124825041E-002   0.0000000000000000     
  -1.7635449824417403E-002   4.0838240727782527E-002   0.0000000000000000     
  -1.8900233538967953E-002   4.5805105020111536E-002   0.0000000000000000     
  -2.0129919615458257E-002   5.0978390001812042E-002   0.0000000000000000     
  -2.1324508053888337E-002   5.6358095672884065E-002   0.0000000000000000     
  -1.9280839037747372E-002   3.6481195288453575E-002   0.0000000000000000     
  -2.0798052498401536E-002   4.1236214637459787E-002   0.0000000000000000     
  -2.2274182352627115E-002   4.6196839597423704E-002   0.0000000000000000     
  -2.3709228600424119E-002   5.1363070168345321E-002   0.0000000000000000     
  -2.5103191241792538E-002   5.6734906350224656E-002   0.0000000000000000     
  -2.2313158203567728E-002   3.6952878828052704E-002   0.0000000000000000     
  -2.4046568878763427E-002   4.1698821301086729E-002   0.0000000000000000     
  -2.5733157618558242E-002   4.6650368939047046E-002   0.0000000000000000     
  -2.7372924422952170E-002   5.1807521741933642E-002   0.0000000000000000     
  -2.8965869291945209E-002   5.7170279709746516E-002   0.0000000000000000     
  -1.4019126264825361E-002   5.5780162364746769E-002   0.0000000000000000     
  -1.4790831357311797E-002   6.1371299393158156E-002   0.0000000000000000     
  -1.5539001204682049E-002   6.7150578785373727E-002   0.0000000000000000     
  -1.6263635806936124E-002   7.3118000541393460E-002   0.0000000000000000     
  -1.6964735164074013E-002   7.9273564661217391E-002   0.0000000000000000     
  -1.7629819728232615E-002   5.6039847677724776E-002   0.0000000000000000     
  -1.8595537626756708E-002   6.1624106160784183E-002   0.0000000000000000     
  -1.9531910832268802E-002   6.7396098339012750E-002   0.0000000000000000     
  -2.0438939344768897E-002   7.3355824212410492E-002   0.0000000000000000     
  -2.1316623164256990E-002   7.9503283780977388E-002   0.0000000000000000     
  -2.1324508053888337E-002   5.6358095672884065E-002   0.0000000000000000     
  -2.2483857172716202E-002   6.1934454338230679E-002   0.0000000000000000     
  -2.3607825290399863E-002   6.7697698302754933E-002   0.0000000000000000     
  -2.4696412406939334E-002   7.3647827566456839E-002   0.0000000000000000     
  -2.5749618522334601E-002   7.9784842129336370E-002   0.0000000000000000     
  -2.5103191241792538E-002   5.6734906350224656E-002   0.0000000000000000     
  -2.6455789995190274E-002   6.2302343925497647E-002   0.0000000000000000     
  -2.7766744579075239E-002   6.8055378676600248E-002   0.0000000000000000     
  -2.9036054993447438E-002   7.3994010603532473E-002   0.0000000000000000     
  -3.0263721238306843E-002   8.0118239706294309E-002   0.0000000000000000     
  -2.8965869291945209E-002   5.7170279709746516E-002   0.0000000000000000     
  -3.0511336094178935E-002   6.2727774922585078E-002   0.0000000000000000     
  -3.2008668698294926E-002   6.8469139460548709E-002   0.0000000000000000     
  -3.3457867104293187E-002   7.4394373323637436E-002   0.0000000000000000     
  -3.4858931312173706E-002   8.0503476511851232E-002   0.0000000000000000     
  -1.6964735164074013E-002   7.9273564661217391E-002   0.0000000000000000     
  -1.7639312075850112E-002   8.5596135126774789E-002   0.0000000000000000     
  -1.8284379342018823E-002   9.2064575919994979E-002   0.0000000000000000     
  -1.8899936962580136E-002   9.8678887040877947E-002   0.0000000000000000     
  -1.9485984937534055E-002  0.10543906848942368        0.0000000000000000     
  -2.1316623164256990E-002   7.9503283780977388E-002   0.0000000000000000     
  -2.2161004781499280E-002   8.5817520167124434E-002   0.0000000000000000     
  -2.2968126687261947E-002   9.2277576493262570E-002   0.0000000000000000     
  -2.3737988881544995E-002   9.8883452759391893E-002   0.0000000000000000     
  -2.4470591364348426E-002  0.10563514896551229        0.0000000000000000     
  -2.5749618522334601E-002   7.9784842129336370E-002   0.0000000000000000     
  -2.6762883805683053E-002   8.6088355764231739E-002   0.0000000000000000     
  -2.7731648426082053E-002   9.2537982243981118E-002   0.0000000000000000     
  -2.8655912383531601E-002   9.9133721568584521E-002   0.0000000000000000     
  -2.9535675678031701E-002  0.10587557373804193        0.0000000000000000     
  -3.0263721238306843E-002   8.0118239706294309E-002   0.0000000000000000     
  -3.1444949148401423E-002   8.6408641918096704E-002   0.0000000000000000     
  -3.2574944558479133E-002   9.2845793172150554E-002   0.0000000000000000     
  -3.3653707468539948E-002   9.9429693468455899E-002   0.0000000000000000     
  -3.4681237878583883E-002  0.10616034280701268        0.0000000000000000     
  -3.4858931312173706E-002   8.0503476511851232E-002   0.0000000000000000     
  -3.6207200809654408E-002   8.6778378628719330E-002   0.0000000000000000     
  -3.7498015084453183E-002   9.3201009277770905E-002   0.0000000000000000     
  -3.8731374136570039E-002   9.9771368459005985E-002   0.0000000000000000     
  -3.9907277966004975E-002  0.10648945617242453        0.0000000000000000     
  -1.9485984937534055E-002  0.10543906848942368        0.0000000000000000     
  -2.0048345762374631E-002  0.11235328752384548        0.0000000000000000     
  -2.0592841932595918E-002  0.11942971140235653        0.0000000000000000     
  -2.1119473448197916E-002  0.12666834012495690        0.0000000000000000     
  -2.1628240309180629E-002  0.13406917369164653        0.0000000000000000     
  -2.4470591364348426E-002  0.10563514896551229        0.0000000000000000     
  -2.5174090766159583E-002  0.11254041080642550        0.0000000000000000     
  -2.5856643717465818E-002  0.11960698397693327        0.0000000000000000     
  -2.6518250218267123E-002  0.12683486847703554        0.0000000000000000     
  -2.7158910268563513E-002  0.13422406430673242        0.0000000000000000     
  -2.9535675678031701E-002  0.10587557373804193        0.0000000000000000     
  -3.0380729660121217E-002  0.11277047740682181        0.0000000000000000     
  -3.1200865680338995E-002  0.11982537122939256        0.0000000000000000     
  -3.1996083738685059E-002  0.12704025520575421        0.0000000000000000     
  -3.2766383835159382E-002  0.13441512933590671        0.0000000000000000     
  -3.4681237878583883E-002  0.10616034280701268        0.0000000000000000     
  -3.5668262444259524E-002  0.11304348732503439        0.0000000000000000     
  -3.6625507821215479E-002  0.12008487315973443        0.0000000000000000     
  -3.7552974009451720E-002  0.12728450031111280        0.0000000000000000     
  -3.8450661008968261E-002  0.13464236877916946        0.0000000000000000     
  -3.9907277966004975E-002  0.10648945617242453        0.0000000000000000     
  -4.1036689118574526E-002  0.11335944056106327        0.0000000000000000     
  -4.2130570140095233E-002  0.12038548976795888        0.0000000000000000     
  -4.3188921030567103E-002  0.12756760379311133        0.0000000000000000     
  -4.4211741789990121E-002  0.13490578263652064        0.0000000000000000     
  -2.1628240309180629E-002  0.13406917369164653        0.0000000000000000     
  -2.2109592273754870E-002  0.14159343564652341        0.0000000000000000     
  -2.2553979100131454E-002  0.14920234953368536        0.0000000000000000     
  -2.2961400788310403E-002  0.15689591535313252        0.0000000000000000     
  -2.3331857338291698E-002  0.16467413310486484        0.0000000000000000     
  -2.7158910268563513E-002  0.13422406430673242        0.0000000000000000     
  -2.7763195296141484E-002  0.14173642965005054        0.0000000000000000     
  -2.8315676728787553E-002  0.14933382269101669        0.0000000000000000     
  -2.8816354566501723E-002  0.15701624342963091        0.0000000000000000     
  -2.9265228809283977E-002  0.16478369186589320        0.0000000000000000     
  -3.2766383835159382E-002  0.13441512933590671        0.0000000000000000     
  -3.3493273544156391E-002  0.14191293847117367        0.0000000000000000     
  -3.4158260440070483E-002  0.14949662746287876        0.0000000000000000     
  -3.4761344522901659E-002  0.15716619631102191        0.0000000000000000     
  -3.5302525792649912E-002  0.16492164501560319        0.0000000000000000     
  -3.8450661008968261E-002  0.13464236877916946        0.0000000000000000     
  -3.9299827017799611E-002  0.14212296210989295        0.0000000000000000     
  -4.0081730233980255E-002  0.14969076384927163        0.0000000000000000     
  -4.0796370657510218E-002  0.15734577399730559        0.0000000000000000     
  -4.1443748288389495E-002  0.16508799255399478        0.0000000000000000     
  -4.4211741789990121E-002  0.13490578263652064        0.0000000000000000     
  -4.5182855717071112E-002  0.14236650056620820        0.0000000000000000     
  -4.6086086110516872E-002  0.14991623185019526        0.0000000000000000     
  -4.6921432970327415E-002  0.15755497648848188        0.0000000000000000     
  -4.7688896296502734E-002  0.16528273448106803        0.0000000000000000     
   0.0000000000000000        0.0000000000000000        0.0000000000000000     
  -1.7983446374906635E-003   1.2768307944566390E-003   0.0000000000000000     
  -3.6213646456853088E-003   2.9391560170652551E-003   0.0000000000000000     
  -5.4690600245839360E-003   4.9869756678258470E-003   0.0000000000000000     
  -7.3414307741865468E-003   7.4202897467384185E-003   0.0000000000000000     
   0.0000000000000000        0.0000000000000000        0.0000000000000000     
  -2.0694534619746675E-003   1.3549250586828571E-003   0.0000000000000000     
  -4.1640785431747993E-003   3.0939594379361408E-003   0.0000000000000000     
  -6.2838752436003929E-003   5.2171031377598511E-003   0.0000000000000000     
  -8.4288435632514508E-003   7.7243561581539890E-003   0.0000000000000000     
   0.0000000000000000        0.0000000000000000        0.0000000000000000     
  -2.3401109346847943E-003   1.4589592885015830E-003   0.0000000000000000     
  -4.7201976073225661E-003   3.2998101008733672E-003   0.0000000000000000     
  -7.1402600179133130E-003   5.5225524371153500E-003   0.0000000000000000     
  -9.6002981664570410E-003   8.1271862972275375E-003   0.0000000000000000     
   0.0000000000000000        0.0000000000000000        0.0000000000000000     
  -2.6103170556210434E-003   1.5889334839128170E-003   0.0000000000000000     
  -5.2897218381286098E-003   3.5567080058769326E-003   0.0000000000000000     
  -8.0382143475227017E-003   5.9033235658923471E-003   0.0000000000000000     
  -1.0855794583803311E-002   8.6287801639590607E-003   0.0000000000000000     
   0.0000000000000000        0.0000000000000000        0.0000000000000000     
  -2.8800718247834153E-003   1.7448476449165586E-003   0.0000000000000000     
  -5.8726512355929319E-003   3.8646531529468384E-003   0.0000000000000000     
  -8.9777382324285476E-003   6.3594165240908381E-003   0.0000000000000000     
  -1.2195332815290267E-002   9.2291377583485577E-003   0.0000000000000000     
  -7.3414307741865468E-003   7.4202897467384185E-003   0.0000000000000000     
  -9.2308215070743115E-003   1.0186661712922011E-002   0.0000000000000000     
  -1.1129576835828410E-002   1.3233655025495679E-002   0.0000000000000000     
  -1.3037696760448834E-002   1.6561269684459420E-002   0.0000000000000000     
  -1.4955181280935592E-002   2.0169505689813225E-002   0.0000000000000000     
  -8.4288435632514508E-003   7.7243561581539890E-003   0.0000000000000000     
  -1.0590664984238983E-002   1.0558266873143859E-002   0.0000000000000000     
  -1.2761020988673995E-002   1.3661383656754770E-002   0.0000000000000000     
  -1.4939911576556487E-002   1.7033706508986720E-002   0.0000000000000000     
  -1.7127336747886461E-002   2.0675235429839713E-002   0.0000000000000000     
  -9.6002981664570410E-003   8.1271862972275375E-003   0.0000000000000000     
  -1.2076760084891679E-002   1.1046311458243701E-002   0.0000000000000000     
  -1.4546093805155175E-002   1.4212527697197623E-002   0.0000000000000000     
  -1.7008299327247518E-002   1.7625835014089302E-002   0.0000000000000000     
  -1.9463376651168717E-002   2.1286233408918737E-002   0.0000000000000000     
  -1.0855794583803311E-002   8.6287801639590607E-003   0.0000000000000000     
  -1.3689106809032407E-002   1.1650795468221533E-002   0.0000000000000000     
  -1.6484795285271945E-002   1.4887087146824232E-002   0.0000000000000000     
  -1.9242860012521925E-002   1.8337655199767152E-002   0.0000000000000000     
  -2.1963300990782343E-002   2.2002499627050302E-002   0.0000000000000000     
  -1.2195332815290267E-002   9.2291377583485577E-003   0.0000000000000000     
  -1.5427705156661163E-002   1.2371718903077360E-002   0.0000000000000000     
  -1.8577125429024309E-002   1.5685062005634600E-002   0.0000000000000000     
  -2.1643593632379703E-002   1.9169167066020277E-002   0.0000000000000000     
  -2.4627109766727353E-002   2.2824034084234394E-002   0.0000000000000000     
  -1.4955181280935592E-002   2.0169505689813225E-002   0.0000000000000000     
  -1.6856679952415042E-002   2.4029876519864823E-002   0.0000000000000000     
  -1.8716842330013549E-002   2.8113895652921942E-002   0.0000000000000000     
  -2.0535668413731108E-002   3.2421563088984563E-002   0.0000000000000000     
  -2.2313158203567728E-002   3.6952878828052704E-002   0.0000000000000000     
  -1.7127336747886461E-002   2.0675235429839713E-002   0.0000000000000000     
  -1.9292075147005934E-002   2.4558412760469359E-002   0.0000000000000000     
  -2.1402905418256905E-002   2.8655680842031270E-002   0.0000000000000000     
  -2.3459827561639373E-002   3.2967039674525453E-002   0.0000000000000000     
  -2.5462841577153346E-002   3.7492489257951900E-002   0.0000000000000000     
  -1.9463376651168717E-002   2.1286233408918737E-002   0.0000000000000000     
  -2.1883063326996754E-002   2.5175031026990095E-002   0.0000000000000000     
  -2.4239096904809621E-002   2.9273536013607541E-002   0.0000000000000000     
  -2.6531477384607330E-002   3.3581748368771071E-002   0.0000000000000000     
  -2.8760204766389866E-002   3.8099668092480679E-002   0.0000000000000000     
  -2.1963300990782343E-002   2.2002499627050302E-002   0.0000000000000000     
  -2.4629644492387505E-002   2.5879731319427040E-002   0.0000000000000000     
  -2.7225416789671719E-002   2.9967461167650738E-002   0.0000000000000000     
  -2.9750617882634979E-002   3.4265689171721403E-002   0.0000000000000000     
  -3.2205247771277278E-002   3.8774415331639014E-002   0.0000000000000000     
  -2.4627109766727353E-002   2.2824034084234394E-002   0.0000000000000000     
  -2.7531818643178194E-002   2.6672513637780185E-002   0.0000000000000000     
  -3.0361865072843185E-002   3.0737456304160873E-002   0.0000000000000000     
  -3.3117249055722317E-002   3.5018862083376456E-002   0.0000000000000000     
  -3.5797970591815602E-002   3.9516730975426941E-002   0.0000000000000000     
  -2.2313158203567728E-002   3.6952878828052704E-002   0.0000000000000000     
  -2.4046568878763427E-002   4.1698821301086729E-002   0.0000000000000000     
  -2.5733157618558242E-002   4.6650368939047046E-002   0.0000000000000000     
  -2.7372924422952170E-002   5.1807521741933642E-002   0.0000000000000000     
  -2.8965869291945209E-002   5.7170279709746516E-002   0.0000000000000000     
  -2.5462841577153346E-002   3.7492489257951900E-002   0.0000000000000000     
  -2.7412512821862522E-002   4.2227667172564660E-002   0.0000000000000000     
  -2.9309406652830609E-002   4.7168210998617746E-002   0.0000000000000000     
  -3.1153523070057587E-002   5.2314120736111185E-002   0.0000000000000000     
  -3.2944862073543482E-002   5.7665396385044969E-002   0.0000000000000000     
  -2.8760204766389866E-002   3.8099668092480679E-002   0.0000000000000000     
  -3.0927398184058239E-002   4.2824358705794832E-002   0.0000000000000000     
  -3.3035176771513471E-002   4.7752883729771975E-002   0.0000000000000000     
  -3.5083540528755557E-002   5.2885243164412128E-002   0.0000000000000000     
  -3.7072489455784487E-002   5.8221437009715271E-002   0.0000000000000000     
  -3.2205247771277278E-002   3.8774415331639014E-002   0.0000000000000000     
  -3.4591224965350588E-002   4.3488895900777251E-002   0.0000000000000000     
  -3.6910467974606849E-002   4.8404387132509732E-002   0.0000000000000000     
  -3.9162976799046054E-002   5.3520889026836480E-002   0.0000000000000000     
  -4.1348751438668216E-002   5.8838401583757471E-002   0.0000000000000000     
  -3.5797970591815602E-002   3.9516730975426941E-002   0.0000000000000000     
  -3.8403993165739551E-002   4.4221278757511931E-002   0.0000000000000000     
  -4.0935280262110726E-002   4.9122721206831033E-002   0.0000000000000000     
  -4.3391831880929099E-002   5.4221058323384225E-002   0.0000000000000000     
  -4.5773648022194691E-002   5.9516290107171542E-002   0.0000000000000000     
  -2.8965869291945209E-002   5.7170279709746516E-002   0.0000000000000000     
  -3.0511336094178935E-002   6.2727774922585078E-002   0.0000000000000000     
  -3.2008668698294926E-002   6.8469139460548709E-002   0.0000000000000000     
  -3.3457867104293187E-002   7.4394373323637436E-002   0.0000000000000000     
  -3.4858931312173706E-002   8.0503476511851232E-002   0.0000000000000000     
  -3.2944862073543482E-002   5.7665396385044969E-002   0.0000000000000000     
  -3.4682540029096244E-002   6.3210523790270423E-002   0.0000000000000000     
  -3.6365673302523827E-002   6.8937988796638913E-002   0.0000000000000000     
  -3.7994261893826257E-002   7.4847791404150446E-002   0.0000000000000000     
  -3.9568305803003509E-002   8.0939931612804980E-002   0.0000000000000000     
  -3.7072489455784487E-002   5.8221437009715271E-002   0.0000000000000000     
  -3.9001446359356262E-002   6.3750366989331148E-002   0.0000000000000000     
  -4.0869834046226863E-002   6.9460934826909460E-002   0.0000000000000000     
  -4.2677652516396297E-002   7.5353140522450193E-002   0.0000000000000000     
  -4.4424901769864564E-002   8.1426984075953349E-002   0.0000000000000000     
  -4.1348751438668216E-002   5.8838401583757471E-002   0.0000000000000000     
  -4.3468055084958997E-002   6.4347304519767251E-002   0.0000000000000000     
  -4.5521150929404022E-002   7.0037977551360334E-002   0.0000000000000000     
  -4.7508038972003314E-002   7.5910420678536719E-002   0.0000000000000000     
  -4.9428719212756850E-002   8.1964633901296380E-002   0.0000000000000000     
  -4.5773648022194691E-002   5.9516290107171542E-002   0.0000000000000000     
  -4.8082366205904441E-002   6.5001336381578720E-002   0.0000000000000000     
  -5.0319623952055303E-002   7.0669116969991522E-002   0.0000000000000000     
  -5.2485421260647293E-002   7.6519631872409968E-002   0.0000000000000000     
  -5.4579758131680388E-002   8.2552881088834046E-002   0.0000000000000000     
  -3.4858931312173706E-002   8.0503476511851232E-002   0.0000000000000000     
  -3.6207200809654408E-002   8.6778378628719330E-002   0.0000000000000000     
  -3.7498015084453183E-002   9.3201009277770905E-002   0.0000000000000000     
  -3.8731374136570039E-002   9.9771368459005985E-002   0.0000000000000000     
  -3.9907277966004975E-002  0.10648945617242453        0.0000000000000000     
  -3.9568305803003509E-002   8.0939931612804980E-002   0.0000000000000000     
  -4.1083281025119357E-002   8.7197598979257829E-002   0.0000000000000000     
  -4.2534663555237565E-002   9.3603983060164334E-002   0.0000000000000000     
  -4.3922453393358124E-002  0.10015908385552441        0.0000000000000000     
  -4.5246650539481036E-002  0.10686290136533812        0.0000000000000000     
  -4.4424901769864564E-002   8.1426984075953349E-002   0.0000000000000000     
  -4.6106832030473673E-002   8.7666336052870455E-002   0.0000000000000000     
  -4.7718693522065633E-002   9.4055067018652946E-002   0.0000000000000000     
  -4.9260486244640453E-002  0.10059317697330084        0.0000000000000000     
  -5.0732210198198124E-002  0.10728066591681411        0.0000000000000000     
  -4.9428719212756850E-002   8.1964633901296380E-002   0.0000000000000000     
  -5.1277853825717312E-002   8.8184589849557127E-002   0.0000000000000000     
  -5.3050104984937375E-002   9.4554261153236757E-002   0.0000000000000000     
  -5.4745472690417012E-002  0.10107364781233519        0.0000000000000000     
  -5.6363956942156256E-002  0.10774274982685249        0.0000000000000000     
  -5.4579758131680388E-002   8.2552881088834046E-002   0.0000000000000000     
  -5.6596346410850311E-002   8.8752360369317912E-002   0.0000000000000000     
  -5.8528897943852798E-002   9.5101565463915738E-002   0.0000000000000000     
  -6.0377412730687821E-002  0.10160049637262754        0.0000000000000000     
  -6.2141890771355408E-002  0.10824915309545330        0.0000000000000000     
  -3.9907277966004975E-002  0.10648945617242453        0.0000000000000000     
  -4.1036689118574526E-002  0.11335944056106327        0.0000000000000000     
  -4.2130570140095233E-002  0.12038548976795888        0.0000000000000000     
  -4.3188921030567103E-002  0.12756760379311133        0.0000000000000000     
  -4.4211741789990121E-002  0.13490578263652064        0.0000000000000000     
  -4.5246650539481036E-002  0.10686290136533812        0.0000000000000000     
  -4.6518536620076364E-002  0.11371802864224748        0.0000000000000000     
  -4.7749393261614190E-002  0.12072705873889450        0.0000000000000000     
  -4.8939220464094504E-002  0.12788999165527912        0.0000000000000000     
  -5.0088018227517322E-002  0.13520682739140144        0.0000000000000000     
  -5.0732210198198124E-002  0.10728066591681411        0.0000000000000000     
  -5.2146331885775207E-002  0.11411894309592605        0.0000000000000000     
  -5.3515317810408254E-002  0.12110941775736979        0.0000000000000000     
  -5.4839167972097258E-002  0.12825208990114542        0.0000000000000000     
  -5.6117882370842219E-002  0.13554695952725290        0.0000000000000000     
  -5.6363956942156256E-002  0.10774274982685249        0.0000000000000000     
  -5.7920074915671069E-002  0.11456218392209896        0.0000000000000000     
  -5.9428343786477413E-002  0.12153256682338490        0.0000000000000000     
  -6.0888763554575329E-002  0.12865389853071024        0.0000000000000000     
  -6.2301334219964803E-002  0.13592617904407509        0.0000000000000000     
  -6.2141890771355408E-002  0.10824915309545330        0.0000000000000000     
  -6.3839765709763907E-002  0.11504775112076623        0.0000000000000000     
  -6.5488471189821679E-002  0.12199650593693967        0.0000000000000000     
  -6.7088007211528730E-002  0.12909541754397358        0.0000000000000000     
  -6.8638373774885075E-002  0.13634448594186796        0.0000000000000000     
  -4.4211741789990121E-002  0.13490578263652064        0.0000000000000000     
  -4.5182855717071112E-002  0.14236650056620820        0.0000000000000000     
  -4.6086086110516872E-002  0.14991623185019526        0.0000000000000000     
  -4.6921432970327415E-002  0.15755497648848188        0.0000000000000000     
  -4.7688896296502734E-002  0.16528273448106803        0.0000000000000000     
  -5.0088018227517322E-002  0.13520682739140144        0.0000000000000000     
  -5.1182004668900369E-002  0.14264598886994201        0.0000000000000000     
  -5.2207397905261396E-002  0.15017589901358139        0.0000000000000000     
  -5.3164197936600377E-002  0.15779655782231963        0.0000000000000000     
  -5.4052404762917339E-002  0.16550796529615669        0.0000000000000000     
  -5.6117882370842219E-002  0.13554695952725290        0.0000000000000000     
  -5.7336918900216853E-002  0.14296386205091680        0.0000000000000000     
  -5.8481735453794856E-002  0.15047263288736173        0.0000000000000000     
  -5.9552332031576248E-002  0.15807327203658764        0.0000000000000000     
  -6.0548708633561016E-002  0.16576577949859456        0.0000000000000000     
  -6.2301334219964803E-002  0.13592617904407509        0.0000000000000000     
  -6.3647598411020551E-002  0.14332012010913264        0.0000000000000000     
  -6.4909098756117292E-002  0.15080643347153627        0.0000000000000000     
  -6.6085835255255021E-002  0.15838511913128595        0.0000000000000000     
  -6.7177807908433779E-002  0.16605617708838161        0.0000000000000000     
  -6.8638373774885075E-002  0.13634448594186796        0.0000000000000000     
  -7.0114043201311455E-002  0.14371476304458955        0.0000000000000000     
  -7.1489487812228691E-002  0.15117730076610503        0.0000000000000000     
  -7.2764707607636731E-002  0.15873209910641450        0.0000000000000000     
  -7.3939702587535627E-002  0.16637915806551790        0.0000000000000000     
   0.0000000000000000        0.0000000000000000        0.0000000000000000     
  -2.8800718247834153E-003   1.7448476449165586E-003   0.0000000000000000     
  -5.8726512355929319E-003   3.8646531529468384E-003   0.0000000000000000     
  -8.9777382324285476E-003   6.3594165240908381E-003   0.0000000000000000     
  -1.2195332815290267E-002   9.2291377583485577E-003   0.0000000000000000     
   0.0000000000000000        0.0000000000000000        0.0000000000000000     
  -3.2832111396178692E-003   1.9993546577423385E-003   0.0000000000000000     
  -6.6769587440276479E-003   4.3309491980295248E-003   0.0000000000000000     
  -1.0181242813229335E-002   6.9947836208615593E-003   0.0000000000000000     
  -1.3796063347222935E-002   9.9908579262384407E-003   0.0000000000000000     
   0.0000000000000000        0.0000000000000000        0.0000000000000000     
  -3.9535708975703653E-003   2.4251074086196864E-003   0.0000000000000000     
  -7.9106173077448765E-003   5.0628997970714332E-003   0.0000000000000000     
  -1.1871139230523534E-002   7.9133771653552409E-003   0.0000000000000000     
  -1.5835136665906337E-002   1.0976539513471110E-002   0.0000000000000000     
   0.0000000000000000        0.0000000000000000        0.0000000000000000     
  -4.8911510986409052E-003   3.0221058975486020E-003   0.0000000000000000     
  -9.5736269267446186E-003   6.0605049500725636E-003   0.0000000000000000     
  -1.4047427484311143E-002   9.1151971575718881E-003   0.0000000000000000     
  -1.8312552771340480E-002   1.2186182520046569E-002   0.0000000000000000     
   0.0000000000000000        0.0000000000000000        0.0000000000000000     
  -6.0959517428294868E-003   3.7903501245290855E-003   0.0000000000000000     
  -1.1665987601026875E-002   7.3237646570329168E-003   0.0000000000000000     
  -1.6710107574592164E-002   1.0600243597511492E-002   0.0000000000000000     
  -2.1228311663525356E-002   1.3619786945964815E-002   0.0000000000000000     
  -1.2195332815290267E-002   9.2291377583485577E-003   0.0000000000000000     
  -1.5427705156661163E-002   1.2371718903077360E-002   0.0000000000000000     
  -1.8577125429024309E-002   1.5685062005634600E-002   0.0000000000000000     
  -2.1643593632379703E-002   1.9169167066020277E-002   0.0000000000000000     
  -2.4627109766727353E-002   2.2824034084234394E-002   0.0000000000000000     
  -1.3796063347222935E-002   9.9908579262384407E-003   0.0000000000000000     
  -1.7404356439830369E-002   1.3221148181051641E-002   0.0000000000000000     
  -2.0889058184873573E-002   1.6587630452192640E-002   0.0000000000000000     
  -2.4250168582352540E-002   2.0090304739661422E-002   0.0000000000000000     
  -2.7487687632267273E-002   2.3729171043458005E-002   0.0000000000000000     
  -1.5835136665906337E-002   1.0976539513471110E-002   0.0000000000000000     
  -1.9730861970592452E-002   1.4211149720384845E-002   0.0000000000000000     
  -2.3486567501281044E-002   1.7575970665062252E-002   0.0000000000000000     
  -2.7102253257972116E-002   2.1071002347503330E-002   0.0000000000000000     
  -3.0577919240665666E-002   2.4696244767708084E-002   0.0000000000000000     
  -1.8312552771340480E-002   1.2186182520046569E-002   0.0000000000000000     
  -2.2407221748947413E-002   1.5341723521076968E-002   0.0000000000000000     
  -2.6369653378246732E-002   1.8650082644243452E-002   0.0000000000000000     
  -3.0199847659238430E-002   2.2111259889546014E-002   0.0000000000000000     
  -3.3897804591922522E-002   2.5725255256984651E-002   0.0000000000000000     
  -2.1228311663525356E-002   1.3619786945964815E-002   0.0000000000000000     
  -2.5433435774895246E-002   1.6612869583128013E-002   0.0000000000000000     
  -2.9538315815770620E-002   1.9809966389736228E-002   0.0000000000000000     
  -3.3542951786151486E-002   2.3211077365789451E-002   0.0000000000000000     
  -3.7447343686037846E-002   2.6816202511287690E-002   0.0000000000000000     
  -2.4627109766727353E-002   2.2824034084234394E-002   0.0000000000000000     
  -2.7531818643178194E-002   2.6672513637780185E-002   0.0000000000000000     
  -3.0361865072843185E-002   3.0737456304160873E-002   0.0000000000000000     
  -3.3117249055722317E-002   3.5018862083376456E-002   0.0000000000000000     
  -3.5797970591815602E-002   3.9516730975426941E-002   0.0000000000000000     
  -2.7487687632267273E-002   2.3729171043458005E-002   0.0000000000000000     
  -3.0624556504361140E-002   2.7546910510459453E-002   0.0000000000000000     
  -3.3683716368377484E-002   3.1586204287542850E-002   0.0000000000000000     
  -3.6665167224316321E-002   3.5847052374708192E-002   0.0000000000000000     
  -3.9568909072177638E-002   4.0329454771955479E-002   0.0000000000000000     
  -3.0577919240665666E-002   2.4696244767708084E-002   0.0000000000000000     
  -3.3942828800928665E-002   2.8496454465874753E-002   0.0000000000000000     
  -3.7226245290328093E-002   3.2516387982201571E-002   0.0000000000000000     
  -4.0428168708863947E-002   3.6756045316688551E-002   0.0000000000000000     
  -4.3548599056536234E-002   4.1215426469335681E-002   0.0000000000000000     
  -3.3897804591922522E-002   2.5725255256984651E-002   0.0000000000000000     
  -3.7486635532880792E-002   2.9521145504026090E-002   0.0000000000000000     
  -4.0989451838695012E-002   3.3528007388137056E-002   0.0000000000000000     
  -4.4406253509365223E-002   3.7745840909317534E-002   0.0000000000000000     
  -4.7737040544891370E-002   4.2174646067567531E-002   0.0000000000000000     
  -3.7447343686037846E-002   2.6816202511287690E-002   0.0000000000000000     
  -4.1255976700217495E-002   3.0620983624913455E-002   0.0000000000000000     
  -4.4973336013478249E-002   3.4621062505349270E-002   0.0000000000000000     
  -4.8599421625820101E-002   3.8816439152595132E-002   0.0000000000000000     
  -5.2134233537243058E-002   4.3207113566651051E-002   0.0000000000000000     
  -3.5797970591815602E-002   3.9516730975426941E-002   0.0000000000000000     
  -3.8403993165739551E-002   4.4221278757511931E-002   0.0000000000000000     
  -4.0935280262110726E-002   4.9122721206831033E-002   0.0000000000000000     
  -4.3391831880929099E-002   5.4221058323384225E-002   0.0000000000000000     
  -4.5773648022194691E-002   5.9516290107171542E-002   0.0000000000000000     
  -3.9568909072177638E-002   4.0329454771955479E-002   0.0000000000000000     
  -4.2392585798506736E-002   4.5019493507827683E-002   0.0000000000000000     
  -4.5133841289848882E-002   4.9903250610867762E-002   0.0000000000000000     
  -4.7792675546204096E-002   5.4980726081075744E-002   0.0000000000000000     
  -5.0369088567572350E-002   6.0251919918451580E-002   0.0000000000000000     
  -4.3548599056536234E-002   4.1215426469335681E-002   0.0000000000000000     
  -4.6583885876933684E-002   4.5881526383553334E-002   0.0000000000000000     
  -4.9530378713645087E-002   5.0741340002751885E-002   0.0000000000000000     
  -5.2388077566670410E-002   5.5794867326931348E-002   0.0000000000000000     
  -5.5156982436009687E-002   6.1042108356091695E-002   0.0000000000000000     
  -4.7737040544891370E-002   4.2174646067567531E-002   0.0000000000000000     
  -5.0977893401020442E-002   4.6807377384688882E-002   0.0000000000000000     
  -5.4124892533499343E-002   5.1636989382483386E-002   0.0000000000000000     
  -5.7178037942328085E-002   5.6663482060951058E-002   0.0000000000000000     
  -6.0137329627506668E-002   6.1886855420091896E-002   0.0000000000000000     
  -5.2134233537243058E-002   4.3207113566651051E-002   0.0000000000000000     
  -5.5574608370766956E-002   4.7797046511234315E-002   0.0000000000000000     
  -5.8917382749411634E-002   5.2590198750062260E-002   0.0000000000000000     
  -6.2162556673177091E-002   5.7586570283134880E-002   0.0000000000000000     
  -6.5310130142063327E-002   6.2786161110452168E-002   0.0000000000000000     
  -4.5773648022194691E-002   5.9516290107171542E-002   0.0000000000000000     
  -4.8082366205904441E-002   6.5001336381578720E-002   0.0000000000000000     
  -5.0319623952055303E-002   7.0669116969991522E-002   0.0000000000000000     
  -5.2485421260647293E-002   7.6519631872409968E-002   0.0000000000000000     
  -5.4579758131680388E-002   8.2552881088834046E-002   0.0000000000000000     
  -5.0369088567572350E-002   6.0251919918451580E-002   0.0000000000000000     
  -5.2866095744385597E-002   6.5711725720135575E-002   0.0000000000000000     
  -5.5286712467075713E-002   7.1355037083267986E-002   0.0000000000000000     
  -5.7630938735642706E-002   7.7181854007848799E-002   0.0000000000000000     
  -5.9898774550086568E-002   8.3192176493878042E-002   0.0000000000000000     
  -5.5156982436009687E-002   6.1042108356091695E-002   0.0000000000000000     
  -5.7840959722595439E-002   6.6477735680807837E-002   0.0000000000000000     
  -6.0443875827360195E-002   7.2096421891654605E-002   0.0000000000000000     
  -6.2965730750304011E-002   7.7898166988632028E-002   0.0000000000000000     
  -6.5406524491426823E-002   8.3882970971740065E-002   0.0000000000000000     
  -6.0137329627506668E-002   6.1886855420091896E-002   0.0000000000000000     
  -6.3006958140533961E-002   6.7299366263595478E-002   0.0000000000000000     
  -6.5791114032908812E-002   7.2893271395151366E-002   0.0000000000000000     
  -6.8489797304631186E-002   7.8668570814759614E-002   0.0000000000000000     
  -7.1103007955701139E-002   8.4625264522420141E-002   0.0000000000000000     
  -6.5310130142063327E-002   6.2786161110452168E-002   0.0000000000000000     
  -6.8364090998201177E-002   6.8176617468498513E-002   0.0000000000000000     
  -7.1328427083721488E-002   7.3745585593758309E-002   0.0000000000000000     
  -7.4203138398624274E-002   7.9493065486231557E-002   0.0000000000000000     
  -7.6988224942909508E-002   8.5419057145918242E-002   0.0000000000000000     
  -5.4579758131680388E-002   8.2552881088834046E-002   0.0000000000000000     
  -5.6596346410850311E-002   8.8752360369317912E-002   0.0000000000000000     
  -5.8528897943852798E-002   9.5101565463915738E-002   0.0000000000000000     
  -6.0377412730687821E-002  0.10160049637262754        0.0000000000000000     
  -6.2141890771355408E-002  0.10824915309545330        0.0000000000000000     
  -5.9898774550086568E-002   8.3192176493878042E-002   0.0000000000000000     
  -6.2082877372573474E-002   8.9369206348178701E-002   0.0000000000000000     
  -6.4175904665269554E-002   9.5696145377573774E-002   0.0000000000000000     
  -6.6177856428174822E-002  0.10217299358206335        0.0000000000000000     
  -6.8088732661289286E-002  0.10879975096164729        0.0000000000000000     
  -6.5406524491426823E-002   8.3882970971740065E-002   0.0000000000000000     
  -6.7758014297587613E-002   9.0034686522165452E-002   0.0000000000000000     
  -7.0011957415645337E-002   9.6337166321094791E-002   0.0000000000000000     
  -7.2168353845600025E-002  0.10279041036852810        0.0000000000000000     
  -7.4227203587451593E-002  0.10939441866446535        0.0000000000000000     
  -7.1103007955701139E-002   8.4625264522420141E-002   0.0000000000000000     
  -7.3621757185892756E-002   9.0748800891278139E-002   0.0000000000000000     
  -7.6037056194980163E-002   9.7024628294478679E-002   0.0000000000000000     
  -7.8348904982963347E-002  0.10345274673202182        0.0000000000000000     
  -8.0557303549842293E-002  0.11003315620390751        0.0000000000000000     
  -7.6988224942909508E-002   8.5419057145918242E-002   0.0000000000000000     
  -7.9674106037488868E-002   9.1511549455516761E-002   0.0000000000000000     
  -8.2251201003273974E-002   9.7758531297725507E-002   0.0000000000000000     
  -8.4719509840264828E-002  0.10416000267254448        0.0000000000000000     
  -8.7079032548461444E-002  0.11071596357997368        0.0000000000000000     
  -6.2141890771355408E-002  0.10824915309545330        0.0000000000000000     
  -6.3839765709763907E-002  0.11504775112076623        0.0000000000000000     
  -6.5488471189821679E-002  0.12199650593693967        0.0000000000000000     
  -6.7088007211528730E-002  0.12909541754397358        0.0000000000000000     
  -6.8638373774885075E-002  0.13634448594186796        0.0000000000000000     
  -6.8088732661289286E-002  0.10879975096164729        0.0000000000000000     
  -6.9928442518205902E-002  0.11557610873764562        0.0000000000000000     
  -7.1716895152517654E-002  0.12250175813137822        0.0000000000000000     
  -7.3454090564224514E-002  0.12957669914284509        0.0000000000000000     
  -7.5140028753326524E-002  0.13680093177204622        0.0000000000000000     
  -7.4227203587451593E-002  0.10939441866446535        0.0000000000000000     
  -7.6209143591149192E-002  0.11614772081845477        0.0000000000000000     
  -7.8134810806641919E-002  0.12304884644004446        0.0000000000000000     
  -8.0004205233929732E-002  0.13009779552923437        0.0000000000000000     
  -8.1817326873012658E-002  0.13729456808602458        0.0000000000000000     
  -8.0557303549842293E-002  0.11003315620390751        0.0000000000000000     
  -8.2681868928593791E-002  0.11676258736319368        0.0000000000000000     
  -8.4742218152194473E-002  0.12363777086293834        0.0000000000000000     
  -8.6738351220644355E-002  0.13065870670314145        0.0000000000000000     
  -8.8670268133943464E-002  0.13782539488380297        0.0000000000000000     
  -8.7079032548461444E-002  0.11071596357997368        0.0000000000000000     
  -8.9346618530539670E-002  0.11742070837186241        0.0000000000000000     
  -9.1539117189175317E-002  0.12426853140005996        0.0000000000000000     
  -9.3656528524368413E-002  0.13125943266456633        0.0000000000000000     
  -9.5698852536118942E-002  0.13839341216538148        0.0000000000000000     
  -6.8638373774885075E-002  0.13634448594186796        0.0000000000000000     
  -7.0114043201311455E-002  0.14371476304458955        0.0000000000000000     
  -7.1489487812228691E-002  0.15117730076610503        0.0000000000000000     
  -7.2764707607636731E-002  0.15873209910641450        0.0000000000000000     
  -7.3939702587535627E-002  0.16637915806551790        0.0000000000000000     
  -7.5140028753326524E-002  0.13680093177204622        0.0000000000000000     
  -7.6743596866462510E-002  0.14414609807732423        0.0000000000000000     
  -7.8233682050271341E-002  0.15158384011702178        0.0000000000000000     
  -7.9610284304752976E-002  0.15911415789113881        0.0000000000000000     
  -8.0873403629907442E-002  0.16673705139967532        0.0000000000000000     
  -8.1817326873012658E-002  0.13729456808602458        0.0000000000000000     
  -8.3543603001846614E-002  0.14461243242737365        0.0000000000000000     
  -8.5152460898387489E-002  0.15202465687024019        0.0000000000000000     
  -8.6643900562635365E-002  0.15953124141462433        0.0000000000000000     
  -8.8017921994590131E-002  0.16713218606052593        0.0000000000000000     
  -8.8670268133943464E-002  0.13782539488380297        0.0000000000000000     
  -9.0514061607463753E-002  0.14511376609473772        0.0000000000000000     
  -9.2245824356577216E-002  0.15249975102576038        0.0000000000000000     
  -9.3865556381283868E-002  0.15998334967687103        0.0000000000000000     
  -9.5373257681583667E-002  0.16756456204806958        0.0000000000000000     
  -9.5698852536118942E-002  0.13839341216538148        0.0000000000000000     
  -9.7654972683313940E-002  0.14565009907941648        0.0000000000000000     
  -9.9513772424840483E-002  0.15300912258358229        0.0000000000000000     
 -0.10127525176069853       0.16047048267787897        0.0000000000000000     
 -0.10293941069088811       0.16803417936230641        0.0000000000000000     
 </DataArray>
 <DataArray  type="Float64" Name="stress" NumberOfComponents="3" format="ascii">
   13416600654.811127        4024980196.4433379        2893896310.7388048     
   11766506208.721575        1890527038.2844465        1715794311.0777531     
   10313674171.261826        413615242.22490549        810764702.50844300     
   9058104542.4318848       -405755191.73528481        178807485.03087375     
   7999797322.2317486       -567584263.59612513       -180077341.35495377     
   10539932273.910770        3161979682.1732311        2225693036.5383229     
   9667573568.7412109        1589639063.3608689        1446691977.3003290     
   8943842033.5675430        512722344.53483677        863158510.90600240     
   8368737668.3897791       -68770474.304864407        475092637.35534185     
   7942260473.2079144       -154839393.15823555        282494356.64834827     
   8337933660.6735611        2501380098.2020683        1712318709.3885942     
   8021582701.4294882        1424633620.2378850        1275677478.8341014     
   7805223673.5474110        681193580.14701295        956899042.87520087     
   7688856577.0273247        271059977.92945194        755983401.51189220     
   7672481411.8692322        194232813.58520126        672930554.74417531     
   6810604815.0994987        2043181444.5298495        1353773329.2896171     
   6828533606.7864161        1395510708.9154959        1202750815.6790686     
   6897819091.2014227        919028949.06143332        1091986298.4160364     
   7018461268.3445168        613736164.96766162        1021479777.5005236     
   7190460138.2156973        479632356.63418031        991231252.93252635     
   5957945737.1885796        1787383721.1565740        1150056896.2413929     
   6088426284.8119917        1502270329.3937006        1227911987.8352313     
   6221628286.5295839        1226228451.2780976        1268420277.5285118     
   6357551742.3413572        959258086.80976617        1271581765.3212359     
   6496196652.2473145        701359235.98870564        1237396451.2134027     
   7999797322.2317486       -567584263.59612513       -180077341.35495377     
   7917515431.7501984       -200295180.41301060       -78314900.551429421     
   7793780290.5256853        28816400.293557167       -9117656.4567539599     
   7628591898.5582094        119750478.52358675        27514390.929075420     
   7421950255.8477707        72507054.277068138        31581241.606058635     
   7942260473.2079144       -154839393.15823555        282494356.64834827     
   7739693694.3703880        16257040.177313805        281105102.83640617     
   7513769345.9450607        109494908.22019958        265029435.42430475     
   7264487427.9319315        124874210.97041941        234267354.41204128     
   6991847940.3310089        62394948.427976608        188818859.79962006     
   7672481411.8692322        194232813.58520126        672930554.74417531     
   7400711982.1291180        184461268.30920219        589501234.33112609     
   7123680663.9563656        157150094.92441940        509264283.42660117     
   6841387457.3509789        112299293.43085074        432219702.03060555     
   6553832362.3129539        49908863.828497171        358367490.14313555     
   7190460138.2156973        479632356.63418031        991231252.93252635     
   6900570295.0263824        304317503.98265076        846873493.93272567     
   6623514244.5596008        171781960.40621805        723586887.55013907     
   6359291986.8153448        82025725.904876709        621371433.78476536     
   6107903521.7936153        35048800.478630781        540227132.63660598     
   6496196652.2473145        701359235.98870564        1237396451.2134027     
   6239268633.0621939        375825747.19766283        1053221881.6412103     
   6013270087.7547674        153390504.66559553        907997247.79491758     
   5818201016.3250313        34053508.392500877        801722549.67452514     
   5654061418.7729883        17814758.378379822        734397787.28003228     
   7421950255.8477707        72507054.277068138        31581241.606058635     
   7219564303.4952040       -17961100.229903221        15006728.850626960     
   7029289994.8298922       -68057109.112694740        2588142.1648617764     
   6851127329.8518391       -77780972.371281147       -5674518.4512446057     
   6685076308.5610409       -47132690.005695343       -9781252.9976806566     
   6991847940.3310089        62394948.427976608        188818859.79962006     
   6808919734.5052147        3127927.8671121597        180776947.27566999     
   6633721971.3105392       -30370950.590019703        176346344.33046946     
   6466254650.7469854       -38101686.943417072        175527050.96402031     
   6306517772.8145561       -20064281.193073034        178319067.17632633     
   6553832362.3129539        49908863.828497171        358367490.14313555     
   6388805855.8970442        21376163.078675032        353746776.61850423     
   6227128591.0561142        4007600.9121308327        352192756.18171585     
   6068800567.7901726       -2196822.6711270809        353705428.83276480     
   5913821786.0992126        2762892.3288946152        358284794.57165670     
   6107903521.7936153        35048800.478630781        540227132.63660598     
   5959222667.6706924        36783605.404784918        533916216.87913871     
   5809509854.0666208        35078545.393762350        530127377.71859920     
   5658765080.9813910        29933620.445567846        528860615.15498894     
   5506988348.4150171        21348830.560205460        530115929.18830538     
   5654061418.7729883        17814758.378379822        734397787.28003228     
   5520170169.8261662        49350254.845438004        721285268.05756950     
   5380865760.3420515        62841882.854870081        710150208.94112182     
   5236148190.3206530        58289642.406678200        700992609.93069065     
   5086017459.7619648        35693533.500861168        693812471.02627361     
   6685076308.5610409       -47132690.005695343       -9781252.9976806566     
   6509224401.4635773       -8662802.3058013916       -4819274.4459658768     
   6328356589.8500509        13087403.673901081        2424717.6995792701     
   6142472873.7204638        18117927.933391571        11950723.438937489     
   5951573253.0748091        6428770.4726605415        23758742.772128638     
   6306517772.8145561       -20064281.193073034        178319067.17632633     
   6132602319.6882381        881373.82917785645        174136918.81997517     
   5955678504.2583179        11799154.506097317        173206390.54244882     
   5775746326.5248032        12689060.837681293        175527482.34374306     
   5592805786.4876871        3551092.8239479065        181100194.22386271     
   5913821786.0992126        2762892.3288946152        358284794.57165670     
   5744613091.1868982        7015405.9463455677        347300651.88844395     
   5574403576.1834526        7931852.5933501720        340537735.76905692     
   5403193241.0888672        5512232.2698988914        337996046.21349448     
   5230982085.9031487       -243455.02399992943        339675583.22175652     
   5506988348.4150171        21348830.560205460        530115929.18830538     
   5345256715.9595661        9739294.0457177162        514671924.75944060     
   5184531805.6254492        1485497.9356701374        504418753.37940168     
   5024813617.4126530       -3412557.7699682713        499356415.04818469     
   4866102151.3211899       -4954873.0711705685        499484909.76579684     
   5086017459.7619648        35693533.500861168        693812471.02627361     
   4934533194.0062399        9053038.1272971630        676250737.43296456     
   4786063192.5843067       -7539909.4669597149        664849443.37347782     
   4640607455.4961624       -14085309.281921864        659608588.84782124     
   4498165982.7418156       -10583161.317560434        660528173.85598767     
   5951573253.0748091        6428770.4726605415        23758742.772128638     
   5776098492.2406359       -4888561.2791824341        19947443.772385579     
   5602833724.5591002       -8839249.1888940334        19106610.700404491     
   5431778950.0301800       -5423293.2565622330        21236243.556204595     
   5262934168.6538963        5359306.5178937912        26336342.339757703     
   5592805786.4876871        3551092.8239479065        181100194.22386271     
   5426763814.8429556       -2897370.4288697243        178443581.49657303     
   5262160931.3764753       -4548873.0875017643        178948909.48746485     
   5098997136.0882483       -1403415.1519711018        182616178.19652742     
   4937272428.9782715        6539003.3777346611        189445387.62377885     
   5230982085.9031487       -243455.02399992943        339675583.22175652     
   5074919974.2775974       -1658928.5288662910        337274267.63015181     
   4919526045.8559246       -847124.68747377396        338226367.54712760     
   4764800300.6381207        2191956.5001504421        342531882.97269678     
   4610742738.6241961        7458315.0340299606        350190813.90685070     
   4866102151.3211899       -4954873.0711705685        499484909.76579684     
   4720566970.5445623       -1173235.5791659355        496439502.17309785     
   4574929067.9974365        2265996.0111663342        496938984.87939674     
   4429188443.6798077        5362821.6998212337        500983357.88469523     
   4283345097.5916739        8117241.4868032932        508572621.18898791     
   4498165982.7418156       -10583161.317560434        660528173.85598767     
   4363704803.6438541       -1440291.5797698498        655939285.12542439     
   4228369997.8010187        4790489.0084328651        655086761.48427260     
   4092161565.2132983        8109180.4470248222        657970602.93252635     
   3955079505.8807082        8515782.7360467911        664590809.47019124     
   5262934168.6538963        5359306.5178937912        26336342.339757703     
   5053963941.3094559        5023115.1085026264        17047564.597291518     
   4843389551.1024818       -660285.84268903732        11489565.264527917     
   4631210998.0329599       -11690896.335705757        9662344.3414540943     
   4417428282.1008797       -28068716.370569944        11565901.828072608     
   4937272428.9782715        6539003.3777346611        189445387.62377885     
   4737747008.6321440        3535688.6653797626        178438905.39036053     
   4537042597.2915983       -3397596.0283899307        171582370.89277977     
   4335159194.9566288       -14260850.703566313        168875784.13104457     
   4132096801.6272321       -29054075.360158443        170319145.10515648     
   4610742738.6241961        7458315.0340299606        350190813.90685070     
   4421859751.9225159        2147165.0125668049        337962661.02862370     
   4232222946.0945330       -5676715.4299120903        330303625.21237916     
   4041832321.1402469       -16013326.293409109        327213706.45813495     
   3850687877.0596557       -28862667.577915668        328692904.76586807     
   4283345097.5916739        8117241.4868032932        508572621.18898791     
   4106302171.1805673        857544.15005517006        495618831.51209319     
   3928930597.5112772       -7497644.0472974777        487653328.22332746     
   3751230376.5838027       -16948323.105277300        484676111.32270002     
   3573201508.3981428       -27494493.023858786        486687180.81020015     
   3955079505.8807082        8515782.7360467911        664590809.47019124     
   3791074266.4063015       -333173.92214655876        651407416.84076643     
   3627165551.5418291       -8860381.8805527687        643631479.92561984     
   3463353361.2872910       -17065841.139170170        641262998.72474897     
   3299637695.6427007       -24949551.697983980        644301973.23815644     
   4417428282.1008797       -28068716.370569944        11565901.828072608     
   4274885992.3330860       -22650820.161980867        11462531.469230708     
   4134227154.4789133       -10954750.908012152        20468134.562167801     
   3995451768.5383692        7019491.3913919926        38582711.106902458     
   3858559834.5114503        31271906.736218452        65806261.103427641     
   4132096801.6272321       -29054075.360158443        170319145.10515648     
   4011975377.0014286       -18475434.827356100        172482357.97712687     
   3893355739.7953210       -2890836.2289128304        181592475.73939517     
   3776237890.0088887        17699720.435131311        197649498.39196044     
   3660621827.6421618        43296235.164849997        220653425.93483838     
   3850687877.0596557       -28862667.577915668        328692904.76586807     
   3746809978.8287401       -14976484.345015287        332677425.62572080     
   3644052203.5235734        2643441.9737145901        341446782.81439584     
   3542414551.1441703        23997111.378319263        355000976.33188182     
   3441897021.6905289        49084523.868791103        373340006.17818850     
   3573201508.3981428       -27494493.023858786        486687180.81020015     
   3479389797.8150082       -12153968.715000391        492047734.41502321     
   3386316545.6636958        5648083.6999256611        500031055.78717643     
   3293981751.9442067        25911664.220936894        510637144.92665952     
   3202385416.6565351        48636772.848010659        523866001.83346933     
   3299637695.6427007       -24949551.697983980        644301973.23815644     
   3209714833.9602399       -10007887.937301397        650593284.34502625     
   3120148766.2156672        6123088.9496774673        657345294.65773821     
   3030939492.4089842        23443378.962959647        664558004.17629027     
   2942087012.5401998        41952982.102548003        672231412.90068889     
   3858559834.5114503        31271906.736218452        65806261.103427641     
   3673973055.4805059        38833241.580092669        60345529.570303105     
   3485931861.6789765        34879860.522005320        40579525.956272967     
   3294436253.1068587        19411763.561964393        6508250.2613481246     
   3099486229.7641530       -7571049.3000376225       -41868297.514486156     
   3660621827.6421618        43296235.164849997        220653425.93483838     
   3443610959.3638706        36923304.711254835        207871925.37180319     
   3224075664.0549927        22135617.489049673        187669689.46035090     
   3002015941.7155566       -1066826.5016833544        160046718.20048925     
   2777431792.3455572       -32684027.260961652        125003011.59220542     
   3441897021.6905289        49084523.868791103        373340006.17818850     
   3212132169.1148543        34678359.602689624        354322722.28191513     
   2980772877.2486238        14957397.701413393        334769239.76972663     
   2747819146.0918498       -10078361.835029006        314679558.64161414     
   2513270975.6445131       -40428919.006659865        294053678.89758784     
   3202385416.6565351        48636772.848010659        523866001.83346933     
   2979536684.7334723        32098406.254434109        499697920.30065393     
   2756023501.2598667        13345201.159043193        481878176.88441139     
   2531845866.2357397       -7622842.4380937815        470406771.58474267     
   2307003779.6610575       -30805724.537048697        465283704.40165079     
   2942087012.5401998        41952982.102548003        672231412.90068889     
   2745824506.2197213        29183444.666464925        643997519.42801678     
   2549827536.0887170        17299027.861961722        628996500.80440867     
   2354096102.1472082        6299731.6891081333        627228357.02987146     
   2158630204.3951707       -3814443.8521800041        638693088.10439944     
   5957945737.1885796        1787383721.1565740        1150056896.2413929     
   6088426284.8119917        1502270329.3937006        1227911987.8352313     
   6221628286.5295839        1226228451.2780976        1268420277.5285118     
   6357551742.3413572        959258086.80976617        1271581765.3212359     
   6496196652.2473145        701359235.98870564        1237396451.2134027     
   5434598383.3306618        1630379514.9991987        1033486497.3869436     
   5489886942.6403217        1372513260.6641750        1113875858.3914185     
   5547369891.2834816        1121961637.4408197        1167484229.3409834     
   5607047229.2601395        878724645.32913220        1194311610.2356389     
   5668918956.5703020        642802284.32911348        1194358001.0753837     
   4895204709.9155979        1468561412.9746795        936379219.86929250     
   4905489314.7562103        1246998706.2209175        1018687941.3969434     
   4917441244.1696434        1030993748.0432215        1084781484.7153311     
   4931060498.1558962        820546538.44159031        1134659849.8244574     
   4946347076.7149668        615657077.41602480        1168323036.7243195     
   4339764716.9433870        1301929415.0830162        858735063.68843937     
   4335233401.1596613        1125726666.0639281        942348236.85180509     
   4331842345.1880732        953324783.08530295        1020312043.6515551     
   4329591549.0286245        784723766.14714038        1092626484.0876896     
   4328481012.6813145        619923615.24944031        1159291558.1602094     
   3768278404.4140301        1130483521.3242090        800554028.84438431     
   3779119201.8506708        1008697140.1932068        884856744.75600374     
   3790573194.3387694        888954742.56706476        974075906.14965510     
   3802640381.8783264        771256328.44578195        1068211513.0253383     
   3815320764.4693408        655601897.82935953        1167263565.3830531     
   6496196652.2473145        701359235.98870564        1237396451.2134027     
   6239268633.0621939        375825747.19766283        1053221881.6412103     
   6013270087.7547674        153390504.66559553        907997247.79491758     
   5818201016.3250313        34053508.392500877        801722549.67452514     
   5654061418.7729883        17814758.378379822        734397787.28003228     
   5668918956.5703020        642802284.32911348        1194358001.0753837     
   5518816845.1319637        383253906.51263356        1073487475.2204659     
   5392871642.0357866        204228556.50336242        980613455.52765644     
   5291083347.2817745        105726234.30130219        915735941.99695861     
   5213451960.8699255        87746939.906449556        878854934.62836981     
   4946347076.7149668        615657077.41602480        1168323036.7243195     
   4871775359.9840097        412705156.66228628        1102855228.1285584     
   4814587986.0596857        267701045.26399326        1054430496.1311160     
   4774784954.9419937        180644743.22114420        1023048840.7319927     
   4752366266.6309376        151536250.53374004        1008710261.9311886     
   4328481012.6813145        619923615.24944031        1159291558.1602094     
   4298144177.6183348        464179497.64662433        1141325140.3654873     
   4278419119.8264599        343807970.94748831        1129448369.6052933     
   4269305839.3056850        258809035.15202904        1123661245.8796275     
   4270804336.0560188        209182690.26025224        1123963769.1884923     
   3815320764.4693408        655601897.82935953        1167263565.3830531     
   3797923298.0349383        537676929.46564472        1188897211.9312530     
   3784365043.3361096        432549333.55384314        1205667075.9501901     
   3774646000.3728547        340219110.09395754        1217573157.4398651     
   3768766169.1451750        260686259.08598661        1224615456.4002786     
   5654061418.7729883        17814758.378379822        734397787.28003228     
   5520170169.8261662        49350254.845438004        721285268.05756950     
   5380865760.3420515        62841882.854870081        710150208.94112182     
   5236148190.3206530        58289642.406678200        700992609.93069065     
   5086017459.7619648        35693533.500861168        693812471.02627361     
   5213451960.8699255        87746939.906449556        878854934.62836981     
   5077314477.6317616        85611036.856316566        855214606.48844481     
   4939038912.6839285        76348194.773956299        835639268.67621028     
   4798625266.0264273        59958413.659363508        820128921.19166768     
   4656073537.6592541        36441693.512542486        808683564.03481209     
   4752366266.6309376        151536250.53374004        1008710261.9311886     
   4619946921.1633615        117518259.58499670        978363050.17268991     
   4488664572.8137331        87290259.029418707        954168358.96355712     
   4358519221.5820570        60852248.867006302        936126188.30379081     
   4229510867.4683313        38204229.097759247        924236538.19338846     
   4270804336.0560188        209182690.26025224        1123963769.1884923     
   4148067500.4209609        145071923.03147554        1090730599.1103077     
   4029742740.7314701        95668075.621261835        1065737479.8031659     
   3915830056.9875479        60971148.029605389        1048984411.2670619     
   3806329449.1891918        40981140.256510019        1040471393.5020008     
   3768766169.1451750        260686259.08598661        1224615456.4002786     
   3661676215.4045610        168272027.19575632        1192317253.3012989     
   3562273416.4371338        101481644.54948270        1170346631.1950347     
   3470557772.2428942        60315111.147163630        1158703590.0814843     
   3386529282.8218398        44772426.988801003        1157388129.9606495     
   5086017459.7619648        35693533.500861168        693812471.02627361     
   4934533194.0062399        9053038.1272971630        676250737.43296456     
   4786063192.5843067       -7539909.4669597149        664849443.37347782     
   4640607455.4961624       -14085309.281921864        659608588.84782124     
   4498165982.7418156       -10583161.317560434        660528173.85598767     
   4656073537.6592541        36441693.512542486        808683564.03481209     
   4521646615.0368347        15450734.682160139        795092980.33165193     
   4389416006.8227768        1780823.8796505928        787159251.07185745     
   4259381713.0170741       -4568038.8950033188        784882376.25542939     
   4131543733.6197376       -3595853.6417744160        788262355.88236737     
   4229510867.4683313        38204229.097759247        924236538.19338846     
   4110702473.4350429        22431162.447307825        913662829.46737421     
   3993272443.8846860        11252644.073286295        908242390.09426773     
   3877220778.8172584        4668673.9756975174        907975220.07406437     
   3762547478.2327585        2679252.1545403004        912861319.40677106     
   3806329449.1891918        40981140.256510019        1040471393.5020008     
   3701700769.2008691        29994321.422740221        1031960284.8401318     
   3597632503.7700386        20875551.113962889        1028098860.4407064     
   3494124652.8967085        13624829.330175400        1028887120.3037283     
   3391177216.5808744        8242156.0713806152        1034325064.4291964     
   3386529282.8218398        44772426.988801003        1157388129.9606495     
   3294641502.3343034        38140211.608456373        1149985346.4499202     
   3202496186.4788327        30649545.001667619        1146728662.1111763     
   3110093335.2554293        22300427.168434858        1147618076.9444182     
   3017432948.6640916        13092858.108758211        1152653590.9496443     
   4498165982.7418156       -10583161.317560434        660528173.85598767     
   4363704803.6438541       -1440291.5797698498        655939285.12542439     
   4228369997.8010187        4790489.0084328651        655086761.48427260     
   4092161565.2132983        8109180.4470248222        657970602.93252635     
   3955079505.8807082        8515782.7360467911        664590809.47019124     
   4131543733.6197376       -3595853.6417744160        788262355.88236737     
   4005741016.8417239        791688.26991844177        782273031.07149088     
   3879591289.7472215        4022529.1266493797        780305080.14641428     
   3753094552.3362293        6096668.9284145832        782358503.10713899     
   3626250804.6087451        7014107.6752195358        788433299.95367277     
   3762547478.2327585        2679252.1545403004        912861319.40677106     
   3646217534.6215320        2555759.4941873550        906085944.34869647     
   3530067197.1222024        3030953.8735010624        903616951.97281992     
   3414096465.7347746        4104835.2924823761        905454342.27914000     
   3298305340.4592471        5777403.7511332035        911598115.26765716     
   3391177216.5808744        8242156.0713806152        1034325064.4291964     
   3285134356.9832745        3851922.0930387974        1027378024.9570465     
   3179797719.9259615        1815763.2489851713        1025022376.9634918     
   3075167305.4089408        2133679.5392397642        1027258120.4485232     
   2971243113.4322057        4805670.9637898207        1034085255.4121509     
   3017432948.6640916        13092858.108758211        1152653590.9496443     
   2922491483.9269562        4680176.0664651394        1146149272.8965437     
   2828782858.1585011        376957.25310862064        1144521355.1184287     
   2736307071.3587236        183201.66867578030        1147769837.6152961     
   2645064123.5276256        4098909.3131748438        1155894720.3871503     
   3955079505.8807082        8515782.7360467911        664590809.47019124     
   3791074266.4063015       -333173.92214655876        651407416.84076643     
   3627165551.5418291       -8860381.8805527687        643631479.92561984     
   3463353361.2872910       -17065841.139170170        641262998.72474897     
   3299637695.6427007       -24949551.697983980        644301973.23815644     
   3626250804.6087451        7014107.6752195358        788433299.95367277     
   3476654217.1810474        412919.63522696495        775426292.76549852     
   3326947865.4258485       -6554149.4964418411        767576692.52554238     
   3177131749.3431349       -13887099.719824195        764884499.23381329     
   3027205868.9329128       -21585931.034889102        767349712.89030457     
   3298305340.4592471        5777403.7511332035        911598115.26765716     
   3162402980.0323849        1209656.8155838251        898526823.09371257     
   3026184566.3405752       -4411601.0031321049        890362889.10193753     
   2889650099.3838096       -11086369.705029607        887106313.29232275     
   2752799579.1620922       -18814649.290098906        888757095.66487598     
   2971243113.4322057        4805670.9637898207        1034085255.4121509     
   2848320554.9603086        2057037.6189171076        1020709007.8254166     
   2724875654.2860165       -2432736.4006029367        1011990069.6547986     
   2600908411.4093289       -8663651.0947754383        1007928440.9002849     
   2476418826.3302412       -16635706.463616729        1008524121.5618876     
   2645064123.5276256        4098909.3131748438        1155894720.3871503     
   2534406941.9648170        2955062.0452274084        1141972846.9606097     
   2423021129.2621713       -617555.68885803223        1132458234.1841290     
   2310906685.4196815       -6618943.8890783787        1127350882.0576932     
   2198063610.4373498       -15049102.555450439        1126650790.5813212     
   3299637695.6427007       -24949551.697983980        644301973.23815644     
   3209714833.9602399       -10007887.937301397        650593284.34502625     
   3120148766.2156672        6123088.9496774673        657345294.65773821     
   3030939492.4089842        23443378.962959647        664558004.17629027     
   2942087012.5401998        41952982.102548003        672231412.90068889     
   3027205868.9329128       -21585931.034889102        767349712.89030457     
   2938807317.9606853       -10013507.192869544        774049167.48177350     
   2851054612.4098296        3711734.7203783989        782237986.47189200     
   2763947752.2803378        19589794.704848409        791916169.86065018     
   2677486737.5722136        37620672.760534286        803083717.64804411     
   2752799579.1620922       -18814649.290098906        888757095.66487598     
   2668864382.3080988       -9729752.3443447351        896201920.47167945     
   2585864082.3589435        2471467.6175485849        906164774.86992216     
   2503798679.3146429        17789010.595612764        918645658.85960615     
   2422668173.1751847        36222876.589818001        933644572.44073749     
   2476418826.3302412       -16635706.463616729        1008524121.5618876     
   2399886027.0024719       -9156623.3917351961        1017051543.3147426     
   2324577176.0630283        2402287.6412228346        1029125659.8518355     
   2250492273.5119066        18041026.635261536        1044746471.1731733     
   2177631319.3491101        37759593.590379596        1063913977.2787493     
   2198063610.4373498       -15049102.555450439        1126650790.5813212     
   2131872252.0438075       -8294120.3350367546        1136598036.0109541     
   2067193893.5220654        3504194.7913722992        1151120641.4176285     
   2004028534.8721335        20345842.823813796        1170218606.8013420     
   1942376176.0939963        42230823.762242675        1193891932.1621013     
   2942087012.5401998        41952982.102548003        672231412.90068889     
   2745824506.2197213        29183444.666464925        643997519.42801678     
   2549827536.0887170        17299027.861961722        628996500.80440867     
   2354096102.1472082        6299731.6891081333        627228357.02987146     
   2158630204.3951707       -3814443.8521800041        638693088.10439944     
   2677486737.5722136        37620672.760534286        803083717.64804411     
   2513400513.9914684        33155212.842294455        776540348.73275495     
   2349190131.5967293        28275890.210748911        759598766.11022317     
   2184855590.3880043        22982704.865912437        752258969.78045619     
   2020396890.3652892        17275656.807766557        754520959.74343646     
   2422668173.1751847        36222876.589818001        933644572.44073749     
   2280383693.6018658        36949132.569734216        908337083.91210997     
   2137585360.2110825        35962542.491435170        889000293.11993837     
   1994273173.0028417        33263106.354941010        875634200.06421781     
   1850447131.9771402        28850824.160232663        868238804.74496198     
   2177631319.3491101        37759593.590379596        1063913977.2787493     
   2046774045.0509164        40565203.848768950        1039387724.9660772     
   1915013221.9317837        40358984.704030633        1017201081.8335481     
   1782348849.9917166        37140936.156188250        997354047.88116920     
   1648780929.2307179        30911058.205216944        979846623.10893083     
   1942376176.0939963        42230823.762242675        1193891932.1621013     
   1812571568.3386164        44003426.679391861        1169692271.8946567     
   1681473716.7588236        41465216.848516166        1144201132.2510548     
   1549082621.3546305        34616194.269629180        1117418513.2312930     
   1415398282.1260309        23456358.942721665        1089344414.8353658     
   3768278404.4140301        1130483521.3242090        800554028.84438431     
   3779119201.8506708        1008697140.1932068        884856744.75600374     
   3790573194.3387694        888954742.56706476        974075906.14965510     
   3802640381.8783264        771256328.44578195        1068211513.0253383     
   3815320764.4693408        655601897.82935953        1167263565.3830531     
   3207880629.1090484        962364188.73271441        756685229.88468409     
   3235888714.4275804        868204393.73732352        853063621.16968381     
   3263624426.8732238        773136689.16563714        951355807.00434983     
   3291087766.4459782        677161075.01765501        1051561787.3886831     
   3318278733.1458449        580277551.29337740        1153681562.3226817     
   2685706247.8099651        805711874.34298956        721977781.35689521     
   2722302618.3464870        736604964.68403959        829398685.43687069     
   2757741048.0857735        663638252.36763847        935730733.13414764     
   2792021537.0278254        586811737.39378631        1040973924.4487255     
   2825144085.1726413        506125419.76248270        1145128259.3806040     
   2201755260.5167799        660526578.15503395        696431683.26101768     
   2238360913.6073914        613898853.03335476        813861937.55756485     
   2272923057.9764194        560459432.17306852        927200684.53904748     
   2305441693.6238656        500208315.57417548        1036447924.2054659     
   2335916820.5497308        433145503.23667645        1141603656.5568197     
   1756027667.2294929        526808300.16884786        680046935.59705174     
   1784063600.2102911        500086058.78526878        806453377.53176594     
   1809170456.5451605        463600228.58192724        925765661.21905041     
   1831348236.2341015        417350809.55882370        1037983786.6589048     
   1850596939.2771134        361337801.71595734        1143107753.8513293     
   3815320764.4693408        655601897.82935953        1167263565.3830531     
   3797923298.0349383        537676929.46564472        1188897211.9312530     
   3784365043.3361096        432549333.55384314        1205667075.9501901     
   3774646000.3728547        340219110.09395754        1217573157.4398651     
   3768766169.1451750        260686259.08598661        1224615456.4002786     
   3318278733.1458449        580277551.29337740        1153681562.3226817     
   3293777651.3602924        473123059.24871075        1181984187.6116724     
   3273001676.2225122        378385589.36327744        1207200781.3938766     
   3255950807.7325006        296065141.63707697        1229331343.6692951     
   3242625045.8902578        226161716.07010996        1248375874.4379263     
   2825144085.1726413        506125419.76248270        1145128259.3806040     
   2798618676.6715865        411265190.62755901        1179966740.8079472     
   2775704269.7304959        328441633.35918534        1213496941.7509801     
   2756400864.3493729        257654747.95736372        1245718862.2097015     
   2740708460.5282130        198904534.42209339        1276632502.1841130     
   2335916820.5497308        433145503.23667645        1141603656.5568197     
   2312446373.9688163        352103323.60218775        1182844871.5200770     
   2292472823.8600645        282717465.54156882        1224555557.0214996     
   2275996170.2234716        224987929.05481899        1266735713.0610869     
   2263016413.0590391        178914714.14193857        1309385339.6388392     
   1850596939.2771134        361337801.71595734        1143107753.8513293     
   1835260743.2519860        295637458.17259902        1190618579.7480624     
   1823307338.6112142        241213085.91042656        1240376627.2054358     
   1814736725.3547986        198064684.92944241        1292381896.2234497     
   1809548903.4827399        166192255.22964686        1346634386.8021049     
   3768766169.1451750        260686259.08598661        1224615456.4002786     
   3661676215.4045610        168272027.19575632        1192317253.3012989     
   3562273416.4371338        101481644.54948270        1170346631.1950347     
   3470557772.2428942        60315111.147163630        1158703590.0814843     
   3386529282.8218398        44772426.988801003        1157388129.9606495     
   3242625045.8902578        226161716.07010996        1248375874.4379263     
   3164733362.2561703        151761457.13378429        1231411804.6518531     
   3092922908.1291671        97631963.221072793        1222423290.9656446     
   3027193683.5092478        63773234.331976414        1221410333.3793008     
   2967545688.3964138        50185270.466496348        1228372931.8928249     
   2740708460.5282130        198904534.42209339        1276632502.1841130     
   2685294975.8782253        140502227.10294414        1273128986.2338252     
   2634356795.4692206        97017600.587069869        1275249001.4905541     
   2587893919.3011975        68450654.874469638        1282992547.9542999     
   2545906347.3741579        54801389.965143561        1296359625.6250618     
   2263016413.0590391        178914714.14193857        1309385339.6388392     
   2223361056.2707267        134494337.10323894        1317468798.0472186     
   2186575078.4572945        99638556.647474647        1328823762.7697663     
   2152658479.6187401        74347372.774639130        1343450233.8064802     
   2121611259.7550673        58620785.484741688        1361348211.1573620     
   1809548903.4827399        166192255.22964686        1346634386.8021049     
   1778931603.4336751        133737787.13466775        1364431240.0920320     
   1749577757.0933871        105494831.40228093        1383147574.8032777     
   1721487364.4618781        81463388.032488704        1402783390.9358416     
   1694660425.5391467        61643457.025288999        1423338688.4897239     
   3386529282.8218398        44772426.988801003        1157388129.9606495     
   3294641502.3343034        38140211.608456373        1149985346.4499202     
   3202496186.4788327        30649545.001667619        1146728662.1111763     
   3110093335.2554293        22300427.168434858        1147618076.9444182     
   3017432948.6640916        13092858.108758211        1152653590.9496443     
   2967545688.3964138        50185270.466496348        1228372931.8928249     
   2885453162.1829538        39478597.124967217        1220132402.5638328     
   2803618736.0365682        29632257.340349674        1216220844.5724180     
   2722042409.9572577        20646251.112652183        1216638257.9185810     
   2640724183.9450197        12520578.441859007        1221384642.6023233     
   2545906347.3741579        54801389.965143561        1296359625.6250618     
   2474131567.3364663        40177006.232934594        1287882925.1519823     
   2403130522.8008580        28131740.840999722        1283918068.1820729     
   2332903213.7673302        18665593.789336920        1284465054.7153342     
   2263449640.2358851        11778565.077944398        1289523884.7517674     
   2121611259.7550673        58620785.484741688        1361348211.1573620     
   2060676717.7948394        40235438.932362199        1353236914.2143717     
   2001031546.7717016        26147995.503615022        1349820332.9401412     
   1942675746.6856503        16358455.198495507        1351098467.3346767     
   1885609317.5366914        10866818.017009497        1357071317.3979752     
   1694660425.5391467        61643457.025288999        1423338688.4897239     
   1645088613.5580740        39653895.223246098        1416194369.7509968     
   1597321807.9490983        23681021.328194618        1413927638.8466237     
   1551360008.7122197        13724835.340133250        1416538495.7766087     
   1507203215.8474376        9785337.2590600848        1424026940.5409467     
   3017432948.6640916        13092858.108758211        1152653590.9496443     
   2922491483.9269562        4680176.0664651394        1146149272.8965437     
   2828782858.1585011        376957.25310862064        1144521355.1184287     
   2736307071.3587236        183201.66867578030        1147769837.6152961     
   2645064123.5276256        4098909.3131748438        1155894720.3871503     
   2640724183.9450197        12520578.441859007        1221384642.6023233     
   2558829534.6075807        6061098.0605349541        1215874489.3927922     
   2477889391.3263793        2783304.5333362818        1215073208.9093549     
   2397903754.1014175        2687197.8602709770        1218980801.1520178     
   2318872622.9326916        5772778.0413266420        1227597266.1207762     
   2263449640.2358851        11778565.077944398        1289523884.7517674     
   2194123156.1584587        7128691.3156738281        1284683174.6546237     
   2125472845.2248318        4732728.0327378511        1284383809.7346885     
   2057498707.4350009        4590675.2291213274        1288625789.9919617     
   1990200742.7889700        6702532.9048373699        1297409115.4264419     
   1885609317.5366914        10866818.017009497        1357071317.3979752     
   1828372348.5795956        7882955.8318930864        1352575328.6820393     
   1771533219.8538599        6225227.7513098717        1352453157.5944264     
   1715091931.3594778        5893633.7752407789        1356704804.1351316     
   1659048483.0964584        6888173.9037103653        1365330268.3041525     
   1507203215.8474376        9785337.2590600848        1424026940.5409467     
   1461577111.8709903        8323891.6091921329        1419550951.4750433     
   1416070515.2134631        7260803.6890562177        1419281252.4885674     
   1370683425.8748510        6596073.4986351728        1423217843.5815225     
   1325415843.8551588        6329701.0379500389        1431360724.7539110     
   2645064123.5276256        4098909.3131748438        1155894720.3871503     
   2534406941.9648170        2955062.0452274084        1141972846.9606097     
   2423021129.2621713       -617555.68885803223        1132458234.1841290     
   2310906685.4196815       -6618943.8890783787        1127350882.0576932     
   2198063610.4373498       -15049102.555450439        1126650790.5813212     
   2318872622.9326916        5772778.0413266420        1227597266.1207762     
   2219832751.8565307        3527874.0404708385        1212271925.0544550     
   2120281542.4979677       -421490.90172123909        1201729806.0354033     
   2020218994.8570042       -6075316.7852492332        1195970909.0636141     
   1919645108.9336350       -13433603.610124826        1194995234.1390958     
   1990200742.7889700        6702532.9048373699        1297409115.4264419     
   1903852357.6200578        3678824.7972593307        1280933815.0540233     
   1817209927.0261812       -325034.72686254978        1269617698.1260841     
   1730273451.0073438       -5309045.6675183773        1263460764.6426196     
   1643042929.5635459       -11273208.024713278        1262463014.6036317     
   1659048483.0964584        6888173.9037103653        1365330268.3041525     
   1586465759.2553976        3407914.3155895472        1347958516.9593179     
   1513806282.8468125       -328187.16427868605        1336121910.4561698     
   1441070053.8707082       -4320130.5358751416        1329820448.7947109     
   1368257072.3270836       -8567915.7992111444        1329054131.9749379     
   1325415843.8551588        6329701.0379500389        1431360724.7539110     
   1267672956.7625523        2715142.5954642892        1413346030.7703369     
   1210070609.9598632       -430948.21396726370        1401242443.0256596     
   1152608803.4470932       -3108571.3903327584        1395049961.5198841     
   1095287537.2242460       -5317726.9336249232        1394768586.2530081     
   2198063610.4373498       -15049102.555450439        1126650790.5813212     
   2131872252.0438075       -8294120.3350367546        1136598036.0109541     
   2067193893.5220654        3504194.7913722992        1151120641.4176285     
   2004028534.8721335        20345842.823813796        1170218606.8013420     
   1942376176.0939963        42230823.762242675        1193891932.1621013     
   1919645108.9336350       -13433603.610124826        1194995234.1390958     
   1864700833.4836030       -5994375.4975833893        1206856942.7891562     
   1810998862.3349261        5585866.9528094530        1222636990.8282354     
   1758539195.4876060        21307123.741053224        1242335378.2563269     
   1707321832.9416416        41169394.867154777        1265952105.0734296     
   1643042929.5635459       -11273208.024713278        1262463014.6036317     
   1597468535.3769460       -3712894.5240607262        1275923374.9752719     
   1552865749.9212537        7086114.7462835908        1292645054.1478972     
   1509234573.1964674        21123819.786319554        1312628052.1215110     
   1466575005.2025962        38400220.596062899        1335872368.8961072     
   1368257072.3270836       -8567915.7992111444        1329054131.9749379     
   1330175357.7238355       -1449677.4144732952        1343797332.5692985     
   1292794556.2810473        8004938.1717923284        1361144831.3766177     
   1256114667.9987240        19795930.959609330        1381096628.3968921     
   1220135692.8768618        33923300.948966086        1403652723.6301296     
   1095287537.2242460       -5317726.9336249232        1394768586.2530081     
   1062821300.5242724        795275.83118009567        1410478815.5712354     
   1030785281.4143115        8342337.2293532491        1428136322.5143907     
   999179479.89436305        17323457.260906458        1447741107.0824823     
   968003895.96443415        27738635.925857842        1469293169.2754962     
   1942376176.0939963        42230823.762242675        1193891932.1621013     
   1812571568.3386164        44003426.679391861        1169692271.8946567     
   1681473716.7588236        41465216.848516166        1144201132.2510548     
   1549082621.3546305        34616194.269629180        1117418513.2312930     
   1415398282.1260309        23456358.942721665        1089344414.8353658     
   1707321832.9416416        41169394.867154777        1265952105.0734296     
   1577143483.4886529        37723450.039810777        1240177062.8153961     
   1445973432.0103593        30971831.794767678        1216610286.5687072     
   1313811678.5067523        20914540.132031441        1195251776.3333731     
   1180658222.9778326        7551575.0515771508        1176101532.1093817     
   1466575005.2025962        38400220.596062899        1335872368.8961072     
   1346022186.5877411        32735509.784954965        1308873743.4130945     
   1224779207.7466726        24770264.886465132        1287583129.3289404     
   1102846068.6793845        14504485.900576532        1272000526.6436362     
   980222769.38588369        1938172.8273076415        1262125935.3571911     
   1220135692.8768618        33923300.948966086        1403652723.6301296     
   1119207677.6358738        29039605.914807558        1375782313.6877513     
   1017891043.9677660        22860516.123580277        1357119660.5317314     
   916185791.87253392        15386031.575278699        1347664764.1620765     
   814091921.35018480        6616152.2699097693        1347417624.5787780     
   968003895.96443415        27738635.925857842        1469293169.2754962     
   896699956.63304806        26635738.429372668        1440902773.6393609     
   825308940.67363954        25242585.506143600        1425219880.1770928     
   753830848.08619726        23559177.156136811        1422244488.8886950     
   682265678.87073386        21585513.379392862        1431976599.7741652     
   1756027667.2294929        526808300.16884786        680046935.59705174     
   1784063600.2102911        500086058.78526878        806453377.53176594     
   1809170456.5451605        463600228.58192724        925765661.21905041     
   1831348236.2341015        417350809.55882370        1037983786.6589048     
   1850596939.2771134        361337801.71595734        1143107753.8513293     
   1326314015.8195238        397894204.74585718        669718372.20190954     
   1339567619.3205571        375520519.82218724        791873176.86734378     
   1350624415.3375897        345824143.28518236        908747604.07425618     
   1359484403.8706219        308805075.13484263        1020341653.8226459     
   1366147584.9196537        264463315.37116835        1126655326.1125135     
   890404854.15829301        267121456.24748790        662340826.91250360     
   894058359.00501144        250650997.03136230        781098308.33090758     
   896247325.52965784        229298743.40832931        896389193.07969725     
   896971753.73223174        203064695.37838882        1008213481.1588719     
   896231643.61273384        171948852.94154102        1116571172.5684323     
   448300182.24579990        134490054.67373997        657914299.72883391     
   447535819.26365417        125477490.41279382        774128771.92245722     
   446039187.12136453        114024028.95136763        888690428.23537338     
   443810285.81893086        100129670.28946161        1001599268.6675832     
   440849115.35635328        83794414.427075431        1112855293.2190855     
   8.2044776192671476E-002   2.4613432857801442E-002   656438790.65090048     
   9.6485302577224208E-002  -3.3518037246814687E-002   770964567.64199269     
  0.11271004733921557       -8.5702112759968724E-002   885651309.54128563     
  0.13071905051072580      -0.13193883371374085        1000499016.3487793     
  0.15051224918420023      -0.17222806285528464        1115507688.0644736     
   1850596939.2771134        361337801.71595734        1143107753.8513293     
   1835260743.2519860        295637458.17259902        1190618579.7480624     
   1823307338.6112142        241213085.91042656        1240376627.2054358     
   1814736725.3547986        198064684.92944241        1292381896.2234497     
   1809548903.4827399        166192255.22964686        1346634386.8021049     
   1366147584.9196537        264463315.37116835        1126655326.1125135     
   1360362129.7834256        216903065.26639864        1182039165.3966072     
   1357113768.1847031        177799793.61998075        1238336331.4718473     
   1356402500.1234865        147153500.43191576        1295546824.3382335     
   1358228325.5997746        124964185.70220113        1353670643.9957664     
   896231643.61273384        171948852.94154102        1116571172.5684323     
   896185801.45256341        141385357.90150854        1178841377.7518950     
   897831354.98304868        116459848.49699283        1240691014.9570086     
   901168304.20418811        97172324.727992773        1302120084.1837742     
   906196649.11598301        83522786.594509304        1363128585.4321909     
   440849115.35635328        83794414.427075431        1112855293.2190855     
   442731758.25939983        69084336.077928379        1181025216.8139243     
   445460099.00625020        57193250.541460201        1247440677.6609194     
   449034137.59690547        48121157.817675158        1312101675.7600718     
   453453874.03136450        41868057.906569332        1375008211.1113822     
  0.15051224918420023      -0.17222806285528464        1115507688.0644736     
  0.20393368770245224      -0.20434333026042217        1188590682.5826955     
  0.25430872494843443      -0.24661361551782099        1258585319.5835800     
  0.30163729086600644      -0.29903897867560136        1325491599.0671272     
  0.34591896654804311      -0.36161994872910913        1389309521.0333362     
   1809548903.4827399        166192255.22964686        1346634386.8021049     
   1778931603.4336751        133737787.13466775        1364431240.0920320     
   1749577757.0933871        105494831.40228093        1383147574.8032777     
   1721487364.4618781        81463388.032488704        1402783390.9358416     
   1694660425.5391467        61643457.025288999        1423338688.4897239     
   1358228325.5997746        124964185.70220113        1353670643.9957664     
   1332933272.3654695        99923711.156519175        1372780464.2285504     
   1308585809.4159935        78041870.893601239        1393353917.4630699     
   1285185936.7513478        59318664.913449228        1415391003.6993263     
   1262733654.3715303        43754093.216061890        1438891722.9373183     
   906196649.11598301        83522786.594509304        1363128585.4321909     
   887778561.49763012        66362721.238477916        1383182865.2798929     
   869992200.74015903        51308412.085385829        1405244929.7097492     
   852837566.84356928        38359859.135231942        1429314778.7217593     
   836314659.80786109        27517062.388016343        1455392412.3159227     
   453453874.03136450        41868057.906569332        1375008211.1113822     
   443467470.83015800        33054817.380548984        1395638443.2460618     
   433796931.06588465        25294454.977639303        1418820611.5433130     
   424442254.73854524        18586970.697841793        1444554716.0031366     
   415403441.84813917        12932364.541157141        1472840756.6255310     
  0.34591896654804311      -0.36161994872910913        1389309521.0333362     
  0.36305191911386869      -0.41727268389663918        1410147198.1270549     
  0.39317132425234036      -0.42963776423905886        1434080962.9637635     
  0.43627434826406553      -0.39872376805927129        1461110815.5434606     
  0.49236420801263303      -0.32452049289569040        1491236755.8661482     
   1694660425.5391467        61643457.025288999        1423338688.4897239     
   1645088613.5580740        39653895.223246098        1416194369.7509968     
   1597321807.9490983        23681021.328194618        1413927638.8466237     
   1551360008.7122197        13724835.340133250        1416538495.7766087     
   1507203215.8474376        9785337.2590600848        1424026940.5409467     
   1262733654.3715303        43754093.216061890        1438891722.9373183     
   1227152041.9691594        27741095.850690305        1435331391.2469656     
   1192924184.3404968        16240614.397680938        1436275956.5281794     
   1160050081.4855421        9252648.8570299745        1441725418.7809618     
   1128529733.4042976        6777199.2287464738        1451679778.0053124     
   836314659.80786109        27517062.388016343        1455392412.3159227     
   813658415.94765580        17161180.148356348        1454889607.4758234     
   791904675.26277030        9813641.8264296055        1458519008.7445035     
   771053437.75320423        5474447.4222335219        1466280616.1219633     
   751104703.41895819        4143596.9357723296        1478174429.6082034     
   415403441.84813917        12932364.541157141        1472840756.6255310     
   404607735.49356294        7914148.1162464321        1474869018.4375665     
   394263280.71591794        4400103.6144406050        1480656795.4955919     
   384370077.51520306        2390231.0357355922        1490204087.7996099     
   374928125.89142025        1884530.3801365197        1503510895.3496218     
  0.49236420801263303      -0.32452049289569040        1491236755.8661482     
  0.60688025118092415      -0.24564212843290426        1495269624.1321959     
  0.69994001437303233      -0.23828504416875640        1502689316.7814481     
  0.77153946578659305      -0.30246163861037634        1513495833.8139050     
  0.82168516496389299      -0.43815178134028443        1527689175.2295668     
   1507203215.8474376        9785337.2590600848        1424026940.5409467     
   1461577111.8709903        8323891.6091921329        1419550951.4750433     
   1416070515.2134631        7260803.6890562177        1419281252.4885674     
   1370683425.8748510        6596073.4986351728        1423217843.5815225     
   1325415843.8551588        6329701.0379500389        1431360724.7539110     
   1128529733.4042976        6777199.2287464738        1451679778.0053124     
   1094012987.8185561        5591964.6720699668        1447797413.9173660     
   1059585872.7269948        4705498.4293241501        1448190679.0290279     
   1025248388.1296103        4117800.5005012751        1452859573.3402956     
   991000534.02640402        3828870.8856071234        1461804096.8511710     
   751104703.41895819        4143596.9357723296        1478174429.6082034     
   727895427.99585736        3294007.0038681030        1474850834.2026851     
   704745906.24219501        2643595.9700925052        1475872207.1169517     
   681656138.15797043        2192363.8344425559        1481238548.3510020     
   658626123.74318504        1940310.5969234109        1490949857.9048350     
   374928125.89142025        1884530.3801365197        1503510895.3496218     
   363224432.40289325        1430018.6045867801        1500711212.3310037     
   351550615.75906497        1075096.3113652021        1502325836.7523448     
   339906675.95993358        819763.50046722591        1508354768.6136470     
   328292613.00550103        664020.17189925909        1518798007.9149101     
  0.82168516496389299      -0.43815178134028443        1527689175.2295668     
   1.0396640965719879      -0.52577486778257432        1525378548.3023157     
   1.2776024057373978      -0.54686565486639571        1527551567.9352026     
   1.5354997836412179      -0.50142725365626806        1534208234.1282277     
   1.8133555097060043      -0.38945998440883334        1545348546.8813891     
   1325415843.8551588        6329701.0379500389        1431360724.7539110     
   1267672956.7625523        2715142.5954642892        1413346030.7703369     
   1210070609.9598632       -430948.21396726370        1401242443.0256596     
   1152608803.4470932       -3108571.3903327584        1395049961.5198841     
   1095287537.2242460       -5317726.9336249232        1394768586.2530081     
   991000534.02640402        3828870.8856071234        1461804096.8511710     
   948685879.42663884        1415705.3074120879        1444531393.0117202     
   906476630.05950844       -646109.49533611536        1432938209.5745678     
   864372785.92501509       -2356573.5226255655        1427024546.5397091     
   822374347.02315581       -3715686.7744710445        1426790403.9071469     
   658626123.74318504        1940310.5969234109        1490949857.9048350     
   631078027.81739318        530035.73736014962        1474378153.3093462     
   603600202.06695437       -646005.20436137915        1463254383.2795510     
   576192646.49186563       -1587812.2282498181        1457578547.8154452     
   548855361.09212685       -2295385.3343020678        1457350646.9170334     
   328292613.00550103        664020.17189925909        1518798007.9149101     
   314849401.93481767        58133.885315999389        1502886311.6632161     
   301441325.98220009       -430635.34104672074        1492190964.1406100     
   288068385.14764768       -802287.50719292462        1486711965.3470914     
   274730579.43116343       -1056822.6131101400        1486449315.2826617     
   1.8133555097060043      -0.38945998440883334        1545348546.8813891     
   1.7789061890205458      -0.24874061144153359        1530055868.0733259     
   1.8052453305111176        9.4606968779200384E-002   1519747952.1577477     
   1.8923624915236523       0.64054777393412965        1514424799.1346529     
   2.0402620984624478        1.3890970791212904        1514086409.0040412     
   1095287537.2242460       -5317726.9336249232        1394768586.2530081     
   1062821300.5242724        795275.83118009567        1410478815.5712354     
   1030785281.4143115        8342337.2293532491        1428136322.5143907     
   999179479.89436305        17323457.260906458        1447741107.0824823     
   968003895.96443415        27738635.925857842        1469293169.2754962     
   822374347.02315581       -3715686.7744710445        1426790403.9071469     
   795130071.31329620        686.02334055304527        1443065488.3055925     
   768208458.78314710        4792602.7535174191        1461963256.6023433     
   741609509.43270659        10660063.416058481        1483483708.7974055     
   715333223.26197839        17603068.010969400        1507626844.8907773     
   548855361.09212685       -2295385.3343020678        1457350646.9170334     
   528762778.58203745       -396722.84057784081        1474065106.2503386     
   508885304.84135091        2218968.8844916224        1494077655.7553318     
   489222939.87007058        5551689.8409131467        1517388295.4320128     
   469775683.66819566        9601440.0286879838        1543997025.2803805     
   274730579.43116343       -1056822.6131101400        1486449315.2826617     
   263719422.33049047       -396950.76059561968        1503477669.4054751     
   252815819.58892256        621435.62226971984        1524479519.9733558     
   242019771.20645609        1998336.5354727209        1549454866.9862967     
   231331277.18308991        3733751.9790104032        1578403710.4443080     
   2.0402620984624478        1.3890970791212904        1514086409.0040412     
   2.5586670145265198        2.2633269800467302        1531303177.7710056     
   3.0258661418971222        2.9668702247712151        1553168849.2564147     
   3.4418628203935184        3.4997396807490997        1579683423.4602690     
   3.8066565467552724        3.8619312418327283        1610846900.3825645     
   968003895.96443415        27738635.925857842        1469293169.2754962     
   896699956.63304806        26635738.429372668        1440902773.6393609     
   825308940.67363954        25242585.506143600        1425219880.1770928     
   753830848.08619726        23559177.156136811        1422244488.8886950     
   682265678.87073386        21585513.379392862        1431976599.7741652     
   715333223.26197839        17603068.010969400        1507626844.8907773     
   674462058.41482270        20557932.291493952        1480166363.1039078     
   633525586.40238154        23295106.021062583        1462471799.1055806     
   592523807.22465432        25814589.199679822        1454543152.8957982     
   551456720.88163912        28116381.827339292        1456380424.4745324     
   469775683.66819566        9601440.0286879838        1543997025.2803805     
   450932766.49004006        14092708.041654721        1517491855.0493133     
   432046311.60933495        18438850.379457757        1497811018.2214518     
   413116319.02608234        22639867.042102367        1484954514.7968016     
   394142788.74028736        26695758.029601872        1478922344.7753463     
   231331277.18308991        3733751.9790104032        1578403710.4443080     
   226112080.85869333        7240065.6798296273        1552879249.4755781     
   220871116.29449400        10673818.581304908        1531237537.5247169     
   215608383.49048603        14035010.683420159        1513478574.5917342     
   210323882.44667721        17323641.986193620        1499602360.6766174     
   3.8066565467552724        3.8619312418327283        1610846900.3825645     
   1.5207970414123890        5.2060696413177121        1586328546.3826916     
  0.45786387501924386        10.626627782856374        1562751357.0153635     
  0.61786564875421313        20.123638847324344        1540115332.2805781     
   2.0008033691381737        33.697099597841991        1518420472.1783304     
   8.2044776192671476E-002   2.4613432857801442E-002   656438790.65090048     
   9.6485302577224208E-002  -3.3518037246814687E-002   770964567.64199269     
  0.11271004733921557       -8.5702112759968724E-002   885651309.54128563     
  0.13071905051072580      -0.13193883371374085        1000499016.3487793     
  0.15051224918420023      -0.17222806285528464        1115507688.0644736     
  -448300182.08783233       -134490054.62634969        657914299.68035209     
  -447535819.07449859       -125477490.47335292        774128771.87341511     
  -446039186.89808083       -114024029.11007518        888690428.18562663     
  -443810285.55857867       -100129670.53651653        1001599268.6169876     
  -440849115.05599225       -83794414.752677023        1112855293.1674974     
  -890404854.01869106       -267121456.20560732        662340826.81883800     
  -894058358.83232641       -250650997.08924091        781098308.23538804     
  -896247325.32157719       -229298743.55825984        896389192.98203552     
  -896971753.48644376       -203064695.61266431        1008213481.0587801     
  -896231643.32692611       -171948853.25245416        1116571172.4656222     
  -1326314015.7105317       -397894204.71315950        669718372.06635785     
  -1339567619.1769979       -375520519.88118190        791873176.72791195     
  -1350624415.1577795       -345824143.43025619        908747603.93051159     
  -1359484403.6528769       -308805075.36038244        1020341653.6741571     
  -1366147584.6622891       -264463315.67156044        1126655325.9588482     
  -1756027667.1633542       -526808300.14900625        680046935.42291188     
  -1784063600.1085131       -500086058.84917617        806453377.35098672     
  -1809170456.4066870       -463600228.72606432        925765661.03105533     
  -1831348236.0578773       -417350809.77967095        1037983786.4631181     
  -1850596939.0620823       -361337802.00999570        1143107753.6471748     
  0.15051224918420023      -0.17222806285528464        1115507688.0644736     
  0.20393368770245224      -0.20434333026042217        1188590682.5826955     
  0.25430872494843443      -0.24661361551782099        1258585319.5835800     
  0.30163729086600644      -0.29903897867560136        1325491599.0671272     
  0.34591896654804311      -0.36161994872910913        1389309521.0333362     
  -440849115.05599225       -83794414.752677023        1112855293.1674974     
  -442731757.85446846       -69084336.465781614        1181025216.7499197     
  -445460098.50171632       -57193251.008125648        1247440677.5822947     
  -449034136.99773628       -48121158.379709646        1312101675.6646218     
  -453453873.34252810       -41868058.580532327        1375008210.9969008     
  -896231643.32692611       -171948853.25245416        1116571172.4656222     
  -896185801.07075799       -141385358.27458632        1178841377.6255660     
  -897831354.50908685       -116459848.94504255        1240691014.8027520     
  -901168303.64191210       -97172325.263820797        1302120083.9971788     
  -906196648.46923554       -83522787.230923861        1363128585.2088497     
  -1366147584.6622891       -264463315.67156044        1126655325.9588482     
  -1360362129.4449346       -216903065.63075796        1182039165.2096334     
  -1357113767.7678018       -177799794.05736133        1238336331.2449503     
  -1356402499.6308918       -147153500.95137393        1295546824.0647993     
  -1358228325.0342033       -124964186.31279260        1353670643.6691806     
  -1850596939.0620823       -361337802.00999570        1143107753.6471748     
  -1835260742.9769983       -295637458.53429371        1190618579.5021224     
  -1823307338.2778618       -241213086.34508431        1240376626.9088917     
  -1814736724.9646721       -198064685.44236571        1292381895.8674827     
  -1809548903.0374308       -166192255.82614005        1346634386.3778951     
  0.34591896654804311      -0.36161994872910913        1389309521.0333362     
  0.36305191911386869      -0.41727268389663918        1410147198.1270549     
  0.39317132425234036      -0.42963776423905886        1434080962.9637635     
  0.43627434826406553      -0.39872376805927129        1461110815.5434606     
  0.49236420801263303      -0.32452049289569040        1491236755.8661482     
  -453453873.34252810       -41868058.580532327        1375008210.9969008     
  -443467470.10248446       -33054818.159499392        1395638443.1455126     
  -433796930.27977300       -25294455.796240658        1418820611.4587536     
  -424442253.87439758       -18586971.490768149        1444554715.9366257     
  -415403440.88635528       -12932365.243072599        1472840756.5791252     
  -906196648.46923554       -83522787.230923861        1363128585.2088497     
  -887778560.80159402       -66362721.971798062        1383182865.0769811     
  -869992199.98160481       -51308412.871513069        1405244929.5313830     
  -852837566.00926912       -38359859.930074006        1429314778.5720556     
  -836314658.88458622       -27517063.147476077        1455392412.1989982     
  -1358228325.0342033       -124964186.31279260        1353670643.6691806     
  -1332933271.7342768       -99923711.854168653        1372780463.9214594     
  -1308585808.7123220       -78041871.655450284        1393353917.1816509     
  -1285185935.9683390       -59318665.716636956        1415391003.4497526     
  -1262733653.5023286       -43754094.037733972        1438891722.7257650     
  -1809548903.0374308       -166192255.82614005        1346634386.3778951     
  -1778931602.9005322       -133737787.80661070        1364431239.6789508     
  -1749577756.4719253       -105494832.14805210        1383147574.4095578     
  -1721487363.7516091       -81463388.850465477        1402783390.5697162     
  -1694660424.7395835       -61643457.913845658        1423338688.1594255     
  0.49236420801263303      -0.32452049289569040        1491236755.8661482     
  0.60688025118092415      -0.24564212843290426        1495269624.1321959     
  0.69994001437303233      -0.23828504416875640        1502689316.7814481     
  0.77153946578659305      -0.30246163861037634        1513495833.8139050     
  0.82168516496389299      -0.43815178134028443        1527689175.2295668     
  -415403440.88635528       -12932365.243072599        1472840756.5791252     
  -404607734.31797475       -7914148.7107116133        1474869018.3421118     
  -394263279.35826218       -4400104.2072443217        1480656795.3509860     
  -384370076.00722140       -2390231.7326818109        1490204087.6057475     
  -374928124.26484978       -1884531.2870167047        1503510895.1063967     
  -836314658.88458622       -27517063.147476077        1455392412.1989982     
  -813658414.82610536       -17161180.850764602        1454889607.2738421     
  -791904673.96350491       -9813642.5403225124        1458519008.4572573     
  -771053436.29678500       -5474448.2161486447        1466280615.7492425     
  -751104701.82594621       -4143597.8782442510        1478174429.1497972     
  -1262733653.5023286       -43754094.037733972        1438891722.7257650     
  -1227152040.9175100       -27741096.665800273        1435331390.9273868     
  -1192924183.1157832       -16240615.237506330        1436275956.1002636     
  -1160050080.0971479       -9252649.7528507113        1441725418.2443933     
  -1128529731.8616071       -6777200.2118415833        1451679777.3597746     
  -1694660424.7395835       -61643457.913845658        1423338688.1594255     
  -1645088612.5921900       -39653896.155818522        1416194369.3027458     
  -1597321806.8151011       -23681022.298805714        1413927638.2800035     
  -1551360007.4083149       -13724836.342801571        1416538495.0911961     
  -1507203214.3718326       -9785338.2878114581        1424026939.7363255     
  0.82168516496389299      -0.43815178134028443        1527689175.2295668     
   1.0396640965719879      -0.52577486778257432        1525378548.3023157     
   1.2776024057373978      -0.54686565486639571        1527551567.9352026     
   1.5354997836412179      -0.50142725365626806        1534208234.1282277     
   1.8133555097060043      -0.38945998440883334        1545348546.8813891     
  -374928124.26484978       -1884531.2870167047        1503510895.1063967     
  -363224430.33070028       -1430019.6238810569        1500711212.1199453     
  -351550613.20990622       -1075097.3385981917        1502325836.5663922     
  -339906672.90246505       -819764.43115699291        1508354768.4457333     
  -328292609.40837967       -664020.90156847239        1518798007.7579720     
  -751104701.82594621       -4143597.8782442510        1478174429.1497972     
  -727895425.96774793       -3294008.0019951463        1474850833.7986183     
  -704745903.75621593       -2643596.9479691386        1475872206.7530932     
  -681656135.19135094       -2192364.7161646783        1481238548.0132208     
  -658626120.27315319       -1940311.3065851033        1490949857.5790055     
  -1128529731.8616071       -6777200.2118415833        1451679777.3597746     
  -1094012985.8714797       -5591965.6601180434        1447797413.3383319     
  -1059585870.3613290       -4705499.3749837875        1448190678.4953036     
  -1025248385.3311582       -4117801.3564495444        1452859572.8306873     
  -991000530.78096890       -3828871.6045194268        1461804096.3444824     
  -1507203214.3718326       -9785338.2878114581        1424026939.7363255     
  -1461577110.0418909       -8323892.5982339382        1419550950.7390904     
  -1416070513.0252416       -7260804.6196319461        1419281251.7930262     
  -1370683423.3218868       -6596074.3520093560        1423217842.8981326     
  -1325415840.9318223       -6329701.7953583002        1431360724.0544116     
   1.8133555097060043      -0.38945998440883334        1545348546.8813891     
   1.7789061890205458      -0.24874061144153359        1530055868.0733259     
   1.8052453305111176        9.4606968779200384E-002   1519747952.1577477     
   1.8923624915236523       0.64054777393412965        1514424799.1346529     
   2.0402620984624478        1.3890970791212904        1514086409.0040412     
  -328292609.40837967       -664020.90156847239        1518798007.7579720     
  -314849398.40526962       -58134.362395465374        1502886311.6185145     
  -301441322.39746201        430635.52577188611        1492190964.2158237     
  -288068381.38495392        802288.76293897629        1486711965.5498943     
  -274730575.36774856        1056825.3490978330        1486449315.6207321     
  -658626120.27315319       -1940311.3065851033        1490949857.5790055     
  -631078024.39168894       -530036.21673417091        1474378153.2093914     
  -603600198.56160927        646005.36850190163        1463254383.4208219     
  -576192642.78291011        1587813.4491350353        1457578548.2132976     
  -548855357.05559731        2295388.0251471698        1457350647.5868170     
  -991000530.78096890       -3828871.6045194268        1461804096.3444824     
  -948685876.18034637       -1415705.8117389083        1444531392.8459499     
  -906476626.68719435        646109.62280368805        1432938209.7727425     
  -864372782.30150628        2356574.6991340518        1427024547.1248593     
  -822374343.02328324        3715689.4172469378        1426790404.9023013     
  -1325415840.9318223       -6329701.7953583002        1431360724.0544116     
  -1267672953.7712433       -2715143.1474189162        1413346030.5281954     
  -1210070606.7742205        430948.28866732121        1401242443.2715840     
  -1152608799.9407361        3108572.5129572153        1395049962.2845786     
  -1095287533.2708080        5317729.5253952146        1394768587.5671775     
   2.0402620984624478        1.3890970791212904        1514086409.0040412     
   2.5586670145265198        2.2633269800467302        1531303177.7710056     
   3.0258661418971222        2.9668702247712151        1553168849.2564147     
   3.4418628203935184        3.4997396807490997        1579683423.4602690     
   3.8066565467552724        3.8619312418327283        1610846900.3825645     
  -274730575.36774856        1056825.3490978330        1486449315.6207321     
  -263719417.28766954        396955.29799956083        1503477669.6258078     
  -252815813.61193389       -621429.43424598873        1524479520.0195727     
  -242019764.34053424       -1998328.8476091623        1549454866.8020251     
  -231331269.47347489       -3733742.9421070516        1578403709.9731691     
  -548855357.05559731        2295388.0251471698        1457350647.5868170     
  -528762773.78457427        396727.33750337362        1474065106.7513466     
  -508885299.27102798       -2218962.5417308509        1494077655.9748080     
  -489222933.51495856       -5551681.6125529706        1517388295.2571995     
  -469775676.51636434       -9601429.8749611378        1543997024.5985296     
  -822374343.02328324        3715689.4172469378        1426790404.9023013     
  -795130066.93204856       -681.61816614866257        1443065489.1476209     
  -768208453.95142341       -4792596.3556108475        1461963257.1221201     
  -741609504.08141339       -10660054.795105875        1483483708.8257918     
  -715333217.32201827       -17603056.936650336        1507626844.2586448     
  -1095287533.2708080        5317729.5253952146        1394768587.5671775     
  -1062821296.7300909       -795271.56899946928        1410478816.8146317     
  -1030785277.6531223       -8342330.8758894801        1428136323.4615088     
  -999179476.03990543       -17323448.395284295        1447741107.5078063     
  -968003891.89043427       -27738624.127168179        1469293168.9535217     
   3.8066565467552724        3.8619312418327283        1610846900.3825645     
   1.5207970414123890        5.2060696413177121        1586328546.3826916     
  0.45786387501924386        10.626627782856374        1562751357.0153635     
  0.61786564875421313        20.123638847324344        1540115332.2805781     
   2.0008033691381737        33.697099597841991        1518420472.1783304     
  -231331269.47347489       -3733742.9421070516        1578403709.9731691     
  -226112077.78571209       -7240054.3033763692        1552879251.2572281     
  -220871116.07579908       -10673798.924145333        1531237541.5897093     
  -215608384.34373689       -14034976.804414906        1513478580.9706008     
  -210323882.58952436       -17323587.944184512        1499602369.3999088     
  -469775676.51636434       -9601429.8749611378        1543997024.5985296     
  -450932763.95248407       -14092695.870879576        1517491858.0989475     
  -432046312.56724179       -18438832.462258622        1497811025.0636499     
  -413116322.36062717       -22639839.649059847        1484954525.4926462     
  -394142793.33264554       -26695717.431313306        1478922359.3859193     
  -715333217.32201827       -17603056.936650336        1507626844.2586448     
  -674462056.97953045       -20557919.496479273        1480166366.9078398     
  -633525589.01645684       -23295089.987687171        1462471807.4371881     
  -592523813.43279898       -25814568.410283506        1454543165.8466971     
  -551456730.22856033       -28116354.764276832        1456380442.1363719     
  -968003891.89043427       -27738624.127168179        1469293168.9535217     
  -896699956.86684227       -26635725.180145234        1440902777.6839077     
  -825308945.42345333       -25242571.500465155        1425219888.7103238     
  -753830857.56026042       -23559163.088106126        1422244502.0327761     
  -682265693.27726674       -21585499.943077922        1431976617.6512547     
  -1756027667.1633542       -526808300.14900625        680046935.42291188     
  -1784063600.1085131       -500086058.84917617        806453377.35098672     
  -1809170456.4066870       -463600228.72606432        925765661.03105533     
  -1831348236.0578773       -417350809.77967095        1037983786.4631181     
  -1850596939.0620823       -361337802.00999570        1143107753.6471748     
  -2201755260.4976521       -660526578.14929557        696431683.05408239     
  -2238360913.5499358       -613898853.09106481        813861937.34507453     
  -2272923057.8809361       -560459432.29522061        927200684.31896114     
  -2305441693.4906526       -500208315.76176399        1036447923.9757417     
  -2335916820.3790846       -433145503.49069357        1141603656.3154166     
  -2685706247.8339200       -805711874.35017598        721977781.12545180     
  -2722302618.3336139       -736604964.73562992        829398685.19937754     
  -2757741048.0377240       -663638252.46913910        935730732.88709748     
  -2792021536.9462514       -586811737.55070400        1040973924.1886121     
  -2825144085.0591965       -506125419.98032421        1145128259.1039209     
  -3207880629.1721568       -962364188.75164700        756685229.63702059     
  -3235888714.4595461       -868204393.78287125        853063620.91389549     
  -3263624426.8770523       -773136689.24781954        951355806.73546541     
  -3291087766.4246769       -677161075.14649177        1051561787.1017294     
  -3318278733.1024175       -580277551.47888768        1153681562.0126886     
  -3768278404.5123634       -1130483521.3537090        800554028.58878803     
  -3779119201.9277329       -1008697140.2327890        884856744.48862851     
  -3790573194.3989210       -888954742.63126183        974075905.86406374     
  -3802640381.9259262       -771256328.54912698        1068211512.7150939     
  -3815320764.5087476       -655601897.98638427        1167263565.0417190     
  -1850596939.0620823       -361337802.00999570        1143107753.6471748     
  -1835260742.9769983       -295637458.53429371        1190618579.5021224     
  -1823307338.2778618       -241213086.34508431        1240376626.9088917     
  -1814736724.9646721       -198064685.44236571        1292381895.8674827     
  -1809548903.0374308       -166192255.82614005        1346634386.3778951     
  -2335916820.3790846       -433145503.49069357        1141603656.3154166     
  -2312446373.7594466       -352103323.92296082        1182844871.2319224     
  -2292472823.6121421       -282717465.92967439        1224555556.6788709     
  -2275996169.9371724       -224987929.51083249        1266735712.6562626     
  -2263016412.7345357       -178914714.66643846        1309385339.1640980     
  -2825144085.0591965       -506125419.98032421        1145128259.1039209     
  -2798618676.5375147       -411265190.91031414        1179966740.4812014     
  -2775704269.5745540       -328441633.70270348        1213496941.3675458     
  -2756400864.1703129       -257654748.35749209        1245718861.7629557     
  -2740708460.3247900       -198904534.87468088        1276632501.6674297     
  -3318278733.1024175       -580277551.47888768        1153681562.0126886     
  -3293777651.3112030       -473123059.49635267        1181984187.2499592     
  -3273001676.1650944       -378385589.66417181        1207200780.9749157     
  -3255950807.6640930       -296065141.98234499        1229331343.1875584     
  -3242625045.8081956       -226161716.45086908        1248375873.8878865     
  -3815320764.5087476       -655601897.98638427        1167263565.0417190     
  -3797923298.0805111       -537676929.68107831        1188897211.5381963     
  -3784365043.3837662       -432549333.81407881        1205667075.5009809     
  -3774646000.4185128       -340219110.38538635        1217573156.9300737     
  -3768766169.1847515       -260686259.39500272        1224615455.8254728     
  -1809548903.0374308       -166192255.82614005        1346634386.3778951     
  -1778931602.9005322       -133737787.80661070        1364431239.6789508     
  -1749577756.4719253       -105494832.14805210        1383147574.4095578     
  -1721487363.7516091       -81463388.850465477        1402783390.5697162     
  -1694660424.7395835       -61643457.913845658        1423338688.1594255     
  -2263016412.7345357       -178914714.66643846        1309385339.1640980     
  -2223361055.8384981       -134494337.68360472        1317468797.5778847     
  -2186575077.9225941       -99638557.301218510        1328823762.3083880     
  -2152658478.9868288       -74347373.519292593        1343450233.3556082     
  -2121611259.0311987       -58620786.337820530        1361348210.7195444     
  -2740708460.3247900       -198904534.87468088        1276632501.6674297     
  -2685294975.5634246       -140502227.59668171        1273128985.7101271     
  -2634356795.0540395       -97017601.158618808        1275249000.9567065     
  -2587893918.7966375       -68450655.560497880        1282992547.4071696     
  -2545906346.7912154       -54801390.802314162        1296359625.0615127     
  -3242625045.8081956       -226161716.45086908        1248375873.8878865     
  -3164733362.0753155       -151761457.54584944        1231411804.0756764     
  -3092922907.8662620       -97631963.720254064        1222423290.3545136     
  -3027193683.1810350       -63773234.974079370        1221410332.7243977     
  -2967545688.0196366       -50185271.307329893        1228372931.1853297     
  -3768766169.1847515       -260686259.39500272        1224615455.8254728     
  -3661676215.3741703       -168272027.53110874        1192317252.6745348     
  -3562273416.3592606       -101481644.98611724        1170346630.5018082     
  -3470557772.1400242       -60315111.760039091        1158703589.3072956     
  -3386529282.7164593       -44772427.852867126        1157388129.0909958     
  -1694660424.7395835       -61643457.913845658        1423338688.1594255     
  -1645088612.5921900       -39653896.155818522        1416194369.3027458     
  -1597321806.8151011       -23681022.298805714        1413927638.2800035     
  -1551360007.4083149       -13724836.342801571        1416538495.0911961     
  -1507203214.3718326       -9785338.2878114581        1424026939.7363255     
  -2121611259.0311987       -58620786.337820530        1361348210.7195444     
  -2060676716.9233637       -40235439.871768713        1353236913.6400628     
  -2001031545.7438033       -26147996.499958515        1349820332.2251325     
  -1942675745.4925129       -16358456.222384453        1351098466.4747524     
  -1885609316.1694913       -10866819.039041519        1357071316.3889239     
  -2545906346.7912154       -54801390.802314162        1296359625.0615127     
  -2474131566.6354723       -40177007.202001929        1287882924.4416001     
  -2403130521.9659672       -28131741.889149666        1283918067.3168533     
  -2332903212.7826996       -18665594.863754630        1284465053.6872706     
  -2263449639.0856719       -11778566.125825405        1289523883.5528555     
  -2967545688.0196366       -50185271.307329893        1228372931.1853297     
  -2885453161.7285123       -39478598.146510601        1220132401.7073576     
  -2803618735.4815950       -29632258.466380715        1216220843.5551665     
  -2722042409.2788815       -20646252.266930580        1216638256.7287550     
  -2640724183.1203737       -12520579.548165441        1221384641.2281237     
  -3386529282.7164593       -44772427.852867126        1157388129.0909958     
  -3294641502.2024860       -38140212.705303907        1149985345.4373374     
  -3202496186.2906842       -30649546.231649876        1146728660.9400728     
  -3110093334.9810534       -22300428.431898832        1147618075.5992017     
  -3017432948.2736011       -13092859.306066275        1152653589.4147260     
  -1507203214.3718326       -9785338.2878114581        1424026939.7363255     
  -1461577110.0418909       -8323892.5982339382        1419550950.7390904     
  -1416070513.0252416       -7260804.6196319461        1419281251.7930262     
  -1370683423.3218868       -6596074.3520093560        1423217842.8981326     
  -1325415840.9318223       -6329701.7953583002        1431360724.0544116     
  -1885609316.1694913       -10866819.039041519        1357071316.3889239     
  -1828372346.9163206       -7882956.8052669764        1352575327.7108564     
  -1771533217.8966064       -6225228.6830129623        1352453156.6431346     
  -1715091929.1103454       -5893634.6722731590        1356704803.1857564     
  -1659048480.5575390       -6888174.7730423212        1365330267.3387229     
  -2263449639.0856719       -11778566.125825405        1289523883.5528555     
  -2194123154.7402072       -7128692.2971392870        1284683173.4537675     
  -2125472843.5483606       -4732728.9805088043        1284383808.5241983     
  -2057498705.5101280       -4590676.1759276390        1288625788.7641480     
  -1990200740.6255131       -6702533.8834034204        1297409114.1736124     
  -2640724183.1203737       -12520579.548165441        1221384641.2281237     
  -2558829533.5135498       -6061099.0738490820        1215874487.9678276     
  -2477889389.9805021       -2783305.5121183395        1215073207.4362237     
  -2397903752.5212331       -2687198.8629871607        1218980799.6333086     
  -2318872621.1357422       -5772779.1264411211        1227597264.5590847     
  -3017432948.2736011       -13092859.306066275        1152653589.4147260     
  -2922491483.2363491       -4680177.1353923082        1146149271.2530327     
  -2828782857.1930361       -376958.27785098553        1144521353.3792033     
  -2736307070.1436615       -183202.73343312740        1147769835.7932377     
  -2645064122.0882273       -4098910.5021555424        1155894718.4951370     
  -1325415840.9318223       -6329701.7953583002        1431360724.0544116     
  -1267672953.7712433       -2715143.1474189162        1413346030.5281954     
  -1210070606.7742205        430948.28866732121        1401242443.2715840     
  -1152608799.9407361        3108572.5129572153        1395049962.2845786     
  -1095287533.2708080        5317729.5253952146        1394768587.5671775     
  -1659048480.5575390       -6888174.7730423212        1365330267.3387229     
  -1586465756.5902817       -3407915.0184177160        1347958516.5977600     
  -1513806279.9295378        328187.04782885313        1336121910.7215555     
  -1441070050.5752978        4320131.4257308245        1329820449.7101090     
  -1368257068.5275710        8567918.1152531505        1329054133.5634222     
  -1990200740.6255131       -6702533.8834034204        1297409114.1736124     
  -1903852355.2939932       -3678825.6548134089        1280933814.5511167     
  -1817209924.4119465        325034.40886604786        1269617698.3885317     
  -1730273447.9793699        5309046.3076480627        1263460765.6858611     
  -1643042925.9962635        11273210.041530728        1262463016.4431012     
  -2318872621.1357422       -5772779.1264411211        1227597264.5590847     
  -2219832749.8823810       -3527875.0566176176        1212271924.3882661     
  -2120281540.2214484        421490.37177217007        1201729806.2725127     
  -2020218992.1529493        6075317.1587195396        1195970910.2118263     
  -1919645105.6768806        13433605.304231644        1194995236.2062073     
  -2645064122.0882273       -4098910.5021555424        1155894718.4951370     
  -2534406940.3554382       -2955063.2238163948        1141972846.1092079     
  -2423021127.3580418        617554.93655061722        1132458234.3735006     
  -2310906683.0960426        6618943.9789261818        1127350883.2880113     
  -2198063607.5694256        15049103.903357625        1126650792.8527453     
  -1095287533.2708080        5317729.5253952146        1394768587.5671775     
  -1062821296.7300909       -795271.56899946928        1410478816.8146317     
  -1030785277.6531223       -8342330.8758894801        1428136323.4615088     
  -999179476.03990543       -17323448.395284295        1447741107.5078063     
  -968003891.89043427       -27738624.127168179        1469293168.9535217     
  -1368257068.5275710        8567918.1152531505        1329054133.5634222     
  -1330175354.6104503        1449681.2741510868        1343797334.2797828     
  -1292794553.6668859       -8004932.1454806924        1361144833.0585780     
  -1256114665.6968846       -19795922.143655062        1381096629.8998134     
  -1220135690.7004459       -33923288.720365763        1403652724.8034904     
  -1643042925.9962635        11273210.041530728        1262463016.4431012     
  -1597468532.8083978        3712898.0220268369        1275923377.2002480     
  -1552865748.1039057       -7086108.9420518279        1292645056.6828535     
  -1509234571.8827834       -21123810.850694895        1312628054.8909147     
  -1466575004.1450386       -38400207.703931093        1335872371.8244321     
  -1919645105.6768806        13433605.304231644        1194995236.2062073     
  -1864700831.3239374        5994378.6746242046        1206856945.5760329     
  -1810998860.9641814       -5585861.2656064034        1222636994.3343294     
  -1758539194.5976000       -21307114.516420007        1242335382.4811034     
  -1707321832.2242041       -41169381.077858269        1265952110.0163496     
  -2198063607.5694256        15049103.903357625        1126650792.8527453     
  -2131872250.1570666        8294123.2319478989        1136598039.4071350     
  -2067193892.2477057       -3504189.1161173582        1151120646.0130136     
  -2004028533.8413324       -20345833.140813231        1170218612.6703885     
  -1942376174.9379637       -42230808.842187047        1193891939.3792498     
  -968003891.89043427       -27738624.127168179        1469293168.9535217     
  -896699956.86684227       -26635725.180145234        1440902777.6839077     
  -825308945.42345333       -25242571.500465155        1425219888.7103238     
  -753830857.56026042       -23559163.088106126        1422244502.0327761     
  -682265693.27726674       -21585499.943077922        1431976617.6512547     
  -1220135690.7004459       -33923288.720365763        1403652724.8034904     
  -1119207679.4678969       -29039592.176055670        1375782318.9721005     
  -1017891050.4814593       -22860503.118781984        1357119670.0214279     
  -916185803.74111891       -15386021.548502445        1347664777.9514720     
  -814091939.24688518       -6616147.4652479291        1347417642.7622283     
  -1466575004.1450386       -38400207.703931093        1335872371.8244321     
  -1346022189.3187294       -32735495.346916080        1308873749.6543827     
  -1224779215.4044271       -24770252.696589947        1287583138.9497337     
  -1102846082.4021378       -14504479.752958298        1272000539.7104826     
  -980222790.31184649       -1938176.5160142779        1262125951.9366302     
  -1707321832.2242041       -41169381.077858269        1265952110.0163496     
  -1577143486.4193280       -37723434.692691207        1240177069.7307553     
  -1445973440.1923568       -30971820.233875275        1216610295.4952402     
  -1313811693.5433052       -20914537.701456368        1195251787.3098118     
  -1180658246.4721591       -7551587.0953892469        1176101545.1744599     
  -1942376174.9379637       -42230808.842187047        1193891939.3792498     
  -1812571570.7697020       -44003410.213409066        1169692279.2012198     
  -1681473724.8452580       -41465205.730679452        1144201139.6579535     
  -1549082637.1646223       -34616195.393992841        1117418520.7494555     
  -1415398307.7278101       -23456379.203365743        1089344422.4757156     
  -3768278404.5123634       -1130483521.3537090        800554028.58878803     
  -3779119201.9277329       -1008697140.2327890        884856744.48862851     
  -3790573194.3989210       -888954742.63126183        974075905.86406374     
  -3802640381.9259262       -771256328.54912698        1068211512.7150939     
  -3815320764.5087476       -655601897.98638427        1167263565.0417190     
  -4339764717.0713367       -1301929415.1214011        858735063.43210602     
  -4335233401.2778711       -1125726666.1002154        942348236.58166504     
  -4331842345.3010550       -953324783.13452935        1020312043.3623646     
  -4329591549.1408892       -784723766.22434378        1092626483.7742040     
  -4328481012.7973728       -619923615.36965775        1159291557.8171844     
  -4895204710.0658760       -1468561413.0197628        936379219.61832559     
  -4905489314.9048738       -1246998706.2507007        1018687941.1299660     
  -4917441244.3213530       -1030993748.0732460        1084781484.4282916     
  -4931060498.3153162       -820546538.48739934        1134659849.5133030     
  -4946347076.8867579       -615657077.49316001        1168323036.3850009     
  -5434598383.4959803       -1630379515.0487940        1033486497.1474469     
  -5489886942.8087387       -1372513260.6842446        1113875858.1335304     
  -5547369891.4598122       -1121961637.4474106        1167484229.0618451     
  -5607047229.4492016       -878724645.33829296        1194311609.9323912     
  -5668918956.7769060       -642802284.35689044        1194358000.7451677     
  -5957945737.3616486       -1787383721.2084944        1150056896.0194697     
  -6088426284.9894695       -1502270329.4008486        1227911987.5923591     
  -6221628286.7164354       -1226228451.2570250        1268420277.2630253     
  -6357551742.5425501       -959258086.77702546        1271581765.0314677     
  -6496196652.4678116       -701359235.96084809        1237396450.8976865     
  -3815320764.5087476       -655601897.98638427        1167263565.0417190     
  -3797923298.0805111       -537676929.68107831        1188897211.5381963     
  -3784365043.3837662       -432549333.81407881        1205667075.5009809     
  -3774646000.4185128       -340219110.38538635        1217573156.9300737     
  -3768766169.1847515       -260686259.39500272        1224615455.8254728     
  -4328481012.7973728       -619923615.36965775        1159291557.8171844     
  -4298144177.7505436       -464179497.81634152        1141325139.9815683     
  -4278419119.9721384       -343807971.15777493        1129448369.1751742     
  -4269305839.4621596       -258809035.39395618        1123661245.3980038     
  -4270804336.2206039       -209182690.52488899        1123963768.6500549     
  -4946347076.8867579       -615657077.49316001        1168323036.3850009     
  -4871775360.1844378       -412705156.78076458        1102855227.7575364     
  -4814587986.2874708       -267701045.41955829        1054430495.7222097     
  -4774784955.1958647       -180644743.40954542        1023048840.2790211     
  -4752366266.9096155       -151536250.75072289        1008710261.4279704     
  -5668918956.7769060       -642802284.35689044        1194358000.7451677     
  -5518816845.3821907       -383253906.57434511        1073487474.8661014     
  -5392871642.3297634       -204228556.59943151        980613455.14208710     
  -5291083347.6196280       -105726234.43215084        915735941.57312584     
  -5213451961.2517824       -87746940.072503567        878854934.15921712     
  -6496196652.4678116       -701359235.96084809        1237396450.8976865     
  -6239268633.3438025       -375825747.19708276        1053221881.3072629     
  -6013270088.0990162       -153390504.69739056        907997247.43480599     
  -5818201016.7334518       -34053508.461773872        801722549.28031838     
  -5654061419.2471113       -17814758.490231752        734397786.84379888     
  -3768766169.1847515       -260686259.39500272        1224615455.8254728     
  -3661676215.3741703       -168272027.53110874        1192317252.6745348     
  -3562273416.3592606       -101481644.98611724        1170346630.5018082     
  -3470557772.1400242       -60315111.760039091        1158703589.3072956     
  -3386529282.7164593       -44772427.852867126        1157388129.0909958     
  -4270804336.2206039       -209182690.52488899        1123963768.6500549     
  -4148067500.5533428       -145071923.32574439        1090730598.5020969     
  -4029742740.8468690       -95668075.995887041        1065737479.1113898     
  -3915830057.1011815       -60971148.535315990        1048984410.4779356     
  -3806329449.3162780       -40981140.944029093        1040471392.6017332     
  -4752366266.9096155       -151536250.75072289        1008710261.4279704     
  -4619946921.4455633       -117518259.83429742        978363049.59036005     
  -4488664573.1074123       -87290259.337536335        954168358.28903949     
  -4358519221.8951607       -60852249.260439873        936126187.52401102     
  -4229510867.8088069       -38204229.603005648        924236537.29527414     
  -5213451961.2517824       -87746940.072503567        878854934.15921712     
  -5077314478.0508299       -85611037.056762695        855214605.93932378     
  -4939038913.1408901       -76348195.011066198        835639268.03475916     
  -4798625266.5219641       -59958413.935408354        820128920.44552302     
  -4656073538.1940479       -36441693.829797029        808683563.17162097     
  -5654061419.2471113       -17814758.490231752        734397786.84379888     
  -5520170170.3691425       -49350254.993142366        721285267.54898632     
  -5380865760.9473038       -62841883.016476870        710150208.34854555     
  -5236148190.9815874       -58289642.560228109        700992609.24247146     
  -5086017460.4719973       -35693533.624397516        693812470.23076952     
  -3386529282.7164593       -44772427.852867126        1157388129.0909958     
  -3294641502.2024860       -38140212.705303907        1149985345.4373374     
  -3202496186.2906842       -30649546.231649876        1146728660.9400728     
  -3110093334.9810534       -22300428.431898832        1147618075.5992017     
  -3017432948.2736011       -13092859.306066275        1152653589.4147260     
  -3806329449.3162780       -40981140.944029093        1040471392.6017332     
  -3701700769.3343244       -29994322.280528307        1031960283.8293056     
  -3597632503.8884449       -20875552.070599318        1028098859.2952510     
  -3494124652.9786348       -13624830.314240456        1028887118.9995686     
  -3391177216.6048985       -8242157.0114562511        1034325062.9422596     
  -4229510867.8088069       -38204229.603005648        924236537.29527414     
  -4110702473.8389359       -22431163.067585230        913662828.48119640     
  -3993272444.3390393       -11252644.765402079        908242388.98746896     
  -3877220779.3091106       -4668674.6964502335        907975218.81409347     
  -3762547478.7491541       -2679252.8607354164        912861317.96106768     
  -4656073538.1940479       -36441693.829797029        808683563.17162097     
  -4521646615.7163219       -15450735.066473484        795092979.39300847     
  -4389416007.6424675       -1780824.3160500526        787159250.01672709     
  -4259381713.9724836        4568038.4214715958        784882375.04277539     
  -4131543734.7063651        3595853.1460988522        788262354.47115397     
  -5086017460.4719973       -35693533.624397516        693812470.23076952     
  -4934533194.9664793       -9053038.2771945000        676250736.56474400     
  -4786063193.7987318        7539909.2774438858        664849442.38302588     
  -4640607456.9687500        14085309.039524794        659608587.68561518     
  -4498165984.4765377        10583161.009044647        660528172.47251427     
  -3017432948.2736011       -13092859.306066275        1152653589.4147260     
  -2922491483.2363491       -4680177.1353923082        1146149271.2530327     
  -2828782857.1930361       -376958.27785098553        1144521353.3792033     
  -2736307070.1436615       -183202.73343312740        1147769835.7932377     
  -2645064122.0882273       -4098910.5021555424        1155894718.4951370     
  -3391177216.6048985       -8242157.0114562511        1034325062.9422596     
  -3285134356.7013946       -3851922.9341828823        1027378023.2922928     
  -3179797719.3724451       -1815764.1054279804        1025022375.1192870     
  -3075167304.6180449       -2133680.5251737833        1027258118.4232428     
  -2971243112.4381971       -4805672.1934242249        1034085253.2041602     
  -3762547478.7491541       -2679252.8607354164        912861317.96106768     
  -3646217534.8676920       -2555760.1433594227        906085942.64544499     
  -3530067197.1413965       -3030954.6098709106        903616949.99588192     
  -3414096465.5702658       -4104836.2602672577        905454340.01237762     
  -3298305340.1543026       -5777405.0945470333        911598112.69492924     
  -4131543734.7063651        3595853.1460988522        788262354.47115397     
  -4005741017.7352405       -791688.76290774345        782273029.31249237     
  -3879591290.4998941       -4022529.7911748886        780305078.00898755     
  -3753094553.0003262       -6096669.9387087822        782358500.56063986     
  -3626250805.2365379       -7014109.2055020332        788433296.96744525     
  -4498165984.4765377        10583161.009044647        660528172.47251427     
  -4363704805.3040409        1440291.2071716785        655939283.29343271     
  -4228369999.4479375       -4790489.6493482590        655086759.15860569     
  -4092161566.9082241       -8109181.5605087280        657970600.06803012     
  -3955079507.6849041       -8515784.5262997150        664590806.02171004     
  -2645064122.0882273       -4098910.5021555424        1155894718.4951370     
  -2534406940.3554382       -2955063.2238163948        1141972846.1092079     
  -2423021127.3580418        617554.93655061722        1132458234.3735006     
  -2310906683.0960426        6618943.9789261818        1127350883.2880113     
  -2198063607.5694256        15049103.903357625        1126650792.8527453     
  -2971243112.4381971       -4805672.1934242249        1034085253.2041602     
  -2848320553.8342547       -2057038.9652167559        1020709006.7224934     
  -2724875652.8958139        2432735.3779865503        1011990069.6569101     
  -2600908409.6228757        8663650.8361777067        1007928442.0074077     
  -2476418824.0154395        16635707.409360409        1008524123.7739867     
  -3298305340.1543026       -5777405.0945470333        911598112.69492924     
  -3162402979.6338792       -1209658.4028477669        898526821.69905949     
  -3026184565.7090726        4411599.6367999315        890362888.88513434     
  -2889650098.3798819        11086369.024380445        887106314.25315356     
  -2752799577.6463156        18814649.759903193        888757097.80311453     
  -3626250805.2365379       -7014109.2055020332        788433296.96744525     
  -3476654217.7543173       -412921.53673195839        775426291.03890908     
  -3326947865.7978234        6554147.7129588127        767576692.05817735     
  -3177131749.3670664        13887098.543524981        764884500.02525210     
  -3027205868.4620366        21585930.954993010        767349714.94012821     
  -3955079507.6849041       -8515784.5262997150        664590806.02171004     
  -3791074268.1955662        333171.63314700127        651407414.74203944     
  -3627165553.1620722        8860379.6064593792        643631479.17603540     
  -3463353362.5844231        17065839.393616438        641262999.32369745     
  -3299637696.4626184        24949550.994624615        644301975.18502986     
  -2198063607.5694256        15049103.903357625        1126650792.8527453     
  -2131872250.1570666        8294123.2319478989        1136598039.4071350     
  -2067193892.2477057       -3504189.1161173582        1151120646.0130136     
  -2004028533.8413324       -20345833.140813231        1170218612.6703885     
  -1942376174.9379637       -42230808.842187047        1193891939.3792498     
  -2476418824.0154395        16635707.409360409        1008524123.7739867     
  -2399886025.5025940        9156625.8174667358        1017051546.9620904     
  -2324577175.0627174       -2402282.6843299866        1029125665.0038038     
  -2250492272.6958051       -18041018.096006155        1044746477.8991306     
  -2177631318.4018726       -37759580.417609811        1063913985.6480671     
  -2752799577.6463156        18814649.759903193        888757097.80311453     
  -2668864381.4554935        9729754.2207790613        896201924.29329264     
  -2585864081.9076104       -2471463.4614944458        906164780.43920350     
  -2503798679.0026793       -17789003.286926746        918645666.24084389     
  -2422668172.7406912       -36222865.255507231        933644581.69821525     
  -3027205868.4620366        21585930.954993010        767349714.94012821     
  -2938807318.0157571        10013508.441881537        774049171.40074396     
  -2851054612.7823925       -3711731.4476315975        782237992.31921148     
  -2763947752.7619534       -19589788.713547111        791916177.69553161     
  -2677486737.9544411       -37620663.355889797        803083727.52969730     
  -3299637696.4626184        24949550.994624615        644301975.18502986     
  -3209714835.1833935        10007888.480770230        650593288.28444564     
  -3120148767.6870599       -6123086.6427328587        657345300.64383245     
  -3030939493.9736304       -23443374.375909686        664558012.26318395     
  -2942087014.0430956       -41952974.718737245        672231423.14250910     
  -1942376174.9379637       -42230808.842187047        1193891939.3792498     
  -1812571570.7697020       -44003410.213409066        1169692279.2012198     
  -1681473724.8452580       -41465205.730679452        1144201139.6579535     
  -1549082637.1646223       -34616195.393992841        1117418520.7494555     
  -1415398307.7278101       -23456379.203365743        1089344422.4757156     
  -2177631318.4018726       -37759580.417609811        1063913985.6480671     
  -2046774047.2947400       -40565188.868140340        1039387731.3357099     
  -1915013228.8879871       -40358972.986599803        1017201086.4367909     
  -1782348863.1816030       -37140932.772954226        997354050.95130944     
  -1648780950.1755953       -30911068.227222919        979846624.87927020     
  -2422668172.7406912       -36222865.255507231        933644581.69821525     
  -2280383695.3270602       -36949118.975081086        908337089.71888149     
  -2137585365.0703461       -35962529.884411931        889000295.93166089     
  -1994273181.9705706       -33263097.983511567        875634200.33655477     
  -1850447146.0277202       -28850823.272381902        868238802.93355966     
  -2677486737.9544411       -37620663.355889797        803083727.52969730     
  -2513400514.8666468       -33155200.534186006        776540354.35073447     
  -2349190133.3923492       -28275876.424115896        759598768.14256072     
  -2184855593.5315390       -22982691.025672436        752258968.90517688     
  -2020396895.2842085       -17275644.338850141        754520956.63857353     
  -2942087014.0430956       -41952974.718737245        672231423.14250910     
  -2745824505.9135184       -29183433.545489669        643997525.23127472     
  -2549827533.8539791       -17299012.605712771        628996503.06949675     
  -2354096097.8644876       -6299711.8994220495        627228356.65718234     
  -2158630197.9450450        3814468.5733771324        638693085.99432838     
  -5957945737.3616486       -1787383721.2084944        1150056896.0194697     
  -6088426284.9894695       -1502270329.4008486        1227911987.5923591     
  -6221628286.7164354       -1226228451.2570250        1268420277.2630253     
  -6357551742.5425501       -959258086.77702546        1271581765.0314677     
  -6496196652.4678116       -701359235.96084809        1237396450.8976865     
  -6810604815.2374449       -2043181444.5712335        1353773329.0854757     
  -6828533606.9451008       -1395510708.9285274        1202750815.4741814     
  -6897819091.3836536       -919028949.05548453        1091986298.2033012     
  -7018461268.5531054       -613736164.95210457        1021479777.2728355     
  -7190460138.4534569       -479632356.61838818        991231252.68278420     
  -8337933660.6979370       -2501380098.2093811        1712318709.1965458     
  -8021582701.5064592       -1424633620.2379251        1275677478.6640239     
  -7805223673.6776333       -681193580.14197206        956899042.71455336     
  -7688856577.2114582       -271059977.92152405        755983401.34813619     
  -7672481412.1079330       -194232813.57657623        672930554.56477034     
  -10539932273.743122       -3161979682.1229362        2225693036.3526807     
  -9667573568.6735458       -1589639063.3290408        1446691977.1618867     
  -8943842033.5983772       -512722344.51648951        863158510.79678226     
  -8368737668.5176086        68770474.314719677        475092637.25736839     
  -7942260473.4312429        154839393.16458416        282494356.54364496     
  -13416600654.372999       -4024980196.3118997        2893896310.5538802     
  -11766506208.446362       -1890527038.2018752        1715794310.9677706     
  -10313674171.145882       -413615242.17903471        810764702.44998789     
  -9058104542.4715576        405755191.75662088        178807485.00053424     
  -7999797322.4233856        567584263.60509491       -180077341.38059303     
  -6496196652.4678116       -701359235.96084809        1237396450.8976865     
  -6239268633.3438025       -375825747.19708276        1053221881.3072629     
  -6013270088.0990162       -153390504.69739056        907997247.43480599     
  -5818201016.7334518       -34053508.461773872        801722549.28031838     
  -5654061419.2471113       -17814758.490231752        734397786.84379888     
  -7190460138.4534569       -479632356.61838818        991231252.68278420     
  -6900570295.3407221       -304317503.98702979        846873493.66999578     
  -6623514244.9517803       -171781960.43498755        723586887.26881599     
  -6359291987.2866364       -82025725.962259293        621371433.47924435     
  -6107903522.3452816       -35048800.568843842        540227132.30128098     
  -7672481412.1079330       -194232813.57657623        672930554.56477034     
  -7400711982.4532146       -184461268.31165075        589501234.14428389     
  -7123680664.3668613       -157150094.94127703        509264283.22904557     
  -6841387457.8488770       -112299293.46546030        432219701.81905484     
  -6553832362.8992538       -49908863.884195328        358367489.91431350     
  -7942260473.4312429        154839393.16458416        282494356.54364496     
  -7739693694.6812820       -16257040.170939922        281105102.73012525     
  -7513769346.3442602       -109494908.21626186        265029435.31549489     
  -7264487428.4201746       -124874210.97137880        234267354.29975319     
  -6991847940.9090338       -62394948.436290741        188818859.68289772     
  -7999797322.4233856        567584263.60509491       -180077341.38059303     
  -7917515432.0249252        200295180.43509340       -78314900.572478369     
  -7793780290.8839760       -28816400.259943485       -9117656.4718358442     
  -7628591899.0005417       -119750478.48001766        27514390.921334565     
  -7421950256.3746109       -72507054.225124836        31581241.607034136     
  -5654061419.2471113       -17814758.490231752        734397786.84379888     
  -5520170170.3691425       -49350254.993142366        721285267.54898632     
  -5380865760.9473038       -62841883.016476870        710150208.34854555     
  -5236148190.9815874       -58289642.560228109        700992609.24247146     
  -5086017460.4719973       -35693533.624397516        693812470.23076952     
  -6107903522.3452816       -35048800.568843842        540227132.30128098     
  -5959222668.3237019       -36783605.526324749        533916216.49268949     
  -5809509854.8145638       -35078545.525295258        530127377.26664293     
  -5658765081.8178740       -29933620.565756083        528860614.62313926     
  -5506988349.3336325       -21348830.647702217        530115928.56217641     
  -6553832362.8992538       -49908863.884195328        358367489.91431350     
  -6388805856.6249924       -21376163.163527489        353746776.35957086     
  -6227128591.9194965       -4007601.0054171085        352192755.87554312     
  -6068800568.7827702        2196822.5901329517        353705428.46223277     
  -5913821787.2148085       -2762892.3768711090        358284794.11963654     
  -6991847940.9090338       -62394948.436290741        188818859.68289772     
  -6808919735.2730207       -3127927.9047441483        180776947.14962634     
  -6633721972.2621002        30370950.543157101        176346344.17524409     
  -6466254651.8762655        38101686.907446861        175527050.75975379     
  -6306517774.1155195        20064281.188092470        178319066.90314972     
  -7421950256.3746109       -72507054.225124836        31581241.607034136     
  -7219564304.2677889        17961100.250004292        15006728.862862686     
  -7029289995.8423738        68057109.120433331        2588142.1657533711     
  -6851127331.0983696        77780972.386168003       -5674518.4842978939     
  -6685076310.0357723        47132690.047209263       -9781253.0872820597     
  -5086017460.4719973       -35693533.624397516        693812470.23076952     
  -4934533194.9664793       -9053038.2771945000        676250736.56474400     
  -4786063193.7987318        7539909.2774438858        664849442.38302588     
  -4640607456.9687500        14085309.039524794        659608587.68561518     
  -4498165984.4765377        10583161.009044647        660528172.47251427     
  -5506988349.3336325       -21348830.647702217        530115928.56217641     
  -5345256717.2137012       -9739294.1643638611        514671924.08054847     
  -5184531807.2134657       -1485498.0800130367        504418752.63274598     
  -5024813619.3329296        3412557.6053514481        499356414.21876937     
  -4866102153.5720825        4954872.8917307854        499484908.83861464     
  -5913821787.2148085       -2762892.3768711090        358284794.11963654     
  -5744613092.6246996       -7015406.0006642342        347300651.41015875     
  -5574403577.9362183       -7931852.6298732758        340537735.28402132     
  -5403193243.1493597       -5512232.2644946575        337996045.74122471     
  -5230982088.2641296        243455.09546089172        339675582.78176987     
  -6306517774.1155195        20064281.188092470        178319066.90314972     
  -6132602321.1994781       -881373.78610515594        174136918.55357230     
  -5955678505.9669876       -11799154.372148037        173206390.33685014     
  -5775746328.4180489       -12689060.570028067        175527482.25298551     
  -5592805788.5526657       -3551092.3797478676        181100194.30198029     
  -6685076310.0357723        47132690.047209263       -9781253.0872820597     
  -6509224402.9380274        8662802.4793307781       -4819274.4892120529     
  -6328356591.3057671       -13087403.306809187        2424717.7912319168     
  -6142472875.1389885       -18117927.311222792        11950723.754053451     
  -5951573254.4376869       -6428769.5339090824        23758743.399246227     
  -4498165984.4765377        10583161.009044647        660528172.47251427     
  -4363704805.3040409        1440291.2071716785        655939283.29343271     
  -4228369999.4479375       -4790489.6493482590        655086759.15860569     
  -4092161566.9082241       -8109181.5605087280        657970600.06803012     
  -3955079507.6849041       -8515784.5262997150        664590806.02171004     
  -4866102153.5720825        4954872.8917307854        499484908.83861464     
  -4720566972.9068451        1173235.3878903389        496439500.84630501     
  -4574929070.5141306       -2265996.3576910496        496938983.04307854     
  -4429188446.3939362       -5362822.3450171947        500983355.42892748     
  -4283345100.5462708       -8117242.5740866661        508572618.00385946     
  -5230982088.2641296        243455.09546089172        339675582.78176987     
  -5074919977.1209316        1658928.5852210522        337274266.86075139     
  -4919526049.2063847        847124.64613771439        338226366.27363622     
  -4764800304.5204916       -2191956.7217855453        342531881.02042371     
  -4610742743.0632534       -7458315.5185599327        350190811.10112292     
  -5592805788.5526657       -3551092.3797478676        181100194.30198029     
  -5426763817.9462852        2897370.7991781235        178443581.33676365     
  -5262160935.5246964        4548873.3621506691        178948908.85027465     
  -5098997141.2878885        1403415.3091824055        182616176.84252223     
  -4937272435.2358589       -6539003.3597176075        189445385.31349540     
  -5951573254.4376869       -6428769.5339090824        23758743.399246227     
  -5776098495.3829222        4888562.0297386646        19947444.274343669     
  -5602833729.4690638        8839249.7903559208        19106610.772999309     
  -5431778956.6961231        5423293.7479240894        21236242.895214982     
  -5262934177.0640965       -5359306.0975685120        26336340.640983250     
  -3955079507.6849041       -8515784.5262997150        664590806.02171004     
  -3791074268.1955662        333171.63314700127        651407414.74203944     
  -3627165553.1620722        8860379.6064593792        643631479.17603540     
  -3463353362.5844231        17065839.393616438        641262999.32369745     
  -3299637696.4626184        24949550.994624615        644301975.18502986     
  -4283345100.5462708       -8117242.5740866661        508572618.00385946     
  -4106302174.2369041       -857545.53743910789        495618829.64619601     
  -3928930600.5601511        7497642.7238383293        487653327.54168665     
  -3751230379.5160174        16948322.209728718        484676111.69033283     
  -3573201511.1044879        27494492.920257092        486687182.09212619     
  -4610742743.0632534       -7458315.5185599327        350190811.10112292     
  -4421859756.9639044       -2147165.7137241364        337962659.45923966     
  -4232222951.6739364        5676714.7265081406        330303624.60999000     
  -4041832327.1933498        16013325.802136421        327213706.55338305     
  -3850687883.5221515        28862667.513141155        328692905.28941852     
  -4937272435.2358589       -6539003.3597176075        189445385.31349540     
  -4737747016.3765697       -3535688.8957152367        178438904.18116122     
  -4537042606.5034256        3397595.6144626141        171582370.38094404     
  -4335159205.6164322        14260850.170813799        168875783.91286060     
  -4132096813.7155938        29054074.773295164        170319144.77689311     
  -5262934177.0640965       -5359306.0975685120        26336340.640983250     
  -5053963952.4748936       -5023115.0833966732        17047563.811963305     
  -4843389565.0486202        660285.38770461082        11489564.854550736     
  -4631211014.7852583        11690895.315754890        9662343.7687506713     
  -4417428301.6848211        28068714.700723410        11565900.554560544     
  -3299637696.4626184        24949550.994624615        644301975.18502986     
  -3209714835.1833935        10007888.480770230        650593288.28444564     
  -3120148767.6870599       -6123086.6427328587        657345300.64383245     
  -3030939493.9736304       -23443374.375909686        664558012.26318395     
  -2942087014.0430956       -41952974.718737245        672231423.14250910     
  -3573201511.1044879        27494492.920257092        486687182.09212619     
  -3479389800.7087126        12153969.568359613        492047737.23530716     
  -3386316548.6634126       -5648081.6184594631        500031060.32463956     
  -3293981754.9686027       -25911660.640239835        510637151.36012959     
  -3202385419.6242628       -48636767.496931672        523866010.34177333     
  -3850687883.5221515        28862667.513141155        328692905.28941852     
  -3746809984.9064312        14976485.054234982        332677427.14751089     
  -3644052209.2087831       -2643440.4648988247        341446785.63794845     
  -3542414556.4291959       -23997109.044246674        355000980.76072407     
  -3441897026.5676775       -49084520.683817148        373340012.51583880     
  -4132096813.7155938        29054074.773295164        170319144.77689311     
  -4011975387.7765493        18475434.938393831        172482358.02106184     
  -3893355749.3231721        2890836.8179366589        181592476.58375046     
  -3776237898.3554258       -17699719.587949038        197649500.46496984     
  -3660621834.8733330       -43296234.279359818        220653429.66471106     
  -4417428301.6848211        28068714.700723410        11565900.554560544     
  -4274886009.3190694        22650819.220808983        11462529.855950685     
  -4134227169.0065613        10954750.230115652        20468133.162047397     
  -3995451780.7472777       -7019492.2713356018        38582710.472856283     
  -3858559844.5412250       -31271908.283573389        65806261.788382299     
  -2942087014.0430956       -41952974.718737245        672231423.14250910     
  -2745824505.9135184       -29183433.545489669        643997525.23127472     
  -2549827533.8539791       -17299012.605712771        628996503.06949675     
  -2354096097.8644876       -6299711.8994220495        627228356.65718234     
  -2158630197.9450450        3814468.5733771324        638693085.99432838     
  -3202385419.6242628       -48636767.496931672        523866010.34177333     
  -2979536684.4232841       -32098397.854232788        499697924.10107327     
  -2756023497.5471506       -13345189.294358969        481878176.36519498     
  -2531845858.9958677        7622858.1826732159        470406767.13413286     
  -2307003768.7694421        30805744.576856852        465283696.40789896     
  -3441897026.5676775       -49084520.683817148        373340012.51583880     
  -3212132170.7085485       -34678354.495628715        354322723.64840472     
  -2980772875.4290805       -14957390.239639997        334769236.04114735     
  -2747819140.7292643        10078372.084171772        314679549.69407910     
  -2513270966.6091142        40428932.475753903        294053664.60717410     
  -3660621834.8733330       -43296234.279359818        220653429.66471106     
  -3443610964.7693143       -36923303.469666719        207871923.87325943     
  -3224075667.4997668       -22135615.441530943        187669682.09735352     
  -3002015943.0646944        1066829.8050363064        160046704.33698881     
  -2777431791.4640632        32684032.270081162        125002990.59214988     
  -3858559844.5412250       -31271908.283573389        65806261.788382299     
  -3673973066.6055946       -38833244.776386023        60345524.775655091     
  -3485931873.7592258       -34879864.900090456        40579514.533817038     
  -3294436266.0021305       -19411768.654663444        6508231.0628846325     
  -3099486243.3343062        7571043.9597935677       -41868325.637154453     
 </DataArray>
 <DataArray  type="Float64" Name="VM" NumberOfComponents="1" format="ascii">
   12935532240.505564     
   11340710430.234005     
   10210243770.228001     
   9272819661.3935719     
   8304020213.8321991     
   10130269721.295677     
   9322002547.6050911     
   8826359085.8430042     
   8443527736.7613363     
   8035711582.5883808     
   7982343320.9868460     
   7734960418.3747053     
   7669135568.2679710     
   7669574981.0367050     
   7666352218.8893394     
   6491666477.8605423     
   6586870133.6142588     
   6757405509.6418562     
   6961196015.0653028     
   7171583161.7428370     
   5657792444.5432930     
   5890890608.1679058     
   6116357341.8813810     
   6331734981.0456781     
   6536800297.8636179     
   8304020213.8321991     
   8020686293.8323154     
   7779428147.6364632     
   7569577143.1874361     
   7386166207.6899147     
   8035711582.5883808     
   7746893474.1097727     
   7473735427.4145794     
   7214282195.9990368     
   6968538759.6034203     
   7666352218.8893394     
   7381189213.0709429     
   7101414337.5056353     
   6827104225.6455584     
   6558459954.5196762     
   7171583161.7428370     
   6911012903.7478247     
   6658331899.1771116     
   6409680540.2450199     
   6161913276.1331587     
   6536800297.8636179     
   6328717821.7776842     
   6142796127.8041773     
   5965129478.1111546     
   5786710852.0062380     
   7386166207.6899147     
   7228608320.9167824     
   7063565873.7721777     
   6890354092.1740799     
   6708788220.6697893     
   6968538759.6034203     
   6814553605.2689285     
   6655971463.9549570     
   6492511485.8669682     
   6324120319.0091534     
   6558459954.5196762     
   6407506488.0765142     
   6254942838.8045816     
   6100737646.1761866     
   5944918879.2221718     
   6161913276.1331587     
   6012460870.6684761     
   5864379865.2144899     
   5717710344.8870964     
   5572510868.1935520     
   5786710852.0062380     
   5635871685.9569721     
   5489304296.0898380     
   5346924748.4269218     
   5208784592.3599205     
   6708788220.6697893     
   6513565471.6234474     
   6321824443.0636873     
   6133468907.7403498     
   5948503816.1696043     
   6324120319.0091534     
   6139574730.5953035     
   5957346309.9307480     
   5777417029.7186632     
   5599823251.1553459     
   5944918879.2221718     
   5772536809.6638012     
   5601581977.0345631     
   5432077679.0171957     
   5264084503.1867027     
   5572510868.1935520     
   5414283586.6677265     
   5256898845.8247719     
   5100390327.1993046     
   4944849961.4874315     
   5208784592.3599205     
   5067245056.5113668     
   4926318966.9247322     
   4786026620.7634315     
   4646515515.2221556     
   5948503816.1696043     
   5778647610.2172031     
   5607356231.6439028     
   5434617101.3579865     
   5260454345.1246901     
   5599823251.1553459     
   5437005019.0502701     
   5273553204.3219585     
   5109498583.8992271     
   4944905016.2869720     
   5264084503.1867027     
   5109255936.2111616     
   4954704422.3194132     
   4800506926.0654116     
   4646774868.0980453     
   4944849961.4874315     
   4798817435.0516071     
   4654079866.6337109     
   4510758146.5001259     
   4369013676.0157461     
   4646515515.2221556     
   4509875356.6348295     
   4375648045.9820499     
   4243989149.4955497     
   4115104937.9953914     
   5260454345.1246901     
   5051540553.8792105     
   4843760608.4102907     
   4637097699.6112423     
   4431574588.3530302     
   4944905016.2869720     
   4746054082.0106592     
   4548461678.5469379     
   4352147603.9919519     
   4157180318.7678828     
   4646774868.0980453     
   4459373284.9122066     
   4273531311.4956117     
   4089326906.4354358     
   3906902658.2685761     
   4369013676.0157461     
   4194652667.3214784     
   4022365831.6238618     
   3852314427.3263178     
   3684747150.9732981     
   4115104937.9953914     
   3955565972.1006937     
   3798859165.9132600     
   3645252732.9317889     
   3495129608.7647457     
   4431574588.3530302     
   4286302270.0000982     
   4139867200.0041366     
   3992505973.1290164     
   3844709195.4237876     
   4157180318.7678828     
   4032327026.4705234     
   3907481261.5150704     
   3782941117.6670904     
   3659180152.5233564     
   3906902658.2685761     
   3798282001.3906956     
   3690426577.7446628     
   3583621921.5439343     
   3478256575.1436248     
   3684747150.9732981     
   3588164209.9649639     
   3492583373.2719607     
   3398217993.1126261     
   3305327663.6419525     
   3495129608.7647457     
   3406509475.1723332     
   3318519154.1302996     
   3231253682.1289058     
   3144819857.4409862     
   3844709195.4237876     
   3656205478.1759081     
   3469335502.0226307     
   3284792732.6847372     
   3104125872.9867458     
   3659180152.5233564     
   3444169346.1842856     
   3229465389.8879948     
   3015318944.7583256     
   2802293796.5009480     
   3478256575.1436248     
   3253342582.7310443     
   3029332830.1446915     
   2806309822.9700866     
   2584410381.7785807     
   3305327663.6419525     
   3087413937.1095734     
   2873270554.2533998     
   2663352971.8150454     
   2458404183.9620256     
   3144819857.4409862     
   2950333826.8654628     
   2764908674.1959128     
   2589830922.3841829     
   2427286440.7396021     
   5657792444.5432930     
   5890890608.1679058     
   6116357341.8813810     
   6331734981.0456781     
   6536800297.8636179     
   5151390307.0377598     
   5311296164.6920443     
   5467836198.8242483     
   5618115850.7651157     
   5760669749.4422636     
   4643405125.5811348     
   4755509197.4955845     
   4868734735.8425379     
   4980446622.5455170     
   5088719446.9321756     
   4134100674.8240986     
   4224367636.0390840     
   4320548990.6705418     
   4420986189.2493105     
   4524223283.4411716     
   3624996378.5504270     
   3719696157.9267430     
   3825638413.4730868     
   3942756300.9158850     
   4070954131.8254595     
   6536800297.8636179     
   6328717821.7776842     
   6142796127.8041773     
   5965129478.1111546     
   5786710852.0062380     
   5760669749.4422636     
   5652100573.2480202     
   5559514700.7081470     
   5473851628.7176428     
   5389570892.5857649     
   5088719446.9321756     
   5053986827.6390266     
   5029763622.9027691     
   5010843330.0834093     
   4994024607.4488935     
   4524223283.4411716     
   4538971777.8965225     
   4558407654.8884192     
   4580050581.3409519     
   4602176919.4081688     
   4070954131.8254595     
   4112382747.5827742     
   4151203731.9136167     
   4186519789.6333404     
   4217598754.9230604     
   5786710852.0062380     
   5635871685.9569721     
   5489304296.0898380     
   5346924748.4269218     
   5208784592.3599205     
   5389570892.5857649     
   5248423903.1330748     
   5110550526.6077433     
   4975993954.8339577     
   4844850967.8323154     
   4994024607.4488935     
   4866864981.4826546     
   4742913062.1421947     
   4622138447.3005180     
   4504583895.8328371     
   4602176919.4081688     
   4493864866.8219662     
   4389743766.0401249     
   4289498192.9451489     
   4193039204.5257459     
   4217598754.9230604     
   4133387448.5045905     
   4055578721.2738099     
   3983323250.0433521     
   3916325301.6940665     
   5208784592.3599205     
   5067245056.5113668     
   4926318966.9247322     
   4786026620.7634315     
   4646515515.2221556     
   4844850967.8323154     
   4719341332.9000549     
   4595434509.9334249     
   4473246192.5503769     
   4352998461.3666334     
   4504583895.8328371     
   4394372474.5463409     
   4286738769.4004822     
   4181867798.6357412     
   4080029075.4254918     
   4193039204.5257459     
   4097228859.8270516     
   4004903826.5748305     
   3916288037.5275564     
   3831668729.4478531     
   3916325301.6940665     
   3833778537.1250610     
   3755492782.7859006     
   3681698413.0603437     
   3612671740.3266668     
   4646515515.2221556     
   4509875356.6348295     
   4375648045.9820499     
   4243989149.4955497     
   4115104937.9953914     
   4352998461.3666334     
   4228314523.3093119     
   4106369082.4824171     
   3987371188.5598764     
   3871587579.7221336     
   4080029075.4254918     
   3968446194.9540076     
   3860084833.2274642     
   3755209704.0255184     
   3654152326.7275510     
   3831668729.4478531     
   3734432395.6421256     
   3641065187.0889559     
   3551883278.6801243     
   3467279461.3670206     
   3612671740.3266668     
   3531044472.9937768     
   3454089412.1980500     
   3382159358.5647993     
   3315692530.1537414     
   4115104937.9953914     
   3955565972.1006937     
   3798859165.9132600     
   3645252732.9317889     
   3495129608.7647457     
   3871587579.7221336     
   3726868248.8237162     
   3585798698.5523119     
   3448713534.2259769     
   3316061387.8597317     
   3654152326.7275510     
   3524062996.6738024     
   3398440971.0218129     
   3277668251.5213971     
   3162233387.6541696     
   3467279461.3670206     
   3351509473.1551509     
   3240980385.1547933     
   3136095057.9220405     
   3037348619.7874503     
   3315692530.1537414     
   3213727415.2758732     
   3117677513.9874334     
   3027934826.6843610     
   2944964347.4015141     
   3495129608.7647457     
   3406509475.1723332     
   3318519154.1302996     
   3231253682.1289058     
   3144819857.4409862     
   3316061387.8597317     
   3234744631.6023331     
   3154937816.1799359     
   3076855444.8674216     
   3000741919.1215672     
   3162233387.6541696     
   3091671521.2786355     
   3023857152.5269651     
   2959140705.3103967     
   2897922312.0700746     
   3037348619.7874503     
   2980720242.5190282     
   2928374871.2783303     
   2880785540.0595789     
   2838488388.1138592     
   2944964347.4015141     
   2904857205.2436104     
   2870765614.9561939     
   2843238547.0496907     
   2822891131.9790273     
   3144819857.4409862     
   2950333826.8654628     
   2764908674.1959128     
   2589830922.3841829     
   2427286440.7396021     
   3000741919.1215672     
   2836193544.6125393     
   2680305806.1613016     
   2534085424.2131619     
   2399021466.2855582     
   2897922312.0700746     
   2755446534.2423277     
   2620048861.3397155     
   2492408866.7622557     
   2373418610.2897124     
   2838488388.1138592     
   2710882190.2321754     
   2587607122.6401339     
   2469026945.5464869     
   2355582029.4137707     
   2822891131.9790273     
   2704095535.4037976     
   2585911685.4993963     
   2468421419.6251473     
   2351747471.5765567     
   3624996378.5504270     
   3719696157.9267430     
   3825638413.4730868     
   3942756300.9158850     
   4070954131.8254595     
   3138026630.6328940     
   3255532900.6543508     
   3382453336.0132866     
   3518317190.9527540     
   3662665227.8544626     
   2694817249.7303424     
   2830541173.3483334     
   2973581171.4940557     
   3122854688.1871896     
   3277450380.6792202     
   2298859497.1959119     
   2449513817.8825560     
   2604902332.9820127     
   2763103609.0266724     
   2922688364.9710226     
   1955367409.6252170     
   2119406712.2033105     
   2284823243.5039849     
   2448659718.2379198     
   2608959451.4777656     
   4070954131.8254595     
   4112382747.5827742     
   4151203731.9136167     
   4186519789.6333404     
   4217598754.9230604     
   3662665227.8544626     
   3702122951.2522736     
   3740221937.0436668     
   3776064532.1544881     
   3808902156.3616052     
   3277450380.6792202     
   3320752270.0617919     
   3364294240.7536759     
   3407253787.8990827     
   3448953200.0297060     
   2922688364.9710226     
   2975656381.2528872     
   3030816332.8666506     
   3087485153.0736384     
   3145129048.0763226     
   2608959451.4777656     
   2676888023.1532836     
   2749259963.3521380     
   2825564835.7609367     
   2905447745.4825125     
   4217598754.9230604     
   4133387448.5045905     
   4055578721.2738099     
   3983323250.0433521     
   3916325301.6940665     
   3808902156.3616052     
   3755983139.6666999     
   3709001494.6271372     
   3667484737.2832975     
   3631338468.1848378     
   3448953200.0297060     
   3422839801.3235717     
   3401830273.9378152     
   3385697421.5818272     
   3374428537.1359110     
   3145129048.0763226     
   3141586501.0108795     
   3141733440.0593715     
   3145472484.6064563     
   3152793534.5553894     
   2905447745.4825125     
   2920546335.2107391     
   2937153676.2844639     
   2955219207.1120248     
   2974708088.7077494     
   3916325301.6940665     
   3833778537.1250610     
   3755492782.7859006     
   3681698413.0603437     
   3612671740.3266668     
   3631338468.1848378     
   3560850194.4378891     
   3495090551.6420093     
   3434292813.6734548     
   3378736290.6599598     
   3374428537.1359110     
   3316544179.0533628     
   3263979209.0021801     
   3216953872.1924543     
   3175735878.1276116     
   3152793534.5553894     
   3107868342.0548754     
   3068962821.3148375     
   3036260642.1307292     
   3009996294.7357559     
   2974708088.7077494     
   2942698469.9579883     
   2917489612.8010559     
   2899199547.6536317     
   2888003978.0201740     
   3612671740.3266668     
   3531044472.9937768     
   3454089412.1980500     
   3382159358.5647993     
   3315692530.1537414     
   3378736290.6599598     
   3311674550.6207051     
   3249962395.2722569     
   3193939350.3729057     
   3144010555.4460797     
   3175735878.1276116     
   3122469950.8023858     
   3075146052.0942955     
   3034064267.1081986     
   2999569264.5701981     
   3009996294.7357559     
   2969339095.9695029     
   2935085882.0833745     
   2907474973.3900023     
   2886770120.1135845     
   2888003978.0201740     
   2858231208.8352962     
   2835155098.8090329     
   2818939964.6675172     
   2809761255.2170815     
   3315692530.1537414     
   3213727415.2758732     
   3117677513.9874334     
   3027934826.6843610     
   2944964347.4015141     
   3144010555.4460797     
   3054283592.3660440     
   2971355121.2591629     
   2895623320.2893920     
   2827551305.6830230     
   2999569264.5701981     
   2922334291.2388330     
   2852828417.3863811     
   2791426125.3648453     
   2738554017.7386866     
   2886770120.1135845     
   2821782268.3770480     
   2765460478.8873172     
   2718123332.8406076     
   2680126600.3121133     
   2809761255.2170815     
   2756120678.1538429     
   2712053409.6847525     
   2677796271.0333958     
   2653609944.0290580     
   2944964347.4015141     
   2904857205.2436104     
   2870765614.9561939     
   2843238547.0496907     
   2822891131.9790273     
   2827551305.6830230     
   2803182814.0515156     
   2784628470.1223407     
   2772298010.5948997     
   2766632890.4693499     
   2738554017.7386866     
   2727964830.3648157     
   2722725137.3302889     
   2723110652.0307508     
   2729407440.6447020     
   2680126600.3121133     
   2681169655.5971251     
   2686852965.6910939     
   2697338256.4496498     
   2712787086.1411481     
   2653609944.0290580     
   2664037533.6590681     
   2678191329.9084888     
   2696147887.5623178     
   2717980338.1774631     
   2822891131.9790273     
   2704095535.4037976     
   2585911685.4993963     
   2468421419.6251473     
   2351747471.5765567     
   2766632890.4693499     
   2653945510.7799220     
   2547044511.3273911     
   2446413947.7974396     
   2352602702.9823713     
   2729407440.6447020     
   2628352344.4386477     
   2538497688.2292633     
   2460577093.9769821     
   2395376008.7100945     
   2712787086.1411481     
   2626651613.4545641     
   2557083609.3037391     
   2504822872.2538924     
   2470628672.7959929     
   2717980338.1774631     
   2647545734.9284244     
   2598979458.3126202     
   2572818397.4741788     
   2569610142.2035928     
   1955367409.6252170     
   2119406712.2033105     
   2284823243.5039849     
   2448659718.2379198     
   2608959451.4777656     
   1653863386.2433085     
   1820332750.7687666     
   1988509175.6848564     
   2155698032.3995237     
   2320142413.9345040     
   1393705330.5448937     
   1571118504.2392368     
   1749534096.0183911     
   1926949291.5848644     
   2102114438.8886406     
   1207196085.7915020     
   1399179511.4308105     
   1590724766.3099775     
   1781055369.1750150     
   1969713040.9947753     
   1136985337.4664295     
   1335349801.9913037     
   1533993065.9154174     
   1732915129.2387707     
   1932115991.9613628     
   2608959451.4777656     
   2676888023.1532836     
   2749259963.3521380     
   2825564835.7609367     
   2905447745.4825125     
   2320142413.9345040     
   2407117594.4774756     
   2496498870.0248146     
   2587896296.4735436     
   2681033937.2546706     
   2102114438.8886406     
   2205772481.8234196     
   2309338718.8783331     
   2412577106.5416474     
   2515320849.2516160     
   1969713040.9947753     
   2086782191.3017070     
   2201034572.5396657     
   2312395226.2866855     
   2420812024.7062116     
   1932115991.9613628     
   2058699451.6362007     
   2179933719.1790733     
   2295818794.5899801     
   2406354677.8689198     
   2905447745.4825125     
   2920546335.2107391     
   2937153676.2844639     
   2955219207.1120248     
   2974708088.7077494     
   2681033937.2546706     
   2703161635.2401338     
   2727758839.6621304     
   2754810549.2312684     
   2784311244.7332072     
   2515320849.2516160     
   2544253112.4553032     
   2576629775.8074703     
   2612453037.9129262     
   2651729190.1214843     
   2420812024.7062116     
   2454896591.5437102     
   2493391808.9888988     
   2536300965.9573565     
   2583628224.0179358     
   2406354677.8689198     
   2442446593.3069553     
   2483901090.0205398     
   2530718168.0096717     
   2582897827.2743549     
   2974708088.7077494     
   2942698469.9579883     
   2917489612.8010559     
   2899199547.6536317     
   2888003978.0201740     
   2784311244.7332072     
   2766434125.0399017     
   2755471632.1094146     
   2751505917.9442716     
   2754650531.8055816     
   2651729190.1214843     
   2645464514.0531926     
   2645991487.1428394     
   2653350489.0206103     
   2667594816.0822191     
   2583628224.0179358     
   2585784947.0624838     
   2594371163.5554390     
   2609396866.3829126     
   2630874973.2552209     
   2582897827.2743549     
   2589882960.0113816     
   2602734244.6564317     
   2621451681.2095056     
   2646035269.6706033     
   2888003978.0201740     
   2858231208.8352962     
   2835155098.8090329     
   2818939964.6675172     
   2809761255.2170815     
   2754650531.8055816     
   2734799820.9820313     
   2722044674.9122090     
   2716492640.3097773     
   2718256050.9107904     
   2667594816.0822191     
   2655748455.9699140     
   2651302893.4370914     
   2654311279.8324442     
   2664828068.1489038     
   2630874973.2552209     
   2624465096.7386875     
   2625673208.8786860     
   2634513408.8264565     
   2650999934.7978764     
   2646035269.6706033     
   2642033146.4352674     
   2645796926.8452725     
   2657326610.9006181     
   2676622198.6013012     
   2809761255.2170815     
   2756120678.1538429     
   2712053409.6847525     
   2677796271.0333958     
   2653609944.0290580     
   2718256050.9107904     
   2675570346.4120660     
   2642389395.7620645     
   2618850891.8585105     
   2605102997.6757970     
   2664828068.1489038     
   2630455869.4438500     
   2605391279.7678471     
   2589695163.8955975     
   2583431832.8433580     
   2650999934.7978764     
   2622043791.2462931     
   2602095019.4283013     
   2591168183.5751367     
   2589278480.6486835     
   2676622198.6013012     
   2650134501.9219036     
   2632280667.8359742     
   2623060696.3435102     
   2622474587.4445109     
   2653609944.0290580     
   2664037533.6590681     
   2678191329.9084888     
   2696147887.5623178     
   2717980338.1774631     
   2605102997.6757970     
   2622888731.0454755     
   2645466911.1856756     
   2672894393.6928120     
   2705223750.3083072     
   2583431832.8433580     
   2607374890.2044725     
   2637165922.1465778     
   2672836622.2932882     
   2714415461.8972497     
   2589278480.6486835     
   2617439222.2384591     
   2652521920.0819182     
   2694536153.1319618     
   2743490329.2204418     
   2622474587.4445109     
   2652294905.6910582     
   2690167359.6453967     
   2736091949.3075275     
   2790068674.6774440     
   2717980338.1774631     
   2647545734.9284244     
   2598979458.3126202     
   2572818397.4741788     
   2569610142.2035928     
   2705223750.3083072     
   2648420951.9794879     
   2608373166.2524929     
   2585254812.8525281     
   2579248320.8456078     
   2714415461.8972497     
   2665619757.3759027     
   2628564457.6838007     
   2603285326.4934068     
   2589821068.4375181     
   2743490329.2204418     
   2698859743.6140289     
   2660940741.7613382     
   2629735742.9664340     
   2605247471.7191663     
   2790068674.6774440     
   2747601639.8317041     
   2706764749.9478192     
   2667558005.0257850     
   2629981405.0655932     
   1136985337.4664295     
   1335349801.9913037     
   1533993065.9154174     
   1732915129.2387707     
   1932115991.9613628     
   1207196085.6658919     
   1399179511.2931342     
   1590724766.1611209     
   1781055369.0152066     
   1969713040.8239145     
   1393705330.3408947     
   1571118504.0050435     
   1749534095.7565656     
   1926949291.2964566     
   2102114438.5738022     
   1653863386.0095859     
   1820332750.4864283     
   1988509175.3572507     
   2155698032.0281410     
   2320142413.5195742     
   1955367409.3966043     
   2119406711.9114609     
   2284823243.1520524     
   2448659717.8272147     
   2608959451.0082207     
   1932115991.9613628     
   2058699451.6362007     
   2179933719.1790733     
   2295818794.5899801     
   2406354677.8689198     
   1969713040.8239145     
   2086782191.0855248     
   2201034572.2753305     
   2312395225.9712152     
   2420812024.3365989     
   2102114438.5738022     
   2205772481.4261127     
   2309338718.3928909     
   2412577105.9623237     
   2515320848.5727353     
   2320142413.5195742     
   2407117593.9558597     
   2496498869.3876557     
   2587896295.7121100     
   2681033936.3604388     
   2608959451.0082207     
   2676888022.5677309     
   2749259962.6383128     
   2825564834.9068432     
   2905447744.4764266     
   2406354677.8689198     
   2442446593.3069553     
   2483901090.0205398     
   2530718168.0096717     
   2582897827.2743549     
   2420812024.3365989     
   2454896591.1857991     
   2493391808.6488633     
   2536300965.6417303     
   2583628223.7334270     
   2515320848.5727353     
   2544253111.7817569     
   2576629775.1500039     
   2612453037.2829099     
   2651729189.5306869     
   2681033936.3604388     
   2703161634.3264790     
   2727758838.7424297     
   2754810548.3196630     
   2784311243.8444467     
   2905447744.4764266     
   2920546334.1453762     
   2937153675.1738815     
   2955219205.9709907     
   2974708087.5517197     
   2582897827.2743549     
   2589882960.0113816     
   2602734244.6564317     
   2621451681.2095056     
   2646035269.6706033     
   2583628223.7334270     
   2585784946.6723094     
   2594371163.0586429     
   2609396865.7786422     
   2630874972.5430293     
   2651729189.5306869     
   2645464513.2751732     
   2645991486.1772113     
   2653350487.8672543     
   2667594814.7416582     
   2784311243.8444467     
   2766434123.9086366     
   2755471630.7368202     
   2751505916.3319740     
   2754650529.9559278     
   2974708087.5517197     
   2942698468.5292492     
   2917489611.1031528     
   2899199545.6908116     
   2888003975.7973843     
   2646035269.6706033     
   2642033146.4352674     
   2645796926.8452725     
   2657326610.9006181     
   2676622198.6013012     
   2630874972.5430293     
   2624465096.0204229     
   2625673208.1503658     
   2634513408.0842962     
   2650999934.0381355     
   2667594814.7416582     
   2655748454.6065679     
   2651302892.0409040     
   2654311278.3938231     
   2664828066.6584520     
   2754650529.9559278     
   2734799819.0899005     
   2722044672.9591122     
   2716492638.2778301     
   2718256048.7823958     
   2888003975.7973843     
   2858231206.5560989     
   2835155096.4443083     
   2818939962.1885896     
   2809761252.5954218     
   2676622198.6013012     
   2650134501.9219036     
   2632280667.8359742     
   2623060696.3435102     
   2622474587.4445109     
   2650999934.0381355     
   2622043790.7170134     
   2602095019.1528549     
   2591168183.5755162     
   2589278480.9452152     
   2664828066.6584520     
   2630455868.3968458     
   2605391279.2123947     
   2589695163.8775868     
   2583431833.4057279     
   2718256048.7823958     
   2675570344.9042363     
   2642389394.9490724     
   2618850891.8126822     
   2605102998.4662848     
   2809761252.5954218     
   2756120676.2805653     
   2712053408.6609850     
   2677796270.9601703     
   2653609945.0056043     
   2622474587.4445109     
   2652294905.6910582     
   2690167359.6453967     
   2736091949.3075275     
   2790068674.6774440     
   2589278480.9452152     
   2617439222.3389416     
   2652521919.8860745     
   2694536152.5394869     
   2743490328.1311331     
   2583431833.4057279     
   2607374890.5375938     
   2637165922.0536990     
   2672836621.5749002     
   2714415460.3513360     
   2605102998.4662848     
   2622888731.7748189     
   2645466911.5660591     
   2672894393.4275846     
   2705223749.0921941     
   2653609945.0056043     
   2664037534.9698238     
   2678191331.1847520     
   2696147888.4172263     
   2717980338.2057710     
   2790068674.6774440     
   2747601639.8317041     
   2706764749.9478192     
   2667558005.0257850     
   2629981405.0655932     
   2743490328.1311331     
   2698859746.8821344     
   2660940749.4981894     
   2629735755.2557378     
   2605247488.6158996     
   2714415460.3513360     
   2665619763.1267529     
   2628564470.8811736     
   2603285347.2465754     
   2589821096.8137703     
   2705223749.0921941     
   2648420959.5273423     
   2608373182.6938281     
   2585254838.2789207     
   2579248355.3096147     
   2717980338.2057710     
   2647545743.7204590     
   2598979475.9238687     
   2572818423.9368153     
   2569610177.5264053     
   1955367409.3966043     
   2119406711.9114609     
   2284823243.1520524     
   2448659717.8272147     
   2608959451.0082207     
   2298859496.9933681     
   2449513817.6135464     
   2604902332.6469440     
   2763103608.6247716     
   2922688364.5005403     
   2694817249.5631819     
   2830541173.1174750     
   2973581171.1972156     
   3122854687.8211422     
   3277450380.2399268     
   3138026630.5046988     
   3255532900.4702950     
   3382453335.7687988     
   3518317190.6421213     
   3662665227.4709864     
   3624996378.4618411     
   3719696157.7944007     
   3825638413.2906613     
   3942756300.6753535     
   4070954131.5173125     
   2608959451.0082207     
   2676888022.5677309     
   2749259962.6383128     
   2825564834.9068432     
   2905447744.4764266     
   2922688364.5005403     
   2975656380.6722546     
   3030816332.1648102     
   3087485152.2398953     
   3145129047.1002669     
   3277450380.2399268     
   3320752269.5246644     
   3364294240.1095424     
   3407253787.1394048     
   3448953199.1464467     
   3662665227.4709864     
   3702122950.7867651     
   3740221936.4894390     
   3776064531.5058990     
   3808902155.6138821     
   4070954131.5173125     
   4112382747.2096696     
   4151203731.4716735     
   4186519789.1201653     
   4217598754.3375378     
   2905447744.4764266     
   2920546334.1453762     
   2937153675.1738815     
   2955219205.9709907     
   2974708087.5517197     
   3145129047.1002669     
   3141586499.9432473     
   3141733438.9035163     
   3145472483.3665471     
   3152793533.2366986     
   3448953199.1464467     
   3422839800.3252878     
   3401830272.8168473     
   3385697420.3309488     
   3374428535.7491188     
   3808902155.6138821     
   3755983138.7943134     
   3709001493.6121140     
   3667484736.1070828     
   3631338466.8296180     
   4217598754.3375378     
   4133387447.8010092     
   4055578720.4253993     
   3983323249.0211849     
   3916325300.4688106     
   2974708087.5517197     
   2942698468.5292492     
   2917489611.1031528     
   2899199545.6908116     
   2888003975.7973843     
   3152793533.2366986     
   3107868340.4332066     
   3068962819.3892283     
   3036260639.9005384     
   3009996292.2005000     
   3374428535.7491188     
   3316544177.3573790     
   3263979206.9932346     
   3216953869.8664665     
   3175735875.4799347     
   3631338466.8296180     
   3560850192.7891769     
   3495090549.6951551     
   3434292811.4227743     
   3378736288.0984545     
   3916325300.4688106     
   3833778535.6408405     
   3755492781.0390506     
   3681698411.0454497     
   3612671738.0363588     
   2888003975.7973843     
   2858231206.5560989     
   2835155096.4443083     
   2818939962.1885896     
   2809761252.5954218     
   3009996292.2005000     
   2969339093.3232923     
   2935085879.3098779     
   2907474970.4737720     
   2886770117.0399141     
   3175735875.4799347     
   3122469947.9826136     
   3075146049.0940237     
   3034064263.9203086     
   2999569261.1890554     
   3378736288.0984545     
   3311674547.8172398     
   3249962392.2221041     
   3193939347.0727959     
   3144010551.8948984     
   3612671738.0363588     
   3531044470.3813014     
   3454089409.2590261     
   3382159355.2961359     
   3315692526.5548406     
   2809761252.5954218     
   2756120676.2805653     
   2712053408.6609850     
   2677796270.9601703     
   2653609945.0056043     
   2886770117.0399141     
   2821782266.1654029     
   2765460477.6430092     
   2718123332.6717143     
   2680126601.3280621     
   2999569261.1890554     
   2922334288.7853327     
   2852828415.9700851     
   2791426125.1012602     
   2738554018.7483706     
   3144010551.8948984     
   3054283589.7710457     
   2971355119.7330713     
   2895623319.9537830     
   2827551306.6682138     
   3315692526.5548406     
   3213727412.6361647     
   3117677512.4212480     
   3027934826.3171163     
   2944964348.3704638     
   2653609945.0056043     
   2664037534.9698238     
   2678191331.1847520     
   2696147888.4172263     
   2717980338.2057710     
   2680126601.3280621     
   2681169657.5830669     
   2686852968.4252276     
   2697338259.6827822     
   2712787089.5943518     
   2738554018.7483706     
   2727964833.0098963     
   2722725141.5467277     
   2723110657.7194767     
   2729407447.6658235     
   2827551306.6682138     
   2803182817.2755795     
   2784628475.6884122     
   2772298018.5682592     
   2766632900.8668470     
   2944964348.3704638     
   2904857208.9140530     
   2870765621.6037068     
   2843238556.9167590     
   2822891145.2592211     
   2717980338.2057710     
   2647545743.7204590     
   2598979475.9238687     
   2572818423.9368153     
   2569610177.5264053     
   2712787089.5943518     
   2626651625.3036604     
   2557083629.4490228     
   2504822900.5879893     
   2470628709.1982207     
   2729407447.6658235     
   2628352358.6615391     
   2538497709.3480282     
   2460577121.6934233     
   2395376042.7202535     
   2766632900.8668470     
   2653945526.5372109     
   2547044531.8550620     
   2446413972.5285797     
   2352602731.3461800     
   2822891145.2592211     
   2704095551.7459149     
   2585911703.9611988     
   2468421439.3090634     
   2351747491.5796266     
   3624996378.4618411     
   3719696157.7944007     
   3825638413.2906613     
   3942756300.6753535     
   4070954131.5173125     
   4134100674.7704711     
   4224367635.9549122     
   4320548990.5526581     
   4420986189.0927610     
   4524223283.2395306     
   4643405125.5544643     
   4755509197.4503241     
   4868734735.7790365     
   4980446622.4624290     
   5088719446.8268986     
   5151390307.0313969     
   5311296164.6769257     
   5467836198.8042583     
   5618115850.7424860     
   5760669749.4180927     
   5657792444.5519409     
   5890890608.1749601     
   6116357341.8940401     
   6331734981.0693483     
   6536800297.9024782     
   4070954131.5173125     
   4112382747.2096696     
   4151203731.4716735     
   4186519789.1201653     
   4217598754.3375378     
   4524223283.2395306     
   4538971777.6623468     
   4558407654.6171169     
   4580050581.0288200     
   4602176919.0519018     
   5088719446.8268986     
   5053986827.5337286     
   5029763622.7914047     
   5010843329.9603281     
   4994024607.3082762     
   5760669749.4180927     
   5652100573.2560081     
   5559514700.7408209     
   5473851628.7675266     
   5389570892.6449156     
   6536800297.9024782     
   6328717821.8804760     
   6142796127.9624109     
   5965129478.3160143     
   5786710852.2483740     
   4217598754.3375378     
   4133387447.8010092     
   4055578720.4253993     
   3983323249.0211849     
   3916325300.4688106     
   4602176919.0519018     
   4493864866.3728447     
   4389743765.4771690     
   4289498192.2455001     
   4193039203.6649704     
   4994024607.3082762     
   4866864981.2836361     
   4742913061.8702059     
   4622138446.9395971     
   4504583895.3653498     
   5389570892.6449156     
   5248423903.1729431     
   5110550526.6202650     
   4975993954.8101358     
   4844850967.7619591     
   5786710852.2483740     
   5635871686.2201147     
   5489304296.3723278     
   5346924748.7263699     
   5208784592.6734352     
   3916325300.4688106     
   3833778535.6408405     
   3755492781.0390506     
   3681698411.0454497     
   3612671738.0363588     
   4193039203.6649704     
   4097228858.8021398     
   4004903825.3740473     
   3916288036.1370530     
   3831668727.8509536     
   4504583895.3653498     
   4394372474.0210505     
   4286738768.7990832     
   4181867797.9374671     
   4080029074.6059971     
   4844850967.7619591     
   4719341332.8927031     
   4595434509.9657555     
   4473246192.5963449     
   4352998461.3961420     
   5208784592.6734352     
   5067245057.0252762     
   4926318967.6121502     
   4786026621.5946894     
   4646515516.1634274     
   3612671738.0363588     
   3531044470.3813014     
   3454089409.2590261     
   3382159355.2961359     
   3315692526.5548406     
   3831668727.8509536     
   3734432393.6512308     
   3641065184.6746278     
   3551883275.8121805     
   3467279458.0152092     
   4080029074.6059971     
   3968446193.7156162     
   3860084831.5205212     
   3755209701.7974815     
   3654152323.9229245     
   4352998461.3961420     
   4228314522.9459963     
   4106369081.6614103     
   3987371187.2115855     
   3871587577.7712922     
   4646515516.1634274     
   4509875357.2617302     
   4375648046.2191238     
   4243989149.2612243     
   4115104937.2001553     
   3315692526.5548406     
   3213727412.6361647     
   3117677512.4212480     
   3027934826.3171163     
   2944964348.3704638     
   3467279458.0152092     
   3351509470.6195555     
   3240980383.5567741     
   3136095057.3975110     
   3037348620.4880462     
   3654152323.9229245     
   3524062994.5378423     
   3398440969.6785645     
   3277668251.1124320     
   3162233388.3403025     
   3871587577.7712922     
   3726868247.3940339     
   3585798697.7670135     
   3448713534.2280974     
   3316061388.8143640     
   4115104937.2001553     
   3955565971.6816659     
   3798859165.9902024     
   3645252733.6459289     
   3495129610.2813759     
   2944964348.3704638     
   2904857208.9140530     
   2870765621.6037068     
   2843238556.9167590     
   2822891145.2592211     
   3037348620.4880462     
   2980720246.0266271     
   2928374877.8797402     
   2880785550.0242915     
   2838488401.6820569     
   3162233388.3403025     
   3091671524.6804867     
   3023857158.9216967     
   2959140714.9698329     
   2897922325.2532754     
   3316061388.8143640     
   3234744635.0370274     
   3154937822.3406701     
   3076855454.0009685     
   3000741931.4719129     
   3495129610.2813759     
   3406509478.8413687     
   3318519160.1498919     
   3231253690.6985321     
   3144819868.7601972     
   2822891145.2592211     
   2704095551.7459149     
   2585911703.9611988     
   2468421439.3090634     
   2351747491.5796266     
   2838488401.6820569     
   2710882204.6673036     
   2587607137.3157516     
   2469026959.8596082     
   2355582042.7699299     
   2897922325.2532754     
   2755446546.8442607     
   2620048873.1026621     
   2492408877.4023056     
   2373418619.5063024     
   3000741931.4719129     
   2836193555.3073153     
   2680305815.3498168     
   2534085431.9706407     
   2399021472.6416078     
   3144819868.7601972     
   2950333835.4472423     
   2764908680.6271610     
   2589830927.1717587     
   2427286444.3640022     
   5657792444.5519409     
   5890890608.1749601     
   6116357341.8940401     
   6331734981.0693483     
   6536800297.9024782     
   6491666477.8471584     
   6586870133.6457262     
   6757405509.7145758     
   6961196015.1726513     
   7171583161.8765764     
   7982343320.8833694     
   7734960418.3632784     
   7669135568.3367043     
   7669574981.1733179     
   7666352219.0820618     
   10130269721.035517     
   9322002547.4873104     
   8826359085.8495388     
   8443527736.8769817     
   8035711582.8034811     
   12935532240.022459     
   11340710429.950548     
   10210243770.120613     
   9272819661.4427929     
   8304020214.0299673     
   6536800297.9024782     
   6328717821.8804760     
   6142796127.9624109     
   5965129478.3160143     
   5786710852.2483740     
   7171583161.8765764     
   6911012903.9561901     
   6658331899.4568958     
   6409680540.5930052     
   6161913276.5460262     
   7666352219.0820618     
   7381189213.3459148     
   7101414337.8622913     
   6827104226.0834532     
   6558459955.0384169     
   8035711582.8034811     
   7746893474.4116526     
   7473735427.8033390     
   7214282196.4750471     
   6968538760.1672068     
   8304020214.0299673     
   8020686294.1190052     
   7779428148.0115166     
   7569577143.6508989     
   7386166208.2423220     
   5786710852.2483740     
   5635871686.2201147     
   5489304296.3723278     
   5346924748.7263699     
   5208784592.6734352     
   6161913276.5460262     
   6012460871.1512651     
   5864379865.7662659     
   5717710345.5063410     
   5572510868.8780155     
   6558459955.0384169     
   6407506488.7162180     
   6254942839.5657549     
   6100737647.0590038     
   5944918880.2261066     
   6968538760.1672068     
   6814553606.0071096     
   6655971464.8696032     
   6492511486.9603033     
   6324120320.2829514     
   7386166208.2423220     
   7228608321.6995258     
   7063565874.7885494     
   6890354093.4282017     
   6708788222.1658564     
   5208784592.6734352     
   5067245057.0252762     
   4926318967.6121502     
   4786026621.5946894     
   4646515516.1634274     
   5572510868.8780155     
   5414283587.6527882     
   5256898847.1046324     
   5100390328.7669582     
   4944849963.3341675     
   5944918880.2261066     
   5772536810.9804840     
   5601581978.6710014     
   5432077680.9802122     
   5264084505.4832277     
   6324120320.2829514     
   6139574732.1035576     
   5957346311.6860046     
   5777417031.7342091     
   5599823253.4462013     
   6708788222.1658564     
   6513565473.1849298     
   6321824444.7024813     
   6133468909.4704065     
   5948503818.0085669     
   4646515516.1634274     
   4509875357.2617302     
   4375648046.2191238     
   4243989149.2612243     
   4115104937.2001553     
   4944849963.3341675     
   4798817436.8697615     
   4654079868.3486261     
   4510758148.0293198     
   4369013677.2664137     
   5264084505.4832277     
   5109255938.9114866     
   4954704425.3650436     
   4800506929.3902235     
   4646774871.6251726     
   5599823253.4462013     
   5437005022.3178492     
   5273553208.5354061     
   5109498589.0222034     
   4944905022.2742052     
   5948503818.0085669     
   5778647613.7403784     
   5607356236.8559542     
   5434617108.2620687     
   5260454353.7188892     
   4115104937.2001553     
   3955565971.6816659     
   3798859165.9902024     
   3645252733.6459289     
   3495129610.2813759     
   4369013677.2664137     
   4194652668.9729362     
   4022365833.7080131     
   3852314429.8868375     
   3684747154.0647640     
   4646774871.6251726     
   4459373289.2058630     
   4273531316.5358758     
   4089326912.2082453     
   3906902664.7616982     
   4944905022.2742052     
   4746054089.4874620     
   4548461687.4744005     
   4352147614.3351297     
   4157180330.4894385     
   5260454353.7188892     
   5051540565.0490360     
   4843760622.1258554     
   4637097715.8479128     
   4431574607.0836716     
   3495129610.2813759     
   3406509478.8413687     
   3318519160.1498919     
   3231253690.6985321     
   3144819868.7601972     
   3684747154.0647640     
   3588164214.3527255     
   3492583379.1325603     
   3398218000.6410489     
   3305327673.0543690     
   3906902664.7616982     
   3798282008.1504722     
   3690426584.8839669     
   3583621929.2046709     
   3478256583.5070348     
   4157180330.4894385     
   4032327037.2773309     
   3907481271.4236050     
   3782941126.7231183     
   3659180160.8217874     
   4431574607.0836716     
   4286302286.4984736     
   4139867214.1701665     
   3992505984.8790689     
   3844709204.7201967     
   3144819868.7601972     
   2950333835.4472423     
   2764908680.6271610     
   2589830927.1717587     
   2427286444.3640022     
   3305327673.0543690     
   3087413942.6231418     
   2873270556.0747323     
   2663352970.0927119     
   2458404178.7881207     
   3478256583.5070348     
   3253342587.2092786     
   3029332830.7569184     
   2806309819.7542734     
   2584410374.8032117     
   3659180160.8217874     
   3444169351.8959284     
   3229465393.0396032     
   3015318945.5397735     
   2802293795.3526235     
   3844709204.7201967     
   3656205487.4866076     
   3469335511.5436325     
   3284792742.9419198     
   3104125885.0119605     
 </DataArray>
 <DataArray  type="Float64" Name="strain" NumberOfComponents="3" format="ascii">
  0.20348510993130209        0.0000000000000000       0.12540217346534821     
  0.18665580162060399       -2.7323747072200429E-002   7.4351086813369299E-002
  0.16982649330990593       -4.4674783485894050E-002   3.5133137108699197E-002
  0.15299718499920784       -5.2053109241080836E-002   7.7483243513378625E-003
  0.13616787668850977       -4.9458724337760829E-002  -7.8033514587146635E-003
  0.15985563948764669        0.0000000000000000        9.6446698249993995E-002
  0.15317803082888248       -2.1843883454358233E-002   6.2689985683014260E-002
  0.14650042217011822       -3.6173837758923778E-002   3.7403535472593438E-002
  0.13982281351135398       -4.2989862913696636E-002   2.0587347618731482E-002
  0.13314520485258977       -4.2291958918676834E-002   1.2241422121428425E-002
  0.12645866052021568        0.0000000000000000        7.4200477406839077E-002
  0.12656987692263538       -1.6364019836516024E-002   5.5279357416144398E-002
  0.12668109332505512       -2.7672892031953503E-002   4.1465625191258702E-002
  0.12679230972747482       -3.3926616586312429E-002   3.2759280732181997E-002
  0.12690352612989453       -3.5125193499592811E-002   2.9160324038914262E-002
  0.10329417302900906        0.0000000000000000        5.8663510935883408E-002
  0.10683133990186279       -1.0884156218673819E-002   5.2119202012759637E-002
  0.11036850677471655       -1.9171946304983228E-002   4.7319406264694913E-002
  0.11390567364757030       -2.4863370258928225E-002   4.4264123691689354E-002
  0.11744284052042406       -2.7958428080508812E-002   4.2953354293742807E-002
   9.0362177014026795E-002   0.0000000000000000        4.9835798837127021E-002
   9.3962419766564692E-002  -5.4042926008316151E-003   5.3209519472860019E-002
   9.7562662519102575E-002  -1.0671000578012957E-002   5.4964878692902182E-002
  0.10116290527164046       -1.5800123931544018E-002   5.5101876497253559E-002
  0.10476314802417838       -2.0791662661424810E-002   5.3620512885914115E-002
  0.13616787668850977       -4.9458724337760829E-002  -7.8033514587146635E-003
  0.13296006643123504       -4.2925830165634504E-002  -3.3936456905619417E-003
  0.12975225617396030       -3.8488628114402471E-002  -3.9509844645933823E-004
  0.12654444591668557       -3.6147118184064603E-002   1.1922902735932682E-003
  0.12333663565941083       -3.5901300374621054E-002   1.3685204695958741E-003
  0.13314520485258977       -4.2291958918676834E-002   1.2241422121428425E-002
  0.12891360970528656       -3.8427517802230041E-002   1.2181221122910934E-002
  0.12468201455798335       -3.5743931592721975E-002   1.1484608868386540E-002
  0.12045041941068010       -3.4241200290152665E-002   1.0151585357855122E-002
  0.11621882426337693       -3.3919323894522097E-002   8.1821505913168696E-003
  0.12690352612989453       -3.5125193499592811E-002   2.9160324038914262E-002
  0.12242289336060595       -3.3929205438825549E-002   2.5545053487682132E-002
  0.11794226059131732       -3.2999235071041501E-002   2.2068118948486051E-002
  0.11346162782202872       -3.2335282396240714E-002   1.8729520421326241E-002
  0.10898099505274009       -3.1937347414423153E-002   1.5529257906202541E-002
  0.11744284052042406       -2.7958428080508812E-002   4.2953354293742807E-002
  0.11348791739719313       -2.9430893075421072E-002   3.6697851403751446E-002
  0.10953299427396225       -3.0254538549361037E-002   3.1355431793839358E-002
  0.10557807115073135       -3.0429364502328776E-002   2.6926095464006497E-002
  0.10162314802750044       -2.9955370934324231E-002   2.3409842414252924E-002
  0.10476314802417838       -2.0791662661424810E-002   5.3620512885914115E-002
  0.10210868181504826       -2.4932580712016591E-002   4.5639614871119116E-002
   9.9454215605918148E-002  -2.7509842027680576E-002   3.9346547404446430E-002
   9.6799749396788023E-002  -2.8523446608416811E-002   3.4741310485896092E-002
   9.4145283187657913E-002  -2.7973394454225281E-002   3.1823904115468066E-002
  0.12333663565941083       -3.5901300374621054E-002   1.3685204695958741E-003
  0.12041587722606958       -3.6397173187974405E-002   6.5029158352716832E-004
  0.11749511879272834       -3.6280735126027704E-002   1.1215282714401031E-004
  0.11457436035938706       -3.5551986188780554E-002  -2.4589579955393293E-004
  0.11165360192604584       -3.4210926376233464E-002  -4.2385429656616180E-004
  0.11621882426337693       -3.3919323894522097E-002   8.1821505913168696E-003
  0.11346635593575134       -3.3992466541407529E-002   7.8336677152790329E-003
  0.11071388760812576       -3.3674792366386354E-002   7.6416749209870100E-003
  0.10796141928050017       -3.2966301369458544E-002   7.6061722084408805E-003
  0.10520895095287464       -3.1866993550624001E-002   7.7271595776408075E-003
  0.10898099505274009       -3.1937347414423153E-002   1.5529257906202541E-002
  0.10637321678289069       -3.1587759894840632E-002   1.5329026986801851E-002
  0.10376543851304125       -3.1068849606745056E-002   1.5261686101207688E-002
  0.10115766024319184       -3.0380616550136311E-002   1.5327235249419808E-002
   9.8549881973342399E-002  -2.9523060725014483E-002   1.5525674431438458E-002
  0.10162314802750044       -2.9955370934324231E-002   2.3409842414252924E-002
   9.9136459767487625E-002  -2.9183053248273718E-002   2.3136369398096011E-002
   9.6649771507474863E-002  -2.8462906847103731E-002   2.2972186367805965E-002
   9.4163083247462018E-002  -2.7794931730814161E-002   2.2917293323382854E-002
   9.1676394987449256E-002  -2.7179127899404992E-002   2.2971690264826566E-002
   9.4145283187657913E-002  -2.7973394454225281E-002   3.1823904115468066E-002
   9.1756084889542233E-002  -2.6778346601706859E-002   3.1255694949161347E-002
   8.9366886591426511E-002  -2.5856964087462422E-002   3.0773175720781948E-002
   8.6977688293310818E-002  -2.5209246911491959E-002   3.0376346430329930E-002
   8.4588489995195110E-002  -2.4835195073795474E-002   3.0065207077805189E-002
  0.11165360192604584       -3.4210926376233464E-002  -4.2385429656616180E-004
  0.10853038736925530       -3.2690502045747916E-002  -2.0883522599185467E-004
  0.10540717281246467       -3.1423659554685235E-002   1.0507110031510170E-004
  0.10228395825567412       -3.0410398903045796E-002   5.1786468235395788E-004
   9.9160743698883502E-002  -2.9650720090829696E-002   1.0295455201255743E-003
  0.10520895095287464       -3.1866993550624001E-002   7.7271595776408075E-003
  0.10220563179232475       -3.0648322034621561E-002   7.5459331488655912E-003
   9.9202312631774814E-002  -2.9581739946189969E-002   7.5056102568394484E-003
   9.6198993471224972E-002  -2.8667247285329326E-002   7.6061909015621987E-003
   9.3195674310675047E-002  -2.7904844052039302E-002   7.8476750830340503E-003
   9.8549881973342399E-002  -2.9523060725014483E-002   1.5525674431438458E-002
   9.5708474490049919E-002  -2.8606142023495401E-002   1.5049694915165904E-002
   9.2867067006757453E-002  -2.7739820337694759E-002   1.4756635216659132E-002
   9.0025659523464960E-002  -2.6924095667612689E-002   1.4646495335918094E-002
   8.7184252040172466E-002  -2.6158968013249073E-002   1.4719275272942783E-002
   9.1676394987449256E-002  -2.7179127899404992E-002   2.2971690264826566E-002
   8.9038915462430840E-002  -2.6563962012369199E-002   2.2302450072909093E-002
   8.6401435937412466E-002  -2.5897900729199411E-002   2.1858145979774073E-002
   8.3763956412394050E-002  -2.5180944049896067E-002   2.1638777985421336E-002
   8.1126476887375676E-002  -2.4413091974458789E-002   2.1644346089851198E-002
   8.4588489995195110E-002  -2.4835195073795474E-002   3.0065207077805189E-002
   8.2196954709467515E-002  -2.4521782001242914E-002   2.9304198622095129E-002
   7.9805419423739921E-002  -2.4055981120704201E-002   2.8810142546184039E-002
   7.7413884138012312E-002  -2.3437792432179506E-002   2.8583038850072254E-002
   7.5022348852284731E-002  -2.2667215935668422E-002   2.8622887533759467E-002
   9.9160743698883502E-002  -2.9650720090829696E-002   1.0295455201255743E-003
   9.6292751010406519E-002  -2.8961968482522887E-002   8.6438923013670843E-004
   9.3424758321929480E-002  -2.8161489442610405E-002   8.2795313035086138E-004
   9.0556765633452468E-002  -2.7249282971093601E-002   9.2023722076886583E-004
   8.7688772944975457E-002  -2.6225349067971249E-002   1.1412415013895005E-003
   9.3195674310675047E-002  -2.7904844052039302E-002   7.8476750830340503E-003
   9.0460550432860276E-002  -2.7182108581362607E-002   7.7325551981848317E-003
   8.7725426555045422E-002  -2.6386619208340734E-002   7.7544527444568107E-003
   8.4990302677230664E-002  -2.5518375932974097E-002   7.9133677218495221E-003
   8.2255178799415851E-002  -2.4577378755262447E-002   8.2093001303637503E-003
   8.7184252040172466E-002  -2.6158968013249073E-002   1.4719275272942783E-002
   8.4590294213937628E-002  -2.5402248680202424E-002   1.4615218263973245E-002
   8.1996336387702776E-002  -2.4611748974070854E-002   1.4656475927042195E-002
   7.9402378561467923E-002  -2.3787468894854762E-002   1.4843048262150195E-002
   7.6808420735233113E-002  -2.2929408442553811E-002   1.5174935269296863E-002
   8.1126476887375676E-002  -2.4413091974458789E-002   2.1644346089851198E-002
   7.8681982353638547E-002  -2.3622388779042248E-002   2.1512378427500908E-002
   7.6237487819901445E-002  -2.2836878739801079E-002   2.1534022678107192E-002
   7.3792993286164343E-002  -2.2056561856735345E-002   2.1709278841670128E-002
   7.1348498752427214E-002  -2.1281438129844982E-002   2.2038146918189477E-002
   7.5022348852284731E-002  -2.2667215935668422E-002   2.8622887533759467E-002
   7.2735614851963087E-002  -2.1842528877882100E-002   2.8424035688768390E-002
   7.0448880851641485E-002  -2.1062008505531214E-002   2.8387092997651811E-002
   6.8162146851319855E-002  -2.0325654818616083E-002   2.8512059460409474E-002
   6.5875412850998238E-002  -1.9633467817136097E-002   2.8798935077041621E-002
   8.7688772944975457E-002  -2.6225349067971249E-002   1.1412415013895005E-003
   8.4207616779615080E-002  -2.5186101121405569E-002   7.3872779921596576E-004
   8.0726460614254814E-002  -2.4227952519557228E-002   4.9788116146287642E-004
   7.7245304448894520E-002  -2.3350903262426559E-002   4.1870158812967739E-004
   7.3764148283534170E-002  -2.2554953350013895E-002   5.0118907921647970E-004
   8.2255178799415851E-002  -2.4577378755262447E-002   8.2093001303637503E-003
   7.8944771700542177E-002  -2.3629806898737726E-002   7.7323525669156234E-003
   7.5634364601668586E-002  -2.2741839586931156E-002   7.4352360720204569E-003
   7.2323957502794980E-002  -2.1913476819842584E-002   7.3179506456785975E-003
   6.9013550403921320E-002  -2.1144718597472134E-002   7.3804962878901148E-003
   7.6808420735233113E-002  -2.2929408442553811E-002   1.5174935269296863E-002
   7.3686926706979100E-002  -2.2073512676069801E-002   1.4645048644573694E-002
   7.0565432678725101E-002  -2.1255726654304530E-002   1.4313157092536430E-002
   6.7443938650471158E-002  -2.0476050377258054E-002   1.4179260613185848E-002
   6.4322444622217173E-002  -1.9734483844930206E-002   1.4243359206520950E-002
   7.1348498752427214E-002  -2.1281438129844982E-002   2.2038146918189477E-002
   6.8434081798925850E-002  -2.0517218453401917E-002   2.1476816032190704E-002
   6.5519664845424444E-002  -1.9769613721678014E-002   2.1131644223010858E-002
   6.2605247891923094E-002  -1.9038623934673635E-002   2.1002631490650334E-002
   5.9690830938421674E-002  -1.8324249092388362E-002   2.1089777835108674E-002
   6.5875412850998238E-002  -1.9633467817136097E-002   2.8798935077041621E-002
   6.3186236976382426E-002  -1.8960924230733950E-002   2.8227654729766544E-002
   6.0497061101766586E-002  -1.8283500789051693E-002   2.7890697463443526E-002
   5.7807885227150704E-002  -1.7601197492089292E-002   2.7788063278072456E-002
   5.5118709352534934E-002  -1.6914014339846573E-002   2.7919752173653445E-002
   7.3764148283534170E-002  -2.2554953350013895E-002   5.0118907921647970E-004
   7.1361353973028008E-002  -2.1751943631031778E-002   4.9670969699999734E-004
   6.8958559662521957E-002  -2.0853714954194774E-002   8.8695249769393802E-004
   6.6555765352015850E-002  -1.9860267319501974E-002   1.6719174812991067E-003
   6.4152971041509743E-002  -1.8771600726953608E-002   2.8516046478151980E-003
   6.9013550403921320E-002  -2.1144718597472134E-002   7.3804962878901148E-003
   6.6958633457493921E-002  -2.0367800798796409E-002   7.4742355123421644E-003
   6.4903716511066578E-002  -1.9514959302791818E-002   7.8690072820404577E-003
   6.2848799564639152E-002  -1.8586194109458921E-002   8.5648115969849531E-003
   6.0793882618211781E-002  -1.7581505218796645E-002   9.5616484571763305E-003
   6.4322444622217173E-002  -1.9734483844930206E-002   1.4243359206520950E-002
   6.2521715402204081E-002  -1.8983657966560624E-002   1.4416021777114568E-002
   6.0720986182190989E-002  -1.8176203651389292E-002   1.4796027255290486E-002
   5.8920256962177911E-002  -1.7312120899415532E-002   1.5383375641048212E-002
   5.7119527742164861E-002  -1.6391409710639460E-002   1.6178066934388169E-002
   5.9690830938421674E-002  -1.8324249092388362E-002   2.1089777835108674E-002
   5.8050599807158473E-002  -1.7599515134325047E-002   2.1322068491317674E-002
   5.6410368675895300E-002  -1.6837447999986384E-002   2.1668012417444312E-002
   5.4770137544632100E-002  -1.6038047689372087E-002   2.2127609613488579E-002
   5.3129906413368864E-002  -1.5201314202482497E-002   2.2700860079450338E-002
   5.5118709352534934E-002  -1.6914014339846573E-002   2.7919752173653445E-002
   5.3545286672357167E-002  -1.6215372302089553E-002   2.8192375654951141E-002
   5.1971863992179401E-002  -1.5498692348583712E-002   2.8484962768501987E-002
   5.0398441312001607E-002  -1.4763974479328926E-002   2.8797513514305914E-002
   4.8825018631823924E-002  -1.4011218694325200E-002   2.9130027892363186E-002
   6.4152971041509743E-002  -1.8771600726953608E-002   2.8516046478151980E-003
   6.1038718050107965E-002  -1.7722644584400982E-002   2.6149729480464678E-003
   5.7924465058706243E-002  -1.6848328299694793E-002   1.7584461247718286E-003
   5.4810212067304492E-002  -1.6148651872834888E-002   2.8202417799175206E-004
   5.1695959075902742E-002  -1.5623615303821392E-002  -1.8142928922944002E-003
   6.0793882618211781E-002  -1.7581505218796645E-002   9.5616484571763305E-003
   5.7208899465841567E-002  -1.6602666384965103E-002   9.0077834327781381E-003
   5.3623916313471298E-002  -1.5751451362124136E-002   8.1323532099485396E-003
   5.0038933161101029E-002  -1.5027860150272507E-002   6.9353577886878681E-003
   4.6453950008730760E-002  -1.4431892749410480E-002   5.4167971689955685E-003
   5.7119527742164861E-002  -1.6391409710639460E-002   1.6178066934388169E-002
   5.3362144353900798E-002  -1.5482688185529447E-002   1.5353984632216322E-002
   4.9604760965636666E-002  -1.4654574424552896E-002   1.4506667056688155E-002
   4.5847377577372637E-002  -1.3907068427709730E-002   1.3636114207803279E-002
   4.2089994189108526E-002  -1.3240170195000234E-002   1.2742326085562139E-002
   5.3129906413368864E-002  -1.5201314202482497E-002   2.2700860079450338E-002
   4.9498452714285698E-002  -1.4362709986093458E-002   2.1653576546361672E-002
   4.5866999015202567E-002  -1.3557697486981948E-002   2.0881387664991161E-002
   4.2235545316119470E-002  -1.2786276705146930E-002   2.0384293435338850E-002
   3.8604091617036207E-002  -1.2048447640589433E-002   2.0162293857404867E-002
   4.8825018631823924E-002  -1.4011218694325200E-002   2.9130027892363186E-002
   4.5617824546996366E-002  -1.3242731786657524E-002   2.7906559175214063E-002
   4.2410630462168808E-002  -1.2460820549410889E-002   2.7256515034857709E-002
   3.9203436377341264E-002  -1.1665484982584240E-002   2.7179895471294430E-002
   3.5996242292513747E-002  -1.0856725086178853E-002   2.7676700484523975E-002
   9.0362177014026795E-002   0.0000000000000000        4.9835798837127021E-002
   9.3962419766564692E-002  -5.4042926008316151E-003   5.3209519472860019E-002
   9.7562662519102575E-002  -1.0671000578012957E-002   5.4964878692902182E-002
  0.10116290527164046       -1.5800123931544018E-002   5.5101876497253559E-002
  0.10476314802417838       -2.0791662661424810E-002   5.3620512885914115E-002
   8.2424742147181707E-002   0.0000000000000000        4.4784414886767557E-002
   8.4635549407351157E-002  -4.5742137021320224E-003   4.8267953863628137E-002
   8.6846356667520594E-002  -9.0374888324037447E-003   5.0590983271442617E-002
   8.9057163927690003E-002  -1.3389825390815163E-002   5.1753503110211013E-002
   9.1267971187859467E-002  -1.7631223377366285E-002   5.1755513379933296E-002
   7.4243938100386569E-002   0.0000000000000000        4.0576432861002674E-002
   7.5523161714832254E-002  -3.7441348034324279E-003   4.4143144127200884E-002
   7.6802385329277953E-002  -7.4039770867945290E-003   4.7007197670997682E-002
   7.8081608943723652E-002  -1.0979526850086309E-002   4.9168593492393151E-002
   7.9360832558169336E-002  -1.4470784093307760E-002   5.0627331591387180E-002
   6.5819764873641370E-002   0.0000000000000000        3.7211852759832374E-002
   6.6625256689008039E-002  -2.9140559047328343E-003   4.0835090263578219E-002
   6.7430748504374707E-002  -5.7704653411853185E-003   4.4213521891567388E-002
   6.8236240319741376E-002  -8.5692283093574510E-003   4.7347147643799888E-002
   6.9041732135108044E-002  -1.1310344809249234E-002   5.0235967520275739E-002
   5.7152222466946123E-002   0.0000000000000000        3.4690674583256656E-002
   5.7941834329878483E-002  -2.0839770060332406E-003   3.8343792272760163E-002
   5.8731446192810836E-002  -4.1369535955761028E-003   4.2209955933151723E-002
   5.9521058055743203E-002  -6.1589297686286005E-003   4.6289165564431328E-002
   6.0310669918675550E-002  -8.1499055251907111E-003   5.0581421166598965E-002
  0.10476314802417838       -2.0791662661424810E-002   5.3620512885914115E-002
  0.10210868181504826       -2.4932580712016591E-002   4.5639614871119116E-002
   9.9454215605918148E-002  -2.7509842027680576E-002   3.9346547404446430E-002
   9.6799749396788023E-002  -2.8523446608416811E-002   3.4741310485896092E-002
   9.4145283187657913E-002  -2.7973394454225281E-002   3.1823904115468066E-002
   9.1267971187859467E-002  -1.7631223377366285E-002   5.1755513379933296E-002
   9.0064011219636225E-002  -2.1206519117115925E-002   4.6517790592886854E-002
   8.8860051251412969E-002  -2.3560548935122893E-002   4.2493249739531780E-002
   8.7656091283189741E-002  -2.4693312831387173E-002   3.9681890819868205E-002
   8.6452131314966513E-002  -2.4604810805908803E-002   3.8083713833896027E-002
   7.9360832558169336E-002  -1.4470784093307760E-002   5.0627331591387180E-002
   7.9132730216422059E-002  -1.7480457522215276E-002   4.7790393218904201E-002
   7.8904627874674782E-002  -1.9611255842565203E-002   4.5691988165681693E-002
   7.8676525532927505E-002  -2.0863179054357563E-002   4.4332116431719686E-002
   7.8448423191180255E-002  -2.1236227157592352E-002   4.3710778017018170E-002
   6.9041732135108044E-002  -1.1310344809249234E-002   5.0235967520275739E-002
   6.9314838805405801E-002  -1.3754395927314606E-002   4.9457422749171122E-002
   6.9587945475703558E-002  -1.5661962750007495E-002   4.8942762682896039E-002
   6.9861052146001273E-002  -1.7033045277327939E-002   4.8691987321450525E-002
   7.0134158816299044E-002  -1.7867643509275888E-002   4.8705096664834663E-002
   6.0310669918675550E-002  -8.1499055251907111E-003   5.0581421166598965E-002
   6.0610336986587417E-002  -1.0028334332413949E-002   5.1518879183687624E-002
   6.0910004054499277E-002  -1.1712669657449827E-002   5.2245573291174900E-002
   6.1209671122411130E-002  -1.3202911500298314E-002   5.2761503489060821E-002
   6.1509338190322983E-002  -1.4499059860959430E-002   5.3066669777345400E-002
   9.4145283187657913E-002  -2.7973394454225281E-002   3.1823904115468066E-002
   9.1756084889542233E-002  -2.6778346601706859E-002   3.1255694949161347E-002
   8.9366886591426511E-002  -2.5856964087462422E-002   3.0773175720781948E-002
   8.6977688293310818E-002  -2.5209246911491959E-002   3.0376346430329930E-002
   8.4588489995195110E-002  -2.4835195073795474E-002   3.0065207077805189E-002
   8.6452131314966513E-002  -2.4604810805908803E-002   3.8083713833896027E-002
   8.4193852776247774E-002  -2.3959721773886864E-002   3.7059299614499275E-002
   8.1935574237529035E-002  -2.3422724650520376E-002   3.6211034975969114E-002
   7.9677295698810310E-002  -2.2993819435809412E-002   3.5538919918305600E-002
   7.7419017160091530E-002  -2.2673006129753898E-002   3.5042954441508525E-002
   7.8448423191180255E-002  -2.1236227157592352E-002   4.3710778017018170E-002
   7.6411524054797703E-002  -2.1141096946066862E-002   4.2395732174149894E-002
   7.4374624918415136E-002  -2.0988485213578358E-002   4.1347295555087475E-002
   7.2337725782032583E-002  -2.0778391960126846E-002   4.0565468159830934E-002
   7.0300826645650058E-002  -2.0510817185712335E-002   4.0050249988380165E-002
   7.0134158816299044E-002  -1.7867643509275888E-002   4.8705096664834663E-002
   6.8409098725191964E-002  -1.8322472118246877E-002   4.7264992628113338E-002
   6.6684038634084855E-002  -1.8554245776636318E-002   4.6181957458137191E-002
   6.4958978542977774E-002  -1.8562964484444319E-002   4.5455991154906020E-002
   6.3233918451870652E-002  -1.8348628241670793E-002   4.5087093718420033E-002
   6.1509338190322983E-002  -1.4499059860959430E-002   5.3066669777345400E-002
   6.0186576787430571E-002  -1.5503847290426868E-002   5.1667080976389619E-002
   5.8863815384538151E-002  -1.6120006339694293E-002   5.0715020685118170E-002
   5.7541053981645753E-002  -1.6347537008761744E-002   5.0210488903530984E-002
   5.6218292578753326E-002  -1.6186439297629182E-002   5.0153485631628150E-002
   8.4588489995195110E-002  -2.4835195073795474E-002   3.0065207077805189E-002
   8.2196954709467515E-002  -2.4521782001242914E-002   2.9304198622095129E-002
   7.9805419423739921E-002  -2.4055981120704201E-002   2.8810142546184039E-002
   7.7413884138012312E-002  -2.3437792432179506E-002   2.8583038850072254E-002
   7.5022348852284731E-002  -2.2667215935668422E-002   2.8622887533759467E-002
   7.7419017160091530E-002  -2.2673006129753898E-002   3.5042954441508525E-002
   7.5283523243869790E-002  -2.2350720830481507E-002   3.4454029147704915E-002
   7.3148029327648023E-002  -2.1917399636119710E-002   3.4110234213113821E-002
   7.1012535411426256E-002  -2.1373042546668761E-002   3.4011569637735273E-002
   6.8877041495204502E-002  -2.0717649562128265E-002   3.4158035421569255E-002
   7.0300826645650058E-002  -2.0510817185712335E-002   4.0050249988380165E-002
   6.8399552078347511E-002  -2.0179659659720087E-002   3.9592055943586217E-002
   6.6498277511045006E-002  -1.9778818151535330E-002   3.9357170237418269E-002
   6.4597002943742488E-002  -1.9308292661157998E-002   3.9345592869876121E-002
   6.2695728376439941E-002  -1.8768083188588122E-002   3.9557323840960078E-002
   6.3233918451870652E-002  -1.8348628241670793E-002   4.5087093718420033E-002
   6.1545041212900782E-002  -1.8008598488958673E-002   4.4718279009739043E-002
   5.9856163973930829E-002  -1.7640236666950811E-002   4.4550950619097279E-002
   5.8167286734960931E-002  -1.7243542775647283E-002   4.4585108546494896E-002
   5.6478409495991005E-002  -1.6818516815048028E-002   4.4820752791931845E-002
   5.6218292578753326E-002  -1.6186439297629182E-002   5.0153485631628150E-002
   5.4719990647529443E-002  -1.5837537318197245E-002   4.9832698346163204E-002
   5.3221688716305546E-002  -1.5501655182366372E-002   4.9691575358150976E-002
   5.1723386785081649E-002  -1.5178792890136565E-002   4.9730116667591459E-002
   5.0225084853857738E-002  -1.4868950441507822E-002   4.9948322274484591E-002
   7.5022348852284731E-002  -2.2667215935668422E-002   2.8622887533759467E-002
   7.2735614851963087E-002  -2.1842528877882100E-002   2.8424035688768390E-002
   7.0448880851641485E-002  -2.1062008505531214E-002   2.8387092997651811E-002
   6.8162146851319855E-002  -2.0325654818616083E-002   2.8512059460409474E-002
   6.5875412850998238E-002  -1.9633467817136097E-002   2.8798935077041621E-002
   6.8877041495204502E-002  -2.0717649562128265E-002   3.4158035421569255E-002
   6.6758391839345801E-002  -2.0015510279709978E-002   3.3898498013097939E-002
   6.4639742183487114E-002  -1.9330914296625284E-002   3.3813220139677955E-002
   6.2521092527628414E-002  -1.8663861612874234E-002   3.3902201801309359E-002
   6.0402442871769657E-002  -1.8014352228456737E-002   3.4165442997992485E-002
   6.2695728376439941E-002  -1.8768083188588122E-002   3.9557323840960078E-002
   6.0757513446221260E-002  -1.8188491681537869E-002   3.9263724255110183E-002
   5.8819298516002538E-002  -1.7599820087719330E-002   3.9156734585488864E-002
   5.6881083585783837E-002  -1.7002068407132500E-002   3.9236354832096067E-002
   5.4942868655565122E-002  -1.6395236639777350E-002   3.9502584994931811E-002
   5.6478409495991005E-002  -1.6818516815048028E-002   4.4820752791931845E-002
   5.4732979672589381E-002  -1.6361473083365725E-002   4.4519714414805352E-002
   5.2987549849187771E-002  -1.5868725878813390E-002   4.4417636335084644E-002
   5.1242120025786146E-002  -1.5340275201390708E-002   4.4514518552769340E-002
   4.9496690202384480E-002  -1.4776121051097865E-002   4.4810361067859870E-002
   5.0225084853857738E-002  -1.4868950441507822E-002   4.9948322274484591E-002
   4.8684790518450274E-002  -1.4534454485193693E-002   4.9666468492183563E-002
   4.7144496183042811E-002  -1.4137631669907363E-002   4.9595925388465245E-002
   4.5604201847635348E-002  -1.3678481995649021E-002   4.9736692963329499E-002
   4.4063907512227884E-002  -1.3157005462418547E-002   5.0088771216776518E-002
   6.5875412850998238E-002  -1.9633467817136097E-002   2.8798935077041621E-002
   6.3186236976382426E-002  -1.8960924230733950E-002   2.8227654729766544E-002
   6.0497061101766586E-002  -1.8283500789051693E-002   2.7890697463443526E-002
   5.7807885227150704E-002  -1.7601197492089292E-002   2.7788063278072456E-002
   5.5118709352534934E-002  -1.6914014339846573E-002   2.7919752173653445E-002
   6.0402442871769657E-002  -1.8014352228456737E-002   3.4165442997992485E-002
   5.7942172354841323E-002  -1.7376389091984787E-002   3.3601806019838268E-002
   5.5481901837913017E-002  -1.6743975152069941E-002   3.3261656676106838E-002
   5.3021631320984711E-002  -1.6117110408712748E-002   3.3144994966798576E-002
   5.0561360804056321E-002  -1.5495794861912715E-002   3.3251820891913197E-002
   5.4942868655565122E-002  -1.6395236639777350E-002   3.9502584994931811E-002
   5.2700668049795160E-002  -1.5791853953235527E-002   3.8936162334060880E-002
   5.0458467444025247E-002  -1.5204449515088411E-002   3.8582391861083962E-002
   4.8216266838255306E-002  -1.4633023325336208E-002   3.8441273576000655E-002
   4.5974066232485358E-002  -1.4077575383978774E-002   3.8512807478811292E-002
   4.9496690202384480E-002  -1.4776121051097865E-002   4.4810361067859870E-002
   4.7461724061243896E-002  -1.4207318814486260E-002   4.4230723672434719E-002
   4.5426757920103290E-002  -1.3664923878106798E-002   4.3852903018374606E-002
   4.3391791778962692E-002  -1.3148936241959569E-002   4.3676899105679012E-002
   4.1356825637822107E-002  -1.2659355906044820E-002   4.3702711934348465E-002
   4.4063907512227884E-002  -1.3157005462418547E-002   5.0088771216776518E-002
   4.2225340389187488E-002  -1.2622783675736965E-002   4.9485490034959750E-002
   4.0386773266147147E-002  -1.2125398241125157E-002   4.9073190147978923E-002
   3.8548206143106750E-002  -1.1664849158583047E-002   4.8851871555833370E-002
   3.6709639020066409E-002  -1.1241136428110921E-002   4.8821534258523924E-002
   5.5118709352534934E-002  -1.6914014339846573E-002   2.7919752173653445E-002
   5.3545286672357167E-002  -1.6215372302089553E-002   2.8192375654951141E-002
   5.1971863992179401E-002  -1.5498692348583712E-002   2.8484962768501987E-002
   5.0398441312001607E-002  -1.4763974479328926E-002   2.8797513514305914E-002
   4.8825018631823924E-002  -1.4011218694325200E-002   2.9130027892363186E-002
   5.0561360804056321E-002  -1.5495794861912715E-002   3.3251820891913197E-002
   4.9030189501975768E-002  -1.4860928376351251E-002   3.3542130590876851E-002
   4.7499018199895271E-002  -1.4193410816709509E-002   3.3896979413781989E-002
   4.5967846897814718E-002  -1.3493242182987548E-002   3.4316367360628174E-002
   4.4436675595734221E-002  -1.2760422475185496E-002   3.4800294431415246E-002
   4.5974066232485358E-002  -1.4077575383978774E-002   3.8512807478811292E-002
   4.4529721800190041E-002  -1.3506484450612907E-002   3.8835416553772775E-002
   4.3085377367894653E-002  -1.2888129284835577E-002   3.9267140244363292E-002
   4.1641032935599315E-002  -1.2222509886646334E-002   3.9807978550582934E-002
   4.0196688503303990E-002  -1.1509626256045624E-002   4.0457931472431957E-002
   4.1356825637822107E-002  -1.2659355906044820E-002   4.3702711934348465E-002
   4.0043883566999873E-002  -1.2152040524874612E-002   4.4072233543638845E-002
   3.8730941496177687E-002  -1.1582847752961426E-002   4.4595445260246204E-002
   3.7417999425355473E-002  -1.0951777590305176E-002   4.5272347084170841E-002
   3.6105057354533274E-002  -1.0258830036905892E-002   4.6102939015412472E-002
   3.6709639020066409E-002  -1.1241136428110921E-002   4.8821534258523924E-002
   3.5572674802405307E-002  -1.0797596599136317E-002   4.9252581560474684E-002
   3.4435710584744234E-002  -1.0277566221087456E-002   4.9881894461430570E-002
   3.3298746367083160E-002  -9.6810452939637727E-003   5.0709472961391486E-002
   3.2161782149422058E-002  -9.0080338177659369E-003   5.1735317060357722E-002
   4.8825018631823924E-002  -1.4011218694325200E-002   2.9130027892363186E-002
   4.5617824546996366E-002  -1.3242731786657524E-002   2.7906559175214063E-002
   4.2410630462168808E-002  -1.2460820549410889E-002   2.7256515034857709E-002
   3.9203436377341264E-002  -1.1665484982584240E-002   2.7179895471294430E-002
   3.5996242292513747E-002  -1.0856725086178853E-002   2.7676700484523975E-002
   4.4436675595734221E-002  -1.2760422475185496E-002   3.4800294431415246E-002
   4.1724232502312997E-002  -1.2014415689252433E-002   3.3650081778419383E-002
   3.9011789408891745E-002  -1.1274685821137831E-002   3.2915946531443002E-002
   3.6299346315470507E-002  -1.0541232870841480E-002   3.2597888690486437E-002
   3.3586903222049325E-002  -9.8140568383636717E-003   3.2695908255548911E-002
   4.0196688503303990E-002  -1.1509626256045624E-002   4.0457931472431957E-002
   3.7821649230515758E-002  -1.0786099591847093E-002   3.9361273636191435E-002
   3.5446609957727533E-002  -1.0088551092864828E-002   3.8523346035197331E-002
   3.3071570684939322E-002  -9.4169807590985255E-003   3.7944148669449437E-002
   3.0696531412151173E-002  -8.7713885905484901E-003   3.7623681538948350E-002
   3.6105057354533274E-002  -1.0258830036905892E-002   4.6102939015412472E-002
   3.3910074731604761E-002  -9.5577834944417656E-003   4.5040134748530011E-002
   3.1715092108676242E-002  -8.9024163645917420E-003   4.4078713546120418E-002
   2.9520109485747670E-002  -8.2927286473554462E-003   4.3218675408183999E-002
   2.7325126862819217E-002  -7.7287203427333084E-003   4.2460020334720336E-002
   3.2161782149422058E-002  -9.0080338177659369E-003   5.1735317060357722E-002
   2.9989509005579978E-002  -8.3294673970365496E-003   5.0686665115435126E-002
   2.7817235861737816E-002  -7.7162816363188502E-003   4.9582049064212375E-002
   2.5644962717895695E-002  -7.1684765356126653E-003   4.8421468906689358E-002
   2.3472689574053573E-002  -6.6860520949181268E-003   4.7204924642865853E-002
   5.7152222466946123E-002   0.0000000000000000        3.4690674583256656E-002
   5.7941834329878483E-002  -2.0839770060332406E-003   3.8343792272760163E-002
   5.8731446192810836E-002  -4.1369535955761028E-003   4.2209955933151723E-002
   5.9521058055743203E-002  -6.1589297686286005E-003   4.6289165564431328E-002
   6.0310669918675550E-002  -8.1499055251907111E-003   5.0581421166598965E-002
   4.8652856208153898E-002   0.0000000000000000        3.2789693295002975E-002
   4.9590456605106387E-002  -1.7093703431825084E-003   3.6966090250686298E-002
   5.0528057002058875E-002  -3.4325106482721648E-003   4.1225418303521826E-002
   5.1465657399011364E-002  -5.1694209152689744E-003   4.5567677453509599E-002
   5.2403257795963866E-002  -6.9201011441729354E-003   4.9992867700649535E-002
   4.0733211425117807E-002   0.0000000000000000        3.1285703858798794E-002
   4.1688685482354590E-002  -1.3347636803317754E-003   3.5940609702264398E-002
   4.2644159539591366E-002  -2.7280677009682260E-003   4.0548331769146399E-002
   4.3599633596828155E-002  -4.1799120619093544E-003   4.5108870059444771E-002
   4.4555107654064945E-002  -5.6902967631551624E-003   4.9622224573159505E-002
   3.3393288117837830E-002   0.0000000000000000        3.0178706274644102E-002
   3.4236520961623079E-002  -9.6015701748104320E-004   3.5267350627494476E-002
   3.5079753805408315E-002  -2.0236247536642884E-003   4.0178696330025389E-002
   3.5922986649193550E-002  -3.1904032085497366E-003   4.4912743382236858E-002
   3.6766219492978799E-002  -4.4604923821373807E-003   4.9469491784128850E-002
   2.6633086286313976E-002   0.0000000000000000        2.9468700542538907E-002
   2.7233963042911841E-002  -5.8555035463031015E-004   3.4946313026376526E-002
   2.7834839799509705E-002  -1.3191818063603474E-003   4.0116511986158850E-002
   2.8435716556107573E-002  -2.2008943551901118E-003   4.4979297421885875E-002
   2.9036593312705437E-002  -3.2306880011196120E-003   4.9534669333557602E-002
   6.0310669918675550E-002  -8.1499055251907111E-003   5.0581421166598965E-002
   6.0610336986587417E-002  -1.0028334332413949E-002   5.1518879183687624E-002
   6.0910004054499277E-002  -1.1712669657449827E-002   5.2245573291174900E-002
   6.1209671122411130E-002  -1.3202911500298314E-002   5.2761503489060821E-002
   6.1509338190322983E-002  -1.4499059860959430E-002   5.3066669777345400E-002
   5.2403257795963866E-002  -6.9201011441729354E-003   4.9992867700649535E-002
   5.2530678893094658E-002  -8.5835039359896184E-003   5.1219314796505801E-002
   5.2658099990225478E-002  -1.0058581891724603E-002   5.2312033860401320E-002
   5.2785521087356291E-002  -1.1345335011377886E-002   5.3271024892336122E-002
   5.2912942184487083E-002  -1.2443763294949457E-002   5.4096287892310135E-002
   4.4555107654064945E-002  -5.6902967631551624E-003   4.9622224573159505E-002
   4.4587318658055312E-002  -7.1386735395652821E-003   5.1131892101677713E-002
   4.4619529662045673E-002  -8.4044941259993917E-003   5.2584867475875804E-002
   4.4651740666036055E-002  -9.4877585224574651E-003   5.3981150695753731E-002
   4.4683951670026416E-002  -1.0388466728939508E-002   5.5320741761311562E-002
   3.6766219492978799E-002  -4.4604923821373807E-003   4.9469491784128850E-002
   3.6780256281469331E-002  -5.6938431431409510E-003   5.1256611099203341E-002
   3.6794293069959891E-002  -6.7504063602741729E-003   5.3064074137598317E-002
   3.6808329858450430E-002  -7.6301820335370404E-003   5.4891880899313766E-002
   3.6822366646940961E-002  -8.3331701629295544E-003   5.6740031384349701E-002
   2.9036593312705437E-002  -3.2306880011196120E-003   4.9534669333557602E-002
   2.9109491763336770E-002  -4.2490127467166129E-003   5.1593471789082704E-002
   2.9182390213968103E-002  -5.0963185945489611E-003   5.3749653845568880E-002
   2.9255288664599432E-002  -5.7726055446166210E-003   5.6003215503016159E-002
   2.9328187115230768E-002  -6.2778735969195865E-003   5.8354156761424553E-002
   6.1509338190322983E-002  -1.4499059860959430E-002   5.3066669777345400E-002
   6.0186576787430571E-002  -1.5503847290426868E-002   5.1667080976389619E-002
   5.8863815384538151E-002  -1.6120006339694293E-002   5.0715020685118170E-002
   5.7541053981645753E-002  -1.6347537008761744E-002   5.0210488903530984E-002
   5.6218292578753326E-002  -1.6186439297629182E-002   5.0153485631628150E-002
   5.2912942184487083E-002  -1.2443763294949457E-002   5.4096287892310135E-002
   5.1986748751933924E-002  -1.3294309192384449E-002   5.3361178201580303E-002
   5.1060555319380752E-002  -1.3837415153627955E-002   5.2971675941844598E-002
   5.0134361886827586E-002  -1.4073081178679966E-002   5.2927781113103041E-002
   4.9208168454274420E-002  -1.4001307267540467E-002   5.3229493715355750E-002
   4.4683951670026416E-002  -1.0388466728939508E-002   5.5320741761311562E-002
   4.4052405129122368E-002  -1.1084771094342057E-002   5.5168922736799096E-002
   4.3420858588218328E-002  -1.1554823967561606E-002   5.5260790064590677E-002
   4.2789312047314280E-002  -1.1798625348598161E-002   5.5596343744686333E-002
   4.2157765506410247E-002  -1.1816175237451730E-002   5.6175583777086008E-002
   3.6822366646940961E-002  -8.3331701629295544E-003   5.6740031384349701E-002
   3.6383545918995917E-002  -8.8752329962996507E-003   5.7090314582046137E-002
   3.5944725191050866E-002  -9.2722327814952279E-003   5.7582363053356546E-002
   3.5505904463105808E-002  -9.5241695185163833E-003   5.8216176798280804E-002
   3.5067083735160751E-002  -9.6310432073629763E-003   5.8991755816819015E-002
   2.9328187115230768E-002  -6.2778735969195865E-003   5.8354156761424553E-002
   2.8980171121554578E-002  -6.6656948982572461E-003   5.9125353737321390E-002
   2.8632155127878381E-002  -6.9896415954289193E-003   5.9936394908142038E-002
   2.8284139134202191E-002  -7.2497136884345781E-003   6.0787280273886468E-002
   2.7936123140526001E-002  -7.4459111772742503E-003   6.1678009834554709E-002
   5.6218292578753326E-002  -1.6186439297629182E-002   5.0153485631628150E-002
   5.4719990647529443E-002  -1.5837537318197245E-002   4.9832698346163204E-002
   5.3221688716305546E-002  -1.5501655182366372E-002   4.9691575358150976E-002
   5.1723386785081649E-002  -1.5178792890136565E-002   4.9730116667591459E-002
   5.0225084853857738E-002  -1.4868950441507822E-002   4.9948322274484591E-002
   4.9208168454274420E-002  -1.4001307267540467E-002   5.3229493715355750E-002
   4.7893493050757727E-002  -1.3769289192165315E-002   5.2872404111099419E-002
   4.6578817647241054E-002  -1.3524222724510346E-002   5.2702903264804778E-002
   4.5264142243724367E-002  -1.3266107864575417E-002   5.2720991176471846E-002
   4.3949466840207702E-002  -1.2994944612360781E-002   5.2926667846100672E-002
   4.2157765506410247E-002  -1.1816175237451730E-002   5.6175583777086008E-002
   4.1034641091109762E-002  -1.1701041066133420E-002   5.5808260089919237E-002
   3.9911516675809305E-002  -1.1546790266654295E-002   5.5636449621223161E-002
   3.8788392260508821E-002  -1.1353422839014370E-002   5.5660152370997813E-002
   3.7665267845208364E-002  -1.1120938783213685E-002   5.5879368339243257E-002
   3.5067083735160751E-002  -9.6310432073629763E-003   5.8991755816819015E-002
   3.4143434768585515E-002  -9.6327929401014943E-003   5.8640266282622776E-002
   3.3219785802010286E-002  -9.5693578087982581E-003   5.8492214427406118E-002
   3.2296136835435030E-002  -9.4407378134533284E-003   5.8547600251169327E-002
   3.1372487868859808E-002  -9.2469329540666306E-003   5.8806423753912256E-002
   2.7936123140526001E-002  -7.4459111772742503E-003   6.1678009834554709E-002
   2.7219874083185006E-002  -7.5645448140696028E-003   6.1368422689209862E-002
   2.6503625025843996E-002  -7.5919253509422469E-003   6.1270197683353692E-002
   2.5787375968502994E-002  -7.5280527878922102E-003   6.1383334816986379E-002
   2.5071126911161992E-002  -7.3729271249195205E-003   6.1707834090107688E-002
   5.0225084853857738E-002  -1.4868950441507822E-002   4.9948322274484591E-002
   4.8684790518450274E-002  -1.4534454485193693E-002   4.9666468492183563E-002
   4.7144496183042811E-002  -1.4137631669907363E-002   4.9595925388465245E-002
   4.5604201847635348E-002  -1.3678481995649021E-002   4.9736692963329499E-002
   4.4063907512227884E-002  -1.3157005462418547E-002   5.0088771216776518E-002
   4.3949466840207702E-002  -1.2994944612360781E-002   5.2926667846100672E-002
   4.2616853419823672E-002  -1.2693129372028988E-002   5.2687894540354330E-002
   4.1284239999439643E-002  -1.2343058547742959E-002   5.2653172386072047E-002
   3.9951626579055599E-002  -1.1944732139502571E-002   5.2822501383254103E-002
   3.8619013158671556E-002  -1.1498150147308012E-002   5.3195881531900302E-002
   3.7665267845208364E-002  -1.1120938783213685E-002   5.5879368339243257E-002
   3.6533075812729271E-002  -1.0851804258864395E-002   5.5669604235033691E-002
   3.5400883780250171E-002  -1.0548485425578527E-002   5.5656631755169841E-002
   3.4268691747771071E-002  -1.0210982283356314E-002   5.5840450899651679E-002
   3.3136499715291978E-002  -9.8392948321975593E-003   5.6221061668479150E-002
   3.1372487868859808E-002  -9.2469329540666306E-003   5.8806423753912256E-002
   3.0433457697167130E-002  -9.0104791456997596E-003   5.8611597576221704E-002
   2.9494427525474452E-002  -8.7539123034141367E-003   5.8606303495758474E-002
   2.8555397353781761E-002  -8.4772324272100446E-003   5.8790541512522367E-002
   2.7616367182089090E-002  -8.1804395170871208E-003   5.9164311626513276E-002
   2.5071126911161992E-002  -7.3729271249195205E-003   6.1707834090107688E-002
   2.4317999073137211E-002  -7.1691540325350828E-003   6.1513874563918547E-002
   2.3564871235112438E-002  -6.9593391812497116E-003   6.1502187607837919E-002
   2.2811743397087674E-002  -6.7434825710636689E-003   6.1672773221865977E-002
   2.2058615559062897E-002  -6.5215842019766268E-003   6.2025631406002812E-002
   4.4063907512227884E-002  -1.3157005462418547E-002   5.0088771216776518E-002
   4.2225340389187488E-002  -1.2622783675736965E-002   4.9485490034959750E-002
   4.0386773266147147E-002  -1.2125398241125157E-002   4.9073190147978923E-002
   3.8548206143106750E-002  -1.1664849158583047E-002   4.8851871555833370E-002
   3.6709639020066409E-002  -1.1241136428110921E-002   4.8821534258523924E-002
   3.8619013158671556E-002  -1.1498150147308012E-002   5.3195881531900302E-002
   3.6979573160739826E-002  -1.1040365858608139E-002   5.2531783419026382E-002
   3.5340133162808068E-002  -1.0608432560851859E-002   5.2074958261534146E-002
   3.3700693164876318E-002  -1.0202350254039176E-002   5.1825406059423283E-002
   3.2061253166944539E-002  -9.8221189381702545E-003   5.1783126812694147E-002
   3.3136499715291978E-002  -9.8392948321975593E-003   5.6221061668479150E-002
   3.1712478503014667E-002  -9.4579480414792999E-003   5.5507131985674342E-002
   3.0288457290737335E-002  -9.0914668805786164E-003   5.5016766918796978E-002
   2.8864436078459989E-002  -8.7398513494953596E-003   5.4749966467846849E-002
   2.7440414866182664E-002  -8.4031014482296162E-003   5.4706730632824038E-002
   2.7616367182089090E-002  -8.1804395170871208E-003   5.9164311626513276E-002
   2.6424056416012011E-002  -7.8755302243504952E-003   5.8411535734903777E-002
   2.5231745649934936E-002  -7.5745012003053738E-003   5.7898616119767363E-002
   2.4039434883857846E-002  -7.2773524449514602E-003   5.7625552781104143E-002
   2.2847124117780782E-002  -6.9840839582889364E-003   5.7592345718913973E-002
   2.2058615559062897E-002  -6.5215842019766268E-003   6.2025631406002812E-002
   2.1114306899731886E-002  -6.2931124072216904E-003   6.1244994666714597E-002
   2.0169998240400888E-002  -6.0575355200321035E-003   6.0720505864445246E-002
   1.9225689581069884E-002  -5.8148535404076787E-003   6.0452164999194979E-002
   1.8281380921738893E-002  -5.5650664683483120E-003   6.0439972070963688E-002
   3.6709639020066409E-002  -1.1241136428110921E-002   4.8821534258523924E-002
   3.5572674802405307E-002  -1.0797596599136317E-002   4.9252581560474684E-002
   3.4435710584744234E-002  -1.0277566221087456E-002   4.9881894461430570E-002
   3.3298746367083160E-002  -9.6810452939637727E-003   5.0709472961391486E-002
   3.2161782149422058E-002  -9.0080338177659369E-003   5.1735317060357722E-002
   3.2061253166944539E-002  -9.8221189381702545E-003   5.1783126812694147E-002
   3.1108319102214635E-002  -9.4234104257110707E-003   5.2297134187530098E-002
   3.0155385037484723E-002  -8.9618965291278080E-003   5.2980936269223539E-002
   2.9202450972754836E-002  -8.4375772484204768E-003   5.3834533057774164E-002
   2.8249516908024921E-002  -7.8504525835889627E-003   5.4857924553181947E-002
   2.7440414866182664E-002  -8.4031014482296162E-003   5.4706730632824038E-002
   2.6643040062236070E-002  -8.0492242522857416E-003   5.5290012915595113E-002
   2.5845665258289477E-002  -7.6462268371682088E-003   5.6014619013075549E-002
   2.5048290454342863E-002  -7.1941092028770127E-003   5.6880548925265478E-002
   2.4250915650396290E-002  -6.6928713494119330E-003   5.7887802652164644E-002
   2.2847124117780782E-002  -6.9840839582889364E-003   5.7592345718913973E-002
   2.2176837682469624E-002  -6.6750380788603986E-003   5.8231217744669606E-002
   2.1506551247158490E-002  -6.3305571452086963E-003   5.8982942692986762E-002
   2.0836264811847357E-002  -5.9506411573334661E-003   5.9847520563865324E-002
   2.0165978376536203E-002  -5.5352901152348755E-003   6.0824951357305611E-002
   1.8281380921738893E-002  -5.5650664683483120E-003   6.0439972070963688E-002
   1.7709711962915306E-002  -5.3008519054350278E-003   6.1120748674753533E-002
   1.7138043004091760E-002  -5.0148874532490034E-003   6.1885907308956933E-002
   1.6566374045268187E-002  -4.7071731117900410E-003   6.2735447973574235E-002
   1.5994705086444613E-002  -4.3777088810578735E-003   6.3669370668604841E-002
   3.2161782149422058E-002  -9.0080338177659369E-003   5.1735317060357722E-002
   2.9989509005579978E-002  -8.3294673970365496E-003   5.0686665115435126E-002
   2.7817235861737816E-002  -7.7162816363188502E-003   4.9582049064212375E-002
   2.5644962717895695E-002  -7.1684765356126653E-003   4.8421468906689358E-002
   2.3472689574053573E-002  -6.6860520949181268E-003   4.7204924642865853E-002
   2.8249516908024921E-002  -7.8504525835889627E-003   5.4857924553181947E-002
   2.6097107474611830E-002  -7.2569932501130863E-003   5.3741006055333829E-002
   2.3944698041198816E-002  -6.7136699634723351E-003   5.2719779084643981E-002
   2.1792288607785714E-002  -6.2204827236665705E-003   5.1794243641112833E-002
   1.9639879174372654E-002  -5.7774315306962087E-003   5.0964399724739873E-002
   2.4250915650396290E-002  -6.6928713494119330E-003   5.7887802652164644E-002
   2.2270025560870911E-002  -6.1845191031894564E-003   5.6717862214567427E-002
   2.0289135471345553E-002  -5.7110582906256119E-003   5.5795268937587419E-002
   1.8308245381820191E-002  -5.2724889117206457E-003   5.5120022821224239E-002
   1.6327355292294857E-002  -4.8688109664742907E-003   5.4692123865478282E-002
   2.0165978376536203E-002  -5.5352901152348755E-003   6.0824951357305611E-002
   1.8508263264357193E-002  -5.1120449562659098E-003   5.9617233593135893E-002
   1.6850548152178201E-002  -4.7084466177791592E-003   5.8808518623041692E-002
   1.5192833039999173E-002  -4.3244950997746914E-003   5.8398806447023312E-002
   1.3535117927820198E-002  -3.9601904022524281E-003   5.8388097065080385E-002
   1.5994705086444613E-002  -4.3777088810578735E-003   6.3669370668604841E-002
   1.4811820585070606E-002  -4.0395708093423632E-003   6.2439120191038977E-002
   1.3628936083696606E-002  -3.7058349449324707E-003   6.1759528141007353E-002
   1.2446051582322603E-002  -3.3765012878287058E-003   6.1630594518510121E-002
   1.1263167080948600E-002  -3.0515698380304546E-003   6.2052319323547156E-002
   2.6633086286313976E-002   0.0000000000000000        2.9468700542538907E-002
   2.7233963042911841E-002  -5.8555035463031015E-004   3.4946313026376526E-002
   2.7834839799509705E-002  -1.3191818063603474E-003   4.0116511986158850E-002
   2.8435716556107573E-002  -2.2008943551901118E-003   4.4979297421885875E-002
   2.9036593312705437E-002  -3.2306880011196120E-003   4.9534669333557602E-002
   2.0115762573262780E-002   0.0000000000000000        2.9021129462082747E-002
   2.0448524389565015E-002  -4.3916276623299794E-004   3.4314504330918233E-002
   2.0781286205867250E-002  -9.8938635526824199E-004   3.9379062843217766E-002
   2.1114048022169485E-002  -1.6506707671057321E-003   4.4214804998981325E-002
   2.1446809838471720E-002  -2.4230160017454632E-003   4.8821730798208916E-002
   1.3504473621400778E-002   0.0000000000000000        2.8701435832875155E-002
   1.3647717664926713E-002  -2.9277517783568574E-004   3.3847593361005998E-002
   1.3790961708452650E-002  -6.5959090417613397E-004   3.8843531700120212E-002
   1.3934205751978585E-002  -1.1004471790213455E-003   4.3689250850217784E-002
   1.4077449795504526E-002  -1.6153440023713187E-003   4.8384750811298734E-002
   6.7992194307279650E-003   0.0000000000000000        2.8509619654916135E-002
   6.8315428689969338E-003  -1.4638758943837397E-004   3.3545580116639814E-002
   6.8638663072659043E-003  -3.2979545308402898E-004   3.8509918556866182E-002
   6.8961897455348730E-003  -5.5022359093696068E-004   4.3402634975595274E-002
   6.9285131838038435E-003  -8.0767200299717559E-004   4.8223729372827040E-002
   1.2443457722555173E-012   0.0000000000000000        2.8445680928205687E-002
   1.7756785625211435E-012  -1.0410604669996992E-012   3.3408464597819681E-002
   2.3070113527867697E-012  -1.9919187826955564E-012   3.8378223413455710E-002
   2.8383450104141339E-012  -2.8525758144493096E-012   4.3354957375113773E-002
   3.3696778006797601E-012  -3.6230289601757448E-012   4.8338666482793863E-002
   2.9036593312705437E-002  -3.2306880011196120E-003   4.9534669333557602E-002
   2.9109491763336770E-002  -4.2490127467166129E-003   5.1593471789082704E-002
   2.9182390213968103E-002  -5.0963185945489611E-003   5.3749653845568880E-002
   2.9255288664599432E-002  -5.7726055446166210E-003   5.6003215503016159E-002
   2.9328187115230768E-002  -6.2778735969195865E-003   5.8354156761424553E-002
   2.1446809838471720E-002  -2.4230160017454632E-003   4.8821730798208916E-002
   2.1588186836725101E-002  -3.1867595611438176E-003   5.1221697167186310E-002
   2.1729563834978479E-002  -3.8222389472571685E-003   5.3661241030446720E-002
   2.1870940833231860E-002  -4.3294541600855021E-003   5.6140362387990118E-002
   2.2012317831485238E-002  -4.7084051996288540E-003   5.8659061239816540E-002
   1.4077449795504526E-002  -1.6153440023713187E-003   4.8384750811298734E-002
   1.4229503234701849E-002  -2.1245063755710087E-003   5.1083126369248777E-002
   1.4381556673899180E-002  -2.5481592999653628E-003   5.3763277314803702E-002
   1.4533610113096505E-002  -2.8863027755543945E-003   5.6425203647963551E-002
   1.4685663552293837E-002  -3.1389368023380937E-003   5.9068905368728275E-002
   6.9285131838038435E-003  -8.0767200299717559E-004   4.8223729372827040E-002
   7.0334409572670219E-003  -1.0622531899981927E-003   5.1177759395270056E-002
   7.1383687307302020E-003  -1.2740796526735810E-003   5.4055762698639848E-002
   7.2432965041933813E-003  -1.4431513910232742E-003   5.6857739282936443E-002
   7.3482242776565614E-003  -1.5694684050473334E-003   5.9583689148159896E-002
   3.3696778006797601E-012  -3.6230289601757448E-012   4.8338666482793863E-002
   4.4206114463429813E-012  -4.4253906095192974E-012   5.1505596245250133E-002
   5.4715468267296785E-012  -5.3817705500391888E-012   5.4538697181955136E-002
   6.5224830744781137E-012  -6.4921694322567225E-012   5.7437969292908848E-002
   7.5734158527795969E-012  -7.7565939782253679E-012   6.0203412578111230E-002
   2.9328187115230768E-002  -6.2778735969195865E-003   5.8354156761424553E-002
   2.8980171121554578E-002  -6.6656948982572461E-003   5.9125353737321390E-002
   2.8632155127878381E-002  -6.9896415954289193E-003   5.9936394908142038E-002
   2.8284139134202191E-002  -7.2497136884345781E-003   6.0787280273886468E-002
   2.7936123140526001E-002  -7.4459111772742503E-003   6.1678009834554709E-002
   2.2012317831485238E-002  -4.7084051996288540E-003   5.8659061239816540E-002
   2.1715935983641896E-002  -4.9992711758853614E-003   5.9487153449903851E-002
   2.1419554135798553E-002  -5.2422311988532810E-003   6.0378669756733033E-002
   2.1123172287955218E-002  -5.4372852685325851E-003   6.1333610160304142E-002
   2.0826790440111865E-002  -5.5844333849232874E-003   6.2351974660617128E-002
   1.4685663552293837E-002  -3.1389368023380937E-003   5.9068905368728275E-002
   1.4464495752101444E-002  -3.3328474535135183E-003   5.9937924162128689E-002
   1.4243327951909055E-002  -3.4948208022776983E-003   6.0893946954089131E-002
   1.4022160151716662E-002  -3.6248568486306476E-003   6.1936973744609575E-002
   1.3800992351524270E-002  -3.7229555925723662E-003   6.3067004533689991E-002
   7.3482242776565614E-003  -1.5694684050473334E-003   5.9583689148159896E-002
   7.2258504269332221E-003  -1.6664237311416405E-003   6.0477665873996014E-002
   7.1034765762098811E-003  -1.7474104057021017E-003   6.1482226500210235E-002
   6.9811027254865453E-003  -1.8124284287286963E-003   6.2597371026802587E-002
   6.8587288747632008E-003  -1.8614778002214102E-003   6.3823099453773013E-002
   7.5734158527795969E-012  -7.7565939782253679E-012   6.0203412578111230E-002
   8.1372287380476749E-012  -8.7698043271799975E-012   6.1106378585505716E-002
   8.7010442254009668E-012  -9.1264860252460167E-012   6.2143508395096414E-002
   9.2648579780307827E-012  -8.8267678756415169E-012   6.3314802006883289E-002
   9.8286725980223366E-012  -7.8704959216580050E-012   6.4620259420866424E-002
   2.7936123140526001E-002  -7.4459111772742503E-003   6.1678009834554709E-002
   2.7219874083185006E-002  -7.5645448140696028E-003   6.1368422689209862E-002
   2.6503625025843996E-002  -7.5919253509422469E-003   6.1270197683353692E-002
   2.5787375968502994E-002  -7.5280527878922102E-003   6.1383334816986379E-002
   2.5071126911161992E-002  -7.3729271249195205E-003   6.1707834090107688E-002
   2.0826790440111865E-002  -5.5844333849232874E-003   6.2351974660617128E-002
   2.0313828553565873E-002  -5.6734086123342922E-003   6.2197693620701842E-002
   1.9800866667019877E-002  -5.6939440150744688E-003   6.2238624782887775E-002
   1.9287904780473885E-002  -5.6460395931438780E-003   6.2474768147175008E-002
   1.8774942893927893E-002  -5.5296953465423793E-003   6.2906123713563536E-002
   1.3800992351524270E-002  -3.7229555925723662E-003   6.3067004533689991E-002
   1.3475167698385814E-002  -3.7822724105990059E-003   6.3045216323952352E-002
   1.3149343045247355E-002  -3.7959626792066908E-003   6.3202490378928486E-002
   1.2823518392108903E-002  -3.7640263983954626E-003   6.3538826698618406E-002
   1.2497693738970441E-002  -3.6864635681652519E-003   6.4054225283022154E-002
   6.8587288747632008E-003  -1.8614778002214102E-003   6.3823099453773013E-002
   6.7038915176448168E-003  -1.8911362088637074E-003   6.3910990798961217E-002
   6.5490541605264293E-003  -1.8979813433389128E-003   6.4161794471475644E-002
   6.3942168034080401E-003  -1.8820132036470889E-003   6.4575510471316433E-002
   6.2393794462896552E-003  -1.8432317897881592E-003   6.5152138798483611E-002
   9.8286725980223366E-012  -7.8704959216580050E-012   6.4620259420866424E-002
   1.1342881495179924E-011  -7.1284367297863582E-012   6.4795017045728487E-002
   1.2857092127060987E-011  -7.4711174746777687E-012   6.5116537060529417E-002
   1.4371299289495099E-011  -8.8987246391059038E-012   6.5584819465269215E-002
   1.5885511656099638E-011  -1.1410955513824206E-011   6.6199864259947894E-002
   2.5071126911161992E-002  -7.3729271249195205E-003   6.1707834090107688E-002
   2.4317999073137211E-002  -7.1691540325350828E-003   6.1513874563918547E-002
   2.3564871235112438E-002  -6.9593391812497116E-003   6.1502187607837919E-002
   2.2811743397087674E-002  -6.7434825710636689E-003   6.1672773221865977E-002
   2.2058615559062897E-002  -6.5215842019766268E-003   6.2025631406002812E-002
   1.8774942893927893E-002  -5.5296953465423793E-003   6.2906123713563536E-002
   1.8205589973615585E-002  -5.3768655278916139E-003   6.2737887936419198E-002
   1.7636237053303291E-002  -5.2195043898129040E-003   6.2754929424591210E-002
   1.7066884132990998E-002  -5.0576119323063641E-003   6.2957248178079475E-002
   1.6497531212678697E-002  -4.8911881553719005E-003   6.3344844196884076E-002
   1.2497693738970441E-002  -3.6864635681652519E-003   6.4054225283022154E-002
   1.2115120431578284E-002  -3.5845770232481519E-003   6.3910202815449693E-002
   1.1732547124186121E-002  -3.4796695983760999E-003   6.3954462308401239E-002
   1.1349973816793962E-002  -3.3717412935491435E-003   6.4187003761876749E-002
   1.0967400509401801E-002  -3.2607921087672020E-003   6.4607827175876181E-002
   6.2393794462896552E-003  -1.8432317897881592E-003   6.5152138798483611E-002
   6.0465904470252867E-003  -1.7922885186046865E-003   6.5030819201010157E-002
   5.8538014477609243E-003  -1.7398348069392385E-003   6.5100786259268281E-002
   5.6610124484965567E-003  -1.6858706547918808E-003   6.5362039973258040E-002
   5.4682234492321874E-003  -1.6303960621625174E-003   6.5814580342979434E-002
   1.5885511656099638E-011  -1.1410955513824206E-011   6.6199864259947894E-002
   1.9956609281779336E-011  -1.3961234945902845E-011   6.6099737093100353E-002
   2.4027701703288606E-011  -1.5502439609793583E-011   6.6193901277192116E-002
   2.8098799328968305E-011  -1.6034619812477224E-011   6.6482356812223198E-002
   3.2169891750477575E-011  -1.5557777288677244E-011   6.6965103698193529E-002
   2.2058615559062897E-002  -6.5215842019766268E-003   6.2025631406002812E-002
   2.1114306899731886E-002  -6.2931124072216904E-003   6.1244994666714597E-002
   2.0169998240400888E-002  -6.0575355200321035E-003   6.0720505864445246E-002
   1.9225689581069884E-002  -5.8148535404076787E-003   6.0452164999194979E-002
   1.8281380921738893E-002  -5.5650664683483120E-003   6.0439972070963688E-002
   1.6497531212678697E-002  -4.8911881553719005E-003   6.3344844196884076E-002
   1.5804352797240254E-002  -4.7198343086763267E-003   6.2596360363841211E-002
   1.5111174381801821E-002  -4.5431516418864767E-003   6.2093989081564605E-002
   1.4417995966363379E-002  -4.3611401550021685E-003   6.1837730350054063E-002
   1.3724817550924952E-002  -4.1737998480236294E-003   6.1827584169309696E-002
   1.0967400509401801E-002  -3.2607921087672020E-003   6.4607827175876181E-002
   1.0515316951603085E-002  -3.1465562101309630E-003   6.3889719976738341E-002
   1.0063233393804379E-002  -3.0287677637407945E-003   6.3407689942113876E-002
   9.6111498360056755E-003  -2.9074267695968249E-003   6.3161737072002622E-002
   9.1590662782069579E-003  -2.7825332276990022E-003   6.3151861366404785E-002
   5.4682234492321874E-003  -1.6303960621625174E-003   6.5814580342979434E-002
   5.2471993628203806E-003  -1.5732781115854882E-003   6.5125073505406028E-002
   5.0261752764085678E-003  -1.5143838855951122E-003   6.4661608446093102E-002
   4.8051511899967585E-003  -1.4537133841914535E-003   6.4424185165040629E-002
   4.5841271035849413E-003  -1.3912666073743196E-003   6.4412803662248677E-002
   3.2169891750477575E-011  -1.5557777288677244E-011   6.6965103698193529E-002
   3.0892139540883434E-011  -1.3040207802461623E-011   6.6302420949844121E-002
   2.9614387331289294E-011  -7.4494438395689144E-012   6.5855744593502408E-002
   2.8336635989056891E-011   1.2139837746172333E-012   6.5625074629168292E-002
   2.7058882912101012E-011   1.2950307493042601E-011   6.5610411056841789E-002
   1.8281380921738893E-002  -5.5650664683483120E-003   6.0439972070963688E-002
   1.7709711962915306E-002  -5.3008519054350278E-003   6.1120748674753533E-002
   1.7138043004091760E-002  -5.0148874532490034E-003   6.1885907308956933E-002
   1.6566374045268187E-002  -4.7071731117900410E-003   6.2735447973574235E-002
   1.5994705086444613E-002  -4.3777088810578735E-003   6.3669370668604841E-002
   1.3724817550924952E-002  -4.1737998480236294E-003   6.1827584169309696E-002
   1.3252164425104900E-002  -3.9756389228441380E-003   6.2532837826575677E-002
   1.2779511299284865E-002  -3.7611655813571121E-003   6.3351741119434882E-002
   1.2306858173464818E-002  -3.5303798235625586E-003   6.4284294047887575E-002
   1.1834205047644791E-002  -3.2832816494604011E-003   6.5330496611933686E-002
   9.1590662782069579E-003  -2.7825332276990022E-003   6.3151861366404785E-002
   8.8146965905701799E-003  -2.6504259402531510E-003   6.3876154604181334E-002
   8.4703269029333915E-003  -2.5074437094652277E-003   6.4743365082731041E-002
   8.1259572152966100E-003  -2.3535865353351334E-003   6.5753492802053892E-002
   7.7815875276598216E-003  -2.1888544178628455E-003   6.6906537762149818E-002
   4.5841271035849413E-003  -1.3912666073743196E-003   6.4412803662248677E-002
   4.3973084593111524E-003  -1.3252129576623792E-003   6.5150699007570589E-002
   4.2104898150373609E-003  -1.2537218375734509E-003   6.6060779198845412E-002
   4.0236711707635712E-003  -1.1767932471077351E-003   6.7143044236072855E-002
   3.8368525264897797E-003  -1.0944271862652760E-003   6.8397494119253346E-002
   2.7058882912101012E-011   1.2950307493042601E-011   6.5610411056841789E-002
   3.1327815341875009E-011   2.4928781261479571E-011   6.6356471036743581E-002
   3.5596751241095959E-011   3.4318506370034640E-011   6.7303983467777967E-002
   3.9865681936146480E-011   4.1119680577184070E-011   6.8452948349944989E-002
   4.4134619570090905E-011   4.5332237963435773E-011   6.9803365683244467E-002
   1.5994705086444613E-002  -4.3777088810578735E-003   6.3669370668604841E-002
   1.4811820585070606E-002  -4.0395708093423632E-003   6.2439120191038977E-002
   1.3628936083696606E-002  -3.7058349449324707E-003   6.1759528141007353E-002
   1.2446051582322603E-002  -3.3765012878287058E-003   6.1630594518510121E-002
   1.1263167080948600E-002  -3.0515698380304546E-003   6.2052319323547156E-002
   1.1834205047644791E-002  -3.2832816494604011E-003   6.5330496611933686E-002
   1.1138244645456243E-002  -3.0296780872158813E-003   6.4140542401169343E-002
   1.0442284243267715E-002  -2.7793761649941989E-003   6.3373777961241828E-002
   9.7463238410791728E-003  -2.5323758827952743E-003   6.3030203292151255E-002
   9.0503634388906240E-003  -2.2886772406192080E-003   6.3109818393896400E-002
   7.7815875276598216E-003  -2.1888544178628455E-003   6.6906537762149818E-002
   7.4450825679590604E-003  -2.0197853650892883E-003   6.5757980385470247E-002
   7.1085776082582940E-003  -1.8529173850557121E-003   6.4905144122929581E-002
   6.7720726485575268E-003  -1.6882504777620388E-003   6.4348028974528071E-002
   6.4355676888567803E-003  -1.5257846432080724E-003   6.4086634940265008E-002
   3.8368525264897797E-003  -1.0944271862652760E-003   6.8397494119253346E-002
   3.7323343525790739E-003  -1.0098926429629729E-003   6.7291434143941717E-002
   3.6278161786683755E-003  -9.2645860511738828E-004   6.6353626626071069E-002
   3.5232980047576667E-003  -8.4412507272876077E-004   6.5584071565641819E-002
   3.4187798308469852E-003  -7.6289204579682579E-004   6.4982768962653426E-002
   4.4134619570090905E-011   4.5332237963435773E-011   6.9803365683244467E-002
  -6.8373084971540266E-013   7.9163842148233243E-011   6.8740903676583309E-002
  -4.5502074330627806E-011   1.7482114367251000E-010   6.7719225470665750E-002
  -9.0320433424051494E-011   3.3230465254496799E-010   6.6738331065491721E-002
  -1.3513877517024042E-010   5.5161430978500903E-010   6.5798220461060986E-002
   1.2443457722555173E-012   0.0000000000000000        2.8445680928205687E-002
   1.7756785625211435E-012  -1.0410604669996992E-012   3.3408464597819681E-002
   2.3070113527867697E-012  -1.9919187826955564E-012   3.8378223413455710E-002
   2.8383450104141339E-012  -2.8525758144493096E-012   4.3354957375113773E-002
   3.3696778006797601E-012  -3.6230289601757448E-012   4.8338666482793863E-002
  -6.7992194283321237E-003   0.0000000000000000        2.8509619652815260E-002
  -6.8315428655415459E-003   1.4638758748327773E-004   3.3545580114514653E-002
  -6.8638663027509707E-003   3.2979544932248452E-004   3.8509918554710490E-002
  -6.8961897399603955E-003   5.5022358551761776E-004   4.3402634973402798E-002
  -6.9285131771698195E-003   8.0767199606867745E-004   4.8223729370591557E-002
  -1.3504473619283482E-002   0.0000000000000000        2.8701435828816312E-002
  -1.3647717661759236E-002   2.9277517600761723E-004   3.3847593356866816E-002
  -1.3790961704234987E-002   6.5959090063688868E-004   3.8843531695888209E-002
  -1.3934205746710740E-002   1.1004471738878131E-003   4.3689250845880469E-002
  -1.4077449789186498E-002   1.6153439957603943E-003   4.8384750806843624E-002
  -2.0115762571609731E-002   0.0000000000000000        2.9021129456208841E-002
  -2.0448524386877387E-002   4.3916276453195651E-004   3.4314504324876184E-002
  -2.0781286202145043E-002   9.8938635195129415E-004   3.9379062836988839E-002
  -2.1114048017412703E-002   1.6506707622580110E-003   4.4214804992546812E-002
  -2.1446809832680352E-002   2.4230159954521059E-003   4.8821730791550090E-002
  -2.6633086285310872E-002   0.0000000000000000        2.9468700534992849E-002
  -2.7233963040896002E-002   5.8555035305629492E-004   3.4946313018542757E-002
  -2.7834839796481131E-002   1.3191818032656979E-003   4.0116511978012401E-002
  -2.8435716552066264E-002   2.2008943506282037E-003   4.4979297413401786E-002
  -2.9036593307651393E-002   3.2306879951438175E-003   4.9534669324710914E-002
   3.3696778006797601E-012  -3.6230289601757448E-012   4.8338666482793863E-002
   4.4206114463429813E-012  -4.4253906095192974E-012   5.1505596245250133E-002
   5.4715468267296785E-012  -5.3817705500391888E-012   5.4538697181955136E-002
   6.5224830744781137E-012  -6.4921694322567225E-012   5.7437969292908848E-002
   7.5734158527795969E-012  -7.7565939782253679E-012   6.0203412578111230E-002
  -6.9285131771698195E-003   8.0767199606867745E-004   4.8223729370591557E-002
  -7.0334409485788996E-003   1.0622531815093154E-003   5.1177759392496518E-002
  -7.1383687199879772E-003   1.2740796423731545E-003   5.4055762695232767E-002
  -7.2432964913970565E-003   1.4431513786601873E-003   5.6857739278800279E-002
  -7.3482242628061401E-003   1.5694683903704348E-003   5.9583689143199031E-002
  -1.4077449789186498E-002   1.6153439957603943E-003   4.8384750806843624E-002
  -1.4229503226473034E-002   2.1245063674440179E-003   5.1083126363774524E-002
  -1.4381556663759568E-002   2.5481592901280587E-003   5.3763277308119251E-002
  -1.4533610101046099E-002   2.8863027638125474E-003   5.6425203639877748E-002
  -1.4685663538332639E-002   3.1389367884974463E-003   5.9068905359050149E-002
  -2.1446809832680352E-002   2.4230159954521059E-003   4.8821730791550090E-002
  -2.1588186829261790E-002   3.1867595533787083E-003   5.1221697159084111E-002
  -2.1729563825843224E-002   3.8222389378829869E-003   5.3661241020614515E-002
  -2.1870940822424658E-002   4.3294541489648924E-003   5.6140362376141305E-002
  -2.2012317819006092E-002   4.7084051866244734E-003   5.8659061225664492E-002
  -2.9036593307651393E-002   3.2306879951438175E-003   4.9534669324710914E-002
  -2.9109491756945171E-002   4.2490127393134298E-003   5.1593471778425305E-002
  -2.9182390206238942E-002   5.0963185856379035E-003   5.3749653832718639E-002
  -2.9255288655532705E-002   5.7726055341172644E-003   5.6003215487590921E-002
  -2.9328187104826479E-002   6.2778735847514866E-003   5.8354156743042118E-002
   7.5734158527795969E-012  -7.7565939782253679E-012   6.0203412578111230E-002
   8.1372287380476749E-012  -8.7698043271799975E-012   6.1106378585505716E-002
   8.7010442254009668E-012  -9.1264860252460167E-012   6.2143508395096414E-002
   9.2648579780307827E-012  -8.8267678756415169E-012   6.3314802006883289E-002
   9.8286725980223366E-012  -7.8704959216580050E-012   6.4620259420866424E-002
  -7.3482242628061401E-003   1.5694683903704348E-003   5.9583689143199031E-002
  -7.2258504109105771E-003   1.6664237145207657E-003   6.0477665869638875E-002
  -7.1034765590150132E-003   1.7474103881281872E-003   6.1482226496545993E-002
  -6.9811027071194527E-003   1.8124284111925189E-003   6.2597371023920448E-002
  -6.8587288552238914E-003   1.8614777837138996E-003   6.3823099451762094E-002
  -1.4685663538332639E-002   3.1389367884974463E-003   5.9068905359050149E-002
  -1.4464495736834244E-002   3.3328474378113357E-003   5.9937924153335848E-002
  -1.4243327935335847E-002   3.4948207853828057E-003   6.0893946946359932E-002
  -1.4022160133837449E-002   3.6248568312117783E-003   6.1936973738122410E-002
  -1.3800992332339057E-002   3.7229555752983298E-003   6.3067004528623252E-002
  -2.2012317819006092E-002   4.7084051866244734E-003   5.8659061225664492E-002
  -2.1715935969633768E-002   4.9992711611019057E-003   5.9487153436596579E-002
  -2.1419554120261447E-002   5.2422311826374381E-003   6.0378669744538205E-002
  -2.1123172270889130E-002   5.4372852512310785E-003   6.1333610149489279E-002
  -2.0826790421516805E-002   5.5844333668827427E-003   6.2351974651449822E-002
  -2.9328187104826479E-002   6.2778735847514866E-003   5.8354156743042118E-002
  -2.8980171109309151E-002   6.6656948843924826E-003   5.9125353719421202E-002
  -2.8632155113791826E-002   6.9896415798920905E-003   5.9936394891080838E-002
  -2.8284139118274491E-002   7.2497136712502876E-003   6.0787280258021041E-002
  -2.7936123122757162E-002   7.4459111584671556E-003   6.1678009820241769E-002
   9.8286725980223366E-012  -7.8704959216580050E-012   6.4620259420866424E-002
   1.1342881495179924E-011  -7.1284367297863582E-012   6.4795017045728487E-002
   1.2857092127060987E-011  -7.4711174746777687E-012   6.5116537060529417E-002
   1.4371299289495099E-011  -8.8987246391059038E-012   6.5584819465269215E-002
   1.5885511656099638E-011  -1.1410955513824206E-011   6.6199864259947894E-002
  -6.8587288552238914E-003   1.8614777837138996E-003   6.3823099451762094E-002
  -6.7038914950793543E-003   1.8911361930780135E-003   6.3910990794824846E-002
  -6.5490541349348154E-003   1.8979813266705725E-003   6.4161794465209393E-002
  -6.3942167747902809E-003   1.8820131844914101E-003   6.4575510462915722E-002
  -6.2393794146457463E-003   1.8432317665406373E-003   6.5152138787943861E-002
  -1.3800992332339057E-002   3.7229555752983298E-003   6.3067004528623252E-002
  -1.3475167676181265E-002   3.7822723932844499E-003   6.3045216315199826E-002
  -1.3149343020023470E-002   3.7959626608121497E-003   6.3202490366481151E-002
  -1.2823518363865673E-002   3.7640263778814472E-003   6.3538826682467173E-002
  -1.2497693707707883E-002   3.6864635444923272E-003   6.4054225263157877E-002
  -2.0826790421516805E-002   5.5844333668827427E-003   6.2351974651449822E-002
  -2.0313828531962834E-002   5.6734085934908793E-003   6.2197693606853427E-002
  -1.9800866642408856E-002   5.6939439949538111E-003   6.2238624764344753E-002
  -1.9287904752854877E-002   5.6460395712715607E-003   6.2474768123923712E-002
  -1.8774942863300913E-002   5.5296953224440101E-003   6.2906123685590232E-002
  -2.7936123122757162E-002   7.4459111584671556E-003   6.1678009820241769E-002
  -2.7219874062424078E-002   7.5645447936973087E-003   6.1368422669785649E-002
  -2.6503625002090990E-002   7.5919253290954100E-003   6.1270197658800152E-002
  -2.5787375941757906E-002   7.5280527646615480E-003   6.1383334787285158E-002
  -2.5071126881424818E-002   7.3729271003956376E-003   6.1707834055240773E-002
   1.5885511656099638E-011  -1.1410955513824206E-011   6.6199864259947894E-002
   1.9956609281779336E-011  -1.3961234945902845E-011   6.6099737093100353E-002
   2.4027701703288606E-011  -1.5502439609793583E-011   6.6193901277192116E-002
   2.8098799328968305E-011  -1.6034619812477224E-011   6.6482356812223198E-002
   3.2169891750477575E-011  -1.5557777288677244E-011   6.6965103698193529E-002
  -6.2393794146457463E-003   1.8432317665406373E-003   6.5152138787943861E-002
  -6.0465904073922659E-003   1.7922884912554837E-003   6.5030819191864292E-002
  -5.8538014001387794E-003   1.7398347770728947E-003   6.5100786251210324E-002
  -5.6610123928852989E-003   1.6858706239930420E-003   6.5362039965981777E-002
  -5.4682233856318194E-003   1.6303960320157573E-003   6.5814580336178791E-002
  -1.2497693707707883E-002   3.6864635444923272E-003   6.4054225263157877E-002
  -1.2115120392785823E-002   3.5845769964721538E-003   6.3910202797940130E-002
  -1.1732547077863753E-002   3.4796695696482603E-003   6.3954462292634046E-002
  -1.1349973762941694E-002   3.3717412640206770E-003   6.4187003747239568E-002
  -1.0967400448019627E-002   3.2607920795893475E-003   6.4607827161756906E-002
  -1.8774942863300913E-002   5.5296953224440101E-003   6.2906123685590232E-002
  -1.8205589936224072E-002   5.3768655016887650E-003   6.2737887911327714E-002
  -1.7636237009147231E-002   5.2195043622235825E-003   6.2754929401463155E-002
  -1.7066884082070390E-002   5.0576119040482981E-003   6.2957248155996445E-002
  -1.6497531154993552E-002   4.8911881271628543E-003   6.3344844174927570E-002
  -2.5071126881424818E-002   7.3729271003956376E-003   6.1707834055240773E-002
  -2.4317999037707014E-002   7.1691540069055565E-003   6.1513874532027252E-002
  -2.3564871193989201E-002   6.9593391547990088E-003   6.1502187577697806E-002
  -2.2811743350271398E-002   6.7434825440759443E-003   6.1672773192252416E-002
  -2.2058615506553577E-002   6.5215841747364722E-003   6.2025631375691170E-002
   3.2169891750477575E-011  -1.5557777288677244E-011   6.6965103698193529E-002
   3.0892139540883434E-011  -1.3040207802461623E-011   6.6302420949844121E-002
   2.9614387331289294E-011  -7.4494438395689144E-012   6.5855744593502408E-002
   2.8336635989056891E-011   1.2139837746172333E-012   6.5625074629168292E-002
   2.7058882912101012E-011   1.2950307493042601E-011   6.5610411056841789E-002
  -5.4682233856318194E-003   1.6303960320157573E-003   6.5814580336178791E-002
  -5.2471993016091831E-003   1.5732780859864237E-003   6.5125073503468967E-002
  -5.0261752175865589E-003   1.5143838707501744E-003   6.4661608449352356E-002
  -4.8051511335639270E-003   1.4537133863070859E-003   6.4424185173828752E-002
  -4.5841270495412985E-003   1.3912666326570400E-003   6.4412803676898389E-002
  -1.0967400448019627E-002   3.2607920795893475E-003   6.4607827161756906E-002
  -1.0515316892111144E-002   3.1465561850128748E-003   6.3889719972406958E-002
  -1.0063233336202662E-002   3.0287677489497442E-003   6.3407689948235618E-002
  -9.6111497802941759E-003   2.9074267714001342E-003   6.3161737089242900E-002
  -9.1590662243856910E-003   2.7825332523637725E-003   6.3151861395428735E-002
  -1.6497531154993552E-002   4.8911881271628543E-003   6.3344844174927570E-002
  -1.5804352740613745E-002   4.7198342840394161E-003   6.2596360356657832E-002
  -1.5111174326233923E-002   4.5431516271493659E-003   6.2093989090152173E-002
  -1.4417995911854107E-002   4.3611401564930983E-003   6.1837730375410571E-002
  -1.3724817497474289E-002   4.1737998720705327E-003   6.1827584212433062E-002
  -2.2058615506553577E-002   6.5215841747364722E-003   6.2025631375691170E-002
  -2.1114306847116963E-002   6.2931123830659019E-003   6.1244994656221796E-002
  -2.0169998187680345E-002   6.0575355053488905E-003   6.0720505875101971E-002
  -1.9225689528243724E-002   5.8148535415863019E-003   6.0452165032331737E-002
  -1.8281380868807109E-002   5.5650664917772930E-003   6.0439972127911024E-002
   2.7058882912101012E-011   1.2950307493042601E-011   6.5610411056841789E-002
   3.1327815341875009E-011   2.4928781261479571E-011   6.6356471036743581E-002
   3.5596751241095959E-011   3.4318506370034640E-011   6.7303983467777967E-002
   3.9865681936146480E-011   4.1119680577184070E-011   6.8452948349944989E-002
   4.4134619570090905E-011   4.5332237963435773E-011   6.9803365683244467E-002
  -4.5841270495412985E-003   1.3912666326570400E-003   6.4412803676898389E-002
  -4.3973083979511572E-003   1.3252130080716740E-003   6.5150699017118341E-002
  -4.2104897463610021E-003   1.2537219108222364E-003   6.6060779200848158E-002
  -4.0236710947708582E-003   1.1767933409091852E-003   6.7143044228087756E-002
  -3.8368524431807126E-003   1.0944272983322567E-003   6.8397494098837330E-002
  -9.1590662243856910E-003   2.7825332523637725E-003   6.3151861395428735E-002
  -8.8146965330970876E-003   2.6504259912145944E-003   6.3876154625891690E-002
  -8.4703268418084791E-003   2.5074437873262925E-003   6.4743365092241684E-002
  -8.1259571505198774E-003   2.3535866406989101E-003   6.5753492794478646E-002
  -7.7815874592312671E-003   2.1888545513324698E-003   6.6906537732602953E-002
  -1.3724817497474289E-002   4.1737998720705327E-003   6.1827584212433062E-002
  -1.3252164374109978E-002   3.9756389743574733E-003   6.2532837863063573E-002
  -1.2779511250745668E-002   3.7611656638302689E-003   6.3351741141958545E-002
  -1.2306858127381361E-002   3.5303799404886359E-003   6.4284294049117646E-002
  -1.1834205004017053E-002   3.2832818043325857E-003   6.5330496584541278E-002
  -1.8281380868807109E-002   5.5650664917772930E-003   6.0439972127911024E-002
  -1.7709711920989850E-002   5.3008519575004631E-003   6.1120748728634045E-002
  -1.7138042973172590E-002   5.0148875403341203E-003   6.1885907349998714E-002
  -1.6566374025355338E-002   4.7071732402781223E-003   6.2735447992004936E-002
  -1.5994705077538064E-002   4.3777090573327015E-003   6.3669370654652613E-002
   4.4134619570090905E-011   4.5332237963435773E-011   6.9803365683244467E-002
  -6.8373084971540266E-013   7.9163842148233243E-011   6.8740903676583309E-002
  -4.5502074330627806E-011   1.7482114367251000E-010   6.7719225470665750E-002
  -9.0320433424051494E-011   3.3230465254496799E-010   6.6738331065491721E-002
  -1.3513877517024042E-010   5.5161430978500903E-010   6.5798220461060986E-002
  -3.8368524431807126E-003   1.0944272983322567E-003   6.8397494098837330E-002
  -3.7323343582449861E-003   1.0098928172056210E-003   6.7291434221146557E-002
  -3.6278162733092579E-003   9.2645893164323978E-004   6.6353626802220733E-002
  -3.5232981883735401E-003   8.4412564164510276E-004   6.5584071842059374E-002
  -3.4187801034378171E-003   7.6289294721121337E-004   6.4982769340662716E-002
  -7.7815874592312671E-003   2.1888545513324698E-003   6.6906537732602953E-002
  -7.4450825865203362E-003   2.0197855552477606E-003   6.5757980517621065E-002
  -7.1085777138094036E-003   1.8529176884652318E-003   6.4905144419424826E-002
  -6.7720728410984865E-003   1.6882509509854714E-003   6.4348029438014667E-002
  -6.4355679683875261E-003   1.5257853428080059E-003   6.4086635573389839E-002
  -1.1834205004017053E-002   3.2832818043325857E-003   6.5330496584541278E-002
  -1.1138244685509778E-002   3.0296782932896643E-003   6.4140542566006389E-002
  -1.0442284367002511E-002   2.7793764452874979E-003   6.3373778322278154E-002
  -9.7463240484952328E-003   2.5323762603259364E-003   6.3030203853356878E-002
  -9.0503637299879543E-003   2.2886777384048540E-003   6.3109819159242783E-002
  -1.5994705077538064E-002   4.3777090573327015E-003   6.3669370654652613E-002
  -1.4811820655213311E-002   4.0395710313317901E-003   6.2439120366302669E-002
  -1.3628936232888564E-002   3.7058352021095142E-003   6.1759528510780703E-002
  -1.2446051810563810E-002   3.3765015696662001E-003   6.1630595088086965E-002
  -1.1263167388239056E-002   3.0515701340017021E-003   6.2052320098221037E-002
  -2.6633086285310872E-002   0.0000000000000000        2.9468700534992849E-002
  -2.7233963040896002E-002   5.8555035305629492E-004   3.4946313018542757E-002
  -2.7834839796481131E-002   1.3191818032656979E-003   4.0116511978012401E-002
  -2.8435716552066264E-002   2.2008943506282037E-003   4.4979297413401786E-002
  -2.9036593307651393E-002   3.2306879951438175E-003   4.9534669324710914E-002
  -3.3393288117547722E-002   0.0000000000000000        3.0178706265676904E-002
  -3.4236520960376944E-002   9.6015701623193301E-004   3.5267350618286564E-002
  -3.5079753803206166E-002   2.0236247511510024E-003   4.0178696320488316E-002
  -3.5922986646035389E-002   3.1904032047571952E-003   4.4912743372282141E-002
  -3.6766219488864611E-002   4.4604923770505314E-003   4.9469491773668051E-002
  -4.0733211425481121E-002   0.0000000000000000        3.1285703848769580E-002
  -4.1688685481882086E-002   1.3347636794075711E-003   3.5940609691973026E-002
  -4.2644159538283044E-002   2.7280676990363026E-003   4.0548331758440893E-002
  -4.3599633594684009E-002   4.1799120588861928E-003   4.5108870048173190E-002
  -4.4555107651084988E-002   5.6902967589572452E-003   4.9622224561169909E-002
  -4.8652856209111042E-002   0.0000000000000000        3.2789693284270893E-002
  -4.9590456605411413E-002   1.7093703425832096E-003   3.6966090239602137E-002
  -5.0528057001711778E-002   3.4325106469216033E-003   4.1225418291870167E-002
  -5.1465657398012156E-002   5.1694209130151887E-003   4.5567677441074941E-002
  -5.2403257794312520E-002   6.9201011408639591E-003   4.9992867687216509E-002
  -5.7152222468437514E-002   0.0000000000000000        3.4690674572180814E-002
  -5.7941834330964941E-002   2.0839770057588464E-003   3.8343792261173903E-002
  -5.8731446193492375E-002   4.1369535948069074E-003   4.2209955920776095E-002
  -5.9521058056019802E-002   6.1589297671441803E-003   4.6289165550987402E-002
  -6.0310669918547208E-002   8.1499055227706695E-003   5.0581421151807825E-002
  -2.9036593307651393E-002   3.2306879951438175E-003   4.9534669324710914E-002
  -2.9109491756945171E-002   4.2490127393134298E-003   5.1593471778425305E-002
  -2.9182390206238942E-002   5.0963185856379035E-003   5.3749653832718639E-002
  -2.9255288655532705E-002   5.7726055341172644E-003   5.6003215487590921E-002
  -2.9328187104826479E-002   6.2778735847514866E-003   5.8354156743042118E-002
  -3.6766219488864611E-002   4.4604923770505314E-003   4.9469491773668051E-002
  -3.6780256276375968E-002   5.6938431367478844E-003   5.1256611086716634E-002
  -3.6794293063887332E-002   6.7504063525661382E-003   5.3064074122751076E-002
  -3.6808329851398709E-002   7.6301820245053206E-003   5.4891880881771382E-002
  -3.6822366638910073E-002   8.3331701525653709E-003   5.6740031363777581E-002
  -4.4555107651084988E-002   5.6902967589572452E-003   4.9622224561169909E-002
  -4.4587318654407009E-002   7.1386735341823371E-003   5.1131892087518727E-002
  -4.4619529657729050E-002   8.4044941194943781E-003   5.2584867459260325E-002
  -4.4651740661051084E-002   9.4877585148933630E-003   5.3981150676394744E-002
  -4.4683951664373098E-002   1.0388466720379269E-002   5.5320741738921951E-002
  -5.2403257794312520E-002   6.9201011408639591E-003   4.9992867687216509E-002
  -5.2530678891038289E-002   8.5835039316168038E-003   5.1219314780831568E-002
  -5.2658099987764051E-002   1.0058581886422609E-002   5.2312033842246350E-002
  -5.2785521084489834E-002   1.1345335005281384E-002   5.3271024871460869E-002
  -5.2912942181215582E-002   1.2443763288193160E-002   5.4096287868475083E-002
  -6.0310669918547208E-002   8.1499055227706695E-003   5.0581421151807825E-002
  -6.0610336986269796E-002   1.0028334329051250E-002   5.1518879166655179E-002
  -6.0910004053992377E-002   1.1712669653350853E-002   5.2245573271709173E-002
  -6.1209671121714951E-002   1.3202911495669458E-002   5.2761503466969860E-002
  -6.1509338189437511E-002   1.4499059856007045E-002   5.3066669752437158E-002
  -2.9328187104826479E-002   6.2778735847514866E-003   5.8354156743042118E-002
  -2.8980171109309151E-002   6.6656948843924826E-003   5.9125353719421202E-002
  -2.8632155113791826E-002   6.9896415798920905E-003   5.9936394891080838E-002
  -2.8284139118274491E-002   7.2497136712502876E-003   6.0787280258021041E-002
  -2.7936123122757162E-002   7.4459111584671556E-003   6.1678009820241769E-002
  -3.6822366638910073E-002   8.3331701525653709E-003   5.6740031363777581E-002
  -3.6383545908890279E-002   8.8752329844657453E-003   5.7090314561708336E-002
  -3.5944725178870471E-002   9.2722327679259937E-003   5.7582363033363476E-002
  -3.5505904448850684E-002   9.5241695029459339E-003   5.8216176778743023E-002
  -3.5067083718830876E-002   9.6310431895256510E-003   5.8991755797846920E-002
  -4.4683951664373098E-002   1.0388466720379269E-002   5.5320741738921951E-002
  -4.4052405121406998E-002   1.1084771084539095E-002   5.5168922714105506E-002
  -4.3420858578440899E-002   1.1554823955959883E-002   5.5260790041457286E-002
  -4.2789312035474800E-002   1.1798625334641554E-002   5.5596343720977347E-002
  -4.2157765492508686E-002   1.1816175220584174E-002   5.6175583752665549E-002
  -5.2912942181215582E-002   1.2443763288193160E-002   5.4096287868475083E-002
  -5.1986748746859344E-002   1.3294309184612422E-002   5.3361178176612650E-002
  -5.1060555312503100E-002   1.3837415143993744E-002   5.2971675915362261E-002
  -5.0134361878146856E-002   1.4073081166337187E-002   5.2927781084723895E-002
  -4.9208168443790626E-002   1.4001307251642683E-002   5.3229493684697621E-002
  -6.1509338189437511E-002   1.4499059856007045E-002   5.3066669752437158E-002
  -6.0186576785247296E-002   1.5503847284685707E-002   5.1667080949229838E-002
  -5.8863815381057089E-002   1.6120006332027682E-002   5.0715020655078352E-002
  -5.7541053976866874E-002   1.6347536998032802E-002   5.0210488869982813E-002
  -5.6218292572676659E-002   1.6186439282701179E-002   5.0153485593943156E-002
  -2.7936123122757162E-002   7.4459111584671556E-003   6.1678009820241769E-002
  -2.7219874062424078E-002   7.5645447936973087E-003   6.1368422669785649E-002
  -2.6503625002090990E-002   7.5919253290954100E-003   6.1270197658800152E-002
  -2.5787375941757906E-002   7.5280527646615480E-003   6.1383334787285158E-002
  -2.5071126881424818E-002   7.3729271003956376E-003   6.1707834055240773E-002
  -3.5067083718830876E-002   9.6310431895256510E-003   5.8991755797846920E-002
  -3.4143434749363884E-002   9.6327929200873408E-003   5.8640266257736051E-002
  -3.3219785779896926E-002   9.5693577870530414E-003   5.8492214396422409E-002
  -3.2296136810429962E-002   9.4407377904228238E-003   5.8547600213905940E-002
  -3.1372487840962984E-002   9.2469329301967662E-003   5.8806423710186698E-002
  -4.2157765492508686E-002   1.1816175220584174E-002   5.6175583752665549E-002
  -4.1034641074581199E-002   1.1701041046477331E-002   5.5808260059136007E-002
  -3.9911516656653712E-002   1.1546790245010676E-002   5.5636449583730305E-002
  -3.8788392238726217E-002   1.1353422816184254E-002   5.5660152326448394E-002
  -3.7665267820798737E-002   1.1120938759997936E-002   5.5879368287290405E-002
  -4.9208168443790626E-002   1.4001307251642683E-002   5.3229493684697621E-002
  -4.7893493038075982E-002   1.3769289172867384E-002   5.2872404073985503E-002
  -4.6578817632361345E-002   1.3524222702968295E-002   5.2702903220723886E-002
  -4.5264142226646709E-002   1.3266107841945565E-002   5.2720991124912714E-002
  -4.3949466820932072E-002   1.2994944589799114E-002   5.2926667786552029E-002
  -5.6218292572676659E-002   1.6186439282701179E-002   5.0153485593943156E-002
  -5.4719990639848254E-002   1.5837537299257368E-002   4.9832698302284623E-002
  -5.3221688707019828E-002   1.5501655160925925E-002   4.9691575307403153E-002
  -5.1723386774191402E-002   1.5178792867706955E-002   4.9730116609298741E-002
  -5.0225084841363024E-002   1.4868950419600235E-002   4.9948322207971463E-002
  -2.5071126881424818E-002   7.3729271003956376E-003   6.1707834055240773E-002
  -2.4317999037707014E-002   7.1691540069055565E-003   6.1513874532027252E-002
  -2.3564871193989201E-002   6.9593391547990088E-003   6.1502187577697806E-002
  -2.2811743350271398E-002   6.7434825440759443E-003   6.1672773192252416E-002
  -2.2058615506553577E-002   6.5215841747364722E-003   6.2025631375691170E-002
  -3.1372487840962984E-002   9.2469329301967662E-003   5.8806423710186698E-002
  -3.0433457664579007E-002   9.0104791211604862E-003   5.8611597534137111E-002
  -2.9494427488195044E-002   8.7539122780994835E-003   5.8606303454535831E-002
  -2.8555397311811056E-002   8.4772324010138397E-003   5.8790541471382782E-002
  -2.7616367135427106E-002   8.1804394899036570E-003   5.9164311584677998E-002
  -3.7665267820798737E-002   1.1120938759997936E-002   5.5879368287290405E-002
  -3.6533075784184424E-002   1.0851804235415381E-002   5.5669604182996595E-002
  -3.5400883747570132E-002   1.0548485401399989E-002   5.5656631702715259E-002
  -3.4268691710955833E-002   1.0210982257951848E-002   5.5840450846446413E-002
  -3.3136499674341534E-002   9.8392948050708418E-003   5.6221061614189868E-002
  -4.3949466820932072E-002   1.2994944589799114E-002   5.2926667786552029E-002
  -4.2616853396523255E-002   1.2693129349670266E-002   5.2687894478605862E-002
  -4.1284239972114438E-002   1.2343058524700535E-002   5.2653172322236368E-002
  -3.9951626547705621E-002   1.1944732114889715E-002   5.2822501317443378E-002
  -3.8619013123296832E-002   1.1498150120238027E-002   5.3195881464227004E-002
  -5.0225084841363024E-002   1.4868950419600235E-002   4.9948322207971463E-002
  -4.8684790501595521E-002   1.4534454463925206E-002   4.9666468420964754E-002
  -4.7144496161828010E-002   1.4137631648000998E-002   4.9595925313098810E-002
  -4.5604201822060528E-002   1.3678481971827756E-002   4.9736692884373629E-002
  -4.4063907482293010E-002   1.3157005435405211E-002   5.0088771134789267E-002
  -2.2058615506553577E-002   6.5215841747364722E-003   6.2025631375691170E-002
  -2.1114306847116963E-002   6.2931123830659019E-003   6.1244994656221796E-002
  -2.0169998187680345E-002   6.0575355053488905E-003   6.0720505875101971E-002
  -1.9225689528243724E-002   5.8148535415863019E-003   6.0452165032331737E-002
  -1.8281380868807109E-002   5.5650664917772930E-003   6.0439972127911024E-002
  -2.7616367135427106E-002   8.1804394899036570E-003   5.9164311584677998E-002
  -2.6424056368079277E-002   7.8755301993111149E-003   5.8411535719236268E-002
  -2.5231745600731444E-002   7.5745011837781706E-003   5.7898616131267400E-002
  -2.4039434833383621E-002   7.2773524433053377E-003   5.7625552820771392E-002
  -2.2847124066035784E-002   6.9840839778920749E-003   5.7592345787748300E-002
  -3.3136499674341534E-002   9.8392948050708418E-003   5.6221061614189868E-002
  -3.1712478459959156E-002   9.4579480155564111E-003   5.5507131963881726E-002
  -3.0288457245576775E-002   9.0914668622074993E-003   5.5016766930169707E-002
  -2.8864436031194405E-002   8.7398513450243163E-003   5.4749966513053985E-002
  -2.7440414816812045E-002   8.4031014640068291E-003   5.4706730712534388E-002
  -3.8619013123296832E-002   1.1498150120238027E-002   5.3195881464227004E-002
  -3.6979573122756591E-002   1.1040365831801610E-002   5.2531783390158196E-002
  -3.5340133122216330E-002   1.0608432540636776E-002   5.2074958271808879E-002
  -3.3700693121676090E-002   1.0202350246743406E-002   5.1825406109179142E-002
  -3.2061253121135835E-002   9.8221189501215972E-003   5.1783126902268981E-002
  -4.4063907482293010E-002   1.3157005435405211E-002   5.0088771134789267E-002
  -4.2225340356471561E-002   1.2622783648046920E-002   4.9485489998065679E-002
  -4.0386773230650118E-002   1.2125398219066053E-002   4.9073190156185026E-002
  -3.8548206104828675E-002   1.1664849148462317E-002   4.8851871609147154E-002
  -3.6709638979007211E-002   1.1241136436236421E-002   4.8821534356952301E-002
  -1.8281380868807109E-002   5.5650664917772930E-003   6.0439972127911024E-002
  -1.7709711920989850E-002   5.3008519575004631E-003   6.1120748728634045E-002
  -1.7138042973172590E-002   5.0148875403341203E-003   6.1885907349998714E-002
  -1.6566374025355338E-002   4.7071732402781223E-003   6.2735447992004936E-002
  -1.5994705077538064E-002   4.3777090573327015E-003   6.3669370654652613E-002
  -2.2847124066035784E-002   6.9840839778920749E-003   5.7592345787748300E-002
  -2.2176837649878260E-002   6.6750381276214354E-003   5.8231217818790593E-002
  -2.1506551233720694E-002   6.3305572325764170E-003   5.8982942765871710E-002
  -2.0836264817563135E-002   5.9506412927568392E-003   5.9847520628991915E-002
  -2.0165978401405601E-002   5.5352903081627991E-003   6.0824951408151251E-002
  -2.7440414816812045E-002   8.4031014640068291E-003   5.4706730712534388E-002
  -2.6643040036916761E-002   8.0492242977424355E-003   5.5290013012010752E-002
  -2.5845665257021502E-002   7.6462269248186651E-003   5.6014619122923652E-002
  -2.5048290477126249E-002   7.1941093452356688E-003   5.6880549045272968E-002
  -2.4250915697230986E-002   6.6928715589930077E-003   5.7887802779058722E-002
  -3.2061253121135835E-002   9.8221189501215972E-003   5.1783126902268981E-002
  -3.1108319082105408E-002   9.4234104678634217E-003   5.2297134308294760E-002
  -3.0155385043074988E-002   8.9618966170607987E-003   5.2980936421154277E-002
  -2.9202451004044568E-002   8.4375773977143319E-003   5.3834533240847818E-002
  -2.8249516965014109E-002   7.8504528098233828E-003   5.4857924767375145E-002
  -3.6709638979007211E-002   1.1241136436236421E-002   4.8821534356952301E-002
  -3.5572674785444180E-002   1.0797596637984463E-002   4.9252581707642518E-002
  -3.4435710591881170E-002   1.0277566309303238E-002   4.9881894660563919E-002
  -3.3298746398318146E-002   9.6810454501931112E-003   5.0709473215716838E-002
  -3.2161782204755129E-002   9.0080340606533693E-003   5.1735317373100831E-002
  -1.5994705077538064E-002   4.3777090573327015E-003   6.3669370654652613E-002
  -1.4811820655213311E-002   4.0395710313317901E-003   6.2439120366302669E-002
  -1.3628936232888564E-002   3.7058352021095142E-003   6.1759528510780703E-002
  -1.2446051810563810E-002   3.3765015696662001E-003   6.1630595088086965E-002
  -1.1263167388239056E-002   3.0515701340017021E-003   6.2052320098221037E-002
  -2.0165978401405601E-002   5.5352903081627991E-003   6.0824951408151251E-002
  -1.8508263363584670E-002   5.1120451944052236E-003   5.9617233822124360E-002
  -1.6850548325763742E-002   4.7084468670942625E-003   5.8808519034261875E-002
  -1.5192833287942804E-002   4.3244953262305541E-003   5.8398807044563794E-002
  -1.3535118250121846E-002   3.9601905718136265E-003   5.8388097853029897E-002
  -2.4250915697230986E-002   6.6928715589930077E-003   5.7887802779058722E-002
  -2.2270025678577578E-002   6.1845193574783797E-003   5.6717862485023252E-002
  -2.0289135659924167E-002   5.7110585320789692E-003   5.5795269354488461E-002
  -1.8308245641270839E-002   5.2724890827947173E-003   5.5120023387454246E-002
  -1.6327355622617373E-002   4.8688110096256620E-003   5.4692124583920643E-002
  -2.8249516965014109E-002   7.8504528098233828E-003   5.4857924767375145E-002
  -2.6097107600192009E-002   7.2569935205517855E-003   5.3741006354999399E-002
  -2.3944698235369904E-002   6.7136701970638632E-003   5.2719779471460407E-002
  -2.1792288870547807E-002   6.2204828393589203E-003   5.1794244116758509E-002
  -1.9639879505725707E-002   5.7774314474376420E-003   5.0964400290893261E-002
  -3.2161782204755129E-002   9.0080340606533693E-003   5.1735317373100831E-002
  -2.9989509128427988E-002   8.3294676836250248E-003   5.0686665432052858E-002
  -2.7817236052100902E-002   7.7162818620482992E-003   4.9582049385177990E-002
  -2.5644962975773740E-002   7.1684765959232309E-003   4.8421469232476408E-002
  -2.3472689899446675E-002   6.6860518852496220E-003   4.7204924973947682E-002
  -5.7152222468437514E-002   0.0000000000000000        3.4690674572180814E-002
  -5.7941834330964941E-002   2.0839770057588464E-003   3.8343792261173903E-002
  -5.8731446193492375E-002   4.1369535948069074E-003   4.2209955920776095E-002
  -5.9521058056019802E-002   6.1589297671441803E-003   4.6289165550987402E-002
  -6.0310669918547208E-002   8.1499055227706695E-003   5.0581421151807825E-002
  -6.5819764875581943E-002   0.0000000000000000        3.7211852748724593E-002
  -6.6625256690796789E-002   2.9140559047191022E-003   4.0835090251872153E-002
  -6.7430748506011606E-002   5.7704653409297885E-003   4.4213521879035801E-002
  -6.8236240321226438E-002   8.5692283086320504E-003   4.7347147630215511E-002
  -6.9041732136441269E-002   1.1310344807825903E-002   5.0235967505411323E-002
  -7.4243938102665788E-002   0.0000000000000000        4.0576432850127443E-002
  -7.5523161717161058E-002   3.7441348036793575E-003   4.4143144115631860E-002
  -7.6802385331656328E-002   7.4039770870526671E-003   4.7007197658559305E-002
  -7.8081608946151598E-002   1.0979526850119922E-002   4.9168593478909804E-002
  -7.9360832560646841E-002   1.4470784092881125E-002   5.0627331576683379E-002
  -8.2424742149689034E-002   0.0000000000000000        4.4784414876389365E-002
  -8.4635549410057756E-002   4.5742137026396155E-003   4.8267953852452986E-002
  -8.6846356670426492E-002   9.0374888331755492E-003   5.0590983259346620E-002
  -8.9057163930795227E-002   1.3389825391607792E-002   5.1753503097070282E-002
  -9.1267971191163977E-002   1.7631223377936354E-002   5.1755513365623937E-002
  -9.0362177016651668E-002   0.0000000000000000        4.9835798827510353E-002
  -9.3962419769486910E-002   5.4042926015998687E-003   5.3209519462335556E-002
  -9.7562662522322138E-002   1.0671000579298429E-002   5.4964878681397759E-002
 -0.10116290527515738        1.5800123933095662E-002   5.5101876484696936E-002
 -0.10476314802799261        2.0791662662991588E-002   5.3620512872233080E-002
  -6.0310669918547208E-002   8.1499055227706695E-003   5.0581421151807825E-002
  -6.0610336986269796E-002   1.0028334329051250E-002   5.1518879166655179E-002
  -6.0910004053992377E-002   1.1712669653350853E-002   5.2245573271709173E-002
  -6.1209671121714951E-002   1.3202911495669458E-002   5.2761503466969860E-002
  -6.1509338189437511E-002   1.4499059856007045E-002   5.3066669752437158E-002
  -6.9041732136441269E-002   1.1310344807825903E-002   5.0235967505411323E-002
  -6.9314838806760690E-002   1.3754395925147028E-002   4.9457422732534631E-002
  -6.9587945477080110E-002   1.5661962747231112E-002   4.8942762664257553E-002
  -6.9861052147399544E-002   1.7033045274078194E-002   4.8691987300580164E-002
  -7.0134158817718950E-002   1.7867643505688202E-002   4.8705096641502382E-002
  -7.9360832560646841E-002   1.4470784092881125E-002   5.0627331576683379E-002
  -7.9132730219170139E-002   1.7480457521242779E-002   4.7790393202826582E-002
  -7.8904627877693395E-002   1.9611255841111383E-002   4.5691988147962423E-002
  -7.8676525536216679E-002   2.0863179052486896E-002   4.4332116412090915E-002
  -7.8448423194739977E-002   2.1236227155369363E-002   4.3710777995212051E-002
  -9.1267971191163977E-002   1.7631223377936354E-002   5.1755513365623937E-002
  -9.0064011223498122E-002   2.1206519117338535E-002   4.6517790577531061E-002
  -8.8860051255832240E-002   2.3560548934991630E-002   4.2493249722823777E-002
  -8.7656091288166371E-002   2.4693312830895622E-002   3.9681890801502119E-002
  -8.6452131320500530E-002   2.4604810805050524E-002   3.8083713813566074E-002
 -0.10476314802799261        2.0791662662991588E-002   5.3620512872233080E-002
 -0.10210868181974463        2.4932580713434301E-002   4.5639614856648060E-002
  -9.9454215611496657E-002   2.7509842028871908E-002   3.9346547388841593E-002
  -9.6799749403248675E-002   2.8523446609304365E-002   3.4741310468813798E-002
  -9.4145283195000706E-002   2.7973394454731695E-002   3.1823904096564617E-002
  -6.1509338189437511E-002   1.4499059856007045E-002   5.3066669752437158E-002
  -6.0186576785247296E-002   1.5503847284685707E-002   5.1667080949229838E-002
  -5.8863815381057089E-002   1.6120006332027682E-002   5.0715020655078352E-002
  -5.7541053976866874E-002   1.6347536998032802E-002   5.0210488869982813E-002
  -5.6218292572676659E-002   1.6186439282701179E-002   5.0153485593943156E-002
  -7.0134158817718950E-002   1.7867643505688202E-002   4.8705096641502382E-002
  -6.8409098725926987E-002   1.8322472114004305E-002   4.7264992601757531E-002
  -6.6684038634135051E-002   1.8554245770969563E-002   4.6181957428160225E-002
  -6.4958978542343115E-002   1.8562964476583975E-002   4.5455991120710540E-002
  -6.3233918450551152E-002   1.8348628230847569E-002   4.5087093679408441E-002
  -7.8448423194739977E-002   2.1236227155369363E-002   4.3710777995212051E-002
  -7.6411524058254576E-002   2.1141096943322862E-002   4.2395732148915601E-002
  -7.4374624921769189E-002   2.0988485209911454E-002   4.1347295525858377E-002
  -7.2337725785283802E-002   2.0778391955135134E-002   4.0565468126040477E-002
  -7.0300826648798415E-002   2.0510817178993938E-002   4.0050249949461880E-002
  -8.6452131320500530E-002   2.4604810805050524E-002   3.8083713813566074E-002
  -8.4193852782230016E-002   2.3959721772641440E-002   3.7059299590704031E-002
  -8.1935574243959503E-002   2.3422724648853348E-002   3.6211034948172897E-002
  -7.9677295705689016E-002   2.2993819433686346E-002   3.5538919885972665E-002
  -7.7419017167418488E-002   2.2673006127140290E-002   3.5042954404103578E-002
  -9.4145283195000706E-002   2.7973394454731695E-002   3.1823904096564617E-002
  -9.1756084897853335E-002   2.6778346601960008E-002   3.1255694927122740E-002
  -8.9366886600706005E-002   2.5856964087795236E-002   3.0773175695103641E-002
  -8.6977688303558648E-002   2.5209246912237467E-002   3.0376346400507095E-002
  -8.4588490006411304E-002   2.4835195075286698E-002   3.0065207043333347E-002
  -5.6218292572676659E-002   1.6186439282701179E-002   5.0153485593943156E-002
  -5.4719990639848254E-002   1.5837537299257368E-002   4.9832698302284623E-002
  -5.3221688707019828E-002   1.5501655160925925E-002   4.9691575307403153E-002
  -5.1723386774191402E-002   1.5178792867706955E-002   4.9730116609298741E-002
  -5.0225084841363024E-002   1.4868950419600235E-002   4.9948322207971463E-002
  -6.3233918450551152E-002   1.8348628230847569E-002   4.5087093679408441E-002
  -6.1545041210836100E-002   1.8008598475329485E-002   4.4718278965936581E-002
  -5.9856163971121083E-002   1.7640236651598903E-002   4.4550950569460880E-002
  -5.8167286731406045E-002   1.7243542759655835E-002   4.4585108489981304E-002
  -5.6478409491691028E-002   1.6818516799500222E-002   4.4820752727497915E-002
  -7.0300826648798415E-002   2.0510817178993938E-002   4.0050249949461880E-002
  -6.8399552081977677E-002   2.0179659651401595E-002   3.9592055900851846E-002
  -6.6498277515156981E-002   1.9778818142271830E-002   3.9357170189456989E-002
  -6.4597002948336257E-002   1.9308292651604716E-002   3.9345592815277386E-002
  -6.2695728381515561E-002   1.8768083179400180E-002   3.9557323778312933E-002
  -7.7419017167418488E-002   2.2673006127140290E-002   3.5042954404103578E-002
  -7.5283523253273005E-002   2.2350720827473722E-002   3.4454029107030368E-002
  -7.3148029339127535E-002   2.1917399632944836E-002   3.4110234167391507E-002
  -7.1012535424982093E-002   2.1373042543553614E-002   3.4011569585186932E-002
  -6.8877041510836581E-002   2.0717649559300139E-002   3.4158035360416672E-002
  -8.4588490006411304E-002   2.4835195075286698E-002   3.0065207043333347E-002
  -8.2196954724722021E-002   2.4521782003545822E-002   2.9304198584472238E-002
  -7.9805419443032752E-002   2.4055981123617724E-002   2.8810142503264455E-002
  -7.7413884161343455E-002   2.3437792435502494E-002   2.8583038799709991E-002
  -7.5022348879654172E-002   2.2667215939200097E-002   2.8622887473808950E-002
  -5.0225084841363024E-002   1.4868950419600235E-002   4.9948322207971463E-002
  -4.8684790501595521E-002   1.4534454463925206E-002   4.9666468420964754E-002
  -4.7144496161828010E-002   1.4137631648000998E-002   4.9595925313098810E-002
  -4.5604201822060528E-002   1.3678481971827756E-002   4.9736692884373629E-002
  -4.4063907482293010E-002   1.3157005435405211E-002   5.0088771134789267E-002
  -5.6478409491691028E-002   1.6818516799500222E-002   4.4820752727497915E-002
  -5.4732979663685656E-002   1.6361473067937254E-002   4.4519714342666022E-002
  -5.2987549835680277E-002   1.5868725861771758E-002   4.4417636255169105E-002
  -5.1242120007674877E-002   1.5340275181003995E-002   4.4514518465007188E-002
  -4.9496690179669497E-002   1.4776121025633915E-002   4.4810360972180274E-002
  -6.2695728381515561E-002   1.8768083179400180E-002   3.9557323778312933E-002
  -6.0757513447078068E-002   1.8188491671949136E-002   3.9263724181302619E-002
  -5.8819298512640582E-002   1.7599820075542463E-002   3.9156734499821551E-002
  -5.6881083578203089E-002   1.7002068390180206E-002   3.9236354733869695E-002
  -5.4942868643765644E-002   1.6395236615862396E-002   3.9502584883446934E-002
  -6.8877041510836581E-002   2.0717649559300139E-002   3.4158035360416672E-002
  -6.6758391851772805E-002   2.0015510275961074E-002   3.3898497936874668E-002
  -6.4639742192709029E-002   1.9330914289313224E-002   3.3813220047056128E-002
  -6.2521092533645226E-002   1.8663861599356485E-002   3.3902201690961059E-002
  -6.0402442874581457E-002   1.8014352206090989E-002   3.4165442868589295E-002
  -7.5022348879654172E-002   2.2667215939200097E-002   2.8622887473808950E-002
  -7.2735614877769875E-002   2.1842528879973067E-002   2.8424035609382087E-002
  -7.0448880875885550E-002   2.1062008503083880E-002   2.8387092896872912E-002
  -6.8162146874001198E-002   2.0325654808532642E-002   2.8512059336281308E-002
  -6.5875412872116901E-002   1.9633467796319526E-002   2.8798934927607434E-002
  -4.4063907482293010E-002   1.3157005435405211E-002   5.0088771134789267E-002
  -4.2225340356471561E-002   1.2622783648046920E-002   4.9485489998065679E-002
  -4.0386773230650118E-002   1.2125398219066053E-002   4.9073190156185026E-002
  -3.8548206104828675E-002   1.1664849148462317E-002   4.8851871609147154E-002
  -3.6709638979007211E-002   1.1241136436236421E-002   4.8821534356952301E-002
  -4.9496690179669497E-002   1.4776121025633915E-002   4.4810360972180274E-002
  -4.7461724035744834E-002   1.4207318786417664E-002   4.4230723624641380E-002
  -4.5426757891820164E-002   1.3664923854112179E-002   4.3852903018466102E-002
  -4.3391791747895481E-002   1.3148936228717340E-002   4.3676899153654331E-002
  -4.1356825603970797E-002   1.2659355910233205E-002   4.3702712030206092E-002
  -5.4942868643765644E-002   1.6395236615862396E-002   3.9502584883446934E-002
  -5.2700668035217085E-002   1.5791853924788601E-002   3.8936162273625910E-002
  -5.0458467426668541E-002   1.5204449489158695E-002   3.8582391851689157E-002
  -4.8216266818119941E-002   1.4633023308972419E-002   3.8441273617636655E-002
  -4.5974066209571438E-002   1.4077575384229962E-002   3.8512807571468299E-002
  -6.0402442874581457E-002   1.8014352206090989E-002   3.4165442868589295E-002
  -5.7942172354888299E-002   1.7376389063159386E-002   3.3601805945019395E-002
  -5.5481901835195184E-002   1.6743975124205099E-002   3.3261656655854351E-002
  -5.3021631315502062E-002   1.6117110389227415E-002   3.3144995001094260E-002
  -5.0561360795808911E-002   1.5495794858226733E-002   3.3251820980738887E-002
  -6.5875412872116901E-002   1.9633467796319526E-002   2.8798934927607434E-002
  -6.3186236994758505E-002   1.8960924201530283E-002   2.8227654638821709E-002
  -6.0497061117400164E-002   1.8283500759251350E-002   2.7890697430961536E-002
  -5.7807885240041795E-002   1.7601197469482386E-002   2.7788063304026889E-002
  -5.5118709362683427E-002   1.6914014332223504E-002   2.7919752258017960E-002
  -3.6709638979007211E-002   1.1241136436236421E-002   4.8821534356952301E-002
  -3.5572674785444180E-002   1.0797596637984463E-002   4.9252581707642518E-002
  -3.4435710591881170E-002   1.0277566309303238E-002   4.9881894660563919E-002
  -3.3298746398318146E-002   9.6810454501931112E-003   5.0709473215716838E-002
  -3.2161782204755129E-002   9.0080340606533693E-003   5.1735317373100831E-002
  -4.1356825603970797E-002   1.2659355910233205E-002   4.3702712030206092E-002
  -4.0043883554130570E-002   1.2152040557804084E-002   4.4072233701690583E-002
  -3.8730941504290309E-002   1.1582847830574755E-002   4.4595445483498170E-002
  -3.7417999454450047E-002   1.0951777728545588E-002   4.5272347375628991E-002
  -3.6105057404609828E-002   1.0258830251715867E-002   4.6102939378082908E-002
  -4.5974066209571438E-002   1.4077575384229962E-002   3.8512807571468299E-002
  -4.4529721795362125E-002   1.3506484477623787E-002   3.8835416719376015E-002
  -4.3085377381152708E-002   1.2888129351846481E-002   3.9267140485698820E-002
  -4.1641032966943353E-002   1.2222510006897950E-002   3.9807978870436571E-002
  -4.0196688552733985E-002   1.1509626442778337E-002   4.0457931873589328E-002
  -5.0561360795808911E-002   1.5495794858226733E-002   3.3251820980738887E-002
  -4.9030189509138691E-002   1.4860928397443476E-002   3.3542130760698903E-002
  -4.7499018222468381E-002   1.4193410873118102E-002   3.3896979667165830E-002
  -4.5967846935798154E-002   1.3493242285250647E-002   3.4316367700139704E-002
  -4.4436675649127906E-002   1.2760422633840710E-002   3.4800294859620218E-002
  -5.5118709362683427E-002   1.6914014332223504E-002   2.7919752258017960E-002
  -5.3545286695460409E-002   1.6215372317263138E-002   2.8192375825659310E-002
  -5.1971864028237336E-002   1.5498692394389751E-002   2.8484963027899407E-002
  -5.0398441361014290E-002   1.4763974563602990E-002   2.8797513864737972E-002
  -4.8825018693791244E-002   1.4011218824903193E-002   2.9130028336175395E-002
  -3.2161782204755129E-002   9.0080340606533693E-003   5.1735317373100831E-002
  -2.9989509128427988E-002   8.3294676836250248E-003   5.0686665432052858E-002
  -2.7817236052100902E-002   7.7162818620482992E-003   4.9582049385177990E-002
  -2.5644962975773740E-002   7.1684765959232309E-003   4.8421469232476408E-002
  -2.3472689899446675E-002   6.6860518852496220E-003   4.7204924973947682E-002
  -3.6105057404609828E-002   1.0258830251715867E-002   4.6102939378082908E-002
  -3.3910074843904965E-002   9.5577837553380285E-003   4.5040135024547429E-002
  -3.1715092283200123E-002   8.9024165946632733E-003   4.4078713745594272E-002
  -2.9520109722495278E-002   8.2927287696921113E-003   4.3218675541223411E-002
  -2.7325127161790475E-002   7.7287202804242616E-003   4.2460020411435040E-002
  -4.0196688552733985E-002   1.1509626442778337E-002   4.0457931873589328E-002
  -3.7821649327242267E-002   1.0786099827050616E-002   3.9361273887818196E-002
  -3.5446610101750375E-002   1.0088551327278199E-002   3.8523346157038639E-002
  -3.3071570876258616E-002   9.4169809434609935E-003   3.7944148681250706E-002
  -3.0696531650766759E-002   8.7713886755989012E-003   3.7623681460454250E-002
  -4.4436675649127906E-002   1.2760422633840710E-002   3.4800294859620218E-002
  -4.1724232578439852E-002   1.2014415898763467E-002   3.3650082021865160E-002
  -3.9011789507751908E-002   1.1274686059893149E-002   3.2915946619510965E-002
  -3.6299346437063951E-002   1.0541233117229820E-002   3.2597888652557666E-002
  -3.3586903366375889E-002   9.8140570707735408E-003   3.2695908121004855E-002
  -4.8825018693791244E-002   1.4011218824903193E-002   2.9130028336175395E-002
  -4.5617824597497858E-002   1.3242731970476096E-002   2.7906559426688571E-002
  -4.2410630501204416E-002   1.2460820792508015E-002   2.7256515133011527E-002
  -3.9203436404911016E-002   1.1665485290998735E-002   2.7179895455144570E-002
  -3.5996242308617643E-002   1.0856725465948180E-002   2.7676700393087561E-002
  -9.0362177016651668E-002   0.0000000000000000        4.9835798827510353E-002
  -9.3962419769486910E-002   5.4042926015998687E-003   5.3209519462335556E-002
  -9.7562662522322138E-002   1.0671000579298429E-002   5.4964878681397759E-002
 -0.10116290527515738        1.5800123933095662E-002   5.5101876484696936E-002
 -0.10476314802799261        2.0791662662991588E-002   5.3620512872233080E-002
 -0.10329417303110125        0.0000000000000000        5.8663510927037282E-002
 -0.10683133990444237        1.0884156219250042E-002   5.2119202003881190E-002
 -0.11036850677778348        1.9171946305993531E-002   4.7319406255476384E-002
 -0.11390567365112457        2.4863370260230451E-002   4.4264123681822871E-002
 -0.11744284052446567        2.7958428081960814E-002   4.2953354282920651E-002
 -0.12645866052058538        0.0000000000000000        7.4200477398516984E-002
 -0.12656987692391802        1.6364019836900213E-002   5.5279357408774370E-002
 -0.12668109332725069        2.7672892032688634E-002   4.1465625184297313E-002
 -0.12679230973058336        3.3926616587365226E-002   3.2759280725085903E-002
 -0.12690352613391601        3.5125193500930060E-002   2.9160324031140047E-002
 -0.15985563948510401        0.0000000000000000        9.6446698241949499E-002
 -0.15317803082791390        2.1843883454550385E-002   6.2689985677015087E-002
 -0.14650042217072384        3.6173837759383730E-002   3.7403535467860564E-002
 -0.13982281351353373        4.2989862914500035E-002   2.0587347614485964E-002
 -0.13314520485634365        4.2291958919899286E-002   1.2241422116891283E-002
 -0.20348510992465715        0.0000000000000000       0.12540217345733481     
 -0.18665580161643000        2.7323747072200560E-002   7.4351086808603389E-002
 -0.16982649330820285        4.4674783486078826E-002   3.5133137106166140E-002
 -0.15299718499997572        5.2053109241634803E-002   7.7483243500231502E-003
 -0.13616787669174857        4.9458724338868512E-002  -7.8033514598256984E-003
 -0.10476314802799261        2.0791662662991588E-002   5.3620512872233080E-002
 -0.10210868181974463        2.4932580713434301E-002   4.5639614856648060E-002
  -9.9454215611496657E-002   2.7509842028871908E-002   3.9346547388841593E-002
  -9.6799749403248675E-002   2.8523446609304365E-002   3.4741310468813798E-002
  -9.4145283195000706E-002   2.7973394454731695E-002   3.1823904096564617E-002
 -0.11744284052446567        2.7958428081960814E-002   4.2953354282920651E-002
 -0.11348791740241021        2.9430893076919776E-002   3.6697851392366483E-002
 -0.10953299428035475        3.0254538550842446E-002   3.1355431781648693E-002
 -0.10557807115829930        3.0429364503728854E-002   2.6926095450767257E-002
 -0.10162314803624381        2.9955370935579012E-002   2.3409842399722176E-002
 -0.12690352613391601        3.5125193500930060E-002   2.9160324031140047E-002
 -0.12242289336599532        3.3929205440405230E-002   2.5545053479585633E-002
 -0.11794226059807464        3.2999235072813021E-002   2.2068118939925309E-002
 -0.11346162783015398        3.2335282398153378E-002   1.8729520412159043E-002
 -0.10898099506223326        3.1937347416426350E-002   1.5529257896286917E-002
 -0.13314520485634365        4.2291958919899286E-002   1.2241422116891283E-002
 -0.12891360971050000        3.8427517803890747E-002   1.2181221118305427E-002
 -0.12468201456465637        3.5743931594783604E-002   1.1484608863671445E-002
 -0.12045041941881270        3.4241200292577899E-002   1.0151585352989306E-002
 -0.11621882427296912        3.3919323897273659E-002   8.1821505862589017E-003
 -0.13616787669174857        4.9458724338868512E-002  -7.8033514598256984E-003
 -0.13296006643592423        4.2925830167376181E-002  -3.3936456914740627E-003
 -0.12975225618009989        3.8488628116754159E-002  -3.9509844711288662E-004
 -0.12654444592427561        3.6147118187002412E-002   1.1922902732578312E-003
 -0.12333663566845124        3.5901300378120976E-002   1.3685204696381459E-003
  -9.4145283195000706E-002   2.7973394454731695E-002   3.1823904096564617E-002
  -9.1756084897853335E-002   2.6778346601960008E-002   3.1255694927122740E-002
  -8.9366886600706005E-002   2.5856964087795236E-002   3.0773175695103641E-002
  -8.6977688303558648E-002   2.5209246912237467E-002   3.0376346400507095E-002
  -8.4588490006411304E-002   2.4835195075286698E-002   3.0065207043333347E-002
 -0.10162314803624381        2.9955370935579012E-002   2.3409842399722176E-002
  -9.9136459777763392E-002   2.9183053249513091E-002   2.3136369381349879E-002
  -9.6649771519282918E-002   2.8462906848651229E-002   2.2972186348221194E-002
  -9.4163083260802444E-002   2.7794931732993435E-002   2.2917293300336036E-002
  -9.1676395002322025E-002   2.7179127902539790E-002   2.2971690237694312E-002
 -0.10898099506223326        3.1937347416426350E-002   1.5529257896286917E-002
 -0.10637321679459891        3.1587759897066171E-002   1.5329026975581403E-002
 -0.10376543852696452        3.1068849609507197E-002   1.5261686087940202E-002
 -0.10115766025933018        3.0380616553749403E-002   1.5327235233363420E-002
  -9.8549881991695787E-002   2.9523060729792855E-002   1.5525674411850918E-002
 -0.11621882427296912        3.3919323897273659E-002   8.1821505862589017E-003
 -0.11346635594835996        3.3992466544619369E-002   7.8336677098171416E-003
 -0.11071388762375078        3.3674792370363117E-002   7.6416749142605780E-003
 -0.10796141929914166        3.2966301374505444E-002   7.6061721995893316E-003
 -0.10520895097453246        3.1866993557045808E-002   7.7271595658031551E-003
 -0.12333663566845124        3.5901300378120976E-002   1.3685204696381459E-003
 -0.12041587723904651        3.6397173192172352E-002   6.5029158405738308E-004
 -0.11749511880964174        3.6280735131219093E-002   1.1215282718264608E-004
 -0.11457436038023699        3.5551986195261315E-002  -2.4589580098624206E-004
 -0.11165360195083224        3.4210926384299012E-002  -4.2385430044888928E-004
  -8.4588490006411304E-002   2.4835195075286698E-002   3.0065207043333347E-002
  -8.2196954724722021E-002   2.4521782003545822E-002   2.9304198584472238E-002
  -7.9805419443032752E-002   2.4055981123617724E-002   2.8810142503264455E-002
  -7.7413884161343455E-002   2.3437792435502494E-002   2.8583038799709991E-002
  -7.5022348879654172E-002   2.2667215939200097E-002   2.8622887473808950E-002
  -9.1676395002322025E-002   2.7179127902539790E-002   2.2971690237694312E-002
  -8.9038915482739872E-002   2.6563962016662446E-002   2.2302450043490435E-002
  -8.6401435963157705E-002   2.5897900734733782E-002   2.1858145947418993E-002
  -8.3763956443575593E-002   2.5180944056753841E-002   2.1638777949480006E-002
  -8.1126476923993371E-002   2.4413091982722596E-002   2.1644346049673302E-002
  -9.8549881991695787E-002   2.9523060729792855E-002   1.5525674411850918E-002
  -9.5708474513741676E-002   2.8606142029779097E-002   1.5049694894440212E-002
  -9.2867067035787607E-002   2.7739820345849871E-002   1.4756635195640924E-002
  -9.0025659557833523E-002   2.6924095678005223E-002   1.4646495315453071E-002
  -8.7184252079879468E-002   2.6158968026244997E-002   1.4719275253876694E-002
 -0.10520895097453246        3.1866993557045808E-002   7.7271595658031551E-003
 -0.10220563181772745        3.0648322042895637E-002   7.5459331373214662E-003
  -9.9202312660922401E-002   2.9581739956965808E-002   7.5056102479301732E-003
  -9.6198993504117356E-002   2.8667247299256449E-002   7.6061908976293724E-003
  -9.3195674347312352E-002   2.7904844069767530E-002   7.8476750864191463E-003
 -0.11165360195083224        3.4210926384299012E-002  -4.2385430044888928E-004
 -0.10853038739469711        3.2690502056012316E-002  -2.0883522786585562E-004
 -0.10540717283856207        3.1423659568082019E-002   1.0507110428671640E-004
 -0.10228395828242702        3.0410398920507897E-002   5.1786469600898291E-004
  -9.9160743726291911E-002   2.9650720113289952E-002   1.0295455473006698E-003
  -7.5022348879654172E-002   2.2667215939200097E-002   2.8622887473808950E-002
  -7.2735614877769875E-002   2.1842528879973067E-002   2.8424035609382087E-002
  -7.0448880875885550E-002   2.1062008503083880E-002   2.8387092896872912E-002
  -6.8162146874001198E-002   2.0325654808532642E-002   2.8512059336281308E-002
  -6.5875412872116901E-002   1.9633467796319526E-002   2.8798934927607434E-002
  -8.1126476923993371E-002   2.4413091982722596E-002   2.1644346049673302E-002
  -7.8681982392053540E-002   2.3622388787665732E-002   2.1512378370006552E-002
  -7.6237487860113723E-002   2.2836878746609134E-002   2.1534022598533403E-002
  -7.3792993328173850E-002   2.2056561859552730E-002   2.1709278735253523E-002
  -7.1348498796234075E-002   2.1281438126496577E-002   2.2038146780167245E-002
  -8.7184252079879468E-002   2.6158968026244997E-002   1.4719275253876694E-002
  -8.4590294261608301E-002   2.5402248695358343E-002   1.4615218230632561E-002
  -8.1996336443337092E-002   2.4611748990134217E-002   1.4656475871857571E-002
  -7.9402378625065925E-002   2.3787468910572700E-002   1.4843048177551695E-002
  -7.6808420806794758E-002   2.2929408456673600E-002   1.5174935147715327E-002
  -9.3195674347312352E-002   2.7904844069767530E-002   7.8476750864191463E-003
  -9.0460550486433977E-002   2.7182108603051064E-002   7.7325551912597584E-003
  -8.7725426625555700E-002   2.6386619233659328E-002   7.7544527168452353E-003
  -8.4990302764677381E-002   2.5518375961592479E-002   7.9133676631759631E-003
  -8.2255178903799062E-002   2.4577378786850665E-002   8.2093000302514672E-003
  -9.9160743726291911E-002   2.9650720113289952E-002   1.0295455473006698E-003
  -9.6292751066530735E-002   2.8961968510743591E-002   8.6438925188822568E-004
  -9.3424758406769504E-002   2.8161489477184581E-002   8.2795313349663668E-004
  -9.0556765747008328E-002   2.7249283012612681E-002   9.2023719212598262E-004
  -8.7688773087247096E-002   2.6225349117027674E-002   1.1412414277759408E-003
  -6.5875412872116901E-002   1.9633467796319526E-002   2.8798934927607434E-002
  -6.3186236994758505E-002   1.8960924201530283E-002   2.8227654638821709E-002
  -6.0497061117400164E-002   1.8283500759251350E-002   2.7890697430961536E-002
  -5.7807885240041795E-002   1.7601197469482386E-002   2.7788063304026889E-002
  -5.5118709362683427E-002   1.6914014332223504E-002   2.7919752258017960E-002
  -7.1348498796234075E-002   2.1281438126496577E-002   2.2038146780167245E-002
  -6.8434081842927874E-002   2.0517218445560537E-002   2.1476815951335160E-002
  -6.5519664889621715E-002   1.9769613714864728E-002   2.1131644193473090E-002
  -6.2605247936315597E-002   1.9038623934408899E-002   2.1002631506581090E-002
  -5.9690830983009424E-002   1.8324249104193391E-002   2.1089777890658801E-002
  -7.6808420806794758E-002   2.2929408456673600E-002   1.5174935147715327E-002
  -7.3686926787496457E-002   2.2073512689590791E-002   1.4645048576567052E-002
  -7.0565432768198155E-002   2.1255726670478155E-002   1.4313157066432901E-002
  -6.7443938748899840E-002   2.0476050399335685E-002   1.4179260617313266E-002
  -6.4322444729601566E-002   1.9734483876163111E-002   1.4243359229208136E-002
  -8.2255178903799062E-002   2.4577378786850665E-002   8.2093000302514672E-003
  -7.8944771828464266E-002   2.3629806933620934E-002   7.7323525145169859E-003
  -7.5634364753129402E-002   2.2741839626091501E-002   7.4352360498409088E-003
  -7.2323957677794606E-002   2.1913476864262392E-002   7.3179506362239599E-003
  -6.9013550602459700E-002   2.1144718648132887E-002   7.3804962736653684E-003
  -8.7688773087247096E-002   2.6225349117027674E-002   1.1412414277759408E-003
  -8.4207616965831233E-002   2.5186101177651188E-002   7.3872776518507655E-004
  -8.0726460844415537E-002   2.4227952581704848E-002   4.9788114369719860E-004
  -7.7245304722999758E-002   2.3350903329188877E-002   4.1870156331252906E-004
  -7.3764148601583979E-002   2.2554953420102830E-002   5.0118902403095689E-004
  -5.5118709362683427E-002   1.6914014332223504E-002   2.7919752258017960E-002
  -5.3545286695460409E-002   1.6215372317263138E-002   2.8192375825659310E-002
  -5.1971864028237336E-002   1.5498692394389751E-002   2.8484963027899407E-002
  -5.0398441361014290E-002   1.4763974563602990E-002   2.8797513864737972E-002
  -4.8825018693791244E-002   1.4011218824903193E-002   2.9130028336175395E-002
  -5.9690830983009424E-002   1.8324249104193391E-002   2.1089777890658801E-002
  -5.8050599859653676E-002   1.7599515163016222E-002   2.1322068613529976E-002
  -5.6410368736297914E-002   1.6837448049676074E-002   2.1668012614067714E-002
  -5.4770137612942180E-002   1.6038047764172350E-002   2.2127609892272283E-002
  -5.3129906489586390E-002   1.5201314306505787E-002   2.2700860448143512E-002
  -6.4322444729601566E-002   1.9734483876163111E-002   1.4243359229208136E-002
  -6.2521715507045023E-002   1.8983658008769402E-002   1.4416021843058804E-002
  -6.0720986284488562E-002   1.8176203704962271E-002   1.4796027377644433E-002
  -5.8920257061932040E-002   1.7312120964741873E-002   1.5383375832964709E-002
  -5.7119527839375545E-002   1.6391409788108102E-002   1.6178067209019681E-002
  -6.9013550602459700E-002   2.1144718648132887E-002   7.3804962736653684E-003
  -6.6958633637634463E-002   2.0367800854522645E-002   7.4742355142460130E-003
  -6.4903716672809225E-002   1.9514959360248142E-002   7.8690073186291863E-003
  -6.2848799707984015E-002   1.8586194165311314E-002   8.5648116868153601E-003
  -6.0793882743158750E-002   1.7581505269710668E-002   9.5616486188041458E-003
  -7.3764148601583979E-002   2.2554953420102830E-002   5.0118902403095689E-004
  -7.1361354251421871E-002   2.1751943700275500E-002   4.9670962709119637E-004
  -6.8958559901259930E-002   2.0853715015534735E-002   8.8695243702205384E-004
  -6.6555765551097962E-002   1.9860267365880799E-002   1.6719174538237722E-003
  -6.4152971200935882E-002   1.8771600751313233E-002   2.8516046774965664E-003
  -4.8825018693791244E-002   1.4011218824903193E-002   2.9130028336175395E-002
  -4.5617824597497858E-002   1.3242731970476096E-002   2.7906559426688571E-002
  -4.2410630501204416E-002   1.2460820792508015E-002   2.7256515133011527E-002
  -3.9203436404911016E-002   1.1665485290998735E-002   2.7179895455144570E-002
  -3.5996242308617643E-002   1.0856725465948180E-002   2.7676700393087561E-002
  -5.3129906489586390E-002   1.5201314306505787E-002   2.2700860448143512E-002
  -4.9498452751116903E-002   1.4362710124545874E-002   2.1653576711046507E-002
  -4.5866999012647382E-002   1.3557697666163104E-002   2.0881387642491783E-002
  -4.2235545274177833E-002   1.2786276931357227E-002   2.0384293242479090E-002
  -3.8604091535708318E-002   1.2048447920128158E-002   2.0162293511008955E-002
  -5.7119527839375545E-002   1.6391409788108102E-002   1.6178067209019681E-002
  -5.3362144405997666E-002   1.5482688278615597E-002   1.5353984691430872E-002
  -4.9604760972619809E-002   1.4654574539818069E-002   1.4506666895116385E-002
  -4.5847377539241937E-002   1.3907068571715853E-002   1.3636113820076762E-002
  -4.2089994105864004E-002   1.3240170374308136E-002   1.2742325466310878E-002
  -6.0793882743158750E-002   1.7581505269710668E-002   9.5616486188041458E-003
  -5.7208899562140238E-002   1.6602666432685459E-002   9.0077833678412420E-003
  -5.3623916381121794E-002   1.5751451413473318E-002   8.1323528908853193E-003
  -5.0038933200103428E-002   1.5027860212074079E-002   6.9353571879361819E-003
  -4.6453950019084790E-002   1.4431892828488335E-002   5.4167962589931618E-003
  -6.4152971200935882E-002   1.8771600751313233E-002   2.8516046774965664E-003
  -6.1038718219544652E-002   1.7722644586754877E-002   2.6149727402783873E-003
  -5.7924465238153311E-002   1.6848328287127956E-002   1.7584456297987383E-003
  -5.4810212256762192E-002   1.6148651852432930E-002   2.8202334605833407E-004
  -5.1695959275370740E-002   1.5623615282668091E-002  -1.8142941109433597E-003
 </DataArray>
 </PointData>
 </Piece>
 <Piece  NumberOfPoints="          1600 "  NumberOfCells="         1024 ">
 <Points>
 <DataArray  type="Float64" NumberOfComponents="3"  format="ascii" >
  0.50000000000000000        0.0000000000000000        0.0000000000000000     
  0.53125000000000000        0.0000000000000000        0.0000000000000000     
  0.56250000000000000        0.0000000000000000        0.0000000000000000     
  0.59375000000000000        0.0000000000000000        0.0000000000000000     
  0.62500000000000000        0.0000000000000000        0.0000000000000000     
  0.50000000000000000        3.1250000000000000E-002   0.0000000000000000     
  0.53125000000000000        3.1250000000000000E-002   0.0000000000000000     
  0.56250000000000000        3.1250000000000000E-002   0.0000000000000000     
  0.59375000000000000        3.1250000000000000E-002   0.0000000000000000     
  0.62500000000000000        3.1250000000000000E-002   0.0000000000000000     
  0.50000000000000000        6.2500000000000000E-002   0.0000000000000000     
  0.53125000000000000        6.2500000000000000E-002   0.0000000000000000     
  0.56250000000000000        6.2500000000000000E-002   0.0000000000000000     
  0.59375000000000000        6.2500000000000000E-002   0.0000000000000000     
  0.62500000000000000        6.2500000000000000E-002   0.0000000000000000     
  0.50000000000000000        9.3750000000000000E-002   0.0000000000000000     
  0.53125000000000000        9.3750000000000000E-002   0.0000000000000000     
  0.56250000000000000        9.3750000000000000E-002   0.0000000000000000     
  0.59375000000000000        9.3750000000000000E-002   0.0000000000000000     
  0.62500000000000000        9.3750000000000000E-002   0.0000000000000000     
  0.50000000000000000       0.12500000000000000        0.0000000000000000     
  0.53125000000000000       0.12500000000000000        0.0000000000000000     
  0.56250000000000000       0.12500000000000000        0.0000000000000000     
  0.59375000000000000       0.12500000000000000        0.0000000000000000     
  0.62500000000000000       0.12500000000000000        0.0000000000000000     
  0.62500000000000000        0.0000000000000000        0.0000000000000000     
  0.65625000000000000        0.0000000000000000        0.0000000000000000     
  0.68750000000000000        0.0000000000000000        0.0000000000000000     
  0.71875000000000000        0.0000000000000000        0.0000000000000000     
  0.75000000000000000        0.0000000000000000        0.0000000000000000     
  0.62500000000000000        3.1250000000000000E-002   0.0000000000000000     
  0.65625000000000000        3.1250000000000000E-002   0.0000000000000000     
  0.68750000000000000        3.1250000000000000E-002   0.0000000000000000     
  0.71875000000000000        3.1250000000000000E-002   0.0000000000000000     
  0.75000000000000000        3.1250000000000000E-002   0.0000000000000000     
  0.62500000000000000        6.2500000000000000E-002   0.0000000000000000     
  0.65625000000000000        6.2500000000000000E-002   0.0000000000000000     
  0.68750000000000000        6.2500000000000000E-002   0.0000000000000000     
  0.71875000000000000        6.2500000000000000E-002   0.0000000000000000     
  0.75000000000000000        6.2500000000000000E-002   0.0000000000000000     
  0.62500000000000000        9.3750000000000000E-002   0.0000000000000000     
  0.65625000000000000        9.3750000000000000E-002   0.0000000000000000     
  0.68750000000000000        9.3750000000000000E-002   0.0000000000000000     
  0.71875000000000000        9.3750000000000000E-002   0.0000000000000000     
  0.75000000000000000        9.3750000000000000E-002   0.0000000000000000     
  0.62500000000000000       0.12500000000000000        0.0000000000000000     
  0.65625000000000000       0.12500000000000000        0.0000000000000000     
  0.68750000000000000       0.12500000000000000        0.0000000000000000     
  0.71875000000000000       0.12500000000000000        0.0000000000000000     
  0.75000000000000000       0.12500000000000000        0.0000000000000000     
  0.75000000000000000        0.0000000000000000        0.0000000000000000     
  0.78125000000000000        0.0000000000000000        0.0000000000000000     
  0.81250000000000000        0.0000000000000000        0.0000000000000000     
  0.84375000000000000        0.0000000000000000        0.0000000000000000     
  0.87500000000000000        0.0000000000000000        0.0000000000000000     
  0.75000000000000000        3.1250000000000000E-002   0.0000000000000000     
  0.78125000000000000        3.1250000000000000E-002   0.0000000000000000     
  0.81250000000000000        3.1250000000000000E-002   0.0000000000000000     
  0.84375000000000000        3.1250000000000000E-002   0.0000000000000000     
  0.87500000000000000        3.1250000000000000E-002   0.0000000000000000     
  0.75000000000000000        6.2500000000000000E-002   0.0000000000000000     
  0.78125000000000000        6.2500000000000000E-002   0.0000000000000000     
  0.81250000000000000        6.2500000000000000E-002   0.0000000000000000     
  0.84375000000000000        6.2500000000000000E-002   0.0000000000000000     
  0.87500000000000000        6.2500000000000000E-002   0.0000000000000000     
  0.75000000000000000        9.3750000000000000E-002   0.0000000000000000     
  0.78125000000000000        9.3750000000000000E-002   0.0000000000000000     
  0.81250000000000000        9.3750000000000000E-002   0.0000000000000000     
  0.84375000000000000        9.3750000000000000E-002   0.0000000000000000     
  0.87500000000000000        9.3750000000000000E-002   0.0000000000000000     
  0.75000000000000000       0.12500000000000000        0.0000000000000000     
  0.78125000000000000       0.12500000000000000        0.0000000000000000     
  0.81250000000000000       0.12500000000000000        0.0000000000000000     
  0.84375000000000000       0.12500000000000000        0.0000000000000000     
  0.87500000000000000       0.12500000000000000        0.0000000000000000     
  0.87500000000000000        0.0000000000000000        0.0000000000000000     
  0.90625000000000000        0.0000000000000000        0.0000000000000000     
  0.93750000000000000        0.0000000000000000        0.0000000000000000     
  0.96875000000000000        0.0000000000000000        0.0000000000000000     
   1.0000000000000000        0.0000000000000000        0.0000000000000000     
  0.87500000000000000        3.1250000000000000E-002   0.0000000000000000     
  0.90625000000000000        3.1250000000000000E-002   0.0000000000000000     
  0.93750000000000000        3.1250000000000000E-002   0.0000000000000000     
  0.96875000000000000        3.1250000000000000E-002   0.0000000000000000     
   1.0000000000000000        3.1250000000000000E-002   0.0000000000000000     
  0.87500000000000000        6.2500000000000000E-002   0.0000000000000000     
  0.90625000000000000        6.2500000000000000E-002   0.0000000000000000     
  0.93750000000000000        6.2500000000000000E-002   0.0000000000000000     
  0.96875000000000000        6.2500000000000000E-002   0.0000000000000000     
   1.0000000000000000        6.2500000000000000E-002   0.0000000000000000     
  0.87500000000000000        9.3750000000000000E-002   0.0000000000000000     
  0.90625000000000000        9.3750000000000000E-002   0.0000000000000000     
  0.93750000000000000        9.3750000000000000E-002   0.0000000000000000     
  0.96875000000000000        9.3750000000000000E-002   0.0000000000000000     
   1.0000000000000000        9.3750000000000000E-002   0.0000000000000000     
  0.87500000000000000       0.12500000000000000        0.0000000000000000     
  0.90625000000000000       0.12500000000000000        0.0000000000000000     
  0.93750000000000000       0.12500000000000000        0.0000000000000000     
  0.96875000000000000       0.12500000000000000        0.0000000000000000     
   1.0000000000000000       0.12500000000000000        0.0000000000000000     
   1.0000000000000000        0.0000000000000000        0.0000000000000000     
   1.0312500000000000        0.0000000000000000        0.0000000000000000     
   1.0625000000000000        0.0000000000000000        0.0000000000000000     
   1.0937500000000000        0.0000000000000000        0.0000000000000000     
   1.1250000000000000        0.0000000000000000        0.0000000000000000     
   1.0000000000000000        3.1250000000000000E-002   0.0000000000000000     
   1.0312500000000000        3.1250000000000000E-002   0.0000000000000000     
   1.0625000000000000        3.1250000000000000E-002   0.0000000000000000     
   1.0937500000000000        3.1250000000000000E-002   0.0000000000000000     
   1.1250000000000000        3.1250000000000000E-002   0.0000000000000000     
   1.0000000000000000        6.2500000000000000E-002   0.0000000000000000     
   1.0312500000000000        6.2500000000000000E-002   0.0000000000000000     
   1.0625000000000000        6.2500000000000000E-002   0.0000000000000000     
   1.0937500000000000        6.2500000000000000E-002   0.0000000000000000     
   1.1250000000000000        6.2500000000000000E-002   0.0000000000000000     
   1.0000000000000000        9.3750000000000000E-002   0.0000000000000000     
   1.0312500000000000        9.3750000000000000E-002   0.0000000000000000     
   1.0625000000000000        9.3750000000000000E-002   0.0000000000000000     
   1.0937500000000000        9.3750000000000000E-002   0.0000000000000000     
   1.1250000000000000        9.3750000000000000E-002   0.0000000000000000     
   1.0000000000000000       0.12500000000000000        0.0000000000000000     
   1.0312500000000000       0.12500000000000000        0.0000000000000000     
   1.0625000000000000       0.12500000000000000        0.0000000000000000     
   1.0937500000000000       0.12500000000000000        0.0000000000000000     
   1.1250000000000000       0.12500000000000000        0.0000000000000000     
   1.1250000000000000        0.0000000000000000        0.0000000000000000     
   1.1562500000000000        0.0000000000000000        0.0000000000000000     
   1.1875000000000000        0.0000000000000000        0.0000000000000000     
   1.2187500000000000        0.0000000000000000        0.0000000000000000     
   1.2500000000000000        0.0000000000000000        0.0000000000000000     
   1.1250000000000000        3.1250000000000000E-002   0.0000000000000000     
   1.1562500000000000        3.1250000000000000E-002   0.0000000000000000     
   1.1875000000000000        3.1250000000000000E-002   0.0000000000000000     
   1.2187500000000000        3.1250000000000000E-002   0.0000000000000000     
   1.2500000000000000        3.1250000000000000E-002   0.0000000000000000     
   1.1250000000000000        6.2500000000000000E-002   0.0000000000000000     
   1.1562500000000000        6.2500000000000000E-002   0.0000000000000000     
   1.1875000000000000        6.2500000000000000E-002   0.0000000000000000     
   1.2187500000000000        6.2500000000000000E-002   0.0000000000000000     
   1.2500000000000000        6.2500000000000000E-002   0.0000000000000000     
   1.1250000000000000        9.3750000000000000E-002   0.0000000000000000     
   1.1562500000000000        9.3750000000000000E-002   0.0000000000000000     
   1.1875000000000000        9.3750000000000000E-002   0.0000000000000000     
   1.2187500000000000        9.3750000000000000E-002   0.0000000000000000     
   1.2500000000000000        9.3750000000000000E-002   0.0000000000000000     
   1.1250000000000000       0.12500000000000000        0.0000000000000000     
   1.1562500000000000       0.12500000000000000        0.0000000000000000     
   1.1875000000000000       0.12500000000000000        0.0000000000000000     
   1.2187500000000000       0.12500000000000000        0.0000000000000000     
   1.2500000000000000       0.12500000000000000        0.0000000000000000     
   1.2500000000000000        0.0000000000000000        0.0000000000000000     
   1.2812500000000000        0.0000000000000000        0.0000000000000000     
   1.3125000000000000        0.0000000000000000        0.0000000000000000     
   1.3437500000000000        0.0000000000000000        0.0000000000000000     
   1.3750000000000000        0.0000000000000000        0.0000000000000000     
   1.2500000000000000        3.1250000000000000E-002   0.0000000000000000     
   1.2812500000000000        3.1250000000000000E-002   0.0000000000000000     
   1.3125000000000000        3.1250000000000000E-002   0.0000000000000000     
   1.3437500000000000        3.1250000000000000E-002   0.0000000000000000     
   1.3750000000000000        3.1250000000000000E-002   0.0000000000000000     
   1.2500000000000000        6.2500000000000000E-002   0.0000000000000000     
   1.2812500000000000        6.2500000000000000E-002   0.0000000000000000     
   1.3125000000000000        6.2500000000000000E-002   0.0000000000000000     
   1.3437500000000000        6.2500000000000000E-002   0.0000000000000000     
   1.3750000000000000        6.2500000000000000E-002   0.0000000000000000     
   1.2500000000000000        9.3750000000000000E-002   0.0000000000000000     
   1.2812500000000000        9.3750000000000000E-002   0.0000000000000000     
   1.3125000000000000        9.3750000000000000E-002   0.0000000000000000     
   1.3437500000000000        9.3750000000000000E-002   0.0000000000000000     
   1.3750000000000000        9.3750000000000000E-002   0.0000000000000000     
   1.2500000000000000       0.12500000000000000        0.0000000000000000     
   1.2812500000000000       0.12500000000000000        0.0000000000000000     
   1.3125000000000000       0.12500000000000000        0.0000000000000000     
   1.3437500000000000       0.12500000000000000        0.0000000000000000     
   1.3750000000000000       0.12500000000000000        0.0000000000000000     
   1.3750000000000000        0.0000000000000000        0.0000000000000000     
   1.4062500000000000        0.0000000000000000        0.0000000000000000     
   1.4375000000000000        0.0000000000000000        0.0000000000000000     
   1.4687500000000000        0.0000000000000000        0.0000000000000000     
   1.5000000000000000        0.0000000000000000        0.0000000000000000     
   1.3750000000000000        3.1250000000000000E-002   0.0000000000000000     
   1.4062500000000000        3.1250000000000000E-002   0.0000000000000000     
   1.4375000000000000        3.1250000000000000E-002   0.0000000000000000     
   1.4687500000000000        3.1250000000000000E-002   0.0000000000000000     
   1.5000000000000000        3.1250000000000000E-002   0.0000000000000000     
   1.3750000000000000        6.2500000000000000E-002   0.0000000000000000     
   1.4062500000000000        6.2500000000000000E-002   0.0000000000000000     
   1.4375000000000000        6.2500000000000000E-002   0.0000000000000000     
   1.4687500000000000        6.2500000000000000E-002   0.0000000000000000     
   1.5000000000000000        6.2500000000000000E-002   0.0000000000000000     
   1.3750000000000000        9.3750000000000000E-002   0.0000000000000000     
   1.4062500000000000        9.3750000000000000E-002   0.0000000000000000     
   1.4375000000000000        9.3750000000000000E-002   0.0000000000000000     
   1.4687500000000000        9.3750000000000000E-002   0.0000000000000000     
   1.5000000000000000        9.3750000000000000E-002   0.0000000000000000     
   1.3750000000000000       0.12500000000000000        0.0000000000000000     
   1.4062500000000000       0.12500000000000000        0.0000000000000000     
   1.4375000000000000       0.12500000000000000        0.0000000000000000     
   1.4687500000000000       0.12500000000000000        0.0000000000000000     
   1.5000000000000000       0.12500000000000000        0.0000000000000000     
  0.50000000000000000       0.12500000000000000        0.0000000000000000     
  0.53125000000000000       0.12500000000000000        0.0000000000000000     
  0.56250000000000000       0.12500000000000000        0.0000000000000000     
  0.59375000000000000       0.12500000000000000        0.0000000000000000     
  0.62500000000000000       0.12500000000000000        0.0000000000000000     
  0.50000000000000000       0.15625000000000000        0.0000000000000000     
  0.53125000000000000       0.15625000000000000        0.0000000000000000     
  0.56250000000000000       0.15625000000000000        0.0000000000000000     
  0.59375000000000000       0.15625000000000000        0.0000000000000000     
  0.62500000000000000       0.15625000000000000        0.0000000000000000     
  0.50000000000000000       0.18750000000000000        0.0000000000000000     
  0.53125000000000000       0.18750000000000000        0.0000000000000000     
  0.56250000000000000       0.18750000000000000        0.0000000000000000     
  0.59375000000000000       0.18750000000000000        0.0000000000000000     
  0.62500000000000000       0.18750000000000000        0.0000000000000000     
  0.50000000000000000       0.21875000000000000        0.0000000000000000     
  0.53125000000000000       0.21875000000000000        0.0000000000000000     
  0.56250000000000000       0.21875000000000000        0.0000000000000000     
  0.59375000000000000       0.21875000000000000        0.0000000000000000     
  0.62500000000000000       0.21875000000000000        0.0000000000000000     
  0.50000000000000000       0.25000000000000000        0.0000000000000000     
  0.53125000000000000       0.25000000000000000        0.0000000000000000     
  0.56250000000000000       0.25000000000000000        0.0000000000000000     
  0.59375000000000000       0.25000000000000000        0.0000000000000000     
  0.62500000000000000       0.25000000000000000        0.0000000000000000     
  0.62500000000000000       0.12500000000000000        0.0000000000000000     
  0.65625000000000000       0.12500000000000000        0.0000000000000000     
  0.68750000000000000       0.12500000000000000        0.0000000000000000     
  0.71875000000000000       0.12500000000000000        0.0000000000000000     
  0.75000000000000000       0.12500000000000000        0.0000000000000000     
  0.62500000000000000       0.15625000000000000        0.0000000000000000     
  0.65625000000000000       0.15625000000000000        0.0000000000000000     
  0.68750000000000000       0.15625000000000000        0.0000000000000000     
  0.71875000000000000       0.15625000000000000        0.0000000000000000     
  0.75000000000000000       0.15625000000000000        0.0000000000000000     
  0.62500000000000000       0.18750000000000000        0.0000000000000000     
  0.65625000000000000       0.18750000000000000        0.0000000000000000     
  0.68750000000000000       0.18750000000000000        0.0000000000000000     
  0.71875000000000000       0.18750000000000000        0.0000000000000000     
  0.75000000000000000       0.18750000000000000        0.0000000000000000     
  0.62500000000000000       0.21875000000000000        0.0000000000000000     
  0.65625000000000000       0.21875000000000000        0.0000000000000000     
  0.68750000000000000       0.21875000000000000        0.0000000000000000     
  0.71875000000000000       0.21875000000000000        0.0000000000000000     
  0.75000000000000000       0.21875000000000000        0.0000000000000000     
  0.62500000000000000       0.25000000000000000        0.0000000000000000     
  0.65625000000000000       0.25000000000000000        0.0000000000000000     
  0.68750000000000000       0.25000000000000000        0.0000000000000000     
  0.71875000000000000       0.25000000000000000        0.0000000000000000     
  0.75000000000000000       0.25000000000000000        0.0000000000000000     
  0.75000000000000000       0.12500000000000000        0.0000000000000000     
  0.78125000000000000       0.12500000000000000        0.0000000000000000     
  0.81250000000000000       0.12500000000000000        0.0000000000000000     
  0.84375000000000000       0.12500000000000000        0.0000000000000000     
  0.87500000000000000       0.12500000000000000        0.0000000000000000     
  0.75000000000000000       0.15625000000000000        0.0000000000000000     
  0.78125000000000000       0.15625000000000000        0.0000000000000000     
  0.81250000000000000       0.15625000000000000        0.0000000000000000     
  0.84375000000000000       0.15625000000000000        0.0000000000000000     
  0.87500000000000000       0.15625000000000000        0.0000000000000000     
  0.75000000000000000       0.18750000000000000        0.0000000000000000     
  0.78125000000000000       0.18750000000000000        0.0000000000000000     
  0.81250000000000000       0.18750000000000000        0.0000000000000000     
  0.84375000000000000       0.18750000000000000        0.0000000000000000     
  0.87500000000000000       0.18750000000000000        0.0000000000000000     
  0.75000000000000000       0.21875000000000000        0.0000000000000000     
  0.78125000000000000       0.21875000000000000        0.0000000000000000     
  0.81250000000000000       0.21875000000000000        0.0000000000000000     
  0.84375000000000000       0.21875000000000000        0.0000000000000000     
  0.87500000000000000       0.21875000000000000        0.0000000000000000     
  0.75000000000000000       0.25000000000000000        0.0000000000000000     
  0.78125000000000000       0.25000000000000000        0.0000000000000000     
  0.81250000000000000       0.25000000000000000        0.0000000000000000     
  0.84375000000000000       0.25000000000000000        0.0000000000000000     
  0.87500000000000000       0.25000000000000000        0.0000000000000000     
  0.87500000000000000       0.12500000000000000        0.0000000000000000     
  0.90625000000000000       0.12500000000000000        0.0000000000000000     
  0.93750000000000000       0.12500000000000000        0.0000000000000000     
  0.96875000000000000       0.12500000000000000        0.0000000000000000     
   1.0000000000000000       0.12500000000000000        0.0000000000000000     
  0.87500000000000000       0.15625000000000000        0.0000000000000000     
  0.90625000000000000       0.15625000000000000        0.0000000000000000     
  0.93750000000000000       0.15625000000000000        0.0000000000000000     
  0.96875000000000000       0.15625000000000000        0.0000000000000000     
   1.0000000000000000       0.15625000000000000        0.0000000000000000     
  0.87500000000000000       0.18750000000000000        0.0000000000000000     
  0.90625000000000000       0.18750000000000000        0.0000000000000000     
  0.93750000000000000       0.18750000000000000        0.0000000000000000     
  0.96875000000000000       0.18750000000000000        0.0000000000000000     
   1.0000000000000000       0.18750000000000000        0.0000000000000000     
  0.87500000000000000       0.21875000000000000        0.0000000000000000     
  0.90625000000000000       0.21875000000000000        0.0000000000000000     
  0.93750000000000000       0.21875000000000000        0.0000000000000000     
  0.96875000000000000       0.21875000000000000        0.0000000000000000     
   1.0000000000000000       0.21875000000000000        0.0000000000000000     
  0.87500000000000000       0.25000000000000000        0.0000000000000000     
  0.90625000000000000       0.25000000000000000        0.0000000000000000     
  0.93750000000000000       0.25000000000000000        0.0000000000000000     
  0.96875000000000000       0.25000000000000000        0.0000000000000000     
   1.0000000000000000       0.25000000000000000        0.0000000000000000     
   1.0000000000000000       0.12500000000000000        0.0000000000000000     
   1.0312500000000000       0.12500000000000000        0.0000000000000000     
   1.0625000000000000       0.12500000000000000        0.0000000000000000     
   1.0937500000000000       0.12500000000000000        0.0000000000000000     
   1.1250000000000000       0.12500000000000000        0.0000000000000000     
   1.0000000000000000       0.15625000000000000        0.0000000000000000     
   1.0312500000000000       0.15625000000000000        0.0000000000000000     
   1.0625000000000000       0.15625000000000000        0.0000000000000000     
   1.0937500000000000       0.15625000000000000        0.0000000000000000     
   1.1250000000000000       0.15625000000000000        0.0000000000000000     
   1.0000000000000000       0.18750000000000000        0.0000000000000000     
   1.0312500000000000       0.18750000000000000        0.0000000000000000     
   1.0625000000000000       0.18750000000000000        0.0000000000000000     
   1.0937500000000000       0.18750000000000000        0.0000000000000000     
   1.1250000000000000       0.18750000000000000        0.0000000000000000     
   1.0000000000000000       0.21875000000000000        0.0000000000000000     
   1.0312500000000000       0.21875000000000000        0.0000000000000000     
   1.0625000000000000       0.21875000000000000        0.0000000000000000     
   1.0937500000000000       0.21875000000000000        0.0000000000000000     
   1.1250000000000000       0.21875000000000000        0.0000000000000000     
   1.0000000000000000       0.25000000000000000        0.0000000000000000     
   1.0312500000000000       0.25000000000000000        0.0000000000000000     
   1.0625000000000000       0.25000000000000000        0.0000000000000000     
   1.0937500000000000       0.25000000000000000        0.0000000000000000     
   1.1250000000000000       0.25000000000000000        0.0000000000000000     
   1.1250000000000000       0.12500000000000000        0.0000000000000000     
   1.1562500000000000       0.12500000000000000        0.0000000000000000     
   1.1875000000000000       0.12500000000000000        0.0000000000000000     
   1.2187500000000000       0.12500000000000000        0.0000000000000000     
   1.2500000000000000       0.12500000000000000        0.0000000000000000     
   1.1250000000000000       0.15625000000000000        0.0000000000000000     
   1.1562500000000000       0.15625000000000000        0.0000000000000000     
   1.1875000000000000       0.15625000000000000        0.0000000000000000     
   1.2187500000000000       0.15625000000000000        0.0000000000000000     
   1.2500000000000000       0.15625000000000000        0.0000000000000000     
   1.1250000000000000       0.18750000000000000        0.0000000000000000     
   1.1562500000000000       0.18750000000000000        0.0000000000000000     
   1.1875000000000000       0.18750000000000000        0.0000000000000000     
   1.2187500000000000       0.18750000000000000        0.0000000000000000     
   1.2500000000000000       0.18750000000000000        0.0000000000000000     
   1.1250000000000000       0.21875000000000000        0.0000000000000000     
   1.1562500000000000       0.21875000000000000        0.0000000000000000     
   1.1875000000000000       0.21875000000000000        0.0000000000000000     
   1.2187500000000000       0.21875000000000000        0.0000000000000000     
   1.2500000000000000       0.21875000000000000        0.0000000000000000     
   1.1250000000000000       0.25000000000000000        0.0000000000000000     
   1.1562500000000000       0.25000000000000000        0.0000000000000000     
   1.1875000000000000       0.25000000000000000        0.0000000000000000     
   1.2187500000000000       0.25000000000000000        0.0000000000000000     
   1.2500000000000000       0.25000000000000000        0.0000000000000000     
   1.2500000000000000       0.12500000000000000        0.0000000000000000     
   1.2812500000000000       0.12500000000000000        0.0000000000000000     
   1.3125000000000000       0.12500000000000000        0.0000000000000000     
   1.3437500000000000       0.12500000000000000        0.0000000000000000     
   1.3750000000000000       0.12500000000000000        0.0000000000000000     
   1.2500000000000000       0.15625000000000000        0.0000000000000000     
   1.2812500000000000       0.15625000000000000        0.0000000000000000     
   1.3125000000000000       0.15625000000000000        0.0000000000000000     
   1.3437500000000000       0.15625000000000000        0.0000000000000000     
   1.3750000000000000       0.15625000000000000        0.0000000000000000     
   1.2500000000000000       0.18750000000000000        0.0000000000000000     
   1.2812500000000000       0.18750000000000000        0.0000000000000000     
   1.3125000000000000       0.18750000000000000        0.0000000000000000     
   1.3437500000000000       0.18750000000000000        0.0000000000000000     
   1.3750000000000000       0.18750000000000000        0.0000000000000000     
   1.2500000000000000       0.21875000000000000        0.0000000000000000     
   1.2812500000000000       0.21875000000000000        0.0000000000000000     
   1.3125000000000000       0.21875000000000000        0.0000000000000000     
   1.3437500000000000       0.21875000000000000        0.0000000000000000     
   1.3750000000000000       0.21875000000000000        0.0000000000000000     
   1.2500000000000000       0.25000000000000000        0.0000000000000000     
   1.2812500000000000       0.25000000000000000        0.0000000000000000     
   1.3125000000000000       0.25000000000000000        0.0000000000000000     
   1.3437500000000000       0.25000000000000000        0.0000000000000000     
   1.3750000000000000       0.25000000000000000        0.0000000000000000     
   1.3750000000000000       0.12500000000000000        0.0000000000000000     
   1.4062500000000000       0.12500000000000000        0.0000000000000000     
   1.4375000000000000       0.12500000000000000        0.0000000000000000     
   1.4687500000000000       0.12500000000000000        0.0000000000000000     
   1.5000000000000000       0.12500000000000000        0.0000000000000000     
   1.3750000000000000       0.15625000000000000        0.0000000000000000     
   1.4062500000000000       0.15625000000000000        0.0000000000000000     
   1.4375000000000000       0.15625000000000000        0.0000000000000000     
   1.4687500000000000       0.15625000000000000        0.0000000000000000     
   1.5000000000000000       0.15625000000000000        0.0000000000000000     
   1.3750000000000000       0.18750000000000000        0.0000000000000000     
   1.4062500000000000       0.18750000000000000        0.0000000000000000     
   1.4375000000000000       0.18750000000000000        0.0000000000000000     
   1.4687500000000000       0.18750000000000000        0.0000000000000000     
   1.5000000000000000       0.18750000000000000        0.0000000000000000     
   1.3750000000000000       0.21875000000000000        0.0000000000000000     
   1.4062500000000000       0.21875000000000000        0.0000000000000000     
   1.4375000000000000       0.21875000000000000        0.0000000000000000     
   1.4687500000000000       0.21875000000000000        0.0000000000000000     
   1.5000000000000000       0.21875000000000000        0.0000000000000000     
   1.3750000000000000       0.25000000000000000        0.0000000000000000     
   1.4062500000000000       0.25000000000000000        0.0000000000000000     
   1.4375000000000000       0.25000000000000000        0.0000000000000000     
   1.4687500000000000       0.25000000000000000        0.0000000000000000     
   1.5000000000000000       0.25000000000000000        0.0000000000000000     
  0.50000000000000000       0.25000000000000000        0.0000000000000000     
  0.53125000000000000       0.25000000000000000        0.0000000000000000     
  0.56250000000000000       0.25000000000000000        0.0000000000000000     
  0.59375000000000000       0.25000000000000000        0.0000000000000000     
  0.62500000000000000       0.25000000000000000        0.0000000000000000     
  0.50000000000000000       0.28125000000000000        0.0000000000000000     
  0.53125000000000000       0.28125000000000000        0.0000000000000000     
  0.56250000000000000       0.28125000000000000        0.0000000000000000     
  0.59375000000000000       0.28125000000000000        0.0000000000000000     
  0.62500000000000000       0.28125000000000000        0.0000000000000000     
  0.50000000000000000       0.31250000000000000        0.0000000000000000     
  0.53125000000000000       0.31250000000000000        0.0000000000000000     
  0.56250000000000000       0.31250000000000000        0.0000000000000000     
  0.59375000000000000       0.31250000000000000        0.0000000000000000     
  0.62500000000000000       0.31250000000000000        0.0000000000000000     
  0.50000000000000000       0.34375000000000000        0.0000000000000000     
  0.53125000000000000       0.34375000000000000        0.0000000000000000     
  0.56250000000000000       0.34375000000000000        0.0000000000000000     
  0.59375000000000000       0.34375000000000000        0.0000000000000000     
  0.62500000000000000       0.34375000000000000        0.0000000000000000     
  0.50000000000000000       0.37500000000000000        0.0000000000000000     
  0.53125000000000000       0.37500000000000000        0.0000000000000000     
  0.56250000000000000       0.37500000000000000        0.0000000000000000     
  0.59375000000000000       0.37500000000000000        0.0000000000000000     
  0.62500000000000000       0.37500000000000000        0.0000000000000000     
  0.62500000000000000       0.25000000000000000        0.0000000000000000     
  0.65625000000000000       0.25000000000000000        0.0000000000000000     
  0.68750000000000000       0.25000000000000000        0.0000000000000000     
  0.71875000000000000       0.25000000000000000        0.0000000000000000     
  0.75000000000000000       0.25000000000000000        0.0000000000000000     
  0.62500000000000000       0.28125000000000000        0.0000000000000000     
  0.65625000000000000       0.28125000000000000        0.0000000000000000     
  0.68750000000000000       0.28125000000000000        0.0000000000000000     
  0.71875000000000000       0.28125000000000000        0.0000000000000000     
  0.75000000000000000       0.28125000000000000        0.0000000000000000     
  0.62500000000000000       0.31250000000000000        0.0000000000000000     
  0.65625000000000000       0.31250000000000000        0.0000000000000000     
  0.68750000000000000       0.31250000000000000        0.0000000000000000     
  0.71875000000000000       0.31250000000000000        0.0000000000000000     
  0.75000000000000000       0.31250000000000000        0.0000000000000000     
  0.62500000000000000       0.34375000000000000        0.0000000000000000     
  0.65625000000000000       0.34375000000000000        0.0000000000000000     
  0.68750000000000000       0.34375000000000000        0.0000000000000000     
  0.71875000000000000       0.34375000000000000        0.0000000000000000     
  0.75000000000000000       0.34375000000000000        0.0000000000000000     
  0.62500000000000000       0.37500000000000000        0.0000000000000000     
  0.65625000000000000       0.37500000000000000        0.0000000000000000     
  0.68750000000000000       0.37500000000000000        0.0000000000000000     
  0.71875000000000000       0.37500000000000000        0.0000000000000000     
  0.75000000000000000       0.37500000000000000        0.0000000000000000     
  0.75000000000000000       0.25000000000000000        0.0000000000000000     
  0.78125000000000000       0.25000000000000000        0.0000000000000000     
  0.81250000000000000       0.25000000000000000        0.0000000000000000     
  0.84375000000000000       0.25000000000000000        0.0000000000000000     
  0.87500000000000000       0.25000000000000000        0.0000000000000000     
  0.75000000000000000       0.28125000000000000        0.0000000000000000     
  0.78125000000000000       0.28125000000000000        0.0000000000000000     
  0.81250000000000000       0.28125000000000000        0.0000000000000000     
  0.84375000000000000       0.28125000000000000        0.0000000000000000     
  0.87500000000000000       0.28125000000000000        0.0000000000000000     
  0.75000000000000000       0.31250000000000000        0.0000000000000000     
  0.78125000000000000       0.31250000000000000        0.0000000000000000     
  0.81250000000000000       0.31250000000000000        0.0000000000000000     
  0.84375000000000000       0.31250000000000000        0.0000000000000000     
  0.87500000000000000       0.31250000000000000        0.0000000000000000     
  0.75000000000000000       0.34375000000000000        0.0000000000000000     
  0.78125000000000000       0.34375000000000000        0.0000000000000000     
  0.81250000000000000       0.34375000000000000        0.0000000000000000     
  0.84375000000000000       0.34375000000000000        0.0000000000000000     
  0.87500000000000000       0.34375000000000000        0.0000000000000000     
  0.75000000000000000       0.37500000000000000        0.0000000000000000     
  0.78125000000000000       0.37500000000000000        0.0000000000000000     
  0.81250000000000000       0.37500000000000000        0.0000000000000000     
  0.84375000000000000       0.37500000000000000        0.0000000000000000     
  0.87500000000000000       0.37500000000000000        0.0000000000000000     
  0.87500000000000000       0.25000000000000000        0.0000000000000000     
  0.90625000000000000       0.25000000000000000        0.0000000000000000     
  0.93750000000000000       0.25000000000000000        0.0000000000000000     
  0.96875000000000000       0.25000000000000000        0.0000000000000000     
   1.0000000000000000       0.25000000000000000        0.0000000000000000     
  0.87500000000000000       0.28125000000000000        0.0000000000000000     
  0.90625000000000000       0.28125000000000000        0.0000000000000000     
  0.93750000000000000       0.28125000000000000        0.0000000000000000     
  0.96875000000000000       0.28125000000000000        0.0000000000000000     
   1.0000000000000000       0.28125000000000000        0.0000000000000000     
  0.87500000000000000       0.31250000000000000        0.0000000000000000     
  0.90625000000000000       0.31250000000000000        0.0000000000000000     
  0.93750000000000000       0.31250000000000000        0.0000000000000000     
  0.96875000000000000       0.31250000000000000        0.0000000000000000     
   1.0000000000000000       0.31250000000000000        0.0000000000000000     
  0.87500000000000000       0.34375000000000000        0.0000000000000000     
  0.90625000000000000       0.34375000000000000        0.0000000000000000     
  0.93750000000000000       0.34375000000000000        0.0000000000000000     
  0.96875000000000000       0.34375000000000000        0.0000000000000000     
   1.0000000000000000       0.34375000000000000        0.0000000000000000     
  0.87500000000000000       0.37500000000000000        0.0000000000000000     
  0.90625000000000000       0.37500000000000000        0.0000000000000000     
  0.93750000000000000       0.37500000000000000        0.0000000000000000     
  0.96875000000000000       0.37500000000000000        0.0000000000000000     
   1.0000000000000000       0.37500000000000000        0.0000000000000000     
   1.0000000000000000       0.25000000000000000        0.0000000000000000     
   1.0312500000000000       0.25000000000000000        0.0000000000000000     
   1.0625000000000000       0.25000000000000000        0.0000000000000000     
   1.0937500000000000       0.25000000000000000        0.0000000000000000     
   1.1250000000000000       0.25000000000000000        0.0000000000000000     
   1.0000000000000000       0.28125000000000000        0.0000000000000000     
   1.0312500000000000       0.28125000000000000        0.0000000000000000     
   1.0625000000000000       0.28125000000000000        0.0000000000000000     
   1.0937500000000000       0.28125000000000000        0.0000000000000000     
   1.1250000000000000       0.28125000000000000        0.0000000000000000     
   1.0000000000000000       0.31250000000000000        0.0000000000000000     
   1.0312500000000000       0.31250000000000000        0.0000000000000000     
   1.0625000000000000       0.31250000000000000        0.0000000000000000     
   1.0937500000000000       0.31250000000000000        0.0000000000000000     
   1.1250000000000000       0.31250000000000000        0.0000000000000000     
   1.0000000000000000       0.34375000000000000        0.0000000000000000     
   1.0312500000000000       0.34375000000000000        0.0000000000000000     
   1.0625000000000000       0.34375000000000000        0.0000000000000000     
   1.0937500000000000       0.34375000000000000        0.0000000000000000     
   1.1250000000000000       0.34375000000000000        0.0000000000000000     
   1.0000000000000000       0.37500000000000000        0.0000000000000000     
   1.0312500000000000       0.37500000000000000        0.0000000000000000     
   1.0625000000000000       0.37500000000000000        0.0000000000000000     
   1.0937500000000000       0.37500000000000000        0.0000000000000000     
   1.1250000000000000       0.37500000000000000        0.0000000000000000     
   1.1250000000000000       0.25000000000000000        0.0000000000000000     
   1.1562500000000000       0.25000000000000000        0.0000000000000000     
   1.1875000000000000       0.25000000000000000        0.0000000000000000     
   1.2187500000000000       0.25000000000000000        0.0000000000000000     
   1.2500000000000000       0.25000000000000000        0.0000000000000000     
   1.1250000000000000       0.28125000000000000        0.0000000000000000     
   1.1562500000000000       0.28125000000000000        0.0000000000000000     
   1.1875000000000000       0.28125000000000000        0.0000000000000000     
   1.2187500000000000       0.28125000000000000        0.0000000000000000     
   1.2500000000000000       0.28125000000000000        0.0000000000000000     
   1.1250000000000000       0.31250000000000000        0.0000000000000000     
   1.1562500000000000       0.31250000000000000        0.0000000000000000     
   1.1875000000000000       0.31250000000000000        0.0000000000000000     
   1.2187500000000000       0.31250000000000000        0.0000000000000000     
   1.2500000000000000       0.31250000000000000        0.0000000000000000     
   1.1250000000000000       0.34375000000000000        0.0000000000000000     
   1.1562500000000000       0.34375000000000000        0.0000000000000000     
   1.1875000000000000       0.34375000000000000        0.0000000000000000     
   1.2187500000000000       0.34375000000000000        0.0000000000000000     
   1.2500000000000000       0.34375000000000000        0.0000000000000000     
   1.1250000000000000       0.37500000000000000        0.0000000000000000     
   1.1562500000000000       0.37500000000000000        0.0000000000000000     
   1.1875000000000000       0.37500000000000000        0.0000000000000000     
   1.2187500000000000       0.37500000000000000        0.0000000000000000     
   1.2500000000000000       0.37500000000000000        0.0000000000000000     
   1.2500000000000000       0.25000000000000000        0.0000000000000000     
   1.2812500000000000       0.25000000000000000        0.0000000000000000     
   1.3125000000000000       0.25000000000000000        0.0000000000000000     
   1.3437500000000000       0.25000000000000000        0.0000000000000000     
   1.3750000000000000       0.25000000000000000        0.0000000000000000     
   1.2500000000000000       0.28125000000000000        0.0000000000000000     
   1.2812500000000000       0.28125000000000000        0.0000000000000000     
   1.3125000000000000       0.28125000000000000        0.0000000000000000     
   1.3437500000000000       0.28125000000000000        0.0000000000000000     
   1.3750000000000000       0.28125000000000000        0.0000000000000000     
   1.2500000000000000       0.31250000000000000        0.0000000000000000     
   1.2812500000000000       0.31250000000000000        0.0000000000000000     
   1.3125000000000000       0.31250000000000000        0.0000000000000000     
   1.3437500000000000       0.31250000000000000        0.0000000000000000     
   1.3750000000000000       0.31250000000000000        0.0000000000000000     
   1.2500000000000000       0.34375000000000000        0.0000000000000000     
   1.2812500000000000       0.34375000000000000        0.0000000000000000     
   1.3125000000000000       0.34375000000000000        0.0000000000000000     
   1.3437500000000000       0.34375000000000000        0.0000000000000000     
   1.3750000000000000       0.34375000000000000        0.0000000000000000     
   1.2500000000000000       0.37500000000000000        0.0000000000000000     
   1.2812500000000000       0.37500000000000000        0.0000000000000000     
   1.3125000000000000       0.37500000000000000        0.0000000000000000     
   1.3437500000000000       0.37500000000000000        0.0000000000000000     
   1.3750000000000000       0.37500000000000000        0.0000000000000000     
   1.3750000000000000       0.25000000000000000        0.0000000000000000     
   1.4062500000000000       0.25000000000000000        0.0000000000000000     
   1.4375000000000000       0.25000000000000000        0.0000000000000000     
   1.4687500000000000       0.25000000000000000        0.0000000000000000     
   1.5000000000000000       0.25000000000000000        0.0000000000000000     
   1.3750000000000000       0.28125000000000000        0.0000000000000000     
   1.4062500000000000       0.28125000000000000        0.0000000000000000     
   1.4375000000000000       0.28125000000000000        0.0000000000000000     
   1.4687500000000000       0.28125000000000000        0.0000000000000000     
   1.5000000000000000       0.28125000000000000        0.0000000000000000     
   1.3750000000000000       0.31250000000000000        0.0000000000000000     
   1.4062500000000000       0.31250000000000000        0.0000000000000000     
   1.4375000000000000       0.31250000000000000        0.0000000000000000     
   1.4687500000000000       0.31250000000000000        0.0000000000000000     
   1.5000000000000000       0.31250000000000000        0.0000000000000000     
   1.3750000000000000       0.34375000000000000        0.0000000000000000     
   1.4062500000000000       0.34375000000000000        0.0000000000000000     
   1.4375000000000000       0.34375000000000000        0.0000000000000000     
   1.4687500000000000       0.34375000000000000        0.0000000000000000     
   1.5000000000000000       0.34375000000000000        0.0000000000000000     
   1.3750000000000000       0.37500000000000000        0.0000000000000000     
   1.4062500000000000       0.37500000000000000        0.0000000000000000     
   1.4375000000000000       0.37500000000000000        0.0000000000000000     
   1.4687500000000000       0.37500000000000000        0.0000000000000000     
   1.5000000000000000       0.37500000000000000        0.0000000000000000     
  0.50000000000000000       0.37500000000000000        0.0000000000000000     
  0.53125000000000000       0.37500000000000000        0.0000000000000000     
  0.56250000000000000       0.37500000000000000        0.0000000000000000     
  0.59375000000000000       0.37500000000000000        0.0000000000000000     
  0.62500000000000000       0.37500000000000000        0.0000000000000000     
  0.50000000000000000       0.40625000000000000        0.0000000000000000     
  0.53125000000000000       0.40625000000000000        0.0000000000000000     
  0.56250000000000000       0.40625000000000000        0.0000000000000000     
  0.59375000000000000       0.40625000000000000        0.0000000000000000     
  0.62500000000000000       0.40625000000000000        0.0000000000000000     
  0.50000000000000000       0.43750000000000000        0.0000000000000000     
  0.53125000000000000       0.43750000000000000        0.0000000000000000     
  0.56250000000000000       0.43750000000000000        0.0000000000000000     
  0.59375000000000000       0.43750000000000000        0.0000000000000000     
  0.62500000000000000       0.43750000000000000        0.0000000000000000     
  0.50000000000000000       0.46875000000000000        0.0000000000000000     
  0.53125000000000000       0.46875000000000000        0.0000000000000000     
  0.56250000000000000       0.46875000000000000        0.0000000000000000     
  0.59375000000000000       0.46875000000000000        0.0000000000000000     
  0.62500000000000000       0.46875000000000000        0.0000000000000000     
  0.50000000000000000       0.50000000000000000        0.0000000000000000     
  0.53125000000000000       0.50000000000000000        0.0000000000000000     
  0.56250000000000000       0.50000000000000000        0.0000000000000000     
  0.59375000000000000       0.50000000000000000        0.0000000000000000     
  0.62500000000000000       0.50000000000000000        0.0000000000000000     
  0.62500000000000000       0.37500000000000000        0.0000000000000000     
  0.65625000000000000       0.37500000000000000        0.0000000000000000     
  0.68750000000000000       0.37500000000000000        0.0000000000000000     
  0.71875000000000000       0.37500000000000000        0.0000000000000000     
  0.75000000000000000       0.37500000000000000        0.0000000000000000     
  0.62500000000000000       0.40625000000000000        0.0000000000000000     
  0.65625000000000000       0.40625000000000000        0.0000000000000000     
  0.68750000000000000       0.40625000000000000        0.0000000000000000     
  0.71875000000000000       0.40625000000000000        0.0000000000000000     
  0.75000000000000000       0.40625000000000000        0.0000000000000000     
  0.62500000000000000       0.43750000000000000        0.0000000000000000     
  0.65625000000000000       0.43750000000000000        0.0000000000000000     
  0.68750000000000000       0.43750000000000000        0.0000000000000000     
  0.71875000000000000       0.43750000000000000        0.0000000000000000     
  0.75000000000000000       0.43750000000000000        0.0000000000000000     
  0.62500000000000000       0.46875000000000000        0.0000000000000000     
  0.65625000000000000       0.46875000000000000        0.0000000000000000     
  0.68750000000000000       0.46875000000000000        0.0000000000000000     
  0.71875000000000000       0.46875000000000000        0.0000000000000000     
  0.75000000000000000       0.46875000000000000        0.0000000000000000     
  0.62500000000000000       0.50000000000000000        0.0000000000000000     
  0.65625000000000000       0.50000000000000000        0.0000000000000000     
  0.68750000000000000       0.50000000000000000        0.0000000000000000     
  0.71875000000000000       0.50000000000000000        0.0000000000000000     
  0.75000000000000000       0.50000000000000000        0.0000000000000000     
  0.75000000000000000       0.37500000000000000        0.0000000000000000     
  0.78125000000000000       0.37500000000000000        0.0000000000000000     
  0.81250000000000000       0.37500000000000000        0.0000000000000000     
  0.84375000000000000       0.37500000000000000        0.0000000000000000     
  0.87500000000000000       0.37500000000000000        0.0000000000000000     
  0.75000000000000000       0.40625000000000000        0.0000000000000000     
  0.78125000000000000       0.40625000000000000        0.0000000000000000     
  0.81250000000000000       0.40625000000000000        0.0000000000000000     
  0.84375000000000000       0.40625000000000000        0.0000000000000000     
  0.87500000000000000       0.40625000000000000        0.0000000000000000     
  0.75000000000000000       0.43750000000000000        0.0000000000000000     
  0.78125000000000000       0.43750000000000000        0.0000000000000000     
  0.81250000000000000       0.43750000000000000        0.0000000000000000     
  0.84375000000000000       0.43750000000000000        0.0000000000000000     
  0.87500000000000000       0.43750000000000000        0.0000000000000000     
  0.75000000000000000       0.46875000000000000        0.0000000000000000     
  0.78125000000000000       0.46875000000000000        0.0000000000000000     
  0.81250000000000000       0.46875000000000000        0.0000000000000000     
  0.84375000000000000       0.46875000000000000        0.0000000000000000     
  0.87500000000000000       0.46875000000000000        0.0000000000000000     
  0.75000000000000000       0.50000000000000000        0.0000000000000000     
  0.78125000000000000       0.50000000000000000        0.0000000000000000     
  0.81250000000000000       0.50000000000000000        0.0000000000000000     
  0.84375000000000000       0.50000000000000000        0.0000000000000000     
  0.87500000000000000       0.50000000000000000        0.0000000000000000     
  0.87500000000000000       0.37500000000000000        0.0000000000000000     
  0.90625000000000000       0.37500000000000000        0.0000000000000000     
  0.93750000000000000       0.37500000000000000        0.0000000000000000     
  0.96875000000000000       0.37500000000000000        0.0000000000000000     
   1.0000000000000000       0.37500000000000000        0.0000000000000000     
  0.87500000000000000       0.40625000000000000        0.0000000000000000     
  0.90625000000000000       0.40625000000000000        0.0000000000000000     
  0.93750000000000000       0.40625000000000000        0.0000000000000000     
  0.96875000000000000       0.40625000000000000        0.0000000000000000     
   1.0000000000000000       0.40625000000000000        0.0000000000000000     
  0.87500000000000000       0.43750000000000000        0.0000000000000000     
  0.90625000000000000       0.43750000000000000        0.0000000000000000     
  0.93750000000000000       0.43750000000000000        0.0000000000000000     
  0.96875000000000000       0.43750000000000000        0.0000000000000000     
   1.0000000000000000       0.43750000000000000        0.0000000000000000     
  0.87500000000000000       0.46875000000000000        0.0000000000000000     
  0.90625000000000000       0.46875000000000000        0.0000000000000000     
  0.93750000000000000       0.46875000000000000        0.0000000000000000     
  0.96875000000000000       0.46875000000000000        0.0000000000000000     
   1.0000000000000000       0.46875000000000000        0.0000000000000000     
  0.87500000000000000       0.50000000000000000        0.0000000000000000     
  0.90625000000000000       0.50000000000000000        0.0000000000000000     
  0.93750000000000000       0.50000000000000000        0.0000000000000000     
  0.96875000000000000       0.50000000000000000        0.0000000000000000     
   1.0000000000000000       0.50000000000000000        0.0000000000000000     
   1.0000000000000000       0.37500000000000000        0.0000000000000000     
   1.0312500000000000       0.37500000000000000        0.0000000000000000     
   1.0625000000000000       0.37500000000000000        0.0000000000000000     
   1.0937500000000000       0.37500000000000000        0.0000000000000000     
   1.1250000000000000       0.37500000000000000        0.0000000000000000     
   1.0000000000000000       0.40625000000000000        0.0000000000000000     
   1.0312500000000000       0.40625000000000000        0.0000000000000000     
   1.0625000000000000       0.40625000000000000        0.0000000000000000     
   1.0937500000000000       0.40625000000000000        0.0000000000000000     
   1.1250000000000000       0.40625000000000000        0.0000000000000000     
   1.0000000000000000       0.43750000000000000        0.0000000000000000     
   1.0312500000000000       0.43750000000000000        0.0000000000000000     
   1.0625000000000000       0.43750000000000000        0.0000000000000000     
   1.0937500000000000       0.43750000000000000        0.0000000000000000     
   1.1250000000000000       0.43750000000000000        0.0000000000000000     
   1.0000000000000000       0.46875000000000000        0.0000000000000000     
   1.0312500000000000       0.46875000000000000        0.0000000000000000     
   1.0625000000000000       0.46875000000000000        0.0000000000000000     
   1.0937500000000000       0.46875000000000000        0.0000000000000000     
   1.1250000000000000       0.46875000000000000        0.0000000000000000     
   1.0000000000000000       0.50000000000000000        0.0000000000000000     
   1.0312500000000000       0.50000000000000000        0.0000000000000000     
   1.0625000000000000       0.50000000000000000        0.0000000000000000     
   1.0937500000000000       0.50000000000000000        0.0000000000000000     
   1.1250000000000000       0.50000000000000000        0.0000000000000000     
   1.1250000000000000       0.37500000000000000        0.0000000000000000     
   1.1562500000000000       0.37500000000000000        0.0000000000000000     
   1.1875000000000000       0.37500000000000000        0.0000000000000000     
   1.2187500000000000       0.37500000000000000        0.0000000000000000     
   1.2500000000000000       0.37500000000000000        0.0000000000000000     
   1.1250000000000000       0.40625000000000000        0.0000000000000000     
   1.1562500000000000       0.40625000000000000        0.0000000000000000     
   1.1875000000000000       0.40625000000000000        0.0000000000000000     
   1.2187500000000000       0.40625000000000000        0.0000000000000000     
   1.2500000000000000       0.40625000000000000        0.0000000000000000     
   1.1250000000000000       0.43750000000000000        0.0000000000000000     
   1.1562500000000000       0.43750000000000000        0.0000000000000000     
   1.1875000000000000       0.43750000000000000        0.0000000000000000     
   1.2187500000000000       0.43750000000000000        0.0000000000000000     
   1.2500000000000000       0.43750000000000000        0.0000000000000000     
   1.1250000000000000       0.46875000000000000        0.0000000000000000     
   1.1562500000000000       0.46875000000000000        0.0000000000000000     
   1.1875000000000000       0.46875000000000000        0.0000000000000000     
   1.2187500000000000       0.46875000000000000        0.0000000000000000     
   1.2500000000000000       0.46875000000000000        0.0000000000000000     
   1.1250000000000000       0.50000000000000000        0.0000000000000000     
   1.1562500000000000       0.50000000000000000        0.0000000000000000     
   1.1875000000000000       0.50000000000000000        0.0000000000000000     
   1.2187500000000000       0.50000000000000000        0.0000000000000000     
   1.2500000000000000       0.50000000000000000        0.0000000000000000     
   1.2500000000000000       0.37500000000000000        0.0000000000000000     
   1.2812500000000000       0.37500000000000000        0.0000000000000000     
   1.3125000000000000       0.37500000000000000        0.0000000000000000     
   1.3437500000000000       0.37500000000000000        0.0000000000000000     
   1.3750000000000000       0.37500000000000000        0.0000000000000000     
   1.2500000000000000       0.40625000000000000        0.0000000000000000     
   1.2812500000000000       0.40625000000000000        0.0000000000000000     
   1.3125000000000000       0.40625000000000000        0.0000000000000000     
   1.3437500000000000       0.40625000000000000        0.0000000000000000     
   1.3750000000000000       0.40625000000000000        0.0000000000000000     
   1.2500000000000000       0.43750000000000000        0.0000000000000000     
   1.2812500000000000       0.43750000000000000        0.0000000000000000     
   1.3125000000000000       0.43750000000000000        0.0000000000000000     
   1.3437500000000000       0.43750000000000000        0.0000000000000000     
   1.3750000000000000       0.43750000000000000        0.0000000000000000     
   1.2500000000000000       0.46875000000000000        0.0000000000000000     
   1.2812500000000000       0.46875000000000000        0.0000000000000000     
   1.3125000000000000       0.46875000000000000        0.0000000000000000     
   1.3437500000000000       0.46875000000000000        0.0000000000000000     
   1.3750000000000000       0.46875000000000000        0.0000000000000000     
   1.2500000000000000       0.50000000000000000        0.0000000000000000     
   1.2812500000000000       0.50000000000000000        0.0000000000000000     
   1.3125000000000000       0.50000000000000000        0.0000000000000000     
   1.3437500000000000       0.50000000000000000        0.0000000000000000     
   1.3750000000000000       0.50000000000000000        0.0000000000000000     
   1.3750000000000000       0.37500000000000000        0.0000000000000000     
   1.4062500000000000       0.37500000000000000        0.0000000000000000     
   1.4375000000000000       0.37500000000000000        0.0000000000000000     
   1.4687500000000000       0.37500000000000000        0.0000000000000000     
   1.5000000000000000       0.37500000000000000        0.0000000000000000     
   1.3750000000000000       0.40625000000000000        0.0000000000000000     
   1.4062500000000000       0.40625000000000000        0.0000000000000000     
   1.4375000000000000       0.40625000000000000        0.0000000000000000     
   1.4687500000000000       0.40625000000000000        0.0000000000000000     
   1.5000000000000000       0.40625000000000000        0.0000000000000000     
   1.3750000000000000       0.43750000000000000        0.0000000000000000     
   1.4062500000000000       0.43750000000000000        0.0000000000000000     
   1.4375000000000000       0.43750000000000000        0.0000000000000000     
   1.4687500000000000       0.43750000000000000        0.0000000000000000     
   1.5000000000000000       0.43750000000000000        0.0000000000000000     
   1.3750000000000000       0.46875000000000000        0.0000000000000000     
   1.4062500000000000       0.46875000000000000        0.0000000000000000     
   1.4375000000000000       0.46875000000000000        0.0000000000000000     
   1.4687500000000000       0.46875000000000000        0.0000000000000000     
   1.5000000000000000       0.46875000000000000        0.0000000000000000     
   1.3750000000000000       0.50000000000000000        0.0000000000000000     
   1.4062500000000000       0.50000000000000000        0.0000000000000000     
   1.4375000000000000       0.50000000000000000        0.0000000000000000     
   1.4687500000000000       0.50000000000000000        0.0000000000000000     
   1.5000000000000000       0.50000000000000000        0.0000000000000000     
  0.50000000000000000       0.50000000000000000        0.0000000000000000     
  0.53125000000000000       0.50000000000000000        0.0000000000000000     
  0.56250000000000000       0.50000000000000000        0.0000000000000000     
  0.59375000000000000       0.50000000000000000        0.0000000000000000     
  0.62500000000000000       0.50000000000000000        0.0000000000000000     
  0.50000000000000000       0.53125000000000000        0.0000000000000000     
  0.53125000000000000       0.53125000000000000        0.0000000000000000     
  0.56250000000000000       0.53125000000000000        0.0000000000000000     
  0.59375000000000000       0.53125000000000000        0.0000000000000000     
  0.62500000000000000       0.53125000000000000        0.0000000000000000     
  0.50000000000000000       0.56250000000000000        0.0000000000000000     
  0.53125000000000000       0.56250000000000000        0.0000000000000000     
  0.56250000000000000       0.56250000000000000        0.0000000000000000     
  0.59375000000000000       0.56250000000000000        0.0000000000000000     
  0.62500000000000000       0.56250000000000000        0.0000000000000000     
  0.50000000000000000       0.59375000000000000        0.0000000000000000     
  0.53125000000000000       0.59375000000000000        0.0000000000000000     
  0.56250000000000000       0.59375000000000000        0.0000000000000000     
  0.59375000000000000       0.59375000000000000        0.0000000000000000     
  0.62500000000000000       0.59375000000000000        0.0000000000000000     
  0.50000000000000000       0.62500000000000000        0.0000000000000000     
  0.53125000000000000       0.62500000000000000        0.0000000000000000     
  0.56250000000000000       0.62500000000000000        0.0000000000000000     
  0.59375000000000000       0.62500000000000000        0.0000000000000000     
  0.62500000000000000       0.62500000000000000        0.0000000000000000     
  0.62500000000000000       0.50000000000000000        0.0000000000000000     
  0.65625000000000000       0.50000000000000000        0.0000000000000000     
  0.68750000000000000       0.50000000000000000        0.0000000000000000     
  0.71875000000000000       0.50000000000000000        0.0000000000000000     
  0.75000000000000000       0.50000000000000000        0.0000000000000000     
  0.62500000000000000       0.53125000000000000        0.0000000000000000     
  0.65625000000000000       0.53125000000000000        0.0000000000000000     
  0.68750000000000000       0.53125000000000000        0.0000000000000000     
  0.71875000000000000       0.53125000000000000        0.0000000000000000     
  0.75000000000000000       0.53125000000000000        0.0000000000000000     
  0.62500000000000000       0.56250000000000000        0.0000000000000000     
  0.65625000000000000       0.56250000000000000        0.0000000000000000     
  0.68750000000000000       0.56250000000000000        0.0000000000000000     
  0.71875000000000000       0.56250000000000000        0.0000000000000000     
  0.75000000000000000       0.56250000000000000        0.0000000000000000     
  0.62500000000000000       0.59375000000000000        0.0000000000000000     
  0.65625000000000000       0.59375000000000000        0.0000000000000000     
  0.68750000000000000       0.59375000000000000        0.0000000000000000     
  0.71875000000000000       0.59375000000000000        0.0000000000000000     
  0.75000000000000000       0.59375000000000000        0.0000000000000000     
  0.62500000000000000       0.62500000000000000        0.0000000000000000     
  0.65625000000000000       0.62500000000000000        0.0000000000000000     
  0.68750000000000000       0.62500000000000000        0.0000000000000000     
  0.71875000000000000       0.62500000000000000        0.0000000000000000     
  0.75000000000000000       0.62500000000000000        0.0000000000000000     
  0.75000000000000000       0.50000000000000000        0.0000000000000000     
  0.78125000000000000       0.50000000000000000        0.0000000000000000     
  0.81250000000000000       0.50000000000000000        0.0000000000000000     
  0.84375000000000000       0.50000000000000000        0.0000000000000000     
  0.87500000000000000       0.50000000000000000        0.0000000000000000     
  0.75000000000000000       0.53125000000000000        0.0000000000000000     
  0.78125000000000000       0.53125000000000000        0.0000000000000000     
  0.81250000000000000       0.53125000000000000        0.0000000000000000     
  0.84375000000000000       0.53125000000000000        0.0000000000000000     
  0.87500000000000000       0.53125000000000000        0.0000000000000000     
  0.75000000000000000       0.56250000000000000        0.0000000000000000     
  0.78125000000000000       0.56250000000000000        0.0000000000000000     
  0.81250000000000000       0.56250000000000000        0.0000000000000000     
  0.84375000000000000       0.56250000000000000        0.0000000000000000     
  0.87500000000000000       0.56250000000000000        0.0000000000000000     
  0.75000000000000000       0.59375000000000000        0.0000000000000000     
  0.78125000000000000       0.59375000000000000        0.0000000000000000     
  0.81250000000000000       0.59375000000000000        0.0000000000000000     
  0.84375000000000000       0.59375000000000000        0.0000000000000000     
  0.87500000000000000       0.59375000000000000        0.0000000000000000     
  0.75000000000000000       0.62500000000000000        0.0000000000000000     
  0.78125000000000000       0.62500000000000000        0.0000000000000000     
  0.81250000000000000       0.62500000000000000        0.0000000000000000     
  0.84375000000000000       0.62500000000000000        0.0000000000000000     
  0.87500000000000000       0.62500000000000000        0.0000000000000000     
  0.87500000000000000       0.50000000000000000        0.0000000000000000     
  0.90625000000000000       0.50000000000000000        0.0000000000000000     
  0.93750000000000000       0.50000000000000000        0.0000000000000000     
  0.96875000000000000       0.50000000000000000        0.0000000000000000     
   1.0000000000000000       0.50000000000000000        0.0000000000000000     
  0.87500000000000000       0.53125000000000000        0.0000000000000000     
  0.90625000000000000       0.53125000000000000        0.0000000000000000     
  0.93750000000000000       0.53125000000000000        0.0000000000000000     
  0.96875000000000000       0.53125000000000000        0.0000000000000000     
   1.0000000000000000       0.53125000000000000        0.0000000000000000     
  0.87500000000000000       0.56250000000000000        0.0000000000000000     
  0.90625000000000000       0.56250000000000000        0.0000000000000000     
  0.93750000000000000       0.56250000000000000        0.0000000000000000     
  0.96875000000000000       0.56250000000000000        0.0000000000000000     
   1.0000000000000000       0.56250000000000000        0.0000000000000000     
  0.87500000000000000       0.59375000000000000        0.0000000000000000     
  0.90625000000000000       0.59375000000000000        0.0000000000000000     
  0.93750000000000000       0.59375000000000000        0.0000000000000000     
  0.96875000000000000       0.59375000000000000        0.0000000000000000     
   1.0000000000000000       0.59375000000000000        0.0000000000000000     
  0.87500000000000000       0.62500000000000000        0.0000000000000000     
  0.90625000000000000       0.62500000000000000        0.0000000000000000     
  0.93750000000000000       0.62500000000000000        0.0000000000000000     
  0.96875000000000000       0.62500000000000000        0.0000000000000000     
   1.0000000000000000       0.62500000000000000        0.0000000000000000     
   1.0000000000000000       0.50000000000000000        0.0000000000000000     
   1.0312500000000000       0.50000000000000000        0.0000000000000000     
   1.0625000000000000       0.50000000000000000        0.0000000000000000     
   1.0937500000000000       0.50000000000000000        0.0000000000000000     
   1.1250000000000000       0.50000000000000000        0.0000000000000000     
   1.0000000000000000       0.53125000000000000        0.0000000000000000     
   1.0312500000000000       0.53125000000000000        0.0000000000000000     
   1.0625000000000000       0.53125000000000000        0.0000000000000000     
   1.0937500000000000       0.53125000000000000        0.0000000000000000     
   1.1250000000000000       0.53125000000000000        0.0000000000000000     
   1.0000000000000000       0.56250000000000000        0.0000000000000000     
   1.0312500000000000       0.56250000000000000        0.0000000000000000     
   1.0625000000000000       0.56250000000000000        0.0000000000000000     
   1.0937500000000000       0.56250000000000000        0.0000000000000000     
   1.1250000000000000       0.56250000000000000        0.0000000000000000     
   1.0000000000000000       0.59375000000000000        0.0000000000000000     
   1.0312500000000000       0.59375000000000000        0.0000000000000000     
   1.0625000000000000       0.59375000000000000        0.0000000000000000     
   1.0937500000000000       0.59375000000000000        0.0000000000000000     
   1.1250000000000000       0.59375000000000000        0.0000000000000000     
   1.0000000000000000       0.62500000000000000        0.0000000000000000     
   1.0312500000000000       0.62500000000000000        0.0000000000000000     
   1.0625000000000000       0.62500000000000000        0.0000000000000000     
   1.0937500000000000       0.62500000000000000        0.0000000000000000     
   1.1250000000000000       0.62500000000000000        0.0000000000000000     
   1.1250000000000000       0.50000000000000000        0.0000000000000000     
   1.1562500000000000       0.50000000000000000        0.0000000000000000     
   1.1875000000000000       0.50000000000000000        0.0000000000000000     
   1.2187500000000000       0.50000000000000000        0.0000000000000000     
   1.2500000000000000       0.50000000000000000        0.0000000000000000     
   1.1250000000000000       0.53125000000000000        0.0000000000000000     
   1.1562500000000000       0.53125000000000000        0.0000000000000000     
   1.1875000000000000       0.53125000000000000        0.0000000000000000     
   1.2187500000000000       0.53125000000000000        0.0000000000000000     
   1.2500000000000000       0.53125000000000000        0.0000000000000000     
   1.1250000000000000       0.56250000000000000        0.0000000000000000     
   1.1562500000000000       0.56250000000000000        0.0000000000000000     
   1.1875000000000000       0.56250000000000000        0.0000000000000000     
   1.2187500000000000       0.56250000000000000        0.0000000000000000     
   1.2500000000000000       0.56250000000000000        0.0000000000000000     
   1.1250000000000000       0.59375000000000000        0.0000000000000000     
   1.1562500000000000       0.59375000000000000        0.0000000000000000     
   1.1875000000000000       0.59375000000000000        0.0000000000000000     
   1.2187500000000000       0.59375000000000000        0.0000000000000000     
   1.2500000000000000       0.59375000000000000        0.0000000000000000     
   1.1250000000000000       0.62500000000000000        0.0000000000000000     
   1.1562500000000000       0.62500000000000000        0.0000000000000000     
   1.1875000000000000       0.62500000000000000        0.0000000000000000     
   1.2187500000000000       0.62500000000000000        0.0000000000000000     
   1.2500000000000000       0.62500000000000000        0.0000000000000000     
   1.2500000000000000       0.50000000000000000        0.0000000000000000     
   1.2812500000000000       0.50000000000000000        0.0000000000000000     
   1.3125000000000000       0.50000000000000000        0.0000000000000000     
   1.3437500000000000       0.50000000000000000        0.0000000000000000     
   1.3750000000000000       0.50000000000000000        0.0000000000000000     
   1.2500000000000000       0.53125000000000000        0.0000000000000000     
   1.2812500000000000       0.53125000000000000        0.0000000000000000     
   1.3125000000000000       0.53125000000000000        0.0000000000000000     
   1.3437500000000000       0.53125000000000000        0.0000000000000000     
   1.3750000000000000       0.53125000000000000        0.0000000000000000     
   1.2500000000000000       0.56250000000000000        0.0000000000000000     
   1.2812500000000000       0.56250000000000000        0.0000000000000000     
   1.3125000000000000       0.56250000000000000        0.0000000000000000     
   1.3437500000000000       0.56250000000000000        0.0000000000000000     
   1.3750000000000000       0.56250000000000000        0.0000000000000000     
   1.2500000000000000       0.59375000000000000        0.0000000000000000     
   1.2812500000000000       0.59375000000000000        0.0000000000000000     
   1.3125000000000000       0.59375000000000000        0.0000000000000000     
   1.3437500000000000       0.59375000000000000        0.0000000000000000     
   1.3750000000000000       0.59375000000000000        0.0000000000000000     
   1.2500000000000000       0.62500000000000000        0.0000000000000000     
   1.2812500000000000       0.62500000000000000        0.0000000000000000     
   1.3125000000000000       0.62500000000000000        0.0000000000000000     
   1.3437500000000000       0.62500000000000000        0.0000000000000000     
   1.3750000000000000       0.62500000000000000        0.0000000000000000     
   1.3750000000000000       0.50000000000000000        0.0000000000000000     
   1.4062500000000000       0.50000000000000000        0.0000000000000000     
   1.4375000000000000       0.50000000000000000        0.0000000000000000     
   1.4687500000000000       0.50000000000000000        0.0000000000000000     
   1.5000000000000000       0.50000000000000000        0.0000000000000000     
   1.3750000000000000       0.53125000000000000        0.0000000000000000     
   1.4062500000000000       0.53125000000000000        0.0000000000000000     
   1.4375000000000000       0.53125000000000000        0.0000000000000000     
   1.4687500000000000       0.53125000000000000        0.0000000000000000     
   1.5000000000000000       0.53125000000000000        0.0000000000000000     
   1.3750000000000000       0.56250000000000000        0.0000000000000000     
   1.4062500000000000       0.56250000000000000        0.0000000000000000     
   1.4375000000000000       0.56250000000000000        0.0000000000000000     
   1.4687500000000000       0.56250000000000000        0.0000000000000000     
   1.5000000000000000       0.56250000000000000        0.0000000000000000     
   1.3750000000000000       0.59375000000000000        0.0000000000000000     
   1.4062500000000000       0.59375000000000000        0.0000000000000000     
   1.4375000000000000       0.59375000000000000        0.0000000000000000     
   1.4687500000000000       0.59375000000000000        0.0000000000000000     
   1.5000000000000000       0.59375000000000000        0.0000000000000000     
   1.3750000000000000       0.62500000000000000        0.0000000000000000     
   1.4062500000000000       0.62500000000000000        0.0000000000000000     
   1.4375000000000000       0.62500000000000000        0.0000000000000000     
   1.4687500000000000       0.62500000000000000        0.0000000000000000     
   1.5000000000000000       0.62500000000000000        0.0000000000000000     
  0.50000000000000000       0.62500000000000000        0.0000000000000000     
  0.53125000000000000       0.62500000000000000        0.0000000000000000     
  0.56250000000000000       0.62500000000000000        0.0000000000000000     
  0.59375000000000000       0.62500000000000000        0.0000000000000000     
  0.62500000000000000       0.62500000000000000        0.0000000000000000     
  0.50000000000000000       0.65625000000000000        0.0000000000000000     
  0.53125000000000000       0.65625000000000000        0.0000000000000000     
  0.56250000000000000       0.65625000000000000        0.0000000000000000     
  0.59375000000000000       0.65625000000000000        0.0000000000000000     
  0.62500000000000000       0.65625000000000000        0.0000000000000000     
  0.50000000000000000       0.68750000000000000        0.0000000000000000     
  0.53125000000000000       0.68750000000000000        0.0000000000000000     
  0.56250000000000000       0.68750000000000000        0.0000000000000000     
  0.59375000000000000       0.68750000000000000        0.0000000000000000     
  0.62500000000000000       0.68750000000000000        0.0000000000000000     
  0.50000000000000000       0.71875000000000000        0.0000000000000000     
  0.53125000000000000       0.71875000000000000        0.0000000000000000     
  0.56250000000000000       0.71875000000000000        0.0000000000000000     
  0.59375000000000000       0.71875000000000000        0.0000000000000000     
  0.62500000000000000       0.71875000000000000        0.0000000000000000     
  0.50000000000000000       0.75000000000000000        0.0000000000000000     
  0.53125000000000000       0.75000000000000000        0.0000000000000000     
  0.56250000000000000       0.75000000000000000        0.0000000000000000     
  0.59375000000000000       0.75000000000000000        0.0000000000000000     
  0.62500000000000000       0.75000000000000000        0.0000000000000000     
  0.62500000000000000       0.62500000000000000        0.0000000000000000     
  0.65625000000000000       0.62500000000000000        0.0000000000000000     
  0.68750000000000000       0.62500000000000000        0.0000000000000000     
  0.71875000000000000       0.62500000000000000        0.0000000000000000     
  0.75000000000000000       0.62500000000000000        0.0000000000000000     
  0.62500000000000000       0.65625000000000000        0.0000000000000000     
  0.65625000000000000       0.65625000000000000        0.0000000000000000     
  0.68750000000000000       0.65625000000000000        0.0000000000000000     
  0.71875000000000000       0.65625000000000000        0.0000000000000000     
  0.75000000000000000       0.65625000000000000        0.0000000000000000     
  0.62500000000000000       0.68750000000000000        0.0000000000000000     
  0.65625000000000000       0.68750000000000000        0.0000000000000000     
  0.68750000000000000       0.68750000000000000        0.0000000000000000     
  0.71875000000000000       0.68750000000000000        0.0000000000000000     
  0.75000000000000000       0.68750000000000000        0.0000000000000000     
  0.62500000000000000       0.71875000000000000        0.0000000000000000     
  0.65625000000000000       0.71875000000000000        0.0000000000000000     
  0.68750000000000000       0.71875000000000000        0.0000000000000000     
  0.71875000000000000       0.71875000000000000        0.0000000000000000     
  0.75000000000000000       0.71875000000000000        0.0000000000000000     
  0.62500000000000000       0.75000000000000000        0.0000000000000000     
  0.65625000000000000       0.75000000000000000        0.0000000000000000     
  0.68750000000000000       0.75000000000000000        0.0000000000000000     
  0.71875000000000000       0.75000000000000000        0.0000000000000000     
  0.75000000000000000       0.75000000000000000        0.0000000000000000     
  0.75000000000000000       0.62500000000000000        0.0000000000000000     
  0.78125000000000000       0.62500000000000000        0.0000000000000000     
  0.81250000000000000       0.62500000000000000        0.0000000000000000     
  0.84375000000000000       0.62500000000000000        0.0000000000000000     
  0.87500000000000000       0.62500000000000000        0.0000000000000000     
  0.75000000000000000       0.65625000000000000        0.0000000000000000     
  0.78125000000000000       0.65625000000000000        0.0000000000000000     
  0.81250000000000000       0.65625000000000000        0.0000000000000000     
  0.84375000000000000       0.65625000000000000        0.0000000000000000     
  0.87500000000000000       0.65625000000000000        0.0000000000000000     
  0.75000000000000000       0.68750000000000000        0.0000000000000000     
  0.78125000000000000       0.68750000000000000        0.0000000000000000     
  0.81250000000000000       0.68750000000000000        0.0000000000000000     
  0.84375000000000000       0.68750000000000000        0.0000000000000000     
  0.87500000000000000       0.68750000000000000        0.0000000000000000     
  0.75000000000000000       0.71875000000000000        0.0000000000000000     
  0.78125000000000000       0.71875000000000000        0.0000000000000000     
  0.81250000000000000       0.71875000000000000        0.0000000000000000     
  0.84375000000000000       0.71875000000000000        0.0000000000000000     
  0.87500000000000000       0.71875000000000000        0.0000000000000000     
  0.75000000000000000       0.75000000000000000        0.0000000000000000     
  0.78125000000000000       0.75000000000000000        0.0000000000000000     
  0.81250000000000000       0.75000000000000000        0.0000000000000000     
  0.84375000000000000       0.75000000000000000        0.0000000000000000     
  0.87500000000000000       0.75000000000000000        0.0000000000000000     
  0.87500000000000000       0.62500000000000000        0.0000000000000000     
  0.90625000000000000       0.62500000000000000        0.0000000000000000     
  0.93750000000000000       0.62500000000000000        0.0000000000000000     
  0.96875000000000000       0.62500000000000000        0.0000000000000000     
   1.0000000000000000       0.62500000000000000        0.0000000000000000     
  0.87500000000000000       0.65625000000000000        0.0000000000000000     
  0.90625000000000000       0.65625000000000000        0.0000000000000000     
  0.93750000000000000       0.65625000000000000        0.0000000000000000     
  0.96875000000000000       0.65625000000000000        0.0000000000000000     
   1.0000000000000000       0.65625000000000000        0.0000000000000000     
  0.87500000000000000       0.68750000000000000        0.0000000000000000     
  0.90625000000000000       0.68750000000000000        0.0000000000000000     
  0.93750000000000000       0.68750000000000000        0.0000000000000000     
  0.96875000000000000       0.68750000000000000        0.0000000000000000     
   1.0000000000000000       0.68750000000000000        0.0000000000000000     
  0.87500000000000000       0.71875000000000000        0.0000000000000000     
  0.90625000000000000       0.71875000000000000        0.0000000000000000     
  0.93750000000000000       0.71875000000000000        0.0000000000000000     
  0.96875000000000000       0.71875000000000000        0.0000000000000000     
   1.0000000000000000       0.71875000000000000        0.0000000000000000     
  0.87500000000000000       0.75000000000000000        0.0000000000000000     
  0.90625000000000000       0.75000000000000000        0.0000000000000000     
  0.93750000000000000       0.75000000000000000        0.0000000000000000     
  0.96875000000000000       0.75000000000000000        0.0000000000000000     
   1.0000000000000000       0.75000000000000000        0.0000000000000000     
   1.0000000000000000       0.62500000000000000        0.0000000000000000     
   1.0312500000000000       0.62500000000000000        0.0000000000000000     
   1.0625000000000000       0.62500000000000000        0.0000000000000000     
   1.0937500000000000       0.62500000000000000        0.0000000000000000     
   1.1250000000000000       0.62500000000000000        0.0000000000000000     
   1.0000000000000000       0.65625000000000000        0.0000000000000000     
   1.0312500000000000       0.65625000000000000        0.0000000000000000     
   1.0625000000000000       0.65625000000000000        0.0000000000000000     
   1.0937500000000000       0.65625000000000000        0.0000000000000000     
   1.1250000000000000       0.65625000000000000        0.0000000000000000     
   1.0000000000000000       0.68750000000000000        0.0000000000000000     
   1.0312500000000000       0.68750000000000000        0.0000000000000000     
   1.0625000000000000       0.68750000000000000        0.0000000000000000     
   1.0937500000000000       0.68750000000000000        0.0000000000000000     
   1.1250000000000000       0.68750000000000000        0.0000000000000000     
   1.0000000000000000       0.71875000000000000        0.0000000000000000     
   1.0312500000000000       0.71875000000000000        0.0000000000000000     
   1.0625000000000000       0.71875000000000000        0.0000000000000000     
   1.0937500000000000       0.71875000000000000        0.0000000000000000     
   1.1250000000000000       0.71875000000000000        0.0000000000000000     
   1.0000000000000000       0.75000000000000000        0.0000000000000000     
   1.0312500000000000       0.75000000000000000        0.0000000000000000     
   1.0625000000000000       0.75000000000000000        0.0000000000000000     
   1.0937500000000000       0.75000000000000000        0.0000000000000000     
   1.1250000000000000       0.75000000000000000        0.0000000000000000     
   1.1250000000000000       0.62500000000000000        0.0000000000000000     
   1.1562500000000000       0.62500000000000000        0.0000000000000000     
   1.1875000000000000       0.62500000000000000        0.0000000000000000     
   1.2187500000000000       0.62500000000000000        0.0000000000000000     
   1.2500000000000000       0.62500000000000000        0.0000000000000000     
   1.1250000000000000       0.65625000000000000        0.0000000000000000     
   1.1562500000000000       0.65625000000000000        0.0000000000000000     
   1.1875000000000000       0.65625000000000000        0.0000000000000000     
   1.2187500000000000       0.65625000000000000        0.0000000000000000     
   1.2500000000000000       0.65625000000000000        0.0000000000000000     
   1.1250000000000000       0.68750000000000000        0.0000000000000000     
   1.1562500000000000       0.68750000000000000        0.0000000000000000     
   1.1875000000000000       0.68750000000000000        0.0000000000000000     
   1.2187500000000000       0.68750000000000000        0.0000000000000000     
   1.2500000000000000       0.68750000000000000        0.0000000000000000     
   1.1250000000000000       0.71875000000000000        0.0000000000000000     
   1.1562500000000000       0.71875000000000000        0.0000000000000000     
   1.1875000000000000       0.71875000000000000        0.0000000000000000     
   1.2187500000000000       0.71875000000000000        0.0000000000000000     
   1.2500000000000000       0.71875000000000000        0.0000000000000000     
   1.1250000000000000       0.75000000000000000        0.0000000000000000     
   1.1562500000000000       0.75000000000000000        0.0000000000000000     
   1.1875000000000000       0.75000000000000000        0.0000000000000000     
   1.2187500000000000       0.75000000000000000        0.0000000000000000     
   1.2500000000000000       0.75000000000000000        0.0000000000000000     
   1.2500000000000000       0.62500000000000000        0.0000000000000000     
   1.2812500000000000       0.62500000000000000        0.0000000000000000     
   1.3125000000000000       0.62500000000000000        0.0000000000000000     
   1.3437500000000000       0.62500000000000000        0.0000000000000000     
   1.3750000000000000       0.62500000000000000        0.0000000000000000     
   1.2500000000000000       0.65625000000000000        0.0000000000000000     
   1.2812500000000000       0.65625000000000000        0.0000000000000000     
   1.3125000000000000       0.65625000000000000        0.0000000000000000     
   1.3437500000000000       0.65625000000000000        0.0000000000000000     
   1.3750000000000000       0.65625000000000000        0.0000000000000000     
   1.2500000000000000       0.68750000000000000        0.0000000000000000     
   1.2812500000000000       0.68750000000000000        0.0000000000000000     
   1.3125000000000000       0.68750000000000000        0.0000000000000000     
   1.3437500000000000       0.68750000000000000        0.0000000000000000     
   1.3750000000000000       0.68750000000000000        0.0000000000000000     
   1.2500000000000000       0.71875000000000000        0.0000000000000000     
   1.2812500000000000       0.71875000000000000        0.0000000000000000     
   1.3125000000000000       0.71875000000000000        0.0000000000000000     
   1.3437500000000000       0.71875000000000000        0.0000000000000000     
   1.3750000000000000       0.71875000000000000        0.0000000000000000     
   1.2500000000000000       0.75000000000000000        0.0000000000000000     
   1.2812500000000000       0.75000000000000000        0.0000000000000000     
   1.3125000000000000       0.75000000000000000        0.0000000000000000     
   1.3437500000000000       0.75000000000000000        0.0000000000000000     
   1.3750000000000000       0.75000000000000000        0.0000000000000000     
   1.3750000000000000       0.62500000000000000        0.0000000000000000     
   1.4062500000000000       0.62500000000000000        0.0000000000000000     
   1.4375000000000000       0.62500000000000000        0.0000000000000000     
   1.4687500000000000       0.62500000000000000        0.0000000000000000     
   1.5000000000000000       0.62500000000000000        0.0000000000000000     
   1.3750000000000000       0.65625000000000000        0.0000000000000000     
   1.4062500000000000       0.65625000000000000        0.0000000000000000     
   1.4375000000000000       0.65625000000000000        0.0000000000000000     
   1.4687500000000000       0.65625000000000000        0.0000000000000000     
   1.5000000000000000       0.65625000000000000        0.0000000000000000     
   1.3750000000000000       0.68750000000000000        0.0000000000000000     
   1.4062500000000000       0.68750000000000000        0.0000000000000000     
   1.4375000000000000       0.68750000000000000        0.0000000000000000     
   1.4687500000000000       0.68750000000000000        0.0000000000000000     
   1.5000000000000000       0.68750000000000000        0.0000000000000000     
   1.3750000000000000       0.71875000000000000        0.0000000000000000     
   1.4062500000000000       0.71875000000000000        0.0000000000000000     
   1.4375000000000000       0.71875000000000000        0.0000000000000000     
   1.4687500000000000       0.71875000000000000        0.0000000000000000     
   1.5000000000000000       0.71875000000000000        0.0000000000000000     
   1.3750000000000000       0.75000000000000000        0.0000000000000000     
   1.4062500000000000       0.75000000000000000        0.0000000000000000     
   1.4375000000000000       0.75000000000000000        0.0000000000000000     
   1.4687500000000000       0.75000000000000000        0.0000000000000000     
   1.5000000000000000       0.75000000000000000        0.0000000000000000     
  0.50000000000000000       0.75000000000000000        0.0000000000000000     
  0.53125000000000000       0.75000000000000000        0.0000000000000000     
  0.56250000000000000       0.75000000000000000        0.0000000000000000     
  0.59375000000000000       0.75000000000000000        0.0000000000000000     
  0.62500000000000000       0.75000000000000000        0.0000000000000000     
  0.50000000000000000       0.78125000000000000        0.0000000000000000     
  0.53125000000000000       0.78125000000000000        0.0000000000000000     
  0.56250000000000000       0.78125000000000000        0.0000000000000000     
  0.59375000000000000       0.78125000000000000        0.0000000000000000     
  0.62500000000000000       0.78125000000000000        0.0000000000000000     
  0.50000000000000000       0.81250000000000000        0.0000000000000000     
  0.53125000000000000       0.81250000000000000        0.0000000000000000     
  0.56250000000000000       0.81250000000000000        0.0000000000000000     
  0.59375000000000000       0.81250000000000000        0.0000000000000000     
  0.62500000000000000       0.81250000000000000        0.0000000000000000     
  0.50000000000000000       0.84375000000000000        0.0000000000000000     
  0.53125000000000000       0.84375000000000000        0.0000000000000000     
  0.56250000000000000       0.84375000000000000        0.0000000000000000     
  0.59375000000000000       0.84375000000000000        0.0000000000000000     
  0.62500000000000000       0.84375000000000000        0.0000000000000000     
  0.50000000000000000       0.87500000000000000        0.0000000000000000     
  0.53125000000000000       0.87500000000000000        0.0000000000000000     
  0.56250000000000000       0.87500000000000000        0.0000000000000000     
  0.59375000000000000       0.87500000000000000        0.0000000000000000     
  0.62500000000000000       0.87500000000000000        0.0000000000000000     
  0.62500000000000000       0.75000000000000000        0.0000000000000000     
  0.65625000000000000       0.75000000000000000        0.0000000000000000     
  0.68750000000000000       0.75000000000000000        0.0000000000000000     
  0.71875000000000000       0.75000000000000000        0.0000000000000000     
  0.75000000000000000       0.75000000000000000        0.0000000000000000     
  0.62500000000000000       0.78125000000000000        0.0000000000000000     
  0.65625000000000000       0.78125000000000000        0.0000000000000000     
  0.68750000000000000       0.78125000000000000        0.0000000000000000     
  0.71875000000000000       0.78125000000000000        0.0000000000000000     
  0.75000000000000000       0.78125000000000000        0.0000000000000000     
  0.62500000000000000       0.81250000000000000        0.0000000000000000     
  0.65625000000000000       0.81250000000000000        0.0000000000000000     
  0.68750000000000000       0.81250000000000000        0.0000000000000000     
  0.71875000000000000       0.81250000000000000        0.0000000000000000     
  0.75000000000000000       0.81250000000000000        0.0000000000000000     
  0.62500000000000000       0.84375000000000000        0.0000000000000000     
  0.65625000000000000       0.84375000000000000        0.0000000000000000     
  0.68750000000000000       0.84375000000000000        0.0000000000000000     
  0.71875000000000000       0.84375000000000000        0.0000000000000000     
  0.75000000000000000       0.84375000000000000        0.0000000000000000     
  0.62500000000000000       0.87500000000000000        0.0000000000000000     
  0.65625000000000000       0.87500000000000000        0.0000000000000000     
  0.68750000000000000       0.87500000000000000        0.0000000000000000     
  0.71875000000000000       0.87500000000000000        0.0000000000000000     
  0.75000000000000000       0.87500000000000000        0.0000000000000000     
  0.75000000000000000       0.75000000000000000        0.0000000000000000     
  0.78125000000000000       0.75000000000000000        0.0000000000000000     
  0.81250000000000000       0.75000000000000000        0.0000000000000000     
  0.84375000000000000       0.75000000000000000        0.0000000000000000     
  0.87500000000000000       0.75000000000000000        0.0000000000000000     
  0.75000000000000000       0.78125000000000000        0.0000000000000000     
  0.78125000000000000       0.78125000000000000        0.0000000000000000     
  0.81250000000000000       0.78125000000000000        0.0000000000000000     
  0.84375000000000000       0.78125000000000000        0.0000000000000000     
  0.87500000000000000       0.78125000000000000        0.0000000000000000     
  0.75000000000000000       0.81250000000000000        0.0000000000000000     
  0.78125000000000000       0.81250000000000000        0.0000000000000000     
  0.81250000000000000       0.81250000000000000        0.0000000000000000     
  0.84375000000000000       0.81250000000000000        0.0000000000000000     
  0.87500000000000000       0.81250000000000000        0.0000000000000000     
  0.75000000000000000       0.84375000000000000        0.0000000000000000     
  0.78125000000000000       0.84375000000000000        0.0000000000000000     
  0.81250000000000000       0.84375000000000000        0.0000000000000000     
  0.84375000000000000       0.84375000000000000        0.0000000000000000     
  0.87500000000000000       0.84375000000000000        0.0000000000000000     
  0.75000000000000000       0.87500000000000000        0.0000000000000000     
  0.78125000000000000       0.87500000000000000        0.0000000000000000     
  0.81250000000000000       0.87500000000000000        0.0000000000000000     
  0.84375000000000000       0.87500000000000000        0.0000000000000000     
  0.87500000000000000       0.87500000000000000        0.0000000000000000     
  0.87500000000000000       0.75000000000000000        0.0000000000000000     
  0.90625000000000000       0.75000000000000000        0.0000000000000000     
  0.93750000000000000       0.75000000000000000        0.0000000000000000     
  0.96875000000000000       0.75000000000000000        0.0000000000000000     
   1.0000000000000000       0.75000000000000000        0.0000000000000000     
  0.87500000000000000       0.78125000000000000        0.0000000000000000     
  0.90625000000000000       0.78125000000000000        0.0000000000000000     
  0.93750000000000000       0.78125000000000000        0.0000000000000000     
  0.96875000000000000       0.78125000000000000        0.0000000000000000     
   1.0000000000000000       0.78125000000000000        0.0000000000000000     
  0.87500000000000000       0.81250000000000000        0.0000000000000000     
  0.90625000000000000       0.81250000000000000        0.0000000000000000     
  0.93750000000000000       0.81250000000000000        0.0000000000000000     
  0.96875000000000000       0.81250000000000000        0.0000000000000000     
   1.0000000000000000       0.81250000000000000        0.0000000000000000     
  0.87500000000000000       0.84375000000000000        0.0000000000000000     
  0.90625000000000000       0.84375000000000000        0.0000000000000000     
  0.93750000000000000       0.84375000000000000        0.0000000000000000     
  0.96875000000000000       0.84375000000000000        0.0000000000000000     
   1.0000000000000000       0.84375000000000000        0.0000000000000000     
  0.87500000000000000       0.87500000000000000        0.0000000000000000     
  0.90625000000000000       0.87500000000000000        0.0000000000000000     
  0.93750000000000000       0.87500000000000000        0.0000000000000000     
  0.96875000000000000       0.87500000000000000        0.0000000000000000     
   1.0000000000000000       0.87500000000000000        0.0000000000000000     
   1.0000000000000000       0.75000000000000000        0.0000000000000000     
   1.0312500000000000       0.75000000000000000        0.0000000000000000     
   1.0625000000000000       0.75000000000000000        0.0000000000000000     
   1.0937500000000000       0.75000000000000000        0.0000000000000000     
   1.1250000000000000       0.75000000000000000        0.0000000000000000     
   1.0000000000000000       0.78125000000000000        0.0000000000000000     
   1.0312500000000000       0.78125000000000000        0.0000000000000000     
   1.0625000000000000       0.78125000000000000        0.0000000000000000     
   1.0937500000000000       0.78125000000000000        0.0000000000000000     
   1.1250000000000000       0.78125000000000000        0.0000000000000000     
   1.0000000000000000       0.81250000000000000        0.0000000000000000     
   1.0312500000000000       0.81250000000000000        0.0000000000000000     
   1.0625000000000000       0.81250000000000000        0.0000000000000000     
   1.0937500000000000       0.81250000000000000        0.0000000000000000     
   1.1250000000000000       0.81250000000000000        0.0000000000000000     
   1.0000000000000000       0.84375000000000000        0.0000000000000000     
   1.0312500000000000       0.84375000000000000        0.0000000000000000     
   1.0625000000000000       0.84375000000000000        0.0000000000000000     
   1.0937500000000000       0.84375000000000000        0.0000000000000000     
   1.1250000000000000       0.84375000000000000        0.0000000000000000     
   1.0000000000000000       0.87500000000000000        0.0000000000000000     
   1.0312500000000000       0.87500000000000000        0.0000000000000000     
   1.0625000000000000       0.87500000000000000        0.0000000000000000     
   1.0937500000000000       0.87500000000000000        0.0000000000000000     
   1.1250000000000000       0.87500000000000000        0.0000000000000000     
   1.1250000000000000       0.75000000000000000        0.0000000000000000     
   1.1562500000000000       0.75000000000000000        0.0000000000000000     
   1.1875000000000000       0.75000000000000000        0.0000000000000000     
   1.2187500000000000       0.75000000000000000        0.0000000000000000     
   1.2500000000000000       0.75000000000000000        0.0000000000000000     
   1.1250000000000000       0.78125000000000000        0.0000000000000000     
   1.1562500000000000       0.78125000000000000        0.0000000000000000     
   1.1875000000000000       0.78125000000000000        0.0000000000000000     
   1.2187500000000000       0.78125000000000000        0.0000000000000000     
   1.2500000000000000       0.78125000000000000        0.0000000000000000     
   1.1250000000000000       0.81250000000000000        0.0000000000000000     
   1.1562500000000000       0.81250000000000000        0.0000000000000000     
   1.1875000000000000       0.81250000000000000        0.0000000000000000     
   1.2187500000000000       0.81250000000000000        0.0000000000000000     
   1.2500000000000000       0.81250000000000000        0.0000000000000000     
   1.1250000000000000       0.84375000000000000        0.0000000000000000     
   1.1562500000000000       0.84375000000000000        0.0000000000000000     
   1.1875000000000000       0.84375000000000000        0.0000000000000000     
   1.2187500000000000       0.84375000000000000        0.0000000000000000     
   1.2500000000000000       0.84375000000000000        0.0000000000000000     
   1.1250000000000000       0.87500000000000000        0.0000000000000000     
   1.1562500000000000       0.87500000000000000        0.0000000000000000     
   1.1875000000000000       0.87500000000000000        0.0000000000000000     
   1.2187500000000000       0.87500000000000000        0.0000000000000000     
   1.2500000000000000       0.87500000000000000        0.0000000000000000     
   1.2500000000000000       0.75000000000000000        0.0000000000000000     
   1.2812500000000000       0.75000000000000000        0.0000000000000000     
   1.3125000000000000       0.75000000000000000        0.0000000000000000     
   1.3437500000000000       0.75000000000000000        0.0000000000000000     
   1.3750000000000000       0.75000000000000000        0.0000000000000000     
   1.2500000000000000       0.78125000000000000        0.0000000000000000     
   1.2812500000000000       0.78125000000000000        0.0000000000000000     
   1.3125000000000000       0.78125000000000000        0.0000000000000000     
   1.3437500000000000       0.78125000000000000        0.0000000000000000     
   1.3750000000000000       0.78125000000000000        0.0000000000000000     
   1.2500000000000000       0.81250000000000000        0.0000000000000000     
   1.2812500000000000       0.81250000000000000        0.0000000000000000     
   1.3125000000000000       0.81250000000000000        0.0000000000000000     
   1.3437500000000000       0.81250000000000000        0.0000000000000000     
   1.3750000000000000       0.81250000000000000        0.0000000000000000     
   1.2500000000000000       0.84375000000000000        0.0000000000000000     
   1.2812500000000000       0.84375000000000000        0.0000000000000000     
   1.3125000000000000       0.84375000000000000        0.0000000000000000     
   1.3437500000000000       0.84375000000000000        0.0000000000000000     
   1.3750000000000000       0.84375000000000000        0.0000000000000000     
   1.2500000000000000       0.87500000000000000        0.0000000000000000     
   1.2812500000000000       0.87500000000000000        0.0000000000000000     
   1.3125000000000000       0.87500000000000000        0.0000000000000000     
   1.3437500000000000       0.87500000000000000        0.0000000000000000     
   1.3750000000000000       0.87500000000000000        0.0000000000000000     
   1.3750000000000000       0.75000000000000000        0.0000000000000000     
   1.4062500000000000       0.75000000000000000        0.0000000000000000     
   1.4375000000000000       0.75000000000000000        0.0000000000000000     
   1.4687500000000000       0.75000000000000000        0.0000000000000000     
   1.5000000000000000       0.75000000000000000        0.0000000000000000     
   1.3750000000000000       0.78125000000000000        0.0000000000000000     
   1.4062500000000000       0.78125000000000000        0.0000000000000000     
   1.4375000000000000       0.78125000000000000        0.0000000000000000     
   1.4687500000000000       0.78125000000000000        0.0000000000000000     
   1.5000000000000000       0.78125000000000000        0.0000000000000000     
   1.3750000000000000       0.81250000000000000        0.0000000000000000     
   1.4062500000000000       0.81250000000000000        0.0000000000000000     
   1.4375000000000000       0.81250000000000000        0.0000000000000000     
   1.4687500000000000       0.81250000000000000        0.0000000000000000     
   1.5000000000000000       0.81250000000000000        0.0000000000000000     
   1.3750000000000000       0.84375000000000000        0.0000000000000000     
   1.4062500000000000       0.84375000000000000        0.0000000000000000     
   1.4375000000000000       0.84375000000000000        0.0000000000000000     
   1.4687500000000000       0.84375000000000000        0.0000000000000000     
   1.5000000000000000       0.84375000000000000        0.0000000000000000     
   1.3750000000000000       0.87500000000000000        0.0000000000000000     
   1.4062500000000000       0.87500000000000000        0.0000000000000000     
   1.4375000000000000       0.87500000000000000        0.0000000000000000     
   1.4687500000000000       0.87500000000000000        0.0000000000000000     
   1.5000000000000000       0.87500000000000000        0.0000000000000000     
  0.50000000000000000       0.87500000000000000        0.0000000000000000     
  0.53125000000000000       0.87500000000000000        0.0000000000000000     
  0.56250000000000000       0.87500000000000000        0.0000000000000000     
  0.59375000000000000       0.87500000000000000        0.0000000000000000     
  0.62500000000000000       0.87500000000000000        0.0000000000000000     
  0.50000000000000000       0.90625000000000000        0.0000000000000000     
  0.53125000000000000       0.90625000000000000        0.0000000000000000     
  0.56250000000000000       0.90625000000000000        0.0000000000000000     
  0.59375000000000000       0.90625000000000000        0.0000000000000000     
  0.62500000000000000       0.90625000000000000        0.0000000000000000     
  0.50000000000000000       0.93750000000000000        0.0000000000000000     
  0.53125000000000000       0.93750000000000000        0.0000000000000000     
  0.56250000000000000       0.93750000000000000        0.0000000000000000     
  0.59375000000000000       0.93750000000000000        0.0000000000000000     
  0.62500000000000000       0.93750000000000000        0.0000000000000000     
  0.50000000000000000       0.96875000000000000        0.0000000000000000     
  0.53125000000000000       0.96875000000000000        0.0000000000000000     
  0.56250000000000000       0.96875000000000000        0.0000000000000000     
  0.59375000000000000       0.96875000000000000        0.0000000000000000     
  0.62500000000000000       0.96875000000000000        0.0000000000000000     
  0.50000000000000000        1.0000000000000000        0.0000000000000000     
  0.53125000000000000        1.0000000000000000        0.0000000000000000     
  0.56250000000000000        1.0000000000000000        0.0000000000000000     
  0.59375000000000000        1.0000000000000000        0.0000000000000000     
  0.62500000000000000        1.0000000000000000        0.0000000000000000     
  0.62500000000000000       0.87500000000000000        0.0000000000000000     
  0.65625000000000000       0.87500000000000000        0.0000000000000000     
  0.68750000000000000       0.87500000000000000        0.0000000000000000     
  0.71875000000000000       0.87500000000000000        0.0000000000000000     
  0.75000000000000000       0.87500000000000000        0.0000000000000000     
  0.62500000000000000       0.90625000000000000        0.0000000000000000     
  0.65625000000000000       0.90625000000000000        0.0000000000000000     
  0.68750000000000000       0.90625000000000000        0.0000000000000000     
  0.71875000000000000       0.90625000000000000        0.0000000000000000     
  0.75000000000000000       0.90625000000000000        0.0000000000000000     
  0.62500000000000000       0.93750000000000000        0.0000000000000000     
  0.65625000000000000       0.93750000000000000        0.0000000000000000     
  0.68750000000000000       0.93750000000000000        0.0000000000000000     
  0.71875000000000000       0.93750000000000000        0.0000000000000000     
  0.75000000000000000       0.93750000000000000        0.0000000000000000     
  0.62500000000000000       0.96875000000000000        0.0000000000000000     
  0.65625000000000000       0.96875000000000000        0.0000000000000000     
  0.68750000000000000       0.96875000000000000        0.0000000000000000     
  0.71875000000000000       0.96875000000000000        0.0000000000000000     
  0.75000000000000000       0.96875000000000000        0.0000000000000000     
  0.62500000000000000        1.0000000000000000        0.0000000000000000     
  0.65625000000000000        1.0000000000000000        0.0000000000000000     
  0.68750000000000000        1.0000000000000000        0.0000000000000000     
  0.71875000000000000        1.0000000000000000        0.0000000000000000     
  0.75000000000000000        1.0000000000000000        0.0000000000000000     
  0.75000000000000000       0.87500000000000000        0.0000000000000000     
  0.78125000000000000       0.87500000000000000        0.0000000000000000     
  0.81250000000000000       0.87500000000000000        0.0000000000000000     
  0.84375000000000000       0.87500000000000000        0.0000000000000000     
  0.87500000000000000       0.87500000000000000        0.0000000000000000     
  0.75000000000000000       0.90625000000000000        0.0000000000000000     
  0.78125000000000000       0.90625000000000000        0.0000000000000000     
  0.81250000000000000       0.90625000000000000        0.0000000000000000     
  0.84375000000000000       0.90625000000000000        0.0000000000000000     
  0.87500000000000000       0.90625000000000000        0.0000000000000000     
  0.75000000000000000       0.93750000000000000        0.0000000000000000     
  0.78125000000000000       0.93750000000000000        0.0000000000000000     
  0.81250000000000000       0.93750000000000000        0.0000000000000000     
  0.84375000000000000       0.93750000000000000        0.0000000000000000     
  0.87500000000000000       0.93750000000000000        0.0000000000000000     
  0.75000000000000000       0.96875000000000000        0.0000000000000000     
  0.78125000000000000       0.96875000000000000        0.0000000000000000     
  0.81250000000000000       0.96875000000000000        0.0000000000000000     
  0.84375000000000000       0.96875000000000000        0.0000000000000000     
  0.87500000000000000       0.96875000000000000        0.0000000000000000     
  0.75000000000000000        1.0000000000000000        0.0000000000000000     
  0.78125000000000000        1.0000000000000000        0.0000000000000000     
  0.81250000000000000        1.0000000000000000        0.0000000000000000     
  0.84375000000000000        1.0000000000000000        0.0000000000000000     
  0.87500000000000000        1.0000000000000000        0.0000000000000000     
  0.87500000000000000       0.87500000000000000        0.0000000000000000     
  0.90625000000000000       0.87500000000000000        0.0000000000000000     
  0.93750000000000000       0.87500000000000000        0.0000000000000000     
  0.96875000000000000       0.87500000000000000        0.0000000000000000     
   1.0000000000000000       0.87500000000000000        0.0000000000000000     
  0.87500000000000000       0.90625000000000000        0.0000000000000000     
  0.90625000000000000       0.90625000000000000        0.0000000000000000     
  0.93750000000000000       0.90625000000000000        0.0000000000000000     
  0.96875000000000000       0.90625000000000000        0.0000000000000000     
   1.0000000000000000       0.90625000000000000        0.0000000000000000     
  0.87500000000000000       0.93750000000000000        0.0000000000000000     
  0.90625000000000000       0.93750000000000000        0.0000000000000000     
  0.93750000000000000       0.93750000000000000        0.0000000000000000     
  0.96875000000000000       0.93750000000000000        0.0000000000000000     
   1.0000000000000000       0.93750000000000000        0.0000000000000000     
  0.87500000000000000       0.96875000000000000        0.0000000000000000     
  0.90625000000000000       0.96875000000000000        0.0000000000000000     
  0.93750000000000000       0.96875000000000000        0.0000000000000000     
  0.96875000000000000       0.96875000000000000        0.0000000000000000     
   1.0000000000000000       0.96875000000000000        0.0000000000000000     
  0.87500000000000000        1.0000000000000000        0.0000000000000000     
  0.90625000000000000        1.0000000000000000        0.0000000000000000     
  0.93750000000000000        1.0000000000000000        0.0000000000000000     
  0.96875000000000000        1.0000000000000000        0.0000000000000000     
   1.0000000000000000        1.0000000000000000        0.0000000000000000     
   1.0000000000000000       0.87500000000000000        0.0000000000000000     
   1.0312500000000000       0.87500000000000000        0.0000000000000000     
   1.0625000000000000       0.87500000000000000        0.0000000000000000     
   1.0937500000000000       0.87500000000000000        0.0000000000000000     
   1.1250000000000000       0.87500000000000000        0.0000000000000000     
   1.0000000000000000       0.90625000000000000        0.0000000000000000     
   1.0312500000000000       0.90625000000000000        0.0000000000000000     
   1.0625000000000000       0.90625000000000000        0.0000000000000000     
   1.0937500000000000       0.90625000000000000        0.0000000000000000     
   1.1250000000000000       0.90625000000000000        0.0000000000000000     
   1.0000000000000000       0.93750000000000000        0.0000000000000000     
   1.0312500000000000       0.93750000000000000        0.0000000000000000     
   1.0625000000000000       0.93750000000000000        0.0000000000000000     
   1.0937500000000000       0.93750000000000000        0.0000000000000000     
   1.1250000000000000       0.93750000000000000        0.0000000000000000     
   1.0000000000000000       0.96875000000000000        0.0000000000000000     
   1.0312500000000000       0.96875000000000000        0.0000000000000000     
   1.0625000000000000       0.96875000000000000        0.0000000000000000     
   1.0937500000000000       0.96875000000000000        0.0000000000000000     
   1.1250000000000000       0.96875000000000000        0.0000000000000000     
   1.0000000000000000        1.0000000000000000        0.0000000000000000     
   1.0312500000000000        1.0000000000000000        0.0000000000000000     
   1.0625000000000000        1.0000000000000000        0.0000000000000000     
   1.0937500000000000        1.0000000000000000        0.0000000000000000     
   1.1250000000000000        1.0000000000000000        0.0000000000000000     
   1.1250000000000000       0.87500000000000000        0.0000000000000000     
   1.1562500000000000       0.87500000000000000        0.0000000000000000     
   1.1875000000000000       0.87500000000000000        0.0000000000000000     
   1.2187500000000000       0.87500000000000000        0.0000000000000000     
   1.2500000000000000       0.87500000000000000        0.0000000000000000     
   1.1250000000000000       0.90625000000000000        0.0000000000000000     
   1.1562500000000000       0.90625000000000000        0.0000000000000000     
   1.1875000000000000       0.90625000000000000        0.0000000000000000     
   1.2187500000000000       0.90625000000000000        0.0000000000000000     
   1.2500000000000000       0.90625000000000000        0.0000000000000000     
   1.1250000000000000       0.93750000000000000        0.0000000000000000     
   1.1562500000000000       0.93750000000000000        0.0000000000000000     
   1.1875000000000000       0.93750000000000000        0.0000000000000000     
   1.2187500000000000       0.93750000000000000        0.0000000000000000     
   1.2500000000000000       0.93750000000000000        0.0000000000000000     
   1.1250000000000000       0.96875000000000000        0.0000000000000000     
   1.1562500000000000       0.96875000000000000        0.0000000000000000     
   1.1875000000000000       0.96875000000000000        0.0000000000000000     
   1.2187500000000000       0.96875000000000000        0.0000000000000000     
   1.2500000000000000       0.96875000000000000        0.0000000000000000     
   1.1250000000000000        1.0000000000000000        0.0000000000000000     
   1.1562500000000000        1.0000000000000000        0.0000000000000000     
   1.1875000000000000        1.0000000000000000        0.0000000000000000     
   1.2187500000000000        1.0000000000000000        0.0000000000000000     
   1.2500000000000000        1.0000000000000000        0.0000000000000000     
   1.2500000000000000       0.87500000000000000        0.0000000000000000     
   1.2812500000000000       0.87500000000000000        0.0000000000000000     
   1.3125000000000000       0.87500000000000000        0.0000000000000000     
   1.3437500000000000       0.87500000000000000        0.0000000000000000     
   1.3750000000000000       0.87500000000000000        0.0000000000000000     
   1.2500000000000000       0.90625000000000000        0.0000000000000000     
   1.2812500000000000       0.90625000000000000        0.0000000000000000     
   1.3125000000000000       0.90625000000000000        0.0000000000000000     
   1.3437500000000000       0.90625000000000000        0.0000000000000000     
   1.3750000000000000       0.90625000000000000        0.0000000000000000     
   1.2500000000000000       0.93750000000000000        0.0000000000000000     
   1.2812500000000000       0.93750000000000000        0.0000000000000000     
   1.3125000000000000       0.93750000000000000        0.0000000000000000     
   1.3437500000000000       0.93750000000000000        0.0000000000000000     
   1.3750000000000000       0.93750000000000000        0.0000000000000000     
   1.2500000000000000       0.96875000000000000        0.0000000000000000     
   1.2812500000000000       0.96875000000000000        0.0000000000000000     
   1.3125000000000000       0.96875000000000000        0.0000000000000000     
   1.3437500000000000       0.96875000000000000        0.0000000000000000     
   1.3750000000000000       0.96875000000000000        0.0000000000000000     
   1.2500000000000000        1.0000000000000000        0.0000000000000000     
   1.2812500000000000        1.0000000000000000        0.0000000000000000     
   1.3125000000000000        1.0000000000000000        0.0000000000000000     
   1.3437500000000000        1.0000000000000000        0.0000000000000000     
   1.3750000000000000        1.0000000000000000        0.0000000000000000     
   1.3750000000000000       0.87500000000000000        0.0000000000000000     
   1.4062500000000000       0.87500000000000000        0.0000000000000000     
   1.4375000000000000       0.87500000000000000        0.0000000000000000     
   1.4687500000000000       0.87500000000000000        0.0000000000000000     
   1.5000000000000000       0.87500000000000000        0.0000000000000000     
   1.3750000000000000       0.90625000000000000        0.0000000000000000     
   1.4062500000000000       0.90625000000000000        0.0000000000000000     
   1.4375000000000000       0.90625000000000000        0.0000000000000000     
   1.4687500000000000       0.90625000000000000        0.0000000000000000     
   1.5000000000000000       0.90625000000000000        0.0000000000000000     
   1.3750000000000000       0.93750000000000000        0.0000000000000000     
   1.4062500000000000       0.93750000000000000        0.0000000000000000     
   1.4375000000000000       0.93750000000000000        0.0000000000000000     
   1.4687500000000000       0.93750000000000000        0.0000000000000000     
   1.5000000000000000       0.93750000000000000        0.0000000000000000     
   1.3750000000000000       0.96875000000000000        0.0000000000000000     
   1.4062500000000000       0.96875000000000000        0.0000000000000000     
   1.4375000000000000       0.96875000000000000        0.0000000000000000     
   1.4687500000000000       0.96875000000000000        0.0000000000000000     
   1.5000000000000000       0.96875000000000000        0.0000000000000000     
   1.3750000000000000        1.0000000000000000        0.0000000000000000     
   1.4062500000000000        1.0000000000000000        0.0000000000000000     
   1.4375000000000000        1.0000000000000000        0.0000000000000000     
   1.4687500000000000        1.0000000000000000        0.0000000000000000     
   1.5000000000000000        1.0000000000000000        0.0000000000000000     
 </DataArray>
 </Points>
 <Cells>
 <DataArray  type="Int32"  Name="connectivity"  format="ascii">
           0           1           6           5
           1           2           7           6
           2           3           8           7
           3           4           9           8
           5           6          11          10
           6           7          12          11
           7           8          13          12
           8           9          14          13
          10          11          16          15
          11          12          17          16
          12          13          18          17
          13          14          19          18
          15          16          21          20
          16          17          22          21
          17          18          23          22
          18          19          24          23
          25          26          31          30
          26          27          32          31
          27          28          33          32
          28          29          34          33
          30          31          36          35
          31          32          37          36
          32          33          38          37
          33          34          39          38
          35          36          41          40
          36          37          42          41
          37          38          43          42
          38          39          44          43
          40          41          46          45
          41          42          47          46
          42          43          48          47
          43          44          49          48
          50          51          56          55
          51          52          57          56
          52          53          58          57
          53          54          59          58
          55          56          61          60
          56          57          62          61
          57          58          63          62
          58          59          64          63
          60          61          66          65
          61          62          67          66
          62          63          68          67
          63          64          69          68
          65          66          71          70
          66          67          72          71
          67          68          73          72
          68          69          74          73
          75          76          81          80
          76          77          82          81
          77          78          83          82
          78          79          84          83
          80          81          86          85
          81          82          87          86
          82          83          88          87
          83          84          89          88
          85          86          91          90
          86          87          92          91
          87          88          93          92
          88          89          94          93
          90          91          96          95
          91          92          97          96
          92          93          98          97
          93          94          99          98
         100         101         106         105
         101         102         107         106
         102         103         108         107
         103         104         109         108
         105         106         111         110
         106         107         112         111
         107         108         113         112
         108         109         114         113
         110         111         116         115
         111         112         117         116
         112         113         118         117
         113         114         119         118
         115         116         121         120
         116         117         122         121
         117         118         123         122
         118         119         124         123
         125         126         131         130
         126         127         132         131
         127         128         133         132
         128         129         134         133
         130         131         136         135
         131         132         137         136
         132         133         138         137
         133         134         139         138
         135         136         141         140
         136         137         142         141
         137         138         143         142
         138         139         144         143
         140         141         146         145
         141         142         147         146
         142         143         148         147
         143         144         149         148
         150         151         156         155
         151         152         157         156
         152         153         158         157
         153         154         159         158
         155         156         161         160
         156         157         162         161
         157         158         163         162
         158         159         164         163
         160         161         166         165
         161         162         167         166
         162         163         168         167
         163         164         169         168
         165         166         171         170
         166         167         172         171
         167         168         173         172
         168         169         174         173
         175         176         181         180
         176         177         182         181
         177         178         183         182
         178         179         184         183
         180         181         186         185
         181         182         187         186
         182         183         188         187
         183         184         189         188
         185         186         191         190
         186         187         192         191
         187         188         193         192
         188         189         194         193
         190         191         196         195
         191         192         197         196
         192         193         198         197
         193         194         199         198
         200         201         206         205
         201         202         207         206
         202         203         208         207
         203         204         209         208
         205         206         211         210
         206         207         212         211
         207         208         213         212
         208         209         214         213
         210         211         216         215
         211         212         217         216
         212         213         218         217
         213         214         219         218
         215         216         221         220
         216         217         222         221
         217         218         223         222
         218         219         224         223
         225         226         231         230
         226         227         232         231
         227         228         233         232
         228         229         234         233
         230         231         236         235
         231         232         237         236
         232         233         238         237
         233         234         239         238
         235         236         241         240
         236         237         242         241
         237         238         243         242
         238         239         244         243
         240         241         246         245
         241         242         247         246
         242         243         248         247
         243         244         249         248
         250         251         256         255
         251         252         257         256
         252         253         258         257
         253         254         259         258
         255         256         261         260
         256         257         262         261
         257         258         263         262
         258         259         264         263
         260         261         266         265
         261         262         267         266
         262         263         268         267
         263         264         269         268
         265         266         271         270
         266         267         272         271
         267         268         273         272
         268         269         274         273
         275         276         281         280
         276         277         282         281
         277         278         283         282
         278         279         284         283
         280         281         286         285
         281         282         287         286
         282         283         288         287
         283         284         289         288
         285         286         291         290
         286         287         292         291
         287         288         293         292
         288         289         294         293
         290         291         296         295
         291         292         297         296
         292         293         298         297
         293         294         299         298
         300         301         306         305
         301         302         307         306
         302         303         308         307
         303         304         309         308
         305         306         311         310
         306         307         312         311
         307         308         313         312
         308         309         314         313
         310         311         316         315
         311         312         317         316
         312         313         318         317
         313         314         319         318
         315         316         321         320
         316         317         322         321
         317         318         323         322
         318         319         324         323
         325         326         331         330
         326         327         332         331
         327         328         333         332
         328         329         334         333
         330         331         336         335
         331         332         337         336
         332         333         338         337
         333         334         339         338
         335         336         341         340
         336         337         342         341
         337         338         343         342
         338         339         344         343
         340         341         346         345
         341         342         347         346
         342         343         348         347
         343         344         349         348
         350         351         356         355
         351         352         357         356
         352         353         358         357
         353         354         359         358
         355         356         361         360
         356         357         362         361
         357         358         363         362
         358         359         364         363
         360         361         366         365
         361         362         367         366
         362         363         368         367
         363         364         369         368
         365         366         371         370
         366         367         372         371
         367         368         373         372
         368         369         374         373
         375         376         381         380
         376         377         382         381
         377         378         383         382
         378         379         384         383
         380         381         386         385
         381         382         387         386
         382         383         388         387
         383         384         389         388
         385         386         391         390
         386         387         392         391
         387         388         393         392
         388         389         394         393
         390         391         396         395
         391         392         397         396
         392         393         398         397
         393         394         399         398
         400         401         406         405
         401         402         407         406
         402         403         408         407
         403         404         409         408
         405         406         411         410
         406         407         412         411
         407         408         413         412
         408         409         414         413
         410         411         416         415
         411         412         417         416
         412         413         418         417
         413         414         419         418
         415         416         421         420
         416         417         422         421
         417         418         423         422
         418         419         424         423
         425         426         431         430
         426         427         432         431
         427         428         433         432
         428         429         434         433
         430         431         436         435
         431         432         437         436
         432         433         438         437
         433         434         439         438
         435         436         441         440
         436         437         442         441
         437         438         443         442
         438         439         444         443
         440         441         446         445
         441         442         447         446
         442         443         448         447
         443         444         449         448
         450         451         456         455
         451         452         457         456
         452         453         458         457
         453         454         459         458
         455         456         461         460
         456         457         462         461
         457         458         463         462
         458         459         464         463
         460         461         466         465
         461         462         467         466
         462         463         468         467
         463         464         469         468
         465         466         471         470
         466         467         472         471
         467         468         473         472
         468         469         474         473
         475         476         481         480
         476         477         482         481
         477         478         483         482
         478         479         484         483
         480         481         486         485
         481         482         487         486
         482         483         488         487
         483         484         489         488
         485         486         491         490
         486         487         492         491
         487         488         493         492
         488         489         494         493
         490         491         496         495
         491         492         497         496
         492         493         498         497
         493         494         499         498
         500         501         506         505
         501         502         507         506
         502         503         508         507
         503         504         509         508
         505         506         511         510
         506         507         512         511
         507         508         513         512
         508         509         514         513
         510         511         516         515
         511         512         517         516
         512         513         518         517
         513         514         519         518
         515         516         521         520
         516         517         522         521
         517         518         523         522
         518         519         524         523
         525         526         531         530
         526         527         532         531
         527         528         533         532
         528         529         534         533
         530         531         536         535
         531         532         537         536
         532         533         538         537
         533         534         539         538
         535         536         541         540
         536         537         542         541
         537         538         543         542
         538         539         544         543
         540         541         546         545
         541         542         547         546
         542         543         548         547
         543         544         549         548
         550         551         556         555
         551         552         557         556
         552         553         558         557
         553         554         559         558
         555         556         561         560
         556         557         562         561
         557         558         563         562
         558         559         564         563
         560         561         566         565
         561         562         567         566
         562         563         568         567
         563         564         569         568
         565         566         571         570
         566         567         572         571
         567         568         573         572
         568         569         574         573
         575         576         581         580
         576         577         582         581
         577         578         583         582
         578         579         584         583
         580         581         586         585
         581         582         587         586
         582         583         588         587
         583         584         589         588
         585         586         591         590
         586         587         592         591
         587         588         593         592
         588         589         594         593
         590         591         596         595
         591         592         597         596
         592         593         598         597
         593         594         599         598
         600         601         606         605
         601         602         607         606
         602         603         608         607
         603         604         609         608
         605         606         611         610
         606         607         612         611
         607         608         613         612
         608         609         614         613
         610         611         616         615
         611         612         617         616
         612         613         618         617
         613         614         619         618
         615         616         621         620
         616         617         622         621
         617         618         623         622
         618         619         624         623
         625         626         631         630
         626         627         632         631
         627         628         633         632
         628         629         634         633
         630         631         636         635
         631         632         637         636
         632         633         638         637
         633         634         639         638
         635         636         641         640
         636         637         642         641
         637         638         643         642
         638         639         644         643
         640         641         646         645
         641         642         647         646
         642         643         648         647
         643         644         649         648
         650         651         656         655
         651         652         657         656
         652         653         658         657
         653         654         659         658
         655         656         661         660
         656         657         662         661
         657         658         663         662
         658         659         664         663
         660         661         666         665
         661         662         667         666
         662         663         668         667
         663         664         669         668
         665         666         671         670
         666         667         672         671
         667         668         673         672
         668         669         674         673
         675         676         681         680
         676         677         682         681
         677         678         683         682
         678         679         684         683
         680         681         686         685
         681         682         687         686
         682         683         688         687
         683         684         689         688
         685         686         691         690
         686         687         692         691
         687         688         693         692
         688         689         694         693
         690         691         696         695
         691         692         697         696
         692         693         698         697
         693         694         699         698
         700         701         706         705
         701         702         707         706
         702         703         708         707
         703         704         709         708
         705         706         711         710
         706         707         712         711
         707         708         713         712
         708         709         714         713
         710         711         716         715
         711         712         717         716
         712         713         718         717
         713         714         719         718
         715         716         721         720
         716         717         722         721
         717         718         723         722
         718         719         724         723
         725         726         731         730
         726         727         732         731
         727         728         733         732
         728         729         734         733
         730         731         736         735
         731         732         737         736
         732         733         738         737
         733         734         739         738
         735         736         741         740
         736         737         742         741
         737         738         743         742
         738         739         744         743
         740         741         746         745
         741         742         747         746
         742         743         748         747
         743         744         749         748
         750         751         756         755
         751         752         757         756
         752         753         758         757
         753         754         759         758
         755         756         761         760
         756         757         762         761
         757         758         763         762
         758         759         764         763
         760         761         766         765
         761         762         767         766
         762         763         768         767
         763         764         769         768
         765         766         771         770
         766         767         772         771
         767         768         773         772
         768         769         774         773
         775         776         781         780
         776         777         782         781
         777         778         783         782
         778         779         784         783
         780         781         786         785
         781         782         787         786
         782         783         788         787
         783         784         789         788
         785         786         791         790
         786         787         792         791
         787         788         793         792
         788         789         794         793
         790         791         796         795
         791         792         797         796
         792         793         798         797
         793         794         799         798
         800         801         806         805
         801         802         807         806
         802         803         808         807
         803         804         809         808
         805         806         811         810
         806         807         812         811
         807         808         813         812
         808         809         814         813
         810         811         816         815
         811         812         817         816
         812         813         818         817
         813         814         819         818
         815         816         821         820
         816         817         822         821
         817         818         823         822
         818         819         824         823
         825         826         831         830
         826         827         832         831
         827         828         833         832
         828         829         834         833
         830         831         836         835
         831         832         837         836
         832         833         838         837
         833         834         839         838
         835         836         841         840
         836         837         842         841
         837         838         843         842
         838         839         844         843
         840         841         846         845
         841         842         847         846
         842         843         848         847
         843         844         849         848
         850         851         856         855
         851         852         857         856
         852         853         858         857
         853         854         859         858
         855         856         861         860
         856         857         862         861
         857         858         863         862
         858         859         864         863
         860         861         866         865
         861         862         867         866
         862         863         868         867
         863         864         869         868
         865         866         871         870
         866         867         872         871
         867         868         873         872
         868         869         874         873
         875         876         881         880
         876         877         882         881
         877         878         883         882
         878         879         884         883
         880         881         886         885
         881         882         887         886
         882         883         888         887
         883         884         889         888
         885         886         891         890
         886         887         892         891
         887         888         893         892
         888         889         894         893
         890         891         896         895
         891         892         897         896
         892         893         898         897
         893         894         899         898
         900         901         906         905
         901         902         907         906
         902         903         908         907
         903         904         909         908
         905         906         911         910
         906         907         912         911
         907         908         913         912
         908         909         914         913
         910         911         916         915
         911         912         917         916
         912         913         918         917
         913         914         919         918
         915         916         921         920
         916         917         922         921
         917         918         923         922
         918         919         924         923
         925         926         931         930
         926         927         932         931
         927         928         933         932
         928         929         934         933
         930         931         936         935
         931         932         937         936
         932         933         938         937
         933         934         939         938
         935         936         941         940
         936         937         942         941
         937         938         943         942
         938         939         944         943
         940         941         946         945
         941         942         947         946
         942         943         948         947
         943         944         949         948
         950         951         956         955
         951         952         957         956
         952         953         958         957
         953         954         959         958
         955         956         961         960
         956         957         962         961
         957         958         963         962
         958         959         964         963
         960         961         966         965
         961         962         967         966
         962         963         968         967
         963         964         969         968
         965         966         971         970
         966         967         972         971
         967         968         973         972
         968         969         974         973
         975         976         981         980
         976         977         982         981
         977         978         983         982
         978         979         984         983
         980         981         986         985
         981         982         987         986
         982         983         988         987
         983         984         989         988
         985         986         991         990
         986         987         992         991
         987         988         993         992
         988         989         994         993
         990         991         996         995
         991         992         997         996
         992         993         998         997
         993         994         999         998
        1000        1001        1006        1005
        1001        1002        1007        1006
        1002        1003        1008        1007
        1003        1004        1009        1008
        1005        1006        1011        1010
        1006        1007        1012        1011
        1007        1008        1013        1012
        1008        1009        1014        1013
        1010        1011        1016        1015
        1011        1012        1017        1016
        1012        1013        1018        1017
        1013        1014        1019        1018
        1015        1016        1021        1020
        1016        1017        1022        1021
        1017        1018        1023        1022
        1018        1019        1024        1023
        1025        1026        1031        1030
        1026        1027        1032        1031
        1027        1028        1033        1032
        1028        1029        1034        1033
        1030        1031        1036        1035
        1031        1032        1037        1036
        1032        1033        1038        1037
        1033        1034        1039        1038
        1035        1036        1041        1040
        1036        1037        1042        1041
        1037        1038        1043        1042
        1038        1039        1044        1043
        1040        1041        1046        1045
        1041        1042        1047        1046
        1042        1043        1048        1047
        1043        1044        1049        1048
        1050        1051        1056        1055
        1051        1052        1057        1056
        1052        1053        1058        1057
        1053        1054        1059        1058
        1055        1056        1061        1060
        1056        1057        1062        1061
        1057        1058        1063        1062
        1058        1059        1064        1063
        1060        1061        1066        1065
        1061        1062        1067        1066
        1062        1063        1068        1067
        1063        1064        1069        1068
        1065        1066        1071        1070
        1066        1067        1072        1071
        1067        1068        1073        1072
        1068        1069        1074        1073
        1075        1076        1081        1080
        1076        1077        1082        1081
        1077        1078        1083        1082
        1078        1079        1084        1083
        1080        1081        1086        1085
        1081        1082        1087        1086
        1082        1083        1088        1087
        1083        1084        1089        1088
        1085        1086        1091        1090
        1086        1087        1092        1091
        1087        1088        1093        1092
        1088        1089        1094        1093
        1090        1091        1096        1095
        1091        1092        1097        1096
        1092        1093        1098        1097
        1093        1094        1099        1098
        1100        1101        1106        1105
        1101        1102        1107        1106
        1102        1103        1108        1107
        1103        1104        1109        1108
        1105        1106        1111        1110
        1106        1107        1112        1111
        1107        1108        1113        1112
        1108        1109        1114        1113
        1110        1111        1116        1115
        1111        1112        1117        1116
        1112        1113        1118        1117
        1113        1114        1119        1118
        1115        1116        1121        1120
        1116        1117        1122        1121
        1117        1118        1123        1122
        1118        1119        1124        1123
        1125        1126        1131        1130
        1126        1127        1132        1131
        1127        1128        1133        1132
        1128        1129        1134        1133
        1130        1131        1136        1135
        1131        1132        1137        1136
        1132        1133        1138        1137
        1133        1134        1139        1138
        1135        1136        1141        1140
        1136        1137        1142        1141
        1137        1138        1143        1142
        1138        1139        1144        1143
        1140        1141        1146        1145
        1141        1142        1147        1146
        1142        1143        1148        1147
        1143        1144        1149        1148
        1150        1151        1156        1155
        1151        1152        1157        1156
        1152        1153        1158        1157
        1153        1154        1159        1158
        1155        1156        1161        1160
        1156        1157        1162        1161
        1157        1158        1163        1162
        1158        1159        1164        1163
        1160        1161        1166        1165
        1161        1162        1167        1166
        1162        1163        1168        1167
        1163        1164        1169        1168
        1165        1166        1171        1170
        1166        1167        1172        1171
        1167        1168        1173        1172
        1168        1169        1174        1173
        1175        1176        1181        1180
        1176        1177        1182        1181
        1177        1178        1183        1182
        1178        1179        1184        1183
        1180        1181        1186        1185
        1181        1182        1187        1186
        1182        1183        1188        1187
        1183        1184        1189        1188
        1185        1186        1191        1190
        1186        1187        1192        1191
        1187        1188        1193        1192
        1188        1189        1194        1193
        1190        1191        1196        1195
        1191        1192        1197        1196
        1192        1193        1198        1197
        1193        1194        1199        1198
        1200        1201        1206        1205
        1201        1202        1207        1206
        1202        1203        1208        1207
        1203        1204        1209        1208
        1205        1206        1211        1210
        1206        1207        1212        1211
        1207        1208        1213        1212
        1208        1209        1214        1213
        1210        1211        1216        1215
        1211        1212        1217        1216
        1212        1213        1218        1217
        1213        1214        1219        1218
        1215        1216        1221        1220
        1216        1217        1222        1221
        1217        1218        1223        1222
        1218        1219        1224        1223
        1225        1226        1231        1230
        1226        1227        1232        1231
        1227        1228        1233        1232
        1228        1229        1234        1233
        1230        1231        1236        1235
        1231        1232        1237        1236
        1232        1233        1238        1237
        1233        1234        1239        1238
        1235        1236        1241        1240
        1236        1237        1242        1241
        1237        1238        1243        1242
        1238        1239        1244        1243
        1240        1241        1246        1245
        1241        1242        1247        1246
        1242        1243        1248        1247
        1243        1244        1249        1248
        1250        1251        1256        1255
        1251        1252        1257        1256
        1252        1253        1258        1257
        1253        1254        1259        1258
        1255        1256        1261        1260
        1256        1257        1262        1261
        1257        1258        1263        1262
        1258        1259        1264        1263
        1260        1261        1266        1265
        1261        1262        1267        1266
        1262        1263        1268        1267
        1263        1264        1269        1268
        1265        1266        1271        1270
        1266        1267        1272        1271
        1267        1268        1273        1272
        1268        1269        1274        1273
        1275        1276        1281        1280
        1276        1277        1282        1281
        1277        1278        1283        1282
        1278        1279        1284        1283
        1280        1281        1286        1285
        1281        1282        1287        1286
        1282        1283        1288        1287
        1283        1284        1289        1288
        1285        1286        1291        1290
        1286        1287        1292        1291
        1287        1288        1293        1292
        1288        1289        1294        1293
        1290        1291        1296        1295
        1291        1292        1297        1296
        1292        1293        1298        1297
        1293        1294        1299        1298
        1300        1301        1306        1305
        1301        1302        1307        1306
        1302        1303        1308        1307
        1303        1304        1309        1308
        1305        1306        1311        1310
        1306        1307        1312        1311
        1307        1308        1313        1312
        1308        1309        1314        1313
        1310        1311        1316        1315
        1311        1312        1317        1316
        1312        1313        1318        1317
        1313        1314        1319        1318
        1315        1316        1321        1320
        1316        1317        1322        1321
        1317        1318        1323        1322
        1318        1319        1324        1323
        1325        1326        1331        1330
        1326        1327        1332        1331
        1327        1328        1333        1332
        1328        1329        1334        1333
        1330        1331        1336        1335
        1331        1332        1337        1336
        1332        1333        1338        1337
        1333        1334        1339        1338
        1335        1336        1341        1340
        1336        1337        1342        1341
        1337        1338        1343        1342
        1338        1339        1344        1343
        1340        1341        1346        1345
        1341        1342        1347        1346
        1342        1343        1348        1347
        1343        1344        1349        1348
        1350        1351        1356        1355
        1351        1352        1357        1356
        1352        1353        1358        1357
        1353        1354        1359        1358
        1355        1356        1361        1360
        1356        1357        1362        1361
        1357        1358        1363        1362
        1358        1359        1364        1363
        1360        1361        1366        1365
        1361        1362        1367        1366
        1362        1363        1368        1367
        1363        1364        1369        1368
        1365        1366        1371        1370
        1366        1367        1372        1371
        1367        1368        1373        1372
        1368        1369        1374        1373
        1375        1376        1381        1380
        1376        1377        1382        1381
        1377        1378        1383        1382
        1378        1379        1384        1383
        1380        1381        1386        1385
        1381        1382        1387        1386
        1382        1383        1388        1387
        1383        1384        1389        1388
        1385        1386        1391        1390
        1386        1387        1392        1391
        1387        1388        1393        1392
        1388        1389        1394        1393
        1390        1391        1396        1395
        1391        1392        1397        1396
        1392        1393        1398        1397
        1393        1394        1399        1398
        1400        1401        1406        1405
        1401        1402        1407        1406
        1402        1403        1408        1407
        1403        1404        1409        1408
        1405        1406        1411        1410
        1406        1407        1412        1411
        1407        1408        1413        1412
        1408        1409        1414        1413
        1410        1411        1416        1415
        1411        1412        1417        1416
        1412        1413        1418        1417
        1413        1414        1419        1418
        1415        1416        1421        1420
        1416        1417        1422        1421
        1417        1418        1423        1422
        1418        1419        1424        1423
        1425        1426        1431        1430
        1426        1427        1432        1431
        1427        1428        1433        1432
        1428        1429        1434        1433
        1430        1431        1436        1435
        1431        1432        1437        1436
        1432        1433        1438        1437
        1433        1434        1439        1438
        1435        1436        1441        1440
        1436        1437        1442        1441
        1437        1438        1443        1442
        1438        1439        1444        1443
        1440        1441        1446        1445
        1441        1442        1447        1446
        1442        1443        1448        1447
        1443        1444        1449        1448
        1450        1451        1456        1455
        1451        1452        1457        1456
        1452        1453        1458        1457
        1453        1454        1459        1458
        1455        1456        1461        1460
        1456        1457        1462        1461
        1457        1458        1463        1462
        1458        1459        1464        1463
        1460        1461        1466        1465
        1461        1462        1467        1466
        1462        1463        1468        1467
        1463        1464        1469        1468
        1465        1466        1471        1470
        1466        1467        1472        1471
        1467        1468        1473        1472
        1468        1469        1474        1473
        1475        1476        1481        1480
        1476        1477        1482        1481
        1477        1478        1483        1482
        1478        1479        1484        1483
        1480        1481        1486        1485
        1481        1482        1487        1486
        1482        1483        1488        1487
        1483        1484        1489        1488
        1485        1486        1491        1490
        1486        1487        1492        1491
        1487        1488        1493        1492
        1488        1489        1494        1493
        1490        1491        1496        1495
        1491        1492        1497        1496
        1492        1493        1498        1497
        1493        1494        1499        1498
        1500        1501        1506        1505
        1501        1502        1507        1506
        1502        1503        1508        1507
        1503        1504        1509        1508
        1505        1506        1511        1510
        1506        1507        1512        1511
        1507        1508        1513        1512
        1508        1509        1514        1513
        1510        1511        1516        1515
        1511        1512        1517        1516
        1512        1513        1518        1517
        1513        1514        1519        1518
        1515        1516        1521        1520
        1516        1517        1522        1521
        1517        1518        1523        1522
        1518        1519        1524        1523
        1525        1526        1531        1530
        1526        1527        1532        1531
        1527        1528        1533        1532
        1528        1529        1534        1533
        1530        1531        1536        1535
        1531        1532        1537        1536
        1532        1533        1538        1537
        1533        1534        1539        1538
        1535        1536        1541        1540
        1536        1537        1542        1541
        1537        1538        1543        1542
        1538        1539        1544        1543
        1540        1541        1546        1545
        1541        1542        1547        1546
        1542        1543        1548        1547
        1543        1544        1549        1548
        1550        1551        1556        1555
        1551        1552        1557        1556
        1552        1553        1558        1557
        1553        1554        1559        1558
        1555        1556        1561        1560
        1556        1557        1562        1561
        1557        1558        1563        1562
        1558        1559        1564        1563
        1560        1561        1566        1565
        1561        1562        1567        1566
        1562        1563        1568        1567
        1563        1564        1569        1568
        1565        1566        1571        1570
        1566        1567        1572        1571
        1567        1568        1573        1572
        1568        1569        1574        1573
        1575        1576        1581        1580
        1576        1577        1582        1581
        1577        1578        1583        1582
        1578        1579        1584        1583
        1580        1581        1586        1585
        1581        1582        1587        1586
        1582        1583        1588        1587
        1583        1584        1589        1588
        1585        1586        1591        1590
        1586        1587        1592        1591
        1587        1588        1593        1592
        1588        1589        1594        1593
        1590        1591        1596        1595
        1591        1592        1597        1596
        1592        1593        1598        1597
        1593        1594        1599        1598
 </DataArray>
 <DataArray  type="Int32"  Name="offsets"  format="ascii"> 
           4
           8
          12
          16
          20
          24
          28
          32
          36
          40
          44
          48
          52
          56
          60
          64
          68
          72
          76
          80
          84
          88
          92
          96
         100
         104
         108
         112
         116
         120
         124
         128
         132
         136
         140
         144
         148
         152
         156
         160
         164
         168
         172
         176
         180
         184
         188
         192
         196
         200
         204
         208
         212
         216
         220
         224
         228
         232
         236
         240
         244
         248
         252
         256
         260
         264
         268
         272
         276
         280
         284
         288
         292
         296
         300
         304
         308
         312
         316
         320
         324
         328
         332
         336
         340
         344
         348
         352
         356
         360
         364
         368
         372
         376
         380
         384
         388
         392
         396
         400
         404
         408
         412
         416
         420
         424
         428
         432
         436
         440
         444
         448
         452
         456
         460
         464
         468
         472
         476
         480
         484
         488
         492
         496
         500
         504
         508
         512
         516
         520
         524
         528
         532
         536
         540
         544
         548
         552
         556
         560
         564
         568
         572
         576
         580
         584
         588
         592
         596
         600
         604
         608
         612
         616
         620
         624
         628
         632
         636
         640
         644
         648
         652
         656
         660
         664
         668
         672
         676
         680
         684
         688
         692
         696
         700
         704
         708
         712
         716
         720
         724
         728
         732
         736
         740
         744
         748
         752
         756
         760
         764
         768
         772
         776
         780
         784
         788
         792
         796
         800
         804
         808
         812
         816
         820
         824
         828
         832
         836
         840
         844
         848
         852
         856
         860
         864
         868
         872
         876
         880
         884
         888
         892
         896
         900
         904
         908
         912
         916
         920
         924
         928
         932
         936
         940
         944
         948
         952
         956
         960
         964
         968
         972
         976
         980
         984
         988
         992
         996
        1000
        1004
        1008
        1012
        1016
        1020
        1024
        1028
        1032
        1036
        1040
        1044
        1048
        1052
        1056
        1060
        1064
        1068
        1072
        1076
        1080
        1084
        1088
        1092
        1096
        1100
        1104
        1108
        1112
        1116
        1120
        1124
        1128
        1132
        1136
        1140
        1144
        1148
        1152
        1156
        1160
        1164
        1168
        1172
        1176
        1180
        1184
        1188
        1192
        1196
        1200
        1204
        1208
        1212
        1216
        1220
        1224
        1228
        1232
        1236
        1240
        1244
        1248
        1252
        1256
        1260
        1264
        1268
        1272
        1276
        1280
        1284
        1288
        1292
        1296
        1300
        1304
        1308
        1312
        1316
        1320
        1324
        1328
        1332
        1336
        1340
        1344
        1348
        1352
        1356
        1360
        1364
        1368
        1372
        1376
        1380
        1384
        1388
        1392
        1396
        1400
        1404
        1408
        1412
        1416
        1420
        1424
        1428
        1432
        1436
        1440
        1444
        1448
        1452
        1456
        1460
        1464
        1468
        1472
        1476
        1480
        1484
        1488
        1492
        1496
        1500
        1504
        1508
        1512
        1516
        1520
        1524
        1528
        1532
        1536
        1540
        1544
        1548
        1552
        1556
        1560
        1564
        1568
        1572
        1576
        1580
        1584
        1588
        1592
        1596
        1600
        1604
        1608
        1612
        1616
        1620
        1624
        1628
        1632
        1636
        1640
        1644
        1648
        1652
        1656
        1660
        1664
        1668
        1672
        1676
        1680
        1684
        1688
        1692
        1696
        1700
        1704
        1708
        1712
        1716
        1720
        1724
        1728
        1732
        1736
        1740
        1744
        1748
        1752
        1756
        1760
        1764
        1768
        1772
        1776
        1780
        1784
        1788
        1792
        1796
        1800
        1804
        1808
        1812
        1816
        1820
        1824
        1828
        1832
        1836
        1840
        1844
        1848
        1852
        1856
        1860
        1864
        1868
        1872
        1876
        1880
        1884
        1888
        1892
        1896
        1900
        1904
        1908
        1912
        1916
        1920
        1924
        1928
        1932
        1936
        1940
        1944
        1948
        1952
        1956
        1960
        1964
        1968
        1972
        1976
        1980
        1984
        1988
        1992
        1996
        2000
        2004
        2008
        2012
        2016
        2020
        2024
        2028
        2032
        2036
        2040
        2044
        2048
        2052
        2056
        2060
        2064
        2068
        2072
        2076
        2080
        2084
        2088
        2092
        2096
        2100
        2104
        2108
        2112
        2116
        2120
        2124
        2128
        2132
        2136
        2140
        2144
        2148
        2152
        2156
        2160
        2164
        2168
        2172
        2176
        2180
        2184
        2188
        2192
        2196
        2200
        2204
        2208
        2212
        2216
        2220
        2224
        2228
        2232
        2236
        2240
        2244
        2248
        2252
        2256
        2260
        2264
        2268
        2272
        2276
        2280
        2284
        2288
        2292
        2296
        2300
        2304
        2308
        2312
        2316
        2320
        2324
        2328
        2332
        2336
        2340
        2344
        2348
        2352
        2356
        2360
        2364
        2368
        2372
        2376
        2380
        2384
        2388
        2392
        2396
        2400
        2404
        2408
        2412
        2416
        2420
        2424
        2428
        2432
        2436
        2440
        2444
        2448
        2452
        2456
        2460
        2464
        2468
        2472
        2476
        2480
        2484
        2488
        2492
        2496
        2500
        2504
        2508
        2512
        2516
        2520
        2524
        2528
        2532
        2536
        2540
        2544
        2548
        2552
        2556
        2560
        2564
        2568
        2572
        2576
        2580
        2584
        2588
        2592
        2596
        2600
        2604
        2608
        2612
        2616
        2620
        2624
        2628
        2632
        2636
        2640
        2644
        2648
        2652
        2656
        2660
        2664
        2668
        2672
        2676
        2680
        2684
        2688
        2692
        2696
        2700
        2704
        2708
        2712
        2716
        2720
        2724
        2728
        2732
        2736
        2740
        2744
        2748
        2752
        2756
        2760
        2764
        2768
        2772
        2776
        2780
        2784
        2788
        2792
        2796
        2800
        2804
        2808
        2812
        2816
        2820
        2824
        2828
        2832
        2836
        2840
        2844
        2848
        2852
        2856
        2860
        2864
        2868
        2872
        2876
        2880
        2884
        2888
        2892
        2896
        2900
        2904
        2908
        2912
        2916
        2920
        2924
        2928
        2932
        2936
        2940
        2944
        2948
        2952
        2956
        2960
        2964
        2968
        2972
        2976
        2980
        2984
        2988
        2992
        2996
        3000
        3004
        3008
        3012
        3016
        3020
        3024
        3028
        3032
        3036
        3040
        3044
        3048
        3052
        3056
        3060
        3064
        3068
        3072
        3076
        3080
        3084
        3088
        3092
        3096
        3100
        3104
        3108
        3112
        3116
        3120
        3124
        3128
        3132
        3136
        3140
        3144
        3148
        3152
        3156
        3160
        3164
        3168
        3172
        3176
        3180
        3184
        3188
        3192
        3196
        3200
        3204
        3208
        3212
        3216
        3220
        3224
        3228
        3232
        3236
        3240
        3244
        3248
        3252
        3256
        3260
        3264
        3268
        3272
        3276
        3280
        3284
        3288
        3292
        3296
        3300
        3304
        3308
        3312
        3316
        3320
        3324
        3328
        3332
        3336
        3340
        3344
        3348
        3352
        3356
        3360
        3364
        3368
        3372
        3376
        3380
        3384
        3388
        3392
        3396
        3400
        3404
        3408
        3412
        3416
        3420
        3424
        3428
        3432
        3436
        3440
        3444
        3448
        3452
        3456
        3460
        3464
        3468
        3472
        3476
        3480
        3484
        3488
        3492
        3496
        3500
        3504
        3508
        3512
        3516
        3520
        3524
        3528
        3532
        3536
        3540
        3544
        3548
        3552
        3556
        3560
        3564
        3568
        3572
        3576
        3580
        3584
        3588
        3592
        3596
        3600
        3604
        3608
        3612
        3616
        3620
        3624
        3628
        3632
        3636
        3640
        3644
        3648
        3652
        3656
        3660
        3664
        3668
        3672
        3676
        3680
        3684
        3688
        3692
        3696
        3700
        3704
        3708
        3712
        3716
        3720
        3724
        3728
        3732
        3736
        3740
        3744
        3748
        3752
        3756
        3760
        3764
        3768
        3772
        3776
        3780
        3784
        3788
        3792
        3796
        3800
        3804
        3808
        3812
        3816
        3820
        3824
        3828
        3832
        3836
        3840
        3844
        3848
        3852
        3856
        3860
        3864
        3868
        3872
        3876
        3880
        3884
        3888
        3892
        3896
        3900
        3904
        3908
        3912
        3916
        3920
        3924
        3928
        3932
        3936
        3940
        3944
        3948
        3952
        3956
        3960
        3964
        3968
        3972
        3976
        3980
        3984
        3988
        3992
        3996
        4000
        4004
        4008
        4012
        4016
        4020
        4024
        4028
        4032
        4036
        4040
        4044
        4048
        4052
        4056
        4060
        4064
        4068
        4072
        4076
        4080
        4084
        4088
        4092
        4096
 </DataArray>
 <DataArray  type="UInt8"  Name="types"  format="ascii">
 9
 9
 9
 9
 9
 9
 9
 9
 9
 9
 9
 9
 9
 9
 9
 9
 9
 9
 9
 9
 9
 9
 9
 9
 9
 9
 9
 9
 9
 9
 9
 9
 9
 9
 9
 9
 9
 9
 9
 9
 9
 9
 9
 9
 9
 9
 9
 9
 9
 9
 9
 9
 9
 9
 9
 9
 9
 9
 9
 9
 9
 9
 9
 9
 9
 9
 9
 9
 9
 9
 9
 9
 9
 9
 9
 9
 9
 9
 9
 9
 9
 9
 9
 9
 9
 9
 9
 9
 9
 9
 9
 9
 9
 9
 9
 9
 9
 9
 9
 9
 9
 9
 9
 9
 9
 9
 9
 9
 9
 9
 9
 9
 9
 9
 9
 9
 9
 9
 9
 9
 9
 9
 9
 9
 9
 9
 9
 9
 9
 9
 9
 9
 9
 9
 9
 9
 9
 9
 9
 9
 9
 9
 9
 9
 9
 9
 9
 9
 9
 9
 9
 9
 9
 9
 9
 9
 9
 9
 9
 9
 9
 9
 9
 9
 9
 9
 9
 9
 9
 9
 9
 9
 9
 9
 9
 9
 9
 9
 9
 9
 9
 9
 9
 9
 9
 9
 9
 9
 9
 9
 9
 9
 9
 9
 9
 9
 9
 9
 9
 9
 9
 9
 9
 9
 9
 9
 9
 9
 9
 9
 9
 9
 9
 9
 9
 9
 9
 9
 9
 9
 9
 9
 9
 9
 9
 9
 9
 9
 9
 9
 9
 9
 9
 9
 9
 9
 9
 9
 9
 9
 9
 9
 9
 9
 9
 9
 9
 9
 9
 9
 9
 9
 9
 9
 9
 9
 9
 9
 9
 9
 9
 9
 9
 9
 9
 9
 9
 9
 9
 9
 9
 9
 9
 9
 9
 9
 9
 9
 9
 9
 9
 9
 9
 9
 9
 9
 9
 9
 9
 9
 9
 9
 9
 9
 9
 9
 9
 9
 9
 9
 9
 9
 9
 9
 9
 9
 9
 9
 9
 9
 9
 9
 9
 9
 9
 9
 9
 9
 9
 9
 9
 9
 9
 9
 9
 9
 9
 9
 9
 9
 9
 9
 9
 9
 9
 9
 9
 9
 9
 9
 9
 9
 9
 9
 9
 9
 9
 9
 9
 9
 9
 9
 9
 9
 9
 9
 9
 9
 9
 9
 9
 9
 9
 9
 9
 9
 9
 9
 9
 9
 9
 9
 9
 9
 9
 9
 9
 9
 9
 9
 9
 9
 9
 9
 9
 9
 9
 9
 9
 9
 9
 9
 9
 9
 9
 9
 9
 9
 9
 9
 9
 9
 9
 9
 9
 9
 9
 9
 9
 9
 9
 9
 9
 9
 9
 9
 9
 9
 9
 9
 9
 9
 9
 9
 9
 9
 9
 9
 9
 9
 9
 9
 9
 9
 9
 9
 9
 9
 9
 9
 9
 9
 9
 9
 9
 9
 9
 9
 9
 9
 9
 9
 9
 9
 9
 9
 9
 9
 9
 9
 9
 9
 9
 9
 9
 9
 9
 9
 9
 9
 9
 9
 9
 9
 9
 9
 9
 9
 9
 9
 9
 9
 9
 9
 9
 9
 9
 9
 9
 9
 9
 9
 9
 9
 9
 9
 9
 9
 9
 9
 9
 9
 9
 9
 9
 9
 9
 9
 9
 9
 9
 9
 9
 9
 9
 9
 9
 9
 9
 9
 9
 9
 9
 9
 9
 9
 9
 9
 9
 9
 9
 9
 9
 9
 9
 9
 9
 9
 9
 9
 9
 9
 9
 9
 9
 9
 9
 9
 9
 9
 9
 9
 9
 9
 9
 9
 9
 9
 9
 9
 9
 9
 9
 9
 9
 9
 9
 9
 9
 9
 9
 9
 9
 9
 9
 9
 9
 9
 9
 9
 9
 9
 9
 9
 9
 9
 9
 9
 9
 9
 9
 9
 9
 9
 9
 9
 9
 9
 9
 9
 9
 9
 9
 9
 9
 9
 9
 9
 9
 9
 9
 9
 9
 9
 9
 9
 9
 9
 9
 9
 9
 9
 9
 9
 9
 9
 9
 9
 9
 9
 9
 9
 9
 9
 9
 9
 9
 9
 9
 9
 9
 9
 9
 9
 9
 9
 9
 9
 9
 9
 9
 9
 9
 9
 9
 9
 9
 9
 9
 9
 9
 9
 9
 9
 9
 9
 9
 9
 9
 9
 9
 9
 9
 9
 9
 9
 9
 9
 9
 9
 9
 9
 9
 9
 9
 9
 9
 9
 9
 9
 9
 9
 9
 9
 9
 9
 9
 9
 9
 9
 9
 9
 9
 9
 9
 9
 9
 9
 9
 9
 9
 9
 9
 9
 9
 9
 9
 9
 9
 9
 9
 9
 9
 9
 9
 9
 9
 9
 9
 9
 9
 9
 9
 9
 9
 9
 9
 9
 9
 9
 9
 9
 9
 9
 9
 9
 9
 9
 9
 9
 9
 9
 9
 9
 9
 9
 9
 9
 9
 9
 9
 9
 9
 9
 9
 9
 9
 9
 9
 9
 9
 9
 9
 9
 9
 9
 9
 9
 9
 9
 9
 9
 9
 9
 9
 9
 9
 9
 9
 9
 9
 9
 9
 9
 9
 9
 9
 9
 9
 9
 9
 9
 9
 9
 9
 9
 9
 9
 9
 9
 9
 9
 9
 9
 9
 9
 9
 9
 9
 9
 9
 9
 9
 9
 9
 9
 9
 9
 9
 9
 9
 9
 9
 9
 9
 9
 9
 9
 9
 9
 9
 9
 9
 9
 9
 9
 9
 9
 9
 9
 9
 9
 9
 9
 9
 9
 9
 9
 9
 9
 9
 9
 9
 9
 9
 9
 9
 9
 9
 9
 9
 9
 9
 9
 9
 9
 9
 9
 9
 9
 9
 9
 9
 9
 9
 9
 9
 9
 9
 9
 9
 9
 9
 9
 9
 9
 9
 9
 9
 9
 9
 9
 9
 9
 9
 9
 9
 9
 9
 9
 9
 9
 9
 9
 9
 9
 9
 9
 9
 9
 9
 9
 9
 9
 9
 9
 9
 9
 9
 9
 9
 9
 9
 9
 9
 9
 9
 9
 9
 9
 9
 9
 9
 9
 9
 9
 9
 9
 9
 9
 9
 9
 9
 9
 9
 9
 9
 9
 9
 9
 9
 9
 9
 9
 9
 9
 9
 9
 9
 9
 9
 9
 9
 9
 9
 9
 9
 9
 9
 9
 9
 9
 9
 9
 9
 9
 9
 9
 9
 9
 9
 9
 9
 9
 9
 9
 9
 9
 9
 9
 9
 9
 9
 9
 9
 9
 9
 9
 9
 9
 9
 9
 9
 9
 9
 9
 9
 9
 9
 9
 9
 9
 9
 9
 </DataArray>
 </Cells> 
 <PointData>
 <DataArray  type="Float64" Name="disp" NumberOfComponents="3" format="ascii">
   6.5235947788926524E-002   6.2792780215262856E-002   0.0000000000000000     
   6.8367035704337248E-002   6.8173411892525251E-002   0.0000000000000000     
   7.1369665344981265E-002   7.3733941482993393E-002   0.0000000000000000     
   7.4243836710858616E-002   7.9474368986667279E-002   0.0000000000000000     
   7.6989549801969245E-002   8.5394694403546911E-002   0.0000000000000000     
   6.0104416280087440E-002   6.1887076233364195E-002   0.0000000000000000     
   6.2990480524622791E-002   6.7297220908291377E-002   0.0000000000000000     
   6.5776929006781629E-002   7.2886511360421180E-002   0.0000000000000000     
   6.8463761726563988E-002   7.8654947589753624E-002   0.0000000000000000     
   7.1050978683969840E-002   8.4602529596288722E-002   0.0000000000000000     
   5.5154324483861830E-002   6.1038355759138248E-002   0.0000000000000000     
   5.7820220892316344E-002   6.6476288269940231E-002   0.0000000000000000     
   6.0405038933958356E-002   7.2092659513686888E-002   0.0000000000000000     
   6.2908778608787894E-002   7.7887469490378211E-002   0.0000000000000000     
   6.5331439916804929E-002   8.3860718200014187E-002   0.0000000000000000     
   5.0385672400249694E-002   6.0246618792585013E-002   0.0000000000000000     
   5.2856256807417928E-002   6.5710613977471841E-002   0.0000000000000000     
   5.5253995126511468E-002   7.1352385942790503E-002   0.0000000000000000     
   5.7578887357530334E-002   7.7171934688540986E-002   0.0000000000000000     
   5.9830933500474512E-002   8.3169260214723345E-002   0.0000000000000000     
   4.5798460029251045E-002   5.9511865333704492E-002   0.0000000000000000     
   4.8098588269927550E-002   6.5000198030886192E-002   0.0000000000000000     
   5.0323797584440971E-002   7.0665690647732024E-002   0.0000000000000000     
   5.2474087972791315E-002   7.6508343184242017E-002   0.0000000000000000     
   5.4549459434978589E-002   8.2528155640416170E-002   0.0000000000000000     
   7.6989549801969245E-002   8.5394694403546911E-002   0.0000000000000000     
   7.9634226868757846E-002   9.1486903443247836E-002   0.0000000000000000     
   8.2205290161669095E-002   9.7742981815385654E-002   0.0000000000000000     
   8.4702739680702979E-002  0.10416292951996031        0.0000000000000000     
   8.7126575425859498E-002  0.11074674655697186        0.0000000000000000     
   7.1050978683969840E-002   8.4602529596288722E-002   0.0000000000000000     
   7.3550897020812800E-002   9.0721765825548972E-002   0.0000000000000000     
   7.5975833878906454E-002   9.7005164723056952E-002   0.0000000000000000     
   7.8325789258250803E-002  0.10345272628881266        0.0000000000000000     
   8.0600763158845873E-002  0.11006445052281606        0.0000000000000000     
   6.5331439916804929E-002   8.3860718200014187E-002   0.0000000000000000     
   6.7676783538948765E-002   9.0005444197368611E-002   0.0000000000000000     
   6.9948570156158699E-002   9.6314686037215241E-002   0.0000000000000000     
   7.2146799768434758E-002  0.10278844371955409        0.0000000000000000     
   7.4271472375776915E-002  0.10942671724438514        0.0000000000000000     
   5.9830933500474512E-002   8.3169260214723345E-002   0.0000000000000000     
   6.2011886423165762E-002   8.9337938558706781E-002   0.0000000000000000     
   6.4123498993425856E-002   9.5671545757860563E-002   0.0000000000000000     
   6.6165771211254817E-002  0.10217008181218466        0.0000000000000000     
   6.8138703076652610E-002  0.10883354672167909        0.0000000000000000     
   5.4549459434978589E-002   8.2528155640416170E-002   0.0000000000000000     
   5.6556205673463783E-002   8.8719248909563439E-002   0.0000000000000000     
   5.8500620390707914E-002   9.5075743884992833E-002   0.0000000000000000     
   6.0382703586710974E-002  0.10159764056670431        0.0000000000000000     
   6.2202455261472972E-002  0.10828493895469793        0.0000000000000000     
   8.7126575425859498E-002  0.11074674655697186        0.0000000000000000     
   8.9457025559019077E-002  0.11747529665350917        0.0000000000000000     
   9.1674318242062194E-002  0.12432944353666110        0.0000000000000000     
   9.3778453474988810E-002  0.13130918720642765        0.0000000000000000     
   9.5769431257798937E-002  0.13841452766280885        0.0000000000000000     
   8.0600763158845873E-002  0.11006445052281606        0.0000000000000000     
   8.2785218599381066E-002  0.11682108495117852        0.0000000000000000     
   8.4863618598545867E-002  0.12370337710001125        0.0000000000000000     
   8.6835963156340290E-002  0.13071132696931431        0.0000000000000000     
   8.8702252272764293E-002  0.13784493455908764        0.0000000000000000     
   7.4271472375776915E-002  0.10942671724438514        0.0000000000000000     
   7.6309783303697781E-002  0.11621004222215070        0.0000000000000000     
   7.8248927877710012E-002  0.12311895426329310        0.0000000000000000     
   8.0088906097813564E-002  0.13015345336781228        0.0000000000000000     
   8.1829717964008467E-002  0.13731353953570827        0.0000000000000000     
   6.8138703076652610E-002  0.10883354672167909        0.0000000000000000     
   7.0030719671969222E-002  0.11564216846642579        0.0000000000000000     
   7.1830246079554558E-002  0.12257617502650657        0.0000000000000000     
   7.3537282299408632E-002  0.12963556640192153        0.0000000000000000     
   7.5151828331531473E-002  0.13682034259267062        0.0000000000000000     
   6.2202455261472972E-002  0.10828493895469793        0.0000000000000000     
   6.3948027704195332E-002  0.11511746368400370        0.0000000000000000     
   6.5607573204079506E-002  0.12207503938965178        0.0000000000000000     
   6.7181091761125508E-002  0.12915766607164209        0.0000000000000000     
   6.8668583375333297E-002  0.13636534372997472        0.0000000000000000     
   9.5769431257798937E-002  0.13841452766280885        0.0000000000000000     
   9.7661022579233439E-002  0.14563969425994180        0.0000000000000000     
   9.9466998428033207E-002  0.15297891635196373        0.0000000000000000     
  0.10118735880419820       0.16043219393887465        0.0000000000000000     
  0.10282210370772843       0.16799952702067444        0.0000000000000000     
   8.8702252272764293E-002  0.13784493455908764        0.0000000000000000     
   9.0475541973448467E-002  0.14509792822075260        0.0000000000000000     
   9.2168888284023365E-002  0.15246403630573030        0.0000000000000000     
   9.3782291204488999E-002  0.15994325881402086        0.0000000000000000     
   9.5315750734845384E-002  0.16753559574562418        0.0000000000000000     
   8.1829717964008467E-002  0.13731353953570827        0.0000000000000000     
   8.3483513901329409E-002  0.14459274261309832        0.0000000000000000     
   8.5062444334811096E-002  0.15198459244609966        0.0000000000000000     
   8.6566509264453473E-002  0.15948908903471226        0.0000000000000000     
   8.7995708690256580E-002  0.16710623237893618        0.0000000000000000     
   7.5151828331531473E-002  0.13682034259267062        0.0000000000000000     
   7.6684938362876293E-002  0.14412413743697899        0.0000000000000000     
   7.8147666580396333E-002  0.15154058477307172        0.0000000000000000     
   7.9540012984091565E-002  0.15906968460094892        0.0000000000000000     
   8.0861977573962046E-002  0.16671143692061052        0.0000000000000000     
   6.8668583375333297E-002  0.13636534372997472        0.0000000000000000     
   7.0079815358089104E-002  0.14369211269239454        0.0000000000000000     
   7.1424555020779129E-002  0.15113201328664655        0.0000000000000000     
   7.2702802363403360E-002  0.15868504551273074        0.0000000000000000     
   7.3914557385961782E-002  0.16635120937064710        0.0000000000000000     
  0.10282210370772843       0.16799952702067444        0.0000000000000000     
  0.10437070722419892       0.17566800362970447        0.0000000000000000     
  0.10583264343918466       0.18342471179830588        0.0000000000000000     
  0.10720791235268570       0.19126965152647873        0.0000000000000000     
  0.10849651396470200       0.19920282281422294        0.0000000000000000     
   9.5315750734845384E-002  0.16753559574562418        0.0000000000000000     
   9.6766660939936328E-002  0.17522904520647989        0.0000000000000000     
   9.8132415884605750E-002  0.18301160530252755        0.0000000000000000     
   9.9413015568853597E-002  0.19088327603376709        0.0000000000000000     
  0.10060845999267991       0.19884405740019861        0.0000000000000000     
   8.7995708690256580E-002  0.16710623237893618        0.0000000000000000     
   8.9346065456472015E-002  0.17482445131923349        0.0000000000000000     
   9.0613602407351349E-002  0.18263217469606624        0.0000000000000000     
   9.1798319542894594E-002  0.19052940250943443        0.0000000000000000     
   9.2900216863101723E-002  0.19851613475933808        0.0000000000000000     
   8.0861977573962046E-002  0.16671143692061052        0.0000000000000000     
   8.2108920773805938E-002  0.17445422196796528        0.0000000000000000     
   8.3276203007421487E-002  0.18228641997892203        0.0000000000000000     
   8.4363824274808652E-002  0.19020803095348066        0.0000000000000000     
   8.5371784575967447E-002  0.19821905489164124        0.0000000000000000     
   7.3914557385961782E-002  0.16635120937064710        0.0000000000000000     
   7.5055226891938137E-002  0.17411835715267523        0.0000000000000000     
   7.6120217684816152E-002  0.18197434115109482        0.0000000000000000     
   7.7109529764595799E-002  0.18991916136590575        0.0000000000000000     
   7.8023163131277065E-002  0.19795281779710813        0.0000000000000000     
  0.10849651396470200       0.19920282281422294        0.0000000000000000     
  0.10970419556801930       0.20722122945203270        0.0000000000000000     
  0.11083670445542336       0.21532187523040208        0.0000000000000000     
  0.11189404062691412       0.22350476014933113        0.0000000000000000     
  0.11287620408249166       0.23176988420881983        0.0000000000000000     
  0.10060845999267991       0.19884405740019861        0.0000000000000000     
  0.10172488009332405       0.20688834392657121        0.0000000000000000     
  0.10276840680802532       0.21501053013763394        0.0000000000000000     
  0.10373904013678377       0.22321061603338690        0.0000000000000000     
  0.10463678007959940       0.23148860161382998        0.0000000000000000     
   9.2900216863101723E-002  0.19851613475933808        0.0000000000000000     
   9.3924818898707976E-002  0.20658528523813741        0.0000000000000000     
   9.4877650180448539E-002  0.21472976773819277        0.0000000000000000     
   9.5758710708323369E-002  0.22294958225950409        0.0000000000000000     
   9.6568000482332536E-002  0.23124472880207145        0.0000000000000000     
   8.5371784575967447E-002  0.19821905489164124        0.0000000000000000     
   8.6304011984171133E-002  0.20631205338673134        0.0000000000000000     
   8.7164434572692961E-002  0.21447958803207856        0.0000000000000000     
   8.7953052341532931E-002  0.22272165882768288        0.0000000000000000     
   8.8669865290691041E-002  0.23103826577354428        0.0000000000000000     
   7.8023163131277065E-002  0.19795281779710813        0.0000000000000000     
   7.8862459349713504E-002  0.20606864837235295        0.0000000000000000     
   7.9628759984758615E-002  0.21425999101929130        0.0000000000000000     
   8.0322065036412427E-002  0.22252684573792311        0.0000000000000000     
   8.0942374504674924E-002  0.23086921252824846        0.0000000000000000     
  0.11287620408249166       0.23176988420881983        0.0000000000000000     
  0.11381121099137494       0.24013346809641206        0.0000000000000000     
  0.11472707752278297       0.24861173249965171        0.0000000000000000     
  0.11562380367671578       0.25720467741853864        0.0000000000000000     
  0.11650138945317334       0.26591230285307310        0.0000000000000000     
  0.10463678007959940       0.23148860161382998        0.0000000000000000     
  0.10546645578140912       0.23986773134992920        0.0000000000000000     
  0.10623289638714976       0.24837124971265054        0.0000000000000000     
  0.10693610189682143       0.25699915670199402        0.0000000000000000     
  0.10757607231042407       0.26575145231795955        0.0000000000000000     
   9.6568000482332536E-002  0.23124472880207145        0.0000000000000000     
   9.7296156712527254E-002  0.23964150568486911        0.0000000000000000     
   9.7933816608958849E-002  0.24816621122687141        0.0000000000000000     
   9.8480980171627222E-002  0.25681884542807831        0.0000000000000000     
   9.8937647400532486E-002  0.26559940828848999        0.0000000000000000     
   8.8669865290691041E-002  0.23103826577354428        0.0000000000000000     
   8.9300313784729385E-002  0.23945479110123180        0.0000000000000000     
   8.9829838188210095E-002  0.24799661704231427        0.0000000000000000     
   9.0258438501133173E-002  0.25666374359679173        0.0000000000000000     
   9.0586114723498604E-002  0.26545617076466427        0.0000000000000000     
   8.0942374504674924E-002  0.23086921252824846        0.0000000000000000     
   8.1478926998015511E-002  0.23930758759901716        0.0000000000000000     
   8.1920961124903616E-002  0.24786246715897906        0.0000000000000000     
   8.2268476885339267E-002  0.25653385120813416        0.0000000000000000     
   8.2521474279322410E-002  0.26532173974648249        0.0000000000000000     
  0.11650138945317334       0.26591230285307310        0.0000000000000000     
  0.11730026704238243       0.27489934293749096        0.0000000000000000     
  0.11796086863456984       0.28433053180602830        0.0000000000000000     
  0.11848319422973551       0.29420586945868521        0.0000000000000000     
  0.11886724382787948       0.30452535589546159        0.0000000000000000     
  0.10757607231042407       0.26575145231795955        0.0000000000000000     
  0.10813389674187932       0.27476035109960184        0.0000000000000000     
  0.10859066430510886       0.28415806758597539        0.0000000000000000     
  0.10894637500011270       0.29394460177708026        0.0000000000000000     
  0.10920102882689081       0.30411995367291644        0.0000000000000000     
   9.8937647400532486E-002  0.26559940828848999        0.0000000000000000     
   9.9314889488754235E-002  0.27460622062158080        0.0000000000000000     
   9.9623777629372148E-002  0.28393760324082545        0.0000000000000000     
   9.9864311822386240E-002  0.29359355614622384        0.0000000000000000     
  0.10003649206779647       0.30357407933777614        0.0000000000000000     
   9.0586114723498604E-002  0.26545617076466427        0.0000000000000000     
   9.0843245283007149E-002  0.27443695150342773        0.0000000000000000     
   9.1060208607359638E-002  0.28366913877057831        0.0000000000000000     
   9.1237004696556073E-002  0.29315273256611585        0.0000000000000000     
   9.1373633550596411E-002  0.30288773289004051        0.0000000000000000     
   8.2521474279322410E-002  0.26532173974648249        0.0000000000000000     
   8.2718964124638139E-002  0.27425254374514291        0.0000000000000000     
   8.2899957239071398E-002  0.28335267417523419        0.0000000000000000     
   8.3064453622622228E-002  0.29262213103675649        0.0000000000000000     
   8.3212453275290643E-002  0.30206091432970961        0.0000000000000000     
   4.5798460029251045E-002   5.9511865333704492E-002   0.0000000000000000     
   4.8098588269927550E-002   6.5000198030886192E-002   0.0000000000000000     
   5.0323797584440971E-002   7.0665690647732024E-002   0.0000000000000000     
   5.2474087972791315E-002   7.6508343184242017E-002   0.0000000000000000     
   5.4549459434978589E-002   8.2528155640416170E-002   0.0000000000000000     
   4.1373396973631529E-002   5.8835722051431075E-002   0.0000000000000000     
   4.3508114637359638E-002   6.4346069972797584E-002   0.0000000000000000     
   4.5563791657505230E-002   7.0033156842870758E-002   0.0000000000000000     
   4.7540428034068279E-002   7.5896982661650625E-002   0.0000000000000000     
   4.9438023767048811E-002   8.1937547429137170E-002   0.0000000000000000     
   3.7091192836156812E-002   5.8219815614699161E-002   0.0000000000000000     
   3.9045735267228668E-002   6.3749259345820319E-002   0.0000000000000000     
   4.0923322695462623E-002   6.9455367742565985E-002   0.0000000000000000     
   4.2723955120858664E-002   7.5338140804936171E-002   0.0000000000000000     
   4.4447632543416819E-002   8.1397578532930864E-002   0.0000000000000000     
   3.2951847616826908E-002   5.7664146023508757E-002   0.0000000000000000     
   3.4711450159534640E-002   6.3209766149954438E-002   0.0000000000000000     
   3.6402390698313178E-002   6.8932323346817731E-002   0.0000000000000000     
   3.8024669233162500E-002   7.4831817614098656E-002   0.0000000000000000     
   3.9578285764082614E-002   8.0908248951797226E-002   0.0000000000000000     
   2.8955361315641800E-002   5.7168713277859849E-002   0.0000000000000000     
   3.0505259314277552E-002   6.2727590385199899E-002   0.0000000000000000     
   3.2000995666056867E-002   6.8464023655625969E-002   0.0000000000000000     
   3.3442570370979752E-002   7.4378013089138093E-002   0.0000000000000000     
   3.4829983429046203E-002   8.0469558685736270E-002   0.0000000000000000     
   5.4549459434978589E-002   8.2528155640416170E-002   0.0000000000000000     
   5.6556205673463783E-002   8.8719248909563439E-002   0.0000000000000000     
   5.8500620390707914E-002   9.5075743884992833E-002   0.0000000000000000     
   6.0382703586710974E-002  0.10159764056670431        0.0000000000000000     
   6.2202455261472972E-002  0.10828493895469793        0.0000000000000000     
   4.9438023767048811E-002   8.1937547429137170E-002   0.0000000000000000     
   5.1268729934873941E-002   8.8149454874992469E-002   0.0000000000000000     
   5.3044697615970825E-002   9.4527308728878587E-002   0.0000000000000000     
   5.4765926810339462E-002  0.10107110899079555        0.0000000000000000     
   5.6432417517979838E-002  0.10778085566074329        0.0000000000000000     
   4.4447632543416819E-002   8.1397578532930864E-002   0.0000000000000000     
   4.6108447852427341E-002   8.7628636080047687E-002   0.0000000000000000     
   4.7720493937180558E-002   9.4026268599784288E-002   0.0000000000000000     
   4.9283770797676464E-002  0.10059047609214070        0.0000000000000000     
   5.0798278433915059E-002  0.10732125855711687        0.0000000000000000     
   3.9578285764082614E-002   8.0908248951797226E-002   0.0000000000000000     
   4.1075359426124003E-002   8.7156792524729104E-002   0.0000000000000000     
   4.2528009354337128E-002   9.3572623497709936E-002   0.0000000000000000     
   4.3936235548722009E-002  0.10015574187073981        0.0000000000000000     
   4.5300038009278620E-002  0.10690614764381863        0.0000000000000000     
   3.4829983429046203E-002   8.0469558685736270E-002   0.0000000000000000     
   3.6169464655963900E-002   8.6733924209036695E-002   0.0000000000000000     
   3.7467243867440526E-002   9.3166373422655574E-002   0.0000000000000000     
   3.8723321063476070E-002   9.9766906326592866E-002   0.0000000000000000     
   3.9937696244070536E-002  0.10653552292084861        0.0000000000000000     
   6.2202455261472972E-002  0.10828493895469793        0.0000000000000000     
   6.3948027704195332E-002  0.11511746368400370        0.0000000000000000     
   6.5607573204079506E-002  0.12207503938965178        0.0000000000000000     
   6.7181091761125508E-002  0.12915766607164209        0.0000000000000000     
   6.8668583375333297E-002  0.13636534372997472        0.0000000000000000     
   5.6432417517979838E-002  0.10778085566074329        0.0000000000000000     
   5.8031721568659315E-002  0.11463589978816692        0.0000000000000000     
   5.9551390792145234E-002  0.12161559242251155        0.0000000000000000     
   6.0991425188437594E-002  0.12871993356377712        0.0000000000000000     
   6.2351824757536395E-002  0.13594892321196364        0.0000000000000000     
   5.0798278433915059E-002  0.10732125855711687        0.0000000000000000     
   5.2251815433644266E-002  0.11419744869219789        0.0000000000000000     
   5.3632180384612017E-002  0.12119787919486884        0.0000000000000000     
   5.4939373286818333E-002  0.12832255006512971        0.0000000000000000     
   5.6173394140263191E-002  0.13557146130298048        0.0000000000000000     
   4.5300038009278620E-002  0.10690614764381863        0.0000000000000000     
   4.6608309299150184E-002  0.11380211039609654        0.0000000000000000     
   4.7849941981479877E-002  0.12082189970672362        0.0000000000000000     
   4.9024936056267718E-002  0.12796551557569985        0.0000000000000000     
   5.0133291523513694E-002  0.13523295800302523        0.0000000000000000     
   3.9937696244070536E-002  0.10653552292084861        0.0000000000000000     
   4.1101203165177069E-002  0.11344988489986294        0.0000000000000000     
   4.2204675582748805E-002  0.12048765395807591        0.0000000000000000     
   4.3248113496785756E-002  0.12764883009548755        0.0000000000000000     
   4.4231516907287910E-002  0.13493341331209788        0.0000000000000000     
   6.8668583375333297E-002  0.13636534372997472        0.0000000000000000     
   7.0079815358089104E-002  0.14369211269239454        0.0000000000000000     
   7.1424555020779129E-002  0.15113201328664655        0.0000000000000000     
   7.2702802363403360E-002  0.15868504551273074        0.0000000000000000     
   7.3914557385961782E-002  0.16635120937064710        0.0000000000000000     
   6.2351824757536395E-002  0.13594892321196364        0.0000000000000000     
   6.3641068797904127E-002  0.14329715754146616        0.0000000000000000     
   6.4867636608003279E-002  0.15075923272667963        0.0000000000000000     
   6.6031528187833838E-002  0.15833514876760404        0.0000000000000000     
   6.7132743537395817E-002  0.16602490566423947        0.0000000000000000     
   5.6173394140263191E-002  0.13557146130298048        0.0000000000000000     
   5.7341622593257618E-002  0.14293976114631485        0.0000000000000000     
   5.8451438294112576E-002  0.15042259783302639        0.0000000000000000     
   5.9502841242828119E-002  0.15801997136311513        0.0000000000000000     
   6.0495831439404214E-002  0.16573188173658107        0.0000000000000000     
   5.0133291523513694E-002  0.13523295800302523        0.0000000000000000     
   5.1181476744149558E-002  0.14261992350694064        0.0000000000000000     
   5.2175960079107062E-002  0.15012210860568689        0.0000000000000000     
   5.3116741528386177E-002  0.15773951329926397        0.0000000000000000     
   5.4003821091986939E-002  0.16547213758767193        0.0000000000000000     
   4.4231516907287910E-002  0.13493341331209788        0.0000000000000000     
   4.5160631250579980E-002  0.14233764462334350        0.0000000000000000     
   4.6041201962986687E-002  0.14985776504466106        0.0000000000000000     
   4.6873229044508032E-002  0.15749377457605057        0.0000000000000000     
   4.7656712495144013E-002  0.16524567321751202        0.0000000000000000     
   7.3914557385961782E-002  0.16635120937064710        0.0000000000000000     
   7.5055226891938137E-002  0.17411835715267523        0.0000000000000000     
   7.6120217684816152E-002  0.18197434115109482        0.0000000000000000     
   7.7109529764595799E-002  0.18991916136590575        0.0000000000000000     
   7.8023163131277065E-002  0.19795281779710813        0.0000000000000000     
   6.7132743537395817E-002  0.16602490566423947        0.0000000000000000     
   6.8167021187747839E-002  0.17381565121272841        0.0000000000000000     
   6.9130099669948472E-002  0.18169453320921336        0.0000000000000000     
   7.0021978983997715E-002  0.18966155165369442        0.0000000000000000     
   7.0842659129895569E-002  0.19771670654617152        0.0000000000000000     
   6.0495831439404214E-002  0.16573188173658107        0.0000000000000000     
   6.1426341038114222E-002  0.17354489848748966        0.0000000000000000     
   6.2290302193231513E-002  0.18144559114990638        0.0000000000000000     
   6.3087714904756093E-002  0.18943395972383115        0.0000000000000000     
   6.3818579172687948E-002  0.19751000420926415        0.0000000000000000     
   5.4003821091986939E-002  0.16547213758767193        0.0000000000000000     
   5.4833186443037314E-002  0.17330609897695909        0.0000000000000000     
   5.5600825254665309E-002  0.18122751497317380        0.0000000000000000     
   5.6306737526870945E-002  0.18923638557631611        0.0000000000000000     
   5.6950923259654188E-002  0.19733271078638595        0.0000000000000000     
   4.7656712495144013E-002  0.16524567321751202        0.0000000000000000     
   4.8387557402517128E-002  0.17309925268113663        0.0000000000000000     
   4.9061668854249868E-002  0.18104030467901566        0.0000000000000000     
   4.9679046850342266E-002  0.18906882921114912        0.0000000000000000     
   5.0239691390794296E-002  0.19718482627753697        0.0000000000000000     
   7.8023163131277065E-002  0.19795281779710813        0.0000000000000000     
   7.8862459349713504E-002  0.20606864837235295        0.0000000000000000     
   7.9628759984758615E-002  0.21425999101929130        0.0000000000000000     
   8.0322065036412427E-002  0.22252684573792311        0.0000000000000000     
   8.0942374504674924E-002  0.23086921252824846        0.0000000000000000     
   7.0842659129895569E-002  0.19771670654617152        0.0000000000000000     
   7.1590970673166554E-002  0.20585427197513415        0.0000000000000000     
   7.2265744179335095E-002  0.21406852202907165        0.0000000000000000     
   7.2866979648401234E-002  0.22235945670798407        0.0000000000000000     
   7.3394677080364942E-002  0.23072707601187140        0.0000000000000000     
   6.3818579172687948E-002  0.19751000420926415        0.0000000000000000     
   6.4480355632361708E-002  0.20566812597520664        0.0000000000000000     
   6.5070504919111927E-002  0.21390272639066024        0.0000000000000000     
   6.5589027032938674E-002  0.22221380545562486        0.0000000000000000     
   6.6035921973841893E-002  0.23060136317010055        0.0000000000000000     
   5.6950923259654188E-002  0.19733271078638595        0.0000000000000000     
   5.7530614227298958E-002  0.20551021037257058        0.0000000000000000     
   5.8043042204089144E-002  0.21376260410405709        0.0000000000000000     
   5.8488207190024739E-002  0.22208989198084550        0.0000000000000000     
   5.8866109185105750E-002  0.23049207400293589        0.0000000000000000     
   5.0239691390794296E-002  0.19718482627753697        0.0000000000000000     
   5.0741746457978326E-002  0.20538052516722582        0.0000000000000000     
   5.1183356034266714E-002  0.21364815516926219        0.0000000000000000     
   5.1564520119659452E-002  0.22198771628364602        0.0000000000000000     
   5.1885238714156526E-002  0.23039920851037743        0.0000000000000000     
   8.0942374504674924E-002  0.23086921252824846        0.0000000000000000     
   8.1478926998015511E-002  0.23930758759901716        0.0000000000000000     
   8.1920961124903616E-002  0.24786246715897906        0.0000000000000000     
   8.2268476885339267E-002  0.25653385120813416        0.0000000000000000     
   8.2521474279322410E-002  0.26532173974648249        0.0000000000000000     
   7.3394677080364942E-002  0.23072707601187140        0.0000000000000000     
   7.3845468237919931E-002  0.23918490745901855        0.0000000000000000     
   7.4215984883759883E-002  0.24774647856771040        0.0000000000000000     
   7.4506227017884785E-002  0.25641178933794706        0.0000000000000000     
   7.4716194640294678E-002  0.26518083976972834        0.0000000000000000     
   6.6035921973841893E-002  0.23060136317010055        0.0000000000000000     
   6.6413409389977016E-002  0.23907176296202926        0.0000000000000000     
   6.6723708929499415E-002  0.24763136825935300        0.0000000000000000     
   6.6966820592409104E-002  0.25628017906207173        0.0000000000000000     
   6.7142744378706098E-002  0.26501819537018562        0.0000000000000000     
   5.8866109185105750E-002  0.23049207400293589        0.0000000000000000     
   5.9182750454186729E-002  0.23896815410804928        0.0000000000000000     
   5.9444133262122209E-002  0.24751713623390678        0.0000000000000000     
   5.9650257608912197E-002  0.25613902038050845        0.0000000000000000     
   5.9801123494556699E-002  0.26483380654785421        0.0000000000000000     
   5.1885238714156526E-002  0.23039920851037743        0.0000000000000000     
   5.2153491430549093E-002  0.23887408089707859        0.0000000000000000     
   5.2377257881628267E-002  0.24740378249137174        0.0000000000000000     
   5.2556538067394062E-002  0.25598831329325689        0.0000000000000000     
   5.2691331987846465E-002  0.26462767330273407        0.0000000000000000     
   8.2521474279322410E-002  0.26532173974648249        0.0000000000000000     
   8.2718964124638139E-002  0.27425254374514291        0.0000000000000000     
   8.2899957239071398E-002  0.28335267417523419        0.0000000000000000     
   8.3064453622622228E-002  0.29262213103675649        0.0000000000000000     
   8.3212453275290643E-002  0.30206091432970961        0.0000000000000000     
   7.4716194640294678E-002  0.26518083976972834        0.0000000000000000     
   7.4886860994898455E-002  0.27404731989415709        0.0000000000000000     
   7.5059199325605050E-002  0.28300491974233599        0.0000000000000000     
   7.5233209632414463E-002  0.29205363931426503        0.0000000000000000     
   7.5408891915326737E-002  0.30119347860994428        0.0000000000000000     
   6.7142744378706098E-002  0.26501819537018562        0.0000000000000000     
   6.7291750875039441E-002  0.27381560249790154        0.0000000000000000     
   6.7454110668058245E-002  0.28264258575942675        0.0000000000000000     
   6.7629823757762483E-002  0.29149914515476122        0.0000000000000000     
   6.7818890144152183E-002  0.30038528068390502        0.0000000000000000     
   5.9801123494556699E-002  0.26483380654785421        0.0000000000000000     
   5.9933633765061153E-002  0.27355739155637609        0.0000000000000000     
   6.0084691266431033E-002  0.28226567222650639        0.0000000000000000     
   6.0254295998666323E-002  0.29095864855824505        0.0000000000000000     
   6.0442447961767024E-002  0.29963632055159195        0.0000000000000000     
   5.2691331987846465E-002  0.26462767330273407        0.0000000000000000     
   5.2812509664963543E-002  0.27327268706958091        0.0000000000000000     
   5.2950941120723370E-002  0.28187417914357504        0.0000000000000000     
   5.3106626355125919E-002  0.29043214952471641        0.0000000000000000     
   5.3279565368171231E-002  0.29894659821300495        0.0000000000000000     
   2.8955361315641800E-002   5.7168713277859849E-002   0.0000000000000000     
   3.0505259314277552E-002   6.2727590385199899E-002   0.0000000000000000     
   3.2000995666056867E-002   6.8464023655625969E-002   0.0000000000000000     
   3.3442570370979752E-002   7.4378013089138093E-002   0.0000000000000000     
   3.4829983429046203E-002   8.0469558685736270E-002   0.0000000000000000     
   2.5078375861959261E-002   5.6732794671696937E-002   0.0000000000000000     
   2.6416807143200251E-002   6.2302743051308493E-002   0.0000000000000000     
   2.7716042610294801E-002   6.8050968731177261E-002   0.0000000000000000     
   2.8976082263242910E-002   7.3977471711303228E-002   0.0000000000000000     
   3.0196926102044573E-002   8.0082251991686421E-002   0.0000000000000000     
   2.1297533185137059E-002   5.6355667498964486E-002   0.0000000000000000     
   2.2435738058045614E-002   6.1935235148032043E-002   0.0000000000000000     
   2.3544436542628076E-002   6.7693658635658155E-002   0.0000000000000000     
   2.4623628638884450E-002   7.3630937961842835E-002   0.0000000000000000     
   2.5673314346814729E-002   7.9747073126586077E-002   0.0000000000000000     
   1.7612833285175180E-002   5.6037331759662530E-002   0.0000000000000000     
   1.8562052058813627E-002   6.1625066675370530E-002   0.0000000000000000     
   1.9486177463056687E-002   6.7392093369068651E-002   0.0000000000000000     
   2.0385209497904368E-002   7.3338411840756887E-002   0.0000000000000000     
   2.1259148163356660E-002   7.9464022090435224E-002   0.0000000000000000     
   1.4024276162073638E-002   5.5777787453791035E-002   0.0000000000000000     
   1.4795749145504297E-002   6.1372237633323959E-002   0.0000000000000000     
   1.5541265371580640E-002   6.7146272931408749E-002   0.0000000000000000     
   1.6260824840302664E-002   7.3099893348045383E-002   0.0000000000000000     
   1.6954427551670374E-002   7.9233098883233877E-002   0.0000000000000000     
   3.4829983429046203E-002   8.0469558685736270E-002   0.0000000000000000     
   3.6169464655963900E-002   8.6733924209036695E-002   0.0000000000000000     
   3.7467243867440526E-002   9.3166373422655574E-002   0.0000000000000000     
   3.8723321063476070E-002   9.9766906326592866E-002   0.0000000000000000     
   3.9937696244070536E-002  0.10653552292084861        0.0000000000000000     
   3.0196926102044573E-002   8.0082251991686421E-002   0.0000000000000000     
   3.1378677779288842E-002   8.6360620494171036E-002   0.0000000000000000     
   3.2521440947564761E-002   9.2807888140601355E-002   0.0000000000000000     
   3.3625215606872323E-002   9.9424054930977335E-002   0.0000000000000000     
   3.4690001757211535E-002  0.10620912086529900        0.0000000000000000     
   2.5673314346814729E-002   7.9747073126586077E-002   0.0000000000000000     
   2.6690913033440632E-002   8.6037470741332722E-002   0.0000000000000000     
   2.7673844065783878E-002   9.2497537417527573E-002   0.0000000000000000     
   2.8622107443844462E-002   9.9127273155170670E-002   0.0000000000000000     
   2.9535703167622385E-002  0.10592667795426199        0.0000000000000000     
   2.1259148163356660E-002   7.9464022090435224E-002   0.0000000000000000     
   2.2106170418419269E-002   8.5764474950521669E-002   0.0000000000000000     
   2.2924453222097865E-002   9.2235321253434213E-002   0.0000000000000000     
   2.3713996574392476E-002   9.8876560999172816E-002   0.0000000000000000     
   2.4474800475303083E-002  0.10568819418773755        0.0000000000000000     
   1.6954427551670374E-002   7.9233098883233877E-002   0.0000000000000000     
   1.7624449934224740E-002   8.5541633121737917E-002   0.0000000000000000     
   1.8273268416506738E-002   9.2021239648321249E-002   0.0000000000000000     
   1.8900882998516364E-002   9.8671918462983843E-002   0.0000000000000000     
   1.9507293680253623E-002  0.10549366956572569        0.0000000000000000     
   3.9937696244070536E-002  0.10653552292084861        0.0000000000000000     
   4.1101203165177069E-002  0.11344988489986294        0.0000000000000000     
   4.2204675582748805E-002  0.12048765395807591        0.0000000000000000     
   4.3248113496785756E-002  0.12764883009548755        0.0000000000000000     
   4.4231516907287910E-002  0.13493341331209788        0.0000000000000000     
   3.4690001757211535E-002  0.10620912086529900        0.0000000000000000     
   3.5708665519707063E-002  0.11314014816078456        0.0000000000000000     
   3.6674073015483567E-002  0.12019419903465221        0.0000000000000000     
   3.7586224244541049E-002  0.12737127348690194        0.0000000000000000     
   3.8445119206879520E-002  0.13467137151753372        0.0000000000000000     
   2.9535703167622385E-002  0.10592667795426199        0.0000000000000000     
   3.0408864850722323E-002  0.11287227613614895        0.0000000000000000     
   3.1235826106748934E-002  0.11994059202217894        0.0000000000000000     
   3.2016586935702238E-002  0.12713162561235203        0.0000000000000000     
   3.2751147337582207E-002  0.13444537690666811        0.0000000000000000     
   2.4474800475303083E-002  0.10568819418773755        0.0000000000000000     
   2.5201801158222844E-002  0.11264626882595609        0.0000000000000000     
   2.5889934856544911E-002  0.11972683292065618        0.0000000000000000     
   2.6539201570269295E-002  0.12692988647183781        0.0000000000000000     
   2.7149601299395986E-002  0.13425542947950103        0.0000000000000000     
   1.9507293680253623E-002  0.10549366956572569        0.0000000000000000     
   2.0087474442208628E-002  0.11246212623020597        0.0000000000000000     
   2.0636399264871499E-002  0.11955292173008386        0.0000000000000000     
   2.1154068148242246E-002  0.12676605606535934        0.0000000000000000     
   2.1640481092320848E-002  0.13410152923603244        0.0000000000000000     
   4.4231516907287910E-002  0.13493341331209788        0.0000000000000000     
   4.5160631250579980E-002  0.14233764462334350        0.0000000000000000     
   4.6041201962986687E-002  0.14985776504466106        0.0000000000000000     
   4.6873229044508032E-002  0.15749377457605057        0.0000000000000000     
   4.7656712495144013E-002  0.16524567321751202        0.0000000000000000     
   3.8445119206879520E-002  0.13467137151753372        0.0000000000000000     
   3.9255854941132595E-002  0.14209124106055204        0.0000000000000000     
   4.0023528485933935E-002  0.14962763004996124        0.0000000000000000     
   4.0748139841283532E-002  0.15728053848576137        0.0000000000000000     
   4.1429689007181372E-002  0.16504996636795238        0.0000000000000000     
   3.2751147337582207E-002  0.13444537690666811        0.0000000000000000     
   3.3443916644391114E-002  0.14187902938359484        0.0000000000000000     
   3.4099304188131216E-002  0.14942976652159976        0.0000000000000000     
   3.4717309968802498E-002  0.15709758832068288        0.0000000000000000     
   3.5297933986404975E-002  0.16488249478084419        0.0000000000000000     
   2.7149601299395986E-002  0.13425542947950103        0.0000000000000000     
   2.7724816360355543E-002  0.14170100959247189        0.0000000000000000     
   2.8268529069578538E-002  0.14926417445957654        0.0000000000000000     
   2.8780739427064966E-002  0.15694492408081503        0.0000000000000000     
   2.9261447432814822E-002  0.16474325845618731        0.0000000000000000     
   2.1640481092320848E-002  0.13410152923603244        0.0000000000000000     
   2.2098554089025883E-002  0.14155718168718320        0.0000000000000000     
   2.2531203130275904E-002  0.14913085386389169        0.0000000000000000     
   2.2938428216070911E-002  0.15682254576615787        0.0000000000000000     
   2.3320229346410912E-002  0.16463225739398185        0.0000000000000000     
   4.7656712495144013E-002  0.16524567321751202        0.0000000000000000     
   4.8387557402517128E-002  0.17309925268113663        0.0000000000000000     
   4.9061668854249868E-002  0.18104030467901566        0.0000000000000000     
   4.9679046850342266E-002  0.18906882921114912        0.0000000000000000     
   5.0239691390794296E-002  0.19718482627753697        0.0000000000000000     
   4.1429689007181372E-002  0.16504996636795238        0.0000000000000000     
   4.2064057200838813E-002  0.17292141548372933        0.0000000000000000     
   4.2647125639467175E-002  0.18088038762028719        0.0000000000000000     
   4.3178894323066465E-002  0.18892688277762593        0.0000000000000000     
   4.3659363251636683E-002  0.19706090095574560        0.0000000000000000     
   3.5297933986404975E-002  0.16488249478084419        0.0000000000000000     
   3.5837289122287577E-002  0.17276964326844421        0.0000000000000000     
   3.6331488257799242E-002  0.18074419114984355        0.0000000000000000     
   3.6780531392939964E-002  0.18880613842504224        0.0000000000000000     
   3.7184418527709755E-002  0.19695548509404018        0.0000000000000000     
   2.9261447432814822E-002  0.16474325845618731        0.0000000000000000     
   2.9707253166863425E-002  0.17264393603528128        0.0000000000000000     
   3.0114756709246071E-002  0.18063171526768484        0.0000000000000000     
   3.0483958059962762E-002  0.18870659615339799        0.0000000000000000     
   3.0814857219013510E-002  0.19686857869242072        0.0000000000000000     
   2.3320229346410912E-002  0.16463225739398185        0.0000000000000000     
   2.3673949334566347E-002  0.17254429378424055        0.0000000000000000     
   2.3996930993807661E-002  0.18054295997381103        0.0000000000000000     
   2.4289174324134865E-002  0.18862825596269325        0.0000000000000000     
   2.4550679325547956E-002  0.19680018175088726        0.0000000000000000     
   5.0239691390794296E-002  0.19718482627753697        0.0000000000000000     
   5.0741746457978326E-002  0.20538052516722582        0.0000000000000000     
   5.1183356034266714E-002  0.21364815516926219        0.0000000000000000     
   5.1564520119659452E-002  0.22198771628364602        0.0000000000000000     
   5.1885238714156526E-002  0.23039920851037743        0.0000000000000000     
   4.3659363251636683E-002  0.19706090095574560        0.0000000000000000     
   4.4087957936825871E-002  0.20527283286810669        0.0000000000000000     
   4.4464103890282068E-002  0.21355306922816969        0.0000000000000000     
   4.4787801112005289E-002  0.22190161003593459        0.0000000000000000     
   4.5059049601995527E-002  0.23031845529140144        0.0000000000000000     
   3.7184418527709755E-002  0.19695548509404018        0.0000000000000000     
   3.7543454276267631E-002  0.20518089598414740        0.0000000000000000     
   3.7857943252772648E-002  0.21347103592267383        0.0000000000000000     
   3.8127885457224786E-002  0.22182590490961945        0.0000000000000000     
   3.8353280889624052E-002  0.23024550294498430        0.0000000000000000     
   3.0814857219013510E-002  0.19686857869242072        0.0000000000000000     
   3.1108235476303626E-002  0.20510471451534795        0.0000000000000000     
   3.1364874121738433E-002  0.21340205525277453        0.0000000000000000     
   3.1584773155317922E-002  0.22176060090470054        0.0000000000000000     
   3.1767932577042114E-002  0.23018035147112587        0.0000000000000000     
   2.4550679325547956E-002  0.19680018175088726        0.0000000000000000     
   2.4782301536933837E-002  0.20504428846170836        0.0000000000000000     
   2.4984896497179426E-002  0.21334612721847185        0.0000000000000000     
   2.5158464206284713E-002  0.22170569802117782        0.0000000000000000     
   2.5303004664249708E-002  0.23012300086982626        0.0000000000000000     
   5.1885238714156526E-002  0.23039920851037743        0.0000000000000000     
   5.2153491430549093E-002  0.23887408089707859        0.0000000000000000     
   5.2377257881628267E-002  0.24740378249137174        0.0000000000000000     
   5.2556538067394062E-002  0.25598831329325689        0.0000000000000000     
   5.2691331987846465E-002  0.26462767330273407        0.0000000000000000     
   4.5059049601995527E-002  0.23031845529140144        0.0000000000000000     
   4.5286524516333193E-002  0.23878811855168081        0.0000000000000000     
   4.5478901011098694E-002  0.24729511337388319        0.0000000000000000     
   4.5636179086292035E-002  0.25583943975800866        0.0000000000000000     
   4.5758358741913231E-002  0.26442109770405714        0.0000000000000000     
   3.8353280889624052E-002  0.23024550294498430        0.0000000000000000     
   3.8542741908808104E-002  0.23870884229441949        0.0000000000000000     
   3.8704880873614574E-002  0.24719493522357641        0.0000000000000000     
   3.8839697784043468E-002  0.25570378173245489        0.0000000000000000     
   3.8947192640094788E-002  0.26423538182105505        0.0000000000000000     
   3.1767932577042114E-002  0.23018035147112587        0.0000000000000000     
   3.1922143607973824E-002  0.23863625212529480        0.0000000000000000     
   3.2055197469175907E-002  0.24710324804045139        0.0000000000000000     
   3.2167094160648349E-002  0.25558133921659570        0.0000000000000000     
   3.2257833682391157E-002  0.26407052565372774        0.0000000000000000     
   2.5303004664249708E-002  0.23012300086982626        0.0000000000000000     
   2.5424729613830379E-002  0.23857034804430655        0.0000000000000000     
   2.5529850797782704E-002  0.24702005182450815        0.0000000000000000     
   2.5618368216106687E-002  0.25547211221043109        0.0000000000000000     
   2.5690281868802324E-002  0.26392652920207527        0.0000000000000000     
   5.2691331987846465E-002  0.26462767330273407        0.0000000000000000     
   5.2812509664963543E-002  0.27327268706958091        0.0000000000000000     
   5.2950941120723370E-002  0.28187417914357504        0.0000000000000000     
   5.3106626355125919E-002  0.29043214952471641        0.0000000000000000     
   5.3279565368171231E-002  0.29894659821300495        0.0000000000000000     
   4.5758358741913231E-002  0.26442109770405714        0.0000000000000000     
   4.5869619813511148E-002  0.27299019397038515        0.0000000000000000     
   4.5994142136634664E-002  0.28149683531534919        0.0000000000000000     
   4.6131925711283800E-002  0.28994102173894926        0.0000000000000000     
   4.6282970537458543E-002  0.29832275324118523        0.0000000000000000     
   3.8947192640094788E-002  0.26423538182105505        0.0000000000000000     
   3.9046205449468435E-002  0.27273861719165809        0.0000000000000000     
   3.9155576219864298E-002  0.28116236954654561        0.0000000000000000     
   3.9275304951282376E-002  0.28950663888571754        0.0000000000000000     
   3.9405391643722684E-002  0.29777142520917377        0.0000000000000000     
   3.2257833682391157E-002  0.26407052565372774        0.0000000000000000     
   3.2342266572835426E-002  0.27251795673339979        0.0000000000000000     
   3.2435243370412266E-002  0.28087078183716430        0.0000000000000000     
   3.2536764075121689E-002  0.28912900096502114        0.0000000000000000     
   3.2646828686963662E-002  0.29729261411697055        0.0000000000000000     
   2.5690281868802324E-002  0.26392652920207527        0.0000000000000000     
   2.5757803183612121E-002  0.27232821259561024        0.0000000000000000     
   2.5833143588278578E-002  0.28062207218720525        0.0000000000000000     
   2.5916303082801698E-002  0.28880810797686035        0.0000000000000000     
   2.6007281667181473E-002  0.29688631996457560        0.0000000000000000     
   1.4024276162073638E-002   5.5777787453791035E-002   0.0000000000000000     
   1.4795749145504297E-002   6.1372237633323959E-002   0.0000000000000000     
   1.5541265371580640E-002   6.7146272931408749E-002   0.0000000000000000     
   1.6260824840302664E-002   7.3099893348045383E-002   0.0000000000000000     
   1.6954427551670374E-002   7.9233098883233877E-002   0.0000000000000000     
   1.0492394601392233E-002   5.5576407437074662E-002   0.0000000000000000     
   1.1086556296465140E-002   6.1176098221999112E-002   0.0000000000000000     
   1.1653757337975086E-002   6.6955568411208116E-002   0.0000000000000000     
   1.2193997725922071E-002   7.2914818004701676E-002   0.0000000000000000     
   1.2707277460306093E-002   7.9053847002479777E-002   0.0000000000000000     
   6.9777213886907724E-003   5.5432564565238075E-002   0.0000000000000000     
   7.3842004900436728E-003   6.1035998641502755E-002   0.0000000000000000     
   7.7677104320151855E-003   6.6819350896996421E-002   0.0000000000000000     
   8.1282512146053087E-003   7.2782621331719061E-002   0.0000000000000000     
   8.4658228378140434E-003   7.8925809945670722E-002   0.0000000000000000     
   3.4802565239692570E-003   5.5346258838281252E-002   0.0000000000000000     
   3.6886817262398977E-003   6.0951938891834874E-002   0.0000000000000000     
   3.8831246537009388E-003   6.6737620388773636E-002   0.0000000000000000     
   4.0635853063523825E-003   7.2703303329097607E-002   0.0000000000000000     
   4.2300636841942274E-003   7.8848987712806698E-002   0.0000000000000000     
   7.2276867650600263E-012   5.5317490256204201E-002   0.0000000000000000     
   5.0538126201288280E-012   6.0923918972995490E-002   0.0000000000000000     
   3.0323468345680449E-012   6.6710376886539829E-002   0.0000000000000000     
   1.1632903570545777E-012   7.2676863996837218E-002   0.0000000000000000     
  -5.5335770687836572E-013   7.8823380303887677E-002   0.0000000000000000     
   1.6954427551670374E-002   7.9233098883233877E-002   0.0000000000000000     
   1.7624449934224740E-002   8.5541633121737917E-002   0.0000000000000000     
   1.8273268416506738E-002   9.2021239648321249E-002   0.0000000000000000     
   1.8900882998516364E-002   9.8671918462983843E-002   0.0000000000000000     
   1.9507293680253623E-002  0.10549366956572569        0.0000000000000000     
   1.2707277460306093E-002   7.9053847002479777E-002   0.0000000000000000     
   1.3200264749124422E-002   8.5368588880221793E-002   0.0000000000000000     
   1.3679627800374317E-002   9.1854977113607059E-002   0.0000000000000000     
   1.4145366614055783E-002   9.8513011702635572E-002   0.0000000000000000     
   1.4597481190168819E-002  0.10534269264730729        0.0000000000000000     
   8.4658228378140434E-003   7.8925809945670722E-002   0.0000000000000000     
   8.7881280313856641E-003   8.5244985851213637E-002   0.0000000000000000     
   9.1028695250644463E-003   9.1736218160710037E-002   0.0000000000000000     
   9.4100473188503866E-003   9.8399506874159937E-002   0.0000000000000000     
   9.7096614127434866E-003  0.10523485199156332        0.0000000000000000     
   4.2300636841942274E-003   7.8848987712806698E-002   0.0000000000000000     
   4.3880397810084739E-003   8.5170824034713391E-002   0.0000000000000000     
   4.5429935905771214E-003   9.1664962789630128E-002   0.0000000000000000     
   4.6949251129001718E-003   9.8331403977556908E-002   0.0000000000000000     
   4.8438343479776233E-003  0.10517014759849372        0.0000000000000000     
  -5.5335770687836572E-013   7.8823380303887677E-002   0.0000000000000000     
  -2.0071522568998468E-012   8.5146103430721085E-002   0.0000000000000000     
  -3.0876538305302237E-012   9.1641211000367373E-002   0.0000000000000000     
  -3.7948576572799375E-012   9.8308703012826501E-002   0.0000000000000000     
  -4.1287676402768092E-012  0.10514857946809850        0.0000000000000000     
   1.9507293680253623E-002  0.10549366956572569        0.0000000000000000     
   2.0087474442208628E-002  0.11246212623020597        0.0000000000000000     
   2.0636399264871499E-002  0.11955292173008386        0.0000000000000000     
   2.1154068148242246E-002  0.12676605606535934        0.0000000000000000     
   2.1640481092320848E-002  0.13410152923603244        0.0000000000000000     
   1.4597481190168819E-002  0.10534269264730729        0.0000000000000000     
   1.5031038618478541E-002  0.11231931727158789        0.0000000000000000     
   1.5441105988750054E-002  0.11941818289944288        0.0000000000000000     
   1.5827683300983369E-002  0.12663928953087228        0.0000000000000000     
   1.6190770555178480E-002  0.13398263716587608        0.0000000000000000     
   9.7096614127434866E-003  0.10523485199156332        0.0000000000000000     
   9.9976476028314394E-003  0.11221731087279109        0.0000000000000000     
   1.0269941685201936E-002  0.11932194087771406        0.0000000000000000     
   1.0526543659854976E-002  0.12654874200633223        0.0000000000000000     
   1.0767453526790561E-002  0.13389771425864563        0.0000000000000000     
   4.8438343479776233E-003  0.10517014759849372        0.0000000000000000     
   4.9873013952673306E-003  0.11215610703381555        0.0000000000000000     
   5.1229063542271441E-003  0.11926419566489740        0.0000000000000000     
   5.2506492248570623E-003  0.12649441349173923        0.0000000000000000     
   5.3705300071570884E-003  0.13384676051434105        0.0000000000000000     
  -4.1287676402768092E-012  0.10514857946809850        0.0000000000000000     
  -4.2137870883557360E-012  0.11213570575466131        0.0000000000000000     
  -4.1743214787559602E-012  0.11924494726099290        0.0000000000000000     
  -4.0103695104348747E-012  0.12647630398709328        0.0000000000000000     
  -3.7219320507542175E-012  0.13382977593296241        0.0000000000000000     
   2.1640481092320848E-002  0.13410152923603244        0.0000000000000000     
   2.2098554089025883E-002  0.14155718168718320        0.0000000000000000     
   2.2531203130275904E-002  0.14913085386389169        0.0000000000000000     
   2.2938428216070911E-002  0.15682254576615787        0.0000000000000000     
   2.3320229346410912E-002  0.16463225739398185        0.0000000000000000     
   1.6190770555178480E-002  0.13398263716587608        0.0000000000000000     
   1.6532512009521192E-002  0.14144629122009006        0.0000000000000000     
   1.6855051922197311E-002  0.14902831710914996        0.0000000000000000     
   1.7158390293206836E-002  0.15672871483305581        0.0000000000000000     
   1.7442527122549768E-002  0.16454748439180761        0.0000000000000000     
   1.0767453526790561E-002  0.13389771425864563        0.0000000000000000     
   1.0994072300960535E-002  0.14136708374355381        0.0000000000000000     
   1.1207800997316752E-002  0.14895507656995630        0.0000000000000000     
   1.1408639615859213E-002  0.15666169273785316        0.0000000000000000     
   1.1596588156587916E-002  0.16448693224724434        0.0000000000000000     
   5.3705300071570884E-003  0.13384676051434105        0.0000000000000000     
   5.4832349633439151E-003  0.14131955925757439        0.0000000000000000     
   5.5894503556342340E-003  0.14891113224631070        0.0000000000000000     
   5.6891761840280478E-003  0.15662147948054989        0.0000000000000000     
   5.7824124485253564E-003  0.16445060096029210        0.0000000000000000     
  -3.7219320507542175E-012  0.13382977593296241        0.0000000000000000     
  -3.3286706724311443E-012  0.14130371776215186        0.0000000000000000     
  -2.8502456471402038E-012  0.14889648413821310        0.0000000000000000     
  -2.2866588180250891E-012  0.15660807506114613        0.0000000000000000     
  -1.6379076914208035E-012  0.16443849053095091        0.0000000000000000     
   2.3320229346410912E-002  0.16463225739398185        0.0000000000000000     
   2.3673949334566347E-002  0.17254429378424055        0.0000000000000000     
   2.3996930993807661E-002  0.18054295997381103        0.0000000000000000     
   2.4289174324134865E-002  0.18862825596269325        0.0000000000000000     
   2.4550679325547956E-002  0.19680018175088726        0.0000000000000000     
   1.7442527122549768E-002  0.16454748439180761        0.0000000000000000     
   1.7705624173043912E-002  0.17246851024418655        0.0000000000000000     
   1.7945843207507080E-002  0.18047567684897395        0.0000000000000000     
   1.8163184225939270E-002  0.18856898420616985        0.0000000000000000     
   1.8357647228340483E-002  0.19674843231577416        0.0000000000000000     
   1.1596588156587916E-002  0.16448693224724434        0.0000000000000000     
   1.1770524229943694E-002  0.17241437914398380        0.0000000000000000     
   1.1929325446367383E-002  0.18042761747392558        0.0000000000000000     
   1.2072991805858982E-002  0.18852664723706961        0.0000000000000000     
   1.2201523308418494E-002  0.19671146843341586        0.0000000000000000     
   5.7824124485253564E-003  0.16445060096029210        0.0000000000000000     
   5.8686495052656861E-003  0.17238190048363239        0.0000000000000000     
   5.9473777103885685E-003  0.18039878184866587        0.0000000000000000     
   6.0185970638940000E-003  0.18850124505539259        0.0000000000000000     
   6.0823075657819850E-003  0.19668929010381248        0.0000000000000000     
  -1.6379076914208035E-012  0.16443849053095091        0.0000000000000000     
  -9.9010426593548750E-013  0.17237107426313222        0.0000000000000000     
  -4.2935956439532630E-013  0.18038916997319482        0.0000000000000000     
   4.4327632927124161E-014  0.18849277766113873        0.0000000000000000     
   4.3095605209431120E-013  0.19668189732696387        0.0000000000000000     
   2.4550679325547956E-002  0.19680018175088726        0.0000000000000000     
   2.4782301536933837E-002  0.20504428846170836        0.0000000000000000     
   2.4984896497179426E-002  0.21334612721847185        0.0000000000000000     
   2.5158464206284713E-002  0.22170569802117782        0.0000000000000000     
   2.5303004664249708E-002  0.23012300086982626        0.0000000000000000     
   1.8357647228340483E-002  0.19674843231577416        0.0000000000000000     
   1.8529939059118049E-002  0.20499830865885721        0.0000000000000000     
   1.8680766562679287E-002  0.21330290071648930        0.0000000000000000     
   1.8810129739024201E-002  0.22166220848867046        0.0000000000000000     
   1.8918028588152787E-002  0.23007623197540061        0.0000000000000000     
   1.2201523308418494E-002  0.19671146843341586        0.0000000000000000     
   1.2315434643816023E-002  0.20496546594242324        0.0000000000000000     
   1.2415240501821669E-002  0.21327202464355036        0.0000000000000000     
   1.2500940882435427E-002  0.22163114453679730        0.0000000000000000     
   1.2572535785657308E-002  0.23004282562216402        0.0000000000000000     
   6.0823075657819850E-003  0.19668929010381248        0.0000000000000000     
   6.1387882910277610E-003  0.20494576031240630        0.0000000000000000     
   6.1883183146065682E-003  0.21325349899965498        0.0000000000000000     
   6.2308976365184040E-003  0.22161250616555841        0.0000000000000000     
   6.2665262567632735E-003  0.23002278181011659        0.0000000000000000     
   4.3095605209431120E-013  0.19668189732696387        0.0000000000000000     
   7.5326225291993953E-013  0.20493919176880659        0.0000000000000000     
   1.0339859394040141E-012  0.21324732378480324        0.0000000000000000     
   1.2731256207685476E-012  0.22160629337495377        0.0000000000000000     
   1.4706829504218533E-012  0.23001610053925822        0.0000000000000000     
   2.5303004664249708E-002  0.23012300086982626        0.0000000000000000     
   2.5424729613830379E-002  0.23857034804430655        0.0000000000000000     
   2.5529850797782704E-002  0.24702005182450815        0.0000000000000000     
   2.5618368216106687E-002  0.25547211221043109        0.0000000000000000     
   2.5690281868802324E-002  0.26392652920207527        0.0000000000000000     
   1.8918028588152787E-002  0.23007623197540061        0.0000000000000000     
   1.9008817632469713E-002  0.23851560713697040        0.0000000000000000     
   1.9086851394379649E-002  0.24695096993367044        0.0000000000000000     
   1.9152129873882595E-002  0.25538232036550074        0.0000000000000000     
   1.9204653070978548E-002  0.26380965843246129        0.0000000000000000     
   1.2572535785657308E-002  0.23004282562216402        0.0000000000000000     
   1.2632725369983810E-002  0.23847650648880186        0.0000000000000000     
   1.2684209793911438E-002  0.24690162572586202        0.0000000000000000     
   1.2726989057440196E-002  0.25531818333334455        0.0000000000000000     
   1.2761063160570081E-002  0.26372617931124948        0.0000000000000000     
   6.2665262567632735E-003  0.23002278181011659        0.0000000000000000     
   6.2964528263726640E-003  0.23845304609980092        0.0000000000000000     
   6.3219259963780703E-003  0.24687201920108290        0.0000000000000000     
   6.3429457667794880E-003  0.25527970111396248        0.0000000000000000     
   6.3595121375769224E-003  0.26367609183843971        0.0000000000000000     
   1.4706829504218533E-012  0.23001610053925822        0.0000000000000000     
   1.6362811713216407E-012  0.23844522596996762        0.0000000000000000     
   1.7795452611490958E-012  0.24686215035933309        0.0000000000000000     
   1.9004752199042185E-012  0.25526687370735457        0.0000000000000000     
   1.9990710475870088E-012  0.26365939601403210        0.0000000000000000     
   2.5690281868802324E-002  0.26392652920207527        0.0000000000000000     
   2.5757803183612121E-002  0.27232821259561024        0.0000000000000000     
   2.5833143588278578E-002  0.28062207218720525        0.0000000000000000     
   2.5916303082801698E-002  0.28880810797686035        0.0000000000000000     
   2.6007281667181473E-002  0.29688631996457560        0.0000000000000000     
   1.9204653070978548E-002  0.26380965843246129        0.0000000000000000     
   1.9254396250627664E-002  0.27217571236522475        0.0000000000000000     
   1.9311334677790105E-002  0.28042321039446372        0.0000000000000000     
   1.9375468352465869E-002  0.28855215252017813        0.0000000000000000     
   1.9446797274654953E-002  0.29656253874236815        0.0000000000000000     
   1.2761063160570081E-002  0.26372617931124948        0.0000000000000000     
   1.2793626742711221E-002  0.27206678362917891        0.0000000000000000     
   1.2831874443273741E-002  0.28028116625673499        0.0000000000000000     
   1.2875806262257643E-002  0.28836932719391795        0.0000000000000000     
   1.2925422199662927E-002  0.29633126644072744        0.0000000000000000     
   6.3595121375769224E-003  0.26367609183843971        0.0000000000000000     
   6.3754946598627805E-003  0.27200142638747254        0.0000000000000000     
   6.3947628847294807E-003  0.28019593977401919        0.0000000000000000     
   6.4173168121770211E-003  0.28825963199807947        0.0000000000000000     
   6.4431564422054019E-003  0.29619250305965344        0.0000000000000000     
   1.9990710475870088E-012  0.26365939601403210        0.0000000000000000     
   2.0823501343386619E-012  0.27197964064010588        0.0000000000000000     
   2.1573266176938555E-012  0.28016753094631619        0.0000000000000000     
   2.2240007687031327E-012  0.28822306693266297        0.0000000000000000     
   2.2823739426192091E-012  0.29614624859914629        0.0000000000000000     
   7.2276867650600263E-012   5.5317490256204201E-002   0.0000000000000000     
   5.0538126201288280E-012   6.0923918972995490E-002   0.0000000000000000     
   3.0323468345680449E-012   6.6710376886539829E-002   0.0000000000000000     
   1.1632903570545777E-012   7.2676863996837218E-002   0.0000000000000000     
  -5.5335770687836572E-013   7.8823380303887677E-002   0.0000000000000000     
  -3.4802565101375322E-003   5.5346258821778807E-002   0.0000000000000000     
  -3.6886817166441443E-003   6.0951938886289810E-002   0.0000000000000000     
  -3.8831246480332477E-003   6.6737620390603769E-002   0.0000000000000000     
  -4.0635853043048389E-003   7.2703303334720651E-002   0.0000000000000000     
  -4.2300636854589197E-003   7.8848987718640462E-002   0.0000000000000000     
  -6.9777213767299937E-003   5.5432564537776952E-002   0.0000000000000000     
  -7.3842004819835378E-003   6.1035998633023093E-002   0.0000000000000000     
  -7.7677104275384956E-003   6.6819350901274291E-002   0.0000000000000000     
  -8.1282512133948725E-003   7.2782621342530537E-002   0.0000000000000000     
  -8.4658228395526735E-003   7.8925809956791854E-002   0.0000000000000000     
  -1.0492394592549697E-002   5.5576407404198627E-002   0.0000000000000000     
  -1.1086556290964361E-002   6.1176098213195307E-002   0.0000000000000000     
  -1.1653757335483400E-002   6.6955568418551409E-002   0.0000000000000000     
  -1.2193997726106819E-002   7.2914818020266906E-002   0.0000000000000000     
  -1.2707277462834610E-002   7.9053847018341797E-002   0.0000000000000000     
  -1.4024276157596641E-002   5.5777787421043848E-002   0.0000000000000000     
  -1.4795749143586619E-002   6.1372237626806478E-002   0.0000000000000000     
  -1.5541265371867962E-002   6.7146272942435109E-002   0.0000000000000000     
  -1.6260824842440669E-002   7.3099893367929714E-002   0.0000000000000000     
  -1.6954427555304744E-002   7.9233098903290333E-002   0.0000000000000000     
  -5.5335770687836572E-013   7.8823380303887677E-002   0.0000000000000000     
  -2.0071522568998468E-012   8.5146103430721085E-002   0.0000000000000000     
  -3.0876538305302237E-012   9.1641211000367373E-002   0.0000000000000000     
  -3.7948576572799375E-012   9.8308703012826501E-002   0.0000000000000000     
  -4.1287676402768092E-012  0.10514857946809850        0.0000000000000000     
  -4.2300636854589197E-003   7.8848987718640462E-002   0.0000000000000000     
  -4.3880397850735052E-003   8.5170824039114718E-002   0.0000000000000000     
  -4.5429935967266077E-003   9.1664962792894891E-002   0.0000000000000000     
  -4.6949251204182292E-003   9.8331403979980997E-002   0.0000000000000000     
  -4.8438343561483660E-003  0.10517014760037305        0.0000000000000000     
  -8.4658228395526735E-003   7.8925809956791854E-002   0.0000000000000000     
  -8.7881280356028723E-003   8.5244985859772276E-002   0.0000000000000000     
  -9.1028695311364712E-003   9.1736218167185912E-002   0.0000000000000000     
  -9.4100473261534614E-003   9.8399506879032747E-002   0.0000000000000000     
  -9.7096614206538465E-003  0.10523485199531277        0.0000000000000000     
  -1.2707277462834610E-002   7.9053847018341797E-002   0.0000000000000000     
  -1.3200264753595262E-002   8.5368588892693734E-002   0.0000000000000000     
  -1.3679627806317245E-002   9.1854977123240367E-002   0.0000000000000000     
  -1.4145366621000559E-002   9.8513011709981654E-002   0.0000000000000000     
  -1.4597481197645213E-002  0.10534269265291768        0.0000000000000000     
  -1.6954427555304744E-002   7.9233098903290333E-002   0.0000000000000000     
  -1.7624449939050664E-002   8.5541633137879117E-002   0.0000000000000000     
  -1.8273268422268927E-002   9.2021239661058310E-002   0.0000000000000000     
  -1.8900883004959523E-002   9.8671918472827844E-002   0.0000000000000000     
  -1.9507293687122465E-002  0.10549366957318776        0.0000000000000000     
  -4.1287676402768092E-012  0.10514857946809850        0.0000000000000000     
  -4.2137870883557360E-012  0.11213570575466131        0.0000000000000000     
  -4.1743214787559602E-012  0.11924494726099290        0.0000000000000000     
  -4.0103695104348747E-012  0.12647630398709328        0.0000000000000000     
  -3.7219320507542175E-012  0.13382977593296241        0.0000000000000000     
  -4.8438343561483660E-003  0.10517014760037305        0.0000000000000000     
  -4.9873014036061376E-003  0.11215610703528676        0.0000000000000000     
  -5.1229063624806609E-003  0.11926419566593793        0.0000000000000000     
  -5.2506492327719307E-003  0.12649441349232660        0.0000000000000000     
  -5.3705300144799512E-003  0.13384676051445268        0.0000000000000000     
  -9.7096614206538465E-003  0.10523485199531277        0.0000000000000000     
  -9.9976476109039456E-003  0.11221731087565037        0.0000000000000000     
  -1.0269941693170071E-002  0.11932194087966992        0.0000000000000000     
  -1.0526543667452228E-002  0.12654874200737140        0.0000000000000000     
  -1.0767453533750412E-002  0.13389771425875488        0.0000000000000000     
  -1.4597481197645213E-002  0.10534269265291768        0.0000000000000000     
  -1.5031038626107210E-002  0.11231931727575215        0.0000000000000000     
  -1.5441105996242559E-002  0.11941818290218882        0.0000000000000000     
  -1.5827683308051260E-002  0.12663928953222775        0.0000000000000000     
  -1.6190770561533320E-002  0.13398263716586895        0.0000000000000000     
  -1.9507293687122465E-002  0.10549366957318776        0.0000000000000000     
  -2.0087474449215929E-002  0.11246212623559204        0.0000000000000000     
  -2.0636399271698122E-002  0.11955292173349465        0.0000000000000000     
  -2.1154068154569036E-002  0.12676605606689562        0.0000000000000000     
  -2.1640481097828668E-002  0.13410152923579494        0.0000000000000000     
  -3.7219320507542175E-012  0.13382977593296241        0.0000000000000000     
  -3.3286706724311443E-012  0.14130371776215186        0.0000000000000000     
  -2.8502456471402038E-012  0.14889648413821310        0.0000000000000000     
  -2.2866588180250891E-012  0.15660807506114613        0.0000000000000000     
  -1.6379076914208035E-012  0.16443849053095091        0.0000000000000000     
  -5.3705300144799512E-003  0.13384676051445268        0.0000000000000000     
  -5.4832349698671085E-003  0.14131955925724807        0.0000000000000000     
  -5.5894503611957896E-003  0.14891113224564451        0.0000000000000000     
  -5.6891761884659969E-003  0.15662147947964206        0.0000000000000000     
  -5.7824124516777237E-003  0.16445060095924069        0.0000000000000000     
  -1.0767453533750412E-002  0.13389771425875488        0.0000000000000000     
  -1.0994072307081283E-002  0.14136708374282483        0.0000000000000000     
  -1.1207801002461494E-002  0.14895507656858589        0.0000000000000000     
  -1.1408639619891048E-002  0.15666169273603808        0.0000000000000000     
  -1.1596588159369941E-002  0.16448693224518141        0.0000000000000000     
  -1.6190770561533320E-002  0.13398263716586895        0.0000000000000000     
  -1.6532512014971201E-002  0.14144629121888219        0.0000000000000000     
  -1.6855051926647359E-002  0.14902831710703726        0.0000000000000000     
  -1.7158390296561816E-002  0.15672871483033424        0.0000000000000000     
  -1.7442527124714554E-002  0.16454748438877306        0.0000000000000000     
  -2.1640481097828668E-002  0.13410152923579494        0.0000000000000000     
  -2.2098554093536844E-002  0.14155718168542009        0.0000000000000000     
  -2.2531203133753393E-002  0.14913085386099859        0.0000000000000000     
  -2.2938428218478298E-002  0.15682254576253046        0.0000000000000000     
  -2.3320229347711573E-002  0.16463225739001569        0.0000000000000000     
  -1.6379076914208035E-012  0.16443849053095091        0.0000000000000000     
  -9.9010426593548750E-013  0.17237107426313222        0.0000000000000000     
  -4.2935956439532630E-013  0.18038916997319482        0.0000000000000000     
   4.4327632927124161E-014  0.18849277766113873        0.0000000000000000     
   4.3095605209431120E-013  0.19668189732696387        0.0000000000000000     
  -5.7824124516777237E-003  0.16445060095924069        0.0000000000000000     
  -5.8686495071380053E-003  0.17238190048251872        0.0000000000000000     
  -5.9473777111538626E-003  0.18039878184755445        0.0000000000000000     
  -6.0185970637252981E-003  0.18850124505434793        0.0000000000000000     
  -6.0823075648523094E-003  0.19668929010289907        0.0000000000000000     
  -1.1596588159369941E-002  0.16448693224518141        0.0000000000000000     
  -1.1770524231492337E-002  0.17241437914182720        0.0000000000000000     
  -1.1929325446852403E-002  0.18042761747178671        0.0000000000000000     
  -1.2072991805450130E-002  0.18852664723505996        0.0000000000000000     
  -1.2201523307285529E-002  0.19671146843164702        0.0000000000000000     
  -1.7442527124714554E-002  0.16454748438877306        0.0000000000000000     
  -1.7705624174053101E-002  0.17246851024105758        0.0000000000000000     
  -1.7945843207524979E-002  0.18047567684589153        0.0000000000000000     
  -1.8163184225130181E-002  0.18856898420327492        0.0000000000000000     
  -1.8357647226868699E-002  0.19674843231320768        0.0000000000000000     
  -2.3320229347711573E-002  0.16463225739001569        0.0000000000000000     
  -2.3673949334820296E-002  0.17254429378020994        0.0000000000000000     
  -2.3996930993171586E-002  0.18054295996986894        0.0000000000000000     
  -2.4289174322765422E-002  0.18862825595899266        0.0000000000000000     
  -2.4550679323601821E-002  0.19680018174758107        0.0000000000000000     
   4.3095605209431120E-013  0.19668189732696387        0.0000000000000000     
   7.5326225291993953E-013  0.20493919176880659        0.0000000000000000     
   1.0339859394040141E-012  0.21324732378480324        0.0000000000000000     
   1.2731256207685476E-012  0.22160629337495377        0.0000000000000000     
   1.4706829504218533E-012  0.23001610053925822        0.0000000000000000     
  -6.0823075648523094E-003  0.19668929010289907        0.0000000000000000     
  -6.1387882894640630E-003  0.20494576031163994        0.0000000000000000     
  -6.1883183124897215E-003  0.21325349899900256        0.0000000000000000     
  -6.2308976339292841E-003  0.22161250616498693        0.0000000000000000     
  -6.2665262537827558E-003  0.23002278180959301        0.0000000000000000     
  -1.2201523307285529E-002  0.19671146843164702        0.0000000000000000     
  -1.2315434642080814E-002  0.20496546594092230        0.0000000000000000     
  -1.2415240499558212E-002  0.21327202464226042        0.0000000000000000     
  -1.2500940879717719E-002  0.22163114453566132        0.0000000000000000     
  -1.2572535782559333E-002  0.23004282562112505        0.0000000000000000     
  -1.8357647226868699E-002  0.19674843231320768        0.0000000000000000     
  -1.8529939057096989E-002  0.20499830865665375        0.0000000000000000     
  -1.8680766560171473E-002  0.21330290071457680        0.0000000000000000     
  -1.8810129736092168E-002  0.22166220848697701        0.0000000000000000     
  -1.8918028584859053E-002  0.23007623197385427        0.0000000000000000     
  -2.4550679323601821E-002  0.19680018174758107        0.0000000000000000     
  -2.4782301534512583E-002  0.20504428845883416        0.0000000000000000     
  -2.4984896494329521E-002  0.21334612721595181        0.0000000000000000     
  -2.5158464203052629E-002  0.22170569801893394        0.0000000000000000     
  -2.5303004660681916E-002  0.23012300086778067        0.0000000000000000     
   1.4706829504218533E-012  0.23001610053925822        0.0000000000000000     
   1.6362811713216407E-012  0.23844522596996762        0.0000000000000000     
   1.7795452611490958E-012  0.24686215035933309        0.0000000000000000     
   1.9004752199042185E-012  0.25526687370735457        0.0000000000000000     
   1.9990710475870088E-012  0.26365939601403210        0.0000000000000000     
  -6.2665262537827558E-003  0.23002278180959301        0.0000000000000000     
  -6.2964528230635333E-003  0.23845304609930831        0.0000000000000000     
  -6.3219259927850208E-003  0.24687201920062035        0.0000000000000000     
  -6.3429457629472167E-003  0.25527970111352899        0.0000000000000000     
  -6.3595121335501253E-003  0.26367609183803431        0.0000000000000000     
  -1.2572535782559333E-002  0.23004282562112505        0.0000000000000000     
  -1.2632725366564967E-002  0.23847650648782939        0.0000000000000000     
  -1.2684209790216510E-002  0.24690162572495242        0.0000000000000000     
  -1.2726989053513963E-002  0.25531818333249395        0.0000000000000000     
  -1.2761063156457329E-002  0.26372617931045411        0.0000000000000000     
  -1.8918028584859053E-002  0.23007623197385427        0.0000000000000000     
  -1.9008817628868017E-002  0.23851560713553088        0.0000000000000000     
  -1.9086851390514917E-002  0.24695096993232935        0.0000000000000000     
  -1.9152129869799753E-002  0.25538232036424952        0.0000000000000000     
  -1.9204653066722536E-002  0.26380965843129139        0.0000000000000000     
  -2.5303004660681916E-002  0.23012300086778067        0.0000000000000000     
  -2.5424729609972684E-002  0.23857034804241281        0.0000000000000000     
  -2.5529850793680250E-002  0.24702005182275114        0.0000000000000000     
  -2.5618368211804597E-002  0.25547211220879568        0.0000000000000000     
  -2.5690281864345750E-002  0.26392652920054638        0.0000000000000000     
   1.9990710475870088E-012  0.26365939601403210        0.0000000000000000     
   2.0823501343386619E-012  0.27197964064010588        0.0000000000000000     
   2.1573266176938555E-012  0.28016753094631619        0.0000000000000000     
   2.2240007687031327E-012  0.28822306693266297        0.0000000000000000     
   2.2823739426192091E-012  0.29614624859914629        0.0000000000000000     
  -6.3595121335501253E-003  0.26367609183803431        0.0000000000000000     
  -6.3754946556718595E-003  0.27200142638708591        0.0000000000000000     
  -6.3947628803905365E-003  0.28019593977363344        0.0000000000000000     
  -6.4173168077061521E-003  0.28825963199767674        0.0000000000000000     
  -6.4431564376187071E-003  0.29619250305921602        0.0000000000000000     
  -1.2761063156457329E-002  0.26372617931045411        0.0000000000000000     
  -1.2793626738441640E-002  0.27206678362841991        0.0000000000000000     
  -1.2831874438861917E-002  0.28028116625597815        0.0000000000000000     
  -1.2875806257718170E-002  0.28836932719312919        0.0000000000000000     
  -1.2925422195010392E-002  0.29633126643987284        0.0000000000000000     
  -1.9204653066722536E-002  0.26380965843129139        0.0000000000000000     
  -1.9254396246226987E-002  0.27217571236410770        0.0000000000000000     
  -1.9311334673256825E-002  0.28042321039335055        0.0000000000000000     
  -1.9375468347812060E-002  0.28855215251902028        0.0000000000000000     
  -1.9446797269892686E-002  0.29656253874111671        0.0000000000000000     
  -2.5690281864345750E-002  0.26392652920054638        0.0000000000000000     
  -2.5757803179027896E-002  0.27232821259414930        0.0000000000000000     
  -2.5833143583575253E-002  0.28062207218575053        0.0000000000000000     
  -2.5916303077987805E-002  0.28880810797535006        0.0000000000000000     
  -2.6007281662265579E-002  0.29688631996294773        0.0000000000000000     
  -1.4024276157596641E-002   5.5777787421043848E-002   0.0000000000000000     
  -1.4795749143586619E-002   6.1372237626806478E-002   0.0000000000000000     
  -1.5541265371867962E-002   6.7146272942435109E-002   0.0000000000000000     
  -1.6260824842440669E-002   7.3099893367929714E-002   0.0000000000000000     
  -1.6954427555304744E-002   7.9233098903290333E-002   0.0000000000000000     
  -1.7612833284606649E-002   5.6037331732387265E-002   0.0000000000000000     
  -1.8562052060017327E-002   6.1625066673612727E-002   0.0000000000000000     
  -1.9486177465668802E-002   6.7392093384310153E-002   0.0000000000000000     
  -2.0385209501561079E-002   7.3338411864479536E-002   0.0000000000000000     
  -2.1259148167694152E-002   7.9464022114120902E-002   0.0000000000000000     
  -2.1297533186315543E-002   5.6355667482303584E-002   0.0000000000000000     
  -2.2435738060423493E-002   6.1935235153370176E-002   0.0000000000000000     
  -2.3544436545862538E-002   6.7693658655561276E-002   0.0000000000000000     
  -2.4623628642632685E-002   7.3630937988876877E-002   0.0000000000000000     
  -2.5673314350733934E-002   7.9747073153316972E-002   0.0000000000000000     
  -2.5078375862723323E-002   5.6732794670792765E-002   0.0000000000000000     
  -2.6416807144805113E-002   6.2302743066078858E-002   0.0000000000000000     
  -2.7716042612449171E-002   6.8050968756188504E-002   0.0000000000000000     
  -2.8976082265655498E-002   7.3977471741121723E-002   0.0000000000000000     
  -3.0196926104424090E-002   8.0082252020878500E-002   0.0000000000000000     
  -2.8955361313829989E-002   5.7168713297854848E-002   0.0000000000000000     
  -3.0505259313162197E-002   6.2727590411738740E-002   0.0000000000000000     
  -3.2000995665428703E-002   6.8464023686191811E-002   0.0000000000000000     
  -3.3442570370629511E-002   7.4378013121214073E-002   0.0000000000000000     
  -3.4829983428764616E-002   8.0469558716805514E-002   0.0000000000000000     
  -1.6954427555304744E-002   7.9233098903290333E-002   0.0000000000000000     
  -1.7624449939050664E-002   8.5541633137879117E-002   0.0000000000000000     
  -1.8273268422268927E-002   9.2021239661058310E-002   0.0000000000000000     
  -1.8900883004959523E-002   9.8671918472827844E-002   0.0000000000000000     
  -1.9507293687122465E-002  0.10549366957318776        0.0000000000000000     
  -2.1259148167694152E-002   7.9464022114120902E-002   0.0000000000000000     
  -2.2106170423233137E-002   8.5764474970087531E-002   0.0000000000000000     
  -2.2924453227343135E-002   9.2235321269232604E-002   0.0000000000000000     
  -2.3713996580024141E-002   9.8876561011556188E-002   0.0000000000000000     
  -2.4474800481276170E-002  0.10568819419705827        0.0000000000000000     
  -2.5673314350733934E-002   7.9747073153316972E-002   0.0000000000000000     
  -2.6690913037406720E-002   8.6037470764077945E-002   0.0000000000000000     
  -2.7673844069891481E-002   9.2497537436356178E-002   0.0000000000000000     
  -2.8622107448188217E-002   9.9127273170151686E-002   0.0000000000000000     
  -2.9535703172296927E-002  0.10592667796546446        0.0000000000000000     
  -3.0196926104424090E-002   8.0082252020878500E-002   0.0000000000000000     
  -3.1378677781571426E-002   8.6360620519850426E-002   0.0000000000000000     
  -3.2521440949913979E-002   9.2807888162429020E-002   0.0000000000000000     
  -3.3625215609451739E-002   9.9424054948614310E-002   0.0000000000000000     
  -3.4690001760184712E-002  0.10620912087840630        0.0000000000000000     
  -3.4829983428764616E-002   8.0469558716805514E-002   0.0000000000000000     
  -3.6169464655727242E-002   8.6733924237404947E-002   0.0000000000000000     
  -3.7467243867410606E-002   9.3166373447451142E-002   0.0000000000000000     
  -3.8723321063814709E-002   9.9766906346944087E-002   0.0000000000000000     
  -3.9937696244939556E-002  0.10653552293588382        0.0000000000000000     
  -1.9507293687122465E-002  0.10549366957318776        0.0000000000000000     
  -2.0087474449215929E-002  0.11246212623559204        0.0000000000000000     
  -2.0636399271698122E-002  0.11955292173349465        0.0000000000000000     
  -2.1154068154569036E-002  0.12676605606689562        0.0000000000000000     
  -2.1640481097828668E-002  0.13410152923579494        0.0000000000000000     
  -2.4474800481276170E-002  0.10568819419705827        0.0000000000000000     
  -2.5201801164339448E-002  0.11264626883249292        0.0000000000000000     
  -2.5889934862454209E-002  0.11972683292461420        0.0000000000000000     
  -2.6539201575620442E-002  0.12692988647342215        0.0000000000000000     
  -2.7149601303838155E-002  0.13425542947891672        0.0000000000000000     
  -2.9535703172296927E-002  0.10592667796546446        0.0000000000000000     
  -3.0408864855587112E-002  0.11287227614377759        0.0000000000000000     
  -3.1235826111428260E-002  0.11994059202657430        0.0000000000000000     
  -3.2016586939820388E-002  0.12713162561385452        0.0000000000000000     
  -3.2751147340763481E-002  0.13444537690561822        0.0000000000000000     
  -3.4690001760184712E-002  0.10620912087840630        0.0000000000000000     
  -3.5708665522958913E-002  0.11314014816944612        0.0000000000000000     
  -3.6674073018620287E-002  0.12019419903937492        0.0000000000000000     
  -3.7586224247168856E-002  0.12737127348819272        0.0000000000000000     
  -3.8445119208604633E-002  0.13467137151589950        0.0000000000000000     
  -3.9937696244939556E-002  0.10653552293588382        0.0000000000000000     
  -4.1101203166454853E-002  0.11344988490949846        0.0000000000000000     
  -4.2204675584030286E-002  0.12048765396301611        0.0000000000000000     
  -4.3248113497665872E-002  0.12764883009643679        0.0000000000000000     
  -4.4231516907361615E-002  0.13493341330976047        0.0000000000000000     
  -2.1640481097828668E-002  0.13410152923579494        0.0000000000000000     
  -2.2098554093536844E-002  0.14155718168542009        0.0000000000000000     
  -2.2531203133753393E-002  0.14913085386099859        0.0000000000000000     
  -2.2938428218478298E-002  0.15682254576253046        0.0000000000000000     
  -2.3320229347711573E-002  0.16463225739001569        0.0000000000000000     
  -2.7149601303838155E-002  0.13425542947891672        0.0000000000000000     
  -2.7724816363724154E-002  0.14170100959007065        0.0000000000000000     
  -2.8268529071895220E-002  0.14926417445585660        0.0000000000000000     
  -2.8780739428351357E-002  0.15694492407627461        0.0000000000000000     
  -2.9261447433092568E-002  0.16474325845132468        0.0000000000000000     
  -3.2751147340763481E-002  0.13444537690561822        0.0000000000000000     
  -3.3443916646479027E-002  0.14187902938046595        0.0000000000000000     
  -3.4099304189188467E-002  0.14942976651699805        0.0000000000000000     
  -3.4717309968891857E-002  0.15709758831521450        0.0000000000000000     
  -3.5297933985589149E-002  0.16488249477511535        0.0000000000000000     
  -3.8445119208604633E-002  0.13467137151589950        0.0000000000000000     
  -3.9255854941801442E-002  0.14209124105660598        0.0000000000000000     
  -4.0023528485633168E-002  0.14962763004442284        0.0000000000000000     
  -4.0748139840099770E-002  0.15728053847935014        0.0000000000000000     
  -4.1429689005201289E-002  0.16504996636138783        0.0000000000000000     
  -4.4231516907361615E-002  0.13493341330976047        0.0000000000000000     
  -4.5160631249691434E-002  0.14233764461849074        0.0000000000000000     
  -4.6041201961229281E-002  0.14985776503813111        0.0000000000000000     
  -4.6873229041975134E-002  0.15749377456868152        0.0000000000000000     
  -4.7656712491929008E-002  0.16524567321014205        0.0000000000000000     
  -2.3320229347711573E-002  0.16463225739001569        0.0000000000000000     
  -2.3673949334820296E-002  0.17254429378020994        0.0000000000000000     
  -2.3996930993171586E-002  0.18054295996986894        0.0000000000000000     
  -2.4289174322765422E-002  0.18862825595899266        0.0000000000000000     
  -2.4550679323601821E-002  0.19680018174758107        0.0000000000000000     
  -2.9261447433092568E-002  0.16474325845132468        0.0000000000000000     
  -2.9707253166217730E-002  0.17264393603041925        0.0000000000000000     
  -3.0114756707825718E-002  0.18063171526297089        0.0000000000000000     
  -3.0483958057916538E-002  0.18870659614897956        0.0000000000000000     
  -3.0814857216490178E-002  0.19686857868844532        0.0000000000000000     
  -3.5297933985589149E-002  0.16488249477511535        0.0000000000000000     
  -3.5837289120669198E-002  0.17276964326282032        0.0000000000000000     
  -3.6331488255520877E-002  0.18074419114444917        0.0000000000000000     
  -3.6780531390144151E-002  0.18880613842000185        0.0000000000000000     
  -3.7184418524539055E-002  0.19695548508947838        0.0000000000000000     
  -4.1429689005201289E-002  0.16504996636138783        0.0000000000000000     
  -4.2064057198174715E-002  0.17292141547741327        0.0000000000000000     
  -4.2647125636257034E-002  0.18088038761430383        0.0000000000000000     
  -4.3178894319448283E-002  0.18892688277205952        0.0000000000000000     
  -4.3659363247748439E-002  0.19706090095068030        0.0000000000000000     
  -4.7656712491929008E-002  0.16524567321014205        0.0000000000000000     
  -4.8387557398734252E-002  0.17309925267419804        0.0000000000000000     
  -4.9061668850034226E-002  0.18104030467253487        0.0000000000000000     
  -4.9679046845828925E-002  0.18906882920515256        0.0000000000000000     
  -5.0239691386118335E-002  0.19718482627205108        0.0000000000000000     
  -2.4550679323601821E-002  0.19680018174758107        0.0000000000000000     
  -2.4782301534512583E-002  0.20504428845883416        0.0000000000000000     
  -2.4984896494329521E-002  0.21334612721595181        0.0000000000000000     
  -2.5158464203052629E-002  0.22170569801893394        0.0000000000000000     
  -2.5303004660681916E-002  0.23012300086778067        0.0000000000000000     
  -3.0814857216490178E-002  0.19686857868844532        0.0000000000000000     
  -3.1108235473392195E-002  0.20510471451185103        0.0000000000000000     
  -3.1364874118468132E-002  0.21340205524967965        0.0000000000000000     
  -3.1584773151717989E-002  0.22176060090193128        0.0000000000000000     
  -3.1767932573141769E-002  0.23018035146860569        0.0000000000000000     
  -3.7184418524539055E-002  0.19695548508947838        0.0000000000000000     
  -3.7543454272800418E-002  0.20518089598009176        0.0000000000000000     
  -3.7857943249023113E-002  0.21347103591905486        0.0000000000000000     
  -3.8127885453207132E-002  0.22182590490636786        0.0000000000000000     
  -3.8353280885352482E-002  0.23024550294203064        0.0000000000000000     
  -4.3659363247748439E-002  0.19706090095068030        0.0000000000000000     
  -4.4087957932737246E-002  0.20527283286355627        0.0000000000000000     
  -4.4464103885994442E-002  0.21355306922407744        0.0000000000000000     
  -4.4787801107520044E-002  0.22190161003224387        0.0000000000000000     
  -4.5059049597314021E-002  0.23031845528805550        0.0000000000000000     
  -5.0239691386118335E-002  0.19718482627205108        0.0000000000000000     
  -5.0741746453202681E-002  0.20538052516224461        0.0000000000000000     
  -5.1183356029382149E-002  0.21364815516474731        0.0000000000000000     
  -5.1564520114656724E-002  0.22198771627955927        0.0000000000000000     
  -5.1885238709026428E-002  0.23039920850668036        0.0000000000000000     
  -2.5303004660681916E-002  0.23012300086778067        0.0000000000000000     
  -2.5424729609972684E-002  0.23857034804241281        0.0000000000000000     
  -2.5529850793680250E-002  0.24702005182275114        0.0000000000000000     
  -2.5618368211804597E-002  0.25547211220879568        0.0000000000000000     
  -2.5690281864345750E-002  0.26392652920054638        0.0000000000000000     
  -3.1767932573141769E-002  0.23018035146860569        0.0000000000000000     
  -3.1922143603809627E-002  0.23863625212297382        0.0000000000000000     
  -3.2055197464791713E-002  0.24710324803830649        0.0000000000000000     
  -3.2167094156088032E-002  0.25558133921460358        0.0000000000000000     
  -3.2257833677698591E-002  0.26407052565186517        0.0000000000000000     
  -3.8353280885352482E-002  0.23024550294203064        0.0000000000000000     
  -3.8542741904309487E-002  0.23870884229171288        0.0000000000000000     
  -3.8704880868928544E-002  0.24719493522108413        0.0000000000000000     
  -3.8839697779209599E-002  0.25570378173014457        0.0000000000000000     
  -3.8947192635152700E-002  0.26423538181889400        0.0000000000000000     
  -4.5059049597314021E-002  0.23031845528805550        0.0000000000000000     
  -4.5286524511472290E-002  0.23878811854862980        0.0000000000000000     
  -4.5478901006090720E-002  0.24729511337108415        0.0000000000000000     
  -4.5636179081169306E-002  0.25583943975541856        0.0000000000000000     
  -4.5758358736708062E-002  0.26442109770163302        0.0000000000000000     
  -5.1885238709026428E-002  0.23039920850668036        0.0000000000000000     
  -5.2153491425298008E-002  0.23887408089372472        0.0000000000000000     
  -5.2377257876278255E-002  0.24740378248830647        0.0000000000000000     
  -5.2556538061967153E-002  0.25598831329042560        0.0000000000000000     
  -5.2691331982364698E-002  0.26462767330008208        0.0000000000000000     
  -2.5690281864345750E-002  0.26392652920054638        0.0000000000000000     
  -2.5757803179027896E-002  0.27232821259414930        0.0000000000000000     
  -2.5833143583575253E-002  0.28062207218575053        0.0000000000000000     
  -2.5916303077987805E-002  0.28880810797535006        0.0000000000000000     
  -2.6007281662265579E-002  0.29688631996294773        0.0000000000000000     
  -3.2257833677698591E-002  0.26407052565186517        0.0000000000000000     
  -3.2342266568034940E-002  0.27251795673161905        0.0000000000000000     
  -3.2435243365508633E-002  0.28087078183539332        0.0000000000000000     
  -3.2536764070119684E-002  0.28912900096318789        0.0000000000000000     
  -3.2646828681868072E-002  0.29729261411500274        0.0000000000000000     
  -3.8947192635152700E-002  0.26423538181889400        0.0000000000000000     
  -3.9046205444438681E-002  0.27273861718959103        0.0000000000000000     
  -3.9155576214748411E-002  0.28116236954449420        0.0000000000000000     
  -3.9275304946081918E-002  0.28950663888360345        0.0000000000000000     
  -3.9405391638439161E-002  0.29777142520691868        0.0000000000000000     
  -4.5758358736708062E-002  0.26442109770163302        0.0000000000000000     
  -4.5869619808239115E-002  0.27299019396806523        0.0000000000000000     
  -4.5994142131294602E-002  0.28149683531305308        0.0000000000000000     
  -4.6131925705874502E-002  0.28994102173659647        0.0000000000000000     
  -4.6282970531978843E-002  0.29832275323869561        0.0000000000000000     
  -5.2691331982364698E-002  0.26462767330008208        0.0000000000000000     
  -5.2812509659436242E-002  0.27327268706704166        0.0000000000000000     
  -5.2950941115147171E-002  0.28187417914107005        0.0000000000000000     
  -5.3106626349497456E-002  0.29043214952216728        0.0000000000000000     
  -5.3279565362487118E-002  0.29894659821033337        0.0000000000000000     
  -2.8955361313829989E-002   5.7168713297854848E-002   0.0000000000000000     
  -3.0505259313162197E-002   6.2727590411738740E-002   0.0000000000000000     
  -3.2000995665428703E-002   6.8464023686191811E-002   0.0000000000000000     
  -3.3442570370629511E-002   7.4378013121214073E-002   0.0000000000000000     
  -3.4829983428764616E-002   8.0469558716805514E-002   0.0000000000000000     
  -3.2951847610590300E-002   5.7664146063784630E-002   0.0000000000000000     
  -3.4711450154081336E-002   6.3209766187800318E-002   0.0000000000000000     
  -3.6402390693516751E-002   6.8932323382610780E-002   0.0000000000000000     
  -3.8024669228896565E-002   7.4831817648215948E-002   0.0000000000000000     
  -3.9578285760220759E-002   8.0908248984615863E-002   0.0000000000000000     
  -3.7091192823959035E-002   5.8219815668876969E-002   0.0000000000000000     
  -3.9045735256149128E-002   6.3749259391714136E-002   0.0000000000000000     
  -4.0923322685428948E-002   6.9455367782484928E-002   0.0000000000000000     
  -4.2723955111798481E-002   7.5338140841189352E-002   0.0000000000000000     
  -4.4447632535257763E-002   8.1397578567827408E-002   0.0000000000000000     
  -4.1373396953936180E-002   5.8835722113131851E-002   0.0000000000000000     
  -4.3508114619365580E-002   6.4346070023480154E-002   0.0000000000000000     
  -4.5563791641165280E-002   7.0033156885814282E-002   0.0000000000000000     
  -4.7540428019335286E-002   7.5896982700134286E-002   0.0000000000000000     
  -4.9438023753875605E-002   8.1937547466440094E-002   0.0000000000000000     
  -4.5798460000521748E-002   5.9511865396549284E-002   0.0000000000000000     
  -4.8098588243730679E-002   6.5000198083098398E-002   0.0000000000000000     
  -5.0323797560725754E-002   7.0665690692598870E-002   0.0000000000000000     
  -5.2474087951506973E-002   7.6508343225050734E-002   0.0000000000000000     
  -5.4549459416074322E-002   8.2528155680453991E-002   0.0000000000000000     
  -3.4829983428764616E-002   8.0469558716805514E-002   0.0000000000000000     
  -3.6169464655727242E-002   8.6733924237404947E-002   0.0000000000000000     
  -3.7467243867410606E-002   9.3166373447451142E-002   0.0000000000000000     
  -3.8723321063814709E-002   9.9766906346944087E-002   0.0000000000000000     
  -3.9937696244939556E-002  0.10653552293588382        0.0000000000000000     
  -3.9578285760220759E-002   8.0908248984615863E-002   0.0000000000000000     
  -4.1075359422654945E-002   8.7156792555723617E-002   0.0000000000000000     
  -4.2528009351364714E-002   9.3572623525452286E-002   0.0000000000000000     
  -4.3936235546350073E-002  0.10015574189380186        0.0000000000000000     
  -4.5300038007611017E-002  0.10690614766077235        0.0000000000000000     
  -4.4447632535257763E-002   8.1397578567827408E-002   0.0000000000000000     
  -4.6108447845135285E-002   8.7628636113788544E-002   0.0000000000000000     
  -4.7720493930759625E-002   9.4026268630462206E-002   0.0000000000000000     
  -4.9283770792130741E-002  0.10059047611784840        0.0000000000000000     
  -5.0798278429248681E-002  0.10732125857594714        0.0000000000000000     
  -4.9438023753875605E-002   8.1937547466440094E-002   0.0000000000000000     
  -5.1268729923168277E-002   8.8149454911599687E-002   0.0000000000000000     
  -5.3044697605595326E-002   9.4527308762480888E-002   0.0000000000000000     
  -5.4765926801156745E-002  0.10107110901908373        0.0000000000000000     
  -5.6432417509852541E-002  0.10778085568140823        0.0000000000000000     
  -5.4549459416074322E-002   8.2528155680453991E-002   0.0000000000000000     
  -5.6556205656753913E-002   8.8719248949157073E-002   0.0000000000000000     
  -5.8500620375871830E-002   9.5075743921508360E-002   0.0000000000000000     
  -6.0382703573428065E-002  0.10159764059750788        0.0000000000000000     
  -6.2202455249422597E-002  0.10828493897715562        0.0000000000000000     
  -3.9937696244939556E-002  0.10653552293588382        0.0000000000000000     
  -4.1101203166454853E-002  0.11344988490949846        0.0000000000000000     
  -4.2204675584030286E-002  0.12048765396301611        0.0000000000000000     
  -4.3248113497665872E-002  0.12764883009643679        0.0000000000000000     
  -4.4231516907361615E-002  0.13493341330976047        0.0000000000000000     
  -4.5300038007611017E-002  0.10690614766077235        0.0000000000000000     
  -4.6608309298038449E-002  0.11380211040668221        0.0000000000000000     
  -4.7849941980523267E-002  0.12082189971184999        0.0000000000000000     
  -4.9024936055065471E-002  0.12796551557627561        0.0000000000000000     
  -5.0133291521665069E-002  0.13523295799995916        0.0000000000000000     
  -5.0798278429248681E-002  0.10732125857594714        0.0000000000000000     
  -5.2251815429673235E-002  0.11419744870374503        0.0000000000000000     
  -5.3632180380964241E-002  0.12119787920022874        0.0000000000000000     
  -5.4939373283121706E-002  0.12832255006539828        0.0000000000000000     
  -5.6173394136145617E-002  0.13557146129925360        0.0000000000000000     
  -5.6432417509852541E-002  0.10778085568140823        0.0000000000000000     
  -5.8031721561359197E-002  0.11463589980068693        0.0000000000000000     
  -5.9551390785353209E-002  0.12161559242815241        0.0000000000000000     
  -6.0991425181834563E-002  0.12871993356380465        0.0000000000000000     
  -6.2351824750803288E-002  0.13594892320764368        0.0000000000000000     
  -6.2202455249422597E-002  0.10828493897715562        0.0000000000000000     
  -6.3948027693096349E-002  0.11511746369750787        0.0000000000000000     
  -6.5607573193690163E-002  0.12207503939562094        0.0000000000000000     
  -6.7181091751204056E-002  0.12915766607149484        0.0000000000000000     
  -6.8668583365638039E-002  0.13636534372512954        0.0000000000000000     
  -4.4231516907361615E-002  0.13493341330976047        0.0000000000000000     
  -4.5160631249691434E-002  0.14233764461849074        0.0000000000000000     
  -4.6041201961229281E-002  0.14985776503813111        0.0000000000000000     
  -4.6873229041975134E-002  0.15749377456868152        0.0000000000000000     
  -4.7656712491929008E-002  0.16524567321014205        0.0000000000000000     
  -5.0133291521665069E-002  0.13523295799995916        0.0000000000000000     
  -5.1181476741498477E-002  0.14261992350116742        0.0000000000000000     
  -5.2175960075742100E-002  0.15012210859816721        0.0000000000000000     
  -5.3116741524395973E-002  0.15773951329095851        0.0000000000000000     
  -5.4003821087460074E-002  0.16547213757954138        0.0000000000000000     
  -5.6173394136145617E-002  0.13557146129925360        0.0000000000000000     
  -5.7341622588572019E-002  0.14293976113968321        0.0000000000000000     
  -5.8451438288936911E-002  0.15042259782457568        0.0000000000000000     
  -5.9502841237240318E-002  0.15801997135393098        0.0000000000000000     
  -6.0495831433482215E-002  0.16573188172774908        0.0000000000000000     
  -6.2351824750803288E-002  0.13594892320764368        0.0000000000000000     
  -6.3641068790912095E-002  0.14329715753403810        0.0000000000000000     
  -6.4867636600813711E-002  0.15075923271735650        0.0000000000000000     
  -6.6031528180508184E-002  0.15833514875759888        0.0000000000000000     
  -6.7132743529995487E-002  0.16602490565476524        0.0000000000000000     
  -6.8668583365638039E-002  0.13636534372512954        0.0000000000000000     
  -7.0079815348518662E-002  0.14369211268423215        0.0000000000000000     
  -7.1424555011372501E-002  0.15113201327650974        0.0000000000000000     
  -7.2702802354199542E-002  0.15868504550196230        0.0000000000000000     
  -7.3914557376999826E-002  0.16635120936058984        0.0000000000000000     
  -4.7656712491929008E-002  0.16524567321014205        0.0000000000000000     
  -4.8387557398734252E-002  0.17309925267419804        0.0000000000000000     
  -4.9061668850034226E-002  0.18104030467253487        0.0000000000000000     
  -4.9679046845828925E-002  0.18906882920515256        0.0000000000000000     
  -5.0239691386118335E-002  0.19718482627205108        0.0000000000000000     
  -5.4003821087460074E-002  0.16547213757954138        0.0000000000000000     
  -5.4833186438081688E-002  0.17330609896946417        0.0000000000000000     
  -5.5600825249408112E-002  0.18122751496627534        0.0000000000000000     
  -5.6306737521439332E-002  0.18923638556997488        0.0000000000000000     
  -5.6950923254175355E-002  0.19733271078056275        0.0000000000000000     
  -6.0495831433482215E-002  0.16573188172774908        0.0000000000000000     
  -6.1426341031950847E-002  0.17354489847950114        0.0000000000000000     
  -6.2290302186934356E-002  0.18144559114265818        0.0000000000000000     
  -6.3087714898432762E-002  0.18943395971722027        0.0000000000000000     
  -6.3818579166446093E-002  0.19751000420318729        0.0000000000000000     
  -6.7132743529995487E-002  0.16602490565476524        0.0000000000000000     
  -6.8167021180341708E-002  0.17381565120430900        0.0000000000000000     
  -6.9130099662612951E-002  0.18169453320168347        0.0000000000000000     
  -7.0021978976809229E-002  0.18966155164688878        0.0000000000000000     
  -7.0842659122930515E-002  0.19771670653992479        0.0000000000000000     
  -7.3914557376999826E-002  0.16635120936058984        0.0000000000000000     
  -7.5055226883254292E-002  0.17411835714388768        0.0000000000000000     
  -7.6120217676443919E-002  0.18197434114335120        0.0000000000000000     
  -7.7109529756568707E-002  0.18991916135898035        0.0000000000000000     
  -7.8023163123628655E-002  0.19795281779077517        0.0000000000000000     
  -5.0239691386118335E-002  0.19718482627205108        0.0000000000000000     
  -5.0741746453202681E-002  0.20538052516224461        0.0000000000000000     
  -5.1183356029382149E-002  0.21364815516474731        0.0000000000000000     
  -5.1564520114656724E-002  0.22198771627955927        0.0000000000000000     
  -5.1885238709026428E-002  0.23039920850668036        0.0000000000000000     
  -5.6950923254175355E-002  0.19733271078056275        0.0000000000000000     
  -5.7530614221826530E-002  0.20551021036723566        0.0000000000000000     
  -5.8043042198603186E-002  0.21376260409919026        0.0000000000000000     
  -5.8488207184505342E-002  0.22208989197642645        0.0000000000000000     
  -5.8866109179532979E-002  0.23049207399894434        0.0000000000000000     
  -6.3818579166446093E-002  0.19751000420318729        0.0000000000000000     
  -6.4480355626238592E-002  0.20566812596960821        0.0000000000000000     
  -6.5070504913074576E-002  0.21390272638553176        0.0000000000000000     
  -6.5589027026954044E-002  0.22221380545095792        0.0000000000000000     
  -6.6035921967876984E-002  0.23060136316588675        0.0000000000000000     
  -7.0842659122930515E-002  0.19771670653992479        0.0000000000000000     
  -7.1590970666438866E-002  0.20585427196936229        0.0000000000000000     
  -7.2265744172796312E-002  0.21406852202377191        0.0000000000000000     
  -7.2866979642002852E-002  0.22235945670315371        0.0000000000000000     
  -7.3394677074058473E-002  0.23072707600750758        0.0000000000000000     
  -7.8023163123628655E-002  0.19795281779077517        0.0000000000000000     
  -7.8862459342427346E-002  0.20606864836649791        0.0000000000000000     
  -7.9628759977768387E-002  0.21425999101391072        0.0000000000000000     
  -8.0322065029651724E-002  0.22252684573301371        0.0000000000000000     
  -8.0942374498077410E-002  0.23086921252380682        0.0000000000000000     
  -5.1885238709026428E-002  0.23039920850668036        0.0000000000000000     
  -5.2153491425298008E-002  0.23887408089372472        0.0000000000000000     
  -5.2377257876278255E-002  0.24740378248830647        0.0000000000000000     
  -5.2556538061967153E-002  0.25598831329042560        0.0000000000000000     
  -5.2691331982364698E-002  0.26462767330008208        0.0000000000000000     
  -5.8866109179532979E-002  0.23049207399894434        0.0000000000000000     
  -5.9182750448555824E-002  0.23896815410444258        0.0000000000000000     
  -5.9444133256443592E-002  0.24751713623061991        0.0000000000000000     
  -5.9650257603196283E-002  0.25613902037747627        0.0000000000000000     
  -5.9801123488813897E-002  0.26483380654501171        0.0000000000000000     
  -6.6035921967876984E-002  0.23060136316588675        0.0000000000000000     
  -6.6413409384014896E-002  0.23907176295822846        0.0000000000000000     
  -6.6723708923539182E-002  0.24763136825589330        0.0000000000000000     
  -6.6966820586449885E-002  0.25628017905888129        0.0000000000000000     
  -6.7142744372746990E-002  0.26501819536719234        0.0000000000000000     
  -7.3394677074058473E-002  0.23072707600750758        0.0000000000000000     
  -7.3845468231675204E-002  0.23918490745508231        0.0000000000000000     
  -7.4215984877565006E-002  0.24774647856412665        0.0000000000000000     
  -7.4506227011727946E-002  0.25641178933464054        0.0000000000000000     
  -7.4716194634163985E-002  0.26518083976662399        0.0000000000000000     
  -8.0942374498077410E-002  0.23086921252380682        0.0000000000000000     
  -8.1478926991536763E-002  0.23930758759500417        0.0000000000000000     
  -8.1920961118521110E-002  0.24786246715531993        0.0000000000000000     
  -8.2268476879030494E-002  0.25653385120475414        0.0000000000000000     
  -8.2521474273064860E-002  0.26532173974330664        0.0000000000000000     
  -5.2691331982364698E-002  0.26462767330008208        0.0000000000000000     
  -5.2812509659436242E-002  0.27327268706704166        0.0000000000000000     
  -5.2950941115147171E-002  0.28187417914107005        0.0000000000000000     
  -5.3106626349497456E-002  0.29043214952216728        0.0000000000000000     
  -5.3279565362487118E-002  0.29894659821033337        0.0000000000000000     
  -5.9801123488813897E-002  0.26483380654501171        0.0000000000000000     
  -5.9933633759293940E-002  0.27355739155365366        0.0000000000000000     
  -6.0084691260633913E-002  0.28226567222382992        0.0000000000000000     
  -6.0254295992833828E-002  0.29095864855554021        0.0000000000000000     
  -6.0442447955893680E-002  0.29963632054878464        0.0000000000000000     
  -6.7142744372746990E-002  0.26501819536719234        0.0000000000000000     
  -6.7291750869076059E-002  0.27381560249503495        0.0000000000000000     
  -6.7454110662082623E-002  0.28264258575661738        0.0000000000000000     
  -6.7629823751766668E-002  0.29149914515193975        0.0000000000000000     
  -6.7818890138128224E-002  0.30038528068100190        0.0000000000000000     
  -7.4716194634163985E-002  0.26518083976662399        0.0000000000000000     
  -7.4886860988782597E-002  0.27404731989118525        0.0000000000000000     
  -7.5059199319493244E-002  0.28300491973943265        0.0000000000000000     
  -7.5233209626295983E-002  0.29205363931136585        0.0000000000000000     
  -7.5408891909190798E-002  0.30119347860698514        0.0000000000000000     
  -8.2521474273064860E-002  0.26532173974330664        0.0000000000000000     
  -8.2718964118413535E-002  0.27425254374210473        0.0000000000000000     
  -8.2899957232865848E-002  0.28335267417227533        0.0000000000000000     
  -8.3064453616421771E-002  0.29262213103381857        0.0000000000000000     
  -8.3212453269081332E-002  0.30206091432673432        0.0000000000000000     
  -4.5798460000521748E-002   5.9511865396549284E-002   0.0000000000000000     
  -4.8098588243730679E-002   6.5000198083098398E-002   0.0000000000000000     
  -5.0323797560725754E-002   7.0665690692598870E-002   0.0000000000000000     
  -5.2474087951506973E-002   7.6508343225050734E-002   0.0000000000000000     
  -5.4549459416074322E-002   8.2528155680453991E-002   0.0000000000000000     
  -5.0385672366373792E-002   6.0246618850005353E-002   0.0000000000000000     
  -5.2856256775816630E-002   6.5710614027625430E-002   0.0000000000000000     
  -5.5253995097286700E-002   7.1352385988049605E-002   0.0000000000000000     
  -5.7578887330783972E-002   7.7171934731277828E-002   0.0000000000000000     
  -5.9830933476308454E-002   8.3169260257310126E-002   0.0000000000000000     
  -5.5154324454150402E-002   6.1038355804376165E-002   0.0000000000000000     
  -5.7820220862195654E-002   6.6476288314117921E-002   0.0000000000000000     
  -6.0405038904024440E-002   7.2092659557377411E-002   0.0000000000000000     
  -6.2908778579636740E-002   7.7887469534154638E-002   0.0000000000000000     
  -6.5331439889032547E-002   8.3860718244449572E-002   0.0000000000000000     
  -6.0104416263851566E-002   6.1887076259661708E-002   0.0000000000000000     
  -6.2990480502867735E-002   6.7297220942575842E-002   0.0000000000000000     
  -6.5776928980938967E-002   7.2886511400582318E-002   0.0000000000000000     
  -6.8463761698065256E-002   7.8654947633681166E-002   0.0000000000000000     
  -7.1050978654246602E-002   8.4602529641872315E-002   0.0000000000000000     
  -6.5235947795477284E-002   6.2792780215861987E-002   0.0000000000000000     
  -6.8367035697832867E-002   6.8173411912999221E-002   0.0000000000000000     
  -7.1369665328030296E-002   7.3733941517664367E-002   0.0000000000000000     
  -7.4243836686069542E-002   7.9474369029857411E-002   0.0000000000000000     
  -7.6989549771950619E-002   8.5394694449578368E-002   0.0000000000000000     
  -5.4549459416074322E-002   8.2528155680453991E-002   0.0000000000000000     
  -5.6556205656753913E-002   8.8719248949157073E-002   0.0000000000000000     
  -5.8500620375871830E-002   9.5075743921508360E-002   0.0000000000000000     
  -6.0382703573428065E-002  0.10159764059750788        0.0000000000000000     
  -6.2202455249422597E-002  0.10828493897715562        0.0000000000000000     
  -5.9830933476308454E-002   8.3169260257310126E-002   0.0000000000000000     
  -6.2011886401435817E-002   8.9337938600908773E-002   0.0000000000000000     
  -6.4123498973741699E-002   9.5671545796836038E-002   0.0000000000000000     
  -6.6165771193226128E-002  0.10217008184509191        0.0000000000000000     
  -6.8138703059889075E-002  0.10883354674567637        0.0000000000000000     
  -6.5331439889032547E-002   8.3860718244449572E-002   0.0000000000000000     
  -6.7676783512757577E-002   9.0005444241302926E-002   0.0000000000000000     
  -6.9948570131357524E-002   9.6314686077755382E-002   0.0000000000000000     
  -7.2146799744832374E-002  0.10278844375380693        0.0000000000000000     
  -7.4271472353182141E-002  0.10942671726945757        0.0000000000000000     
  -7.1050978654246602E-002   8.4602529641872315E-002   0.0000000000000000     
  -7.3550896990719206E-002   9.0721765870339491E-002   0.0000000000000000     
  -7.5975833848719282E-002   9.7005164764266363E-002   0.0000000000000000     
  -7.8325789228246817E-002  0.10345272632365295        0.0000000000000000     
  -8.0600763129301811E-002  0.11006445054849924        0.0000000000000000     
  -7.6989549771950619E-002   8.5394694449578368E-002   0.0000000000000000     
  -7.9634226835320704E-002   9.1486903488018481E-002   0.0000000000000000     
  -8.2205290125826974E-002   9.7742981856369024E-002   0.0000000000000000     
  -8.4702739643469430E-002  0.10416292955462997        0.0000000000000000     
  -8.7126575388248070E-002  0.11074674658280134        0.0000000000000000     
  -6.2202455249422597E-002  0.10828493897715562        0.0000000000000000     
  -6.3948027693096349E-002  0.11511746369750787        0.0000000000000000     
  -6.5607573193690163E-002  0.12207503939562094        0.0000000000000000     
  -6.7181091751204056E-002  0.12915766607149484        0.0000000000000000     
  -6.8668583365638039E-002  0.13636534372512954        0.0000000000000000     
  -6.8138703059889075E-002  0.10883354674567637        0.0000000000000000     
  -7.0030719656231463E-002  0.11564216848085498        0.0000000000000000     
  -7.1830246064754202E-002  0.12257617503289331        0.0000000000000000     
  -7.3537282285457292E-002  0.12963556640179133        0.0000000000000000     
  -7.5151828318340719E-002  0.13682034258754905        0.0000000000000000     
  -7.4271472353182141E-002  0.10942671726945757        0.0000000000000000     
  -7.6309783282111285E-002  0.11621004223737538        0.0000000000000000     
  -7.8248927857324346E-002  0.12311895427022844        0.0000000000000000     
  -8.0088906078821284E-002  0.13015345336801673        0.0000000000000000     
  -8.1829717946602140E-002  0.13731353953074021        0.0000000000000000     
  -8.0600763129301811E-002  0.11006445054849924        0.0000000000000000     
  -8.2785218570735883E-002  0.11682108496706908        0.0000000000000000     
  -8.4863618571400665E-002  0.12370337710762630        0.0000000000000000     
  -8.6835963131296115E-002  0.13071132697017099        0.0000000000000000     
  -8.8702252250422275E-002  0.13784493455470295        0.0000000000000000     
  -8.7126575388248070E-002  0.11074674658280134        0.0000000000000000     
  -8.9457025522105188E-002  0.11747529666993606        0.0000000000000000     
  -9.1674318206983074E-002  0.12432944354508695        0.0000000000000000     
  -9.3778453442881743E-002  0.13130918720825405        0.0000000000000000     
  -9.5769431229801180E-002  0.13841452765943735        0.0000000000000000     
  -6.8668583365638039E-002  0.13636534372512954        0.0000000000000000     
  -7.0079815348518662E-002  0.14369211268423215        0.0000000000000000     
  -7.1424555011372501E-002  0.15113201327650974        0.0000000000000000     
  -7.2702802354199542E-002  0.15868504550196230        0.0000000000000000     
  -7.3914557376999826E-002  0.16635120936058984        0.0000000000000000     
  -7.5151828318340719E-002  0.13682034258754905        0.0000000000000000     
  -7.6684938350393861E-002  0.14412413742835339        0.0000000000000000     
  -7.8147666568606097E-002  0.15154058476239121        0.0000000000000000     
  -7.9540012972977400E-002  0.15906968458966250        0.0000000000000000     
  -8.0861977563507756E-002  0.16671143691016724        0.0000000000000000     
  -8.1829717946602140E-002  0.13731353953074021        0.0000000000000000     
  -8.3483513885539831E-002  0.14459274260448993        0.0000000000000000     
  -8.5062444320507316E-002  0.15198459243535675        0.0000000000000000     
  -8.6566509251504678E-002  0.15948908902334083        0.0000000000000000     
  -8.7995708678531820E-002  0.16710623236844202        0.0000000000000000     
  -8.8702252250422275E-002  0.13784493455470295        0.0000000000000000     
  -9.0475541953956545E-002  0.14509792821264172        0.0000000000000000     
  -9.2168888267076254E-002  0.15246403629540647        0.0000000000000000     
  -9.3782291189781375E-002  0.15994325880299728        0.0000000000000000     
  -9.5315750722071962E-002  0.16753559573541407        0.0000000000000000     
  -9.5769431229801180E-002  0.13841452765943735        0.0000000000000000     
  -9.7661022555643989E-002  0.14563969425280879        0.0000000000000000     
  -9.9466998408312760E-002  0.15297891634254027        0.0000000000000000     
 -0.10118735878780752       0.16043219392863184        0.0000000000000000     
 -0.10282210369412823       0.16799952701108345        0.0000000000000000     
  -7.3914557376999826E-002  0.16635120936058984        0.0000000000000000     
  -7.5055226883254292E-002  0.17411835714388768        0.0000000000000000     
  -7.6120217676443919E-002  0.18197434114335120        0.0000000000000000     
  -7.7109529756568707E-002  0.18991916135898035        0.0000000000000000     
  -7.8023163123628655E-002  0.19795281779077517        0.0000000000000000     
  -8.0861977563507756E-002  0.16671143691016724        0.0000000000000000     
  -8.2108920763984225E-002  0.17445422195895399        0.0000000000000000     
  -8.3276202998193730E-002  0.18228641997107112        0.0000000000000000     
  -8.4363824266136325E-002  0.19020803094651867        0.0000000000000000     
  -8.5371784567811998E-002  0.19821905488529662        0.0000000000000000     
  -8.7995708678531820E-002  0.16710623236844202        0.0000000000000000     
  -8.9346065445827141E-002  0.17482445131022470        0.0000000000000000     
  -9.0613602397628945E-002  0.18263217468825313        0.0000000000000000     
  -9.1798319533937231E-002  0.19052940250252728        0.0000000000000000     
  -9.2900216854751999E-002  0.19851613475304725        0.0000000000000000     
  -9.5315750722071962E-002  0.16753559573541407        0.0000000000000000     
  -9.6766660928782999E-002  0.17522904519769977        0.0000000000000000     
  -9.8132415874749468E-002  0.18301160529489713        0.0000000000000000     
  -9.9413015559971368E-002  0.19088327602700628        0.0000000000000000     
 -0.10060845998444869       0.19884405739402705        0.0000000000000000     
 -0.10282210369412823       0.16799952701108345        0.0000000000000000     
 -0.10437070721285187       0.17566800362137922        0.0000000000000000     
 -0.10583264342955538       0.18342471179100323        0.0000000000000000     
 -0.10720791234423878       0.19126965151995551        0.0000000000000000     
 -0.10849651395690205       0.19920282280823609        0.0000000000000000     
  -7.8023163123628655E-002  0.19795281779077517        0.0000000000000000     
  -7.8862459342427346E-002  0.20606864836649791        0.0000000000000000     
  -7.9628759977768387E-002  0.21425999101391072        0.0000000000000000     
  -8.0322065029651724E-002  0.22252684573301371        0.0000000000000000     
  -8.0942374498077410E-002  0.23086921252380682        0.0000000000000000     
  -8.5371784567811998E-002  0.19821905488529662        0.0000000000000000     
  -8.6304011976474110E-002  0.20631205338086531        0.0000000000000000     
  -8.7164434565376009E-002  0.21447958802668501        0.0000000000000000     
  -8.7953052334517737E-002  0.22272165882275574        0.0000000000000000     
  -8.8669865283899266E-002  0.23103826576907757        0.0000000000000000     
  -9.2900216854751999E-002  0.19851613475304725        0.0000000000000000     
  -9.3924818890849138E-002  0.20658528523231467        0.0000000000000000     
  -9.4877650173004396E-002  0.21472976773283151        0.0000000000000000     
  -9.5758710701217886E-002  0.22294958225459763        0.0000000000000000     
  -9.6568000475489538E-002  0.23124472879761301        0.0000000000000000     
 -0.10060845998444869       0.19884405739402705        0.0000000000000000     
 -0.10172488008555243       0.20688834392084618        0.0000000000000000     
 -0.10276840680065359       0.21501053013235022        0.0000000000000000     
 -0.10373904012975217       0.22321061602853928        0.0000000000000000     
 -0.10463678007284817       0.23148860160941320        0.0000000000000000     
 -0.10849651395690205       0.19920282280823609        0.0000000000000000     
 -0.10970419556058401       0.20722122944645971        0.0000000000000000     
 -0.11083670444832353       0.21532187522524124        0.0000000000000000     
 -0.11189404062012061       0.22350476014458065        0.0000000000000000     
 -0.11287620407597521       0.23176988420447797        0.0000000000000000     
  -8.0942374498077410E-002  0.23086921252380682        0.0000000000000000     
  -8.1478926991536763E-002  0.23930758759500417        0.0000000000000000     
  -8.1920961118521110E-002  0.24786246715531993        0.0000000000000000     
  -8.2268476879030494E-002  0.25653385120475414        0.0000000000000000     
  -8.2521474273064860E-002  0.26532173974330664        0.0000000000000000     
  -8.8669865283899266E-002  0.23103826576907757        0.0000000000000000     
  -8.9300313778104976E-002  0.23945479109718604        0.0000000000000000     
  -8.9829838181719190E-002  0.24799661703861686        0.0000000000000000     
  -9.0258438494741966E-002  0.25666374359337002        0.0000000000000000     
  -9.0586114717173205E-002  0.26545617076144545        0.0000000000000000     
  -9.6568000475489538E-002  0.23124472879761301        0.0000000000000000     
  -9.7296156705885262E-002  0.23964150568082010        0.0000000000000000     
  -9.7933816602471052E-002  0.24816621122316118        0.0000000000000000     
  -9.8480980165246812E-002  0.25681884542463640        0.0000000000000000     
  -9.8937647394212624E-002  0.26559940828524553        0.0000000000000000     
 -0.10463678007284817       0.23148860160941320        0.0000000000000000     
 -0.10546645577487766       0.23986773134590630        0.0000000000000000     
 -0.10623289638077663       0.24837124970895305        0.0000000000000000     
 -0.10693610189054509       0.25699915669855317        0.0000000000000000     
 -0.10757607230418309       0.26575145231470704        0.0000000000000000     
 -0.11287620407597521       0.23176988420447797        0.0000000000000000     
 -0.11381121098508207       0.24013346809244468        0.0000000000000000     
 -0.11472707751663594       0.24861173249599219        0.0000000000000000     
 -0.11562380367063678       0.25720467741512054        0.0000000000000000     
 -0.11650138944708462       0.26591230284982970        0.0000000000000000     
  -8.2521474273064860E-002  0.26532173974330664        0.0000000000000000     
  -8.2718964118413535E-002  0.27425254374210473        0.0000000000000000     
  -8.2899957232865848E-002  0.28335267417227533        0.0000000000000000     
  -8.3064453616421771E-002  0.29262213103381857        0.0000000000000000     
  -8.3212453269081332E-002  0.30206091432673432        0.0000000000000000     
  -9.0586114717173205E-002  0.26545617076144545        0.0000000000000000     
  -9.0843245276723328E-002  0.27443695150034952        0.0000000000000000     
  -9.1060208601102616E-002  0.28366913876758837        0.0000000000000000     
  -9.1237004690311124E-002  0.29315273256316215        0.0000000000000000     
  -9.1373633544348798E-002  0.30288773288707077        0.0000000000000000     
  -9.8937647394212624E-002  0.26559940828524553        0.0000000000000000     
  -9.9314889482466320E-002  0.27460622061847584        0.0000000000000000     
  -9.9623777623105800E-002  0.28393760323781436        0.0000000000000000     
  -9.9864311816131063E-002  0.29359355614326099        0.0000000000000000     
 -0.10003649206154212       0.30357407933481573        0.0000000000000000     
 -0.10757607230418309       0.26575145231470704        0.0000000000000000     
 -0.10813389673564253       0.27476035109648367        0.0000000000000000     
 -0.10859066429887539       0.28415806758295309        0.0000000000000000     
 -0.10894637499388167       0.29394460177411491        0.0000000000000000     
 -0.10920102882066132       0.30411995366996925        0.0000000000000000     
 -0.11650138944708462       0.26591230284982970        0.0000000000000000     
 -0.11730026703625199       0.27489934293437324        0.0000000000000000     
 -0.11796086862841139       0.28433053180300472        0.0000000000000000     
 -0.11848319422356286       0.29420586945572397        0.0000000000000000     
 -0.11886724382170641       0.30452535589253127        0.0000000000000000     
 </DataArray>
 <DataArray  type="Float64" Name="stress" NumberOfComponents="3" format="ascii">
   6150452744.5947781        51480010.767207861        50533924.071662396     
   5898646640.9666071        34259290.513499260       -6736482.1315990957     
   5646350189.2501040        15404076.631992817       -38902836.049342208     
   5393563389.4452620       -5085630.8773095608       -45965137.681577839     
   5140286241.5520678       -27209832.014428854       -27923387.028304059     
   5639121140.6872530        7488864.3265521526        206592098.80136740     
   5447077598.1559687        4884601.7651677132        167121347.09024671     
   5254572249.1244783        740984.20308923721        145144715.23914275     
   5061605093.5927763       -4941988.3596785069        140662203.24805167     
   4868176131.5608625       -12164315.923156977        153673811.11697605     
   5191103948.8222504       -17507958.501339197        361359658.64180475     
   5037080303.3149910       -12018562.592251301        339721859.94232041     
   4882623392.8956556       -7973383.0567600727        327968248.67734993     
   4727733217.5642443       -5372419.8948509693        326098824.84689480     
   4572409777.3207579       -4215673.1065251827        334113588.45094842     
   4806401168.9997578       -23510457.716481686        514836603.59298468     
   4668654756.4436665       -16450202.558789253        511065056.42461920     
   4530503620.5636358       -10739025.147572041        509567764.26526815     
   4391947761.3596563       -6376925.4828383923        510344727.11493051     
   4252987178.8317356       -3363903.5645799637        513395944.97360969     
   4485012801.2197676       -10518633.318873167        667022933.65491235     
   4341800957.5419950       -8410318.1344223022        681150936.53715169     
   4198212932.1284132       -7555942.0693478584        689943262.00290287     
   4054248724.9790192       -7955505.1236419678        693399910.05217600     
   3909908336.0938087       -9609007.2973127365        691520880.68496227     
   5140286241.5520678       -27209832.014428854       -27923387.028304059     
   5002563156.6329479       -15158628.929692268       -10186578.510427659     
   4865006805.7337818       -2551645.7784526348        5509274.2790051866     
   4727617188.8545761        10611117.439314604        19164171.339981023     
   4590394305.9953156        24329660.723586559        30778112.672514588     
   4868176131.5608625       -12164315.923156977        153673811.11697605     
   4726594202.5559731       -4222615.2772698402        164378509.64645502     
   4585216883.3268375        4401117.9544780254        175104169.01659971     
   4444044173.8734541        13706883.772055149        185850789.22740343     
   4303076074.1958246        23694682.175488949        196618370.27888116     
   4572409777.3207579       -4215673.1065251827        334113588.45094842     
   4432860194.4275608        1383882.1597592831        337830365.37379581     
   4293553097.0659175        7791722.5312237740        343630019.70641822     
   4154488485.2358284        15007848.007865667        351512551.44882125     
   4015666358.9372993        23032258.589697361        361477960.60100281     
   4252987178.8317356       -3363903.5645799637        513395944.97360969     
   4121361132.2477064        1660863.3813505173        510168988.67158997     
   3990015446.9510179        7620167.9517717361        511086826.34846270     
   3858950122.9416971        14514010.146730423        516149458.00422156     
   3728165160.2197189        22342389.966181278        525356883.63887721     
   3909908336.0938087       -9609007.2973127365        691520880.68496227     
   3792097016.0164013       -3391671.6125104427        681394379.53983831     
   3674603932.9821453        3886454.2161343098        677474588.94272459     
   3557429086.9910407        12225370.188614368        679761508.89361405     
   3440572478.0430918        21625076.304944277        688255139.39249837     
   4590394305.9953156        24329660.723586559        30778112.672514588     
   4369862086.4845028        13429943.099715233        15770361.769299554     
   4149410082.4618673        2797610.4364442825        6085788.2604732523     
   3929038293.9274068       -7567337.2662575245        1724392.1460606654     
   3708746720.8811078       -17664900.008402586        2686173.4260432189     
   4303076074.1958246        23694682.175488949        196618370.27888116     
   4096646094.3744783        14349574.208221912        181544980.38419706     
   3890213037.3086309        4994208.7592988014        171637533.70471793     
   3683776902.9982944       -4371414.1712791920        166896030.24042749     
   3477337691.4434524       -13747294.583518267        167320469.99134144     
   4015666358.9372993        23032258.589697361        361477960.60100281     
   3822889378.2933869        15106988.125390530        346241756.86008412     
   3630026027.6723185        6893817.7372255325        336014262.15515757     
   3437076307.0740795       -1607252.5748443604        330795476.48622447     
   3244040216.4986835       -10396222.810771823        330585399.85328734     
   3728165160.2197189        22342389.966181278        525356883.63887721     
   3548591938.2412338        15702184.851246595        509860691.19694096     
   3368849053.5529218        8496437.3702230453        499215973.61179030     
   3188936506.1547771        725147.52309072018        493422730.88343632     
   3008854296.0467987       -7611684.6901584864        492480963.01185745     
   3440572478.0430918        21625076.304944277        688255139.39249837     
   3273753774.2180190        16135164.385788798        672401783.39477324     
   3106682114.9504485        9802067.6583021879        661242668.07462370     
   2939357500.2403789        2625786.1224851608        654777793.43205309     
   2771779930.0878038       -5393680.2216778994        653007159.46706975     
   3708746720.8811078       -17664900.008402586        2686173.4260432189     
   3546233055.5712442       -11438092.845473528       -9251.4760544700675     
   3382973898.4550662       -7696258.3702993393        1703333.9503792231     
   3218969249.5325623       -6439396.5828487873        7823929.7053679973     
   3054219108.8037171       -7667507.4832220078        18352535.788889434     
   3477337691.4434524       -13747294.583518267        167320469.99134144     
   3325767578.5909739       -7343307.3924741745        163049748.45733899     
   3173751622.9780955       -2425462.7360831499        162748246.17088383     
   3021289824.6048040        1006239.3855979443        166415963.13199648     
   2868382183.4711075        2951798.9725934267        174052899.34066665     
   3244040216.4986835       -10396222.810771823        330585399.85328734     
   3102159967.3007622       -4191162.2324643135        325088972.24094081     
   2960133524.3883705        1526585.9642593861        323122972.79517192     
   2817960887.7614975        6757021.7793866396        324687401.51598942     
   2675642057.4201431        11500145.212909460        329782258.40337974     
   3008854296.0467987       -7611684.6901584864        492480963.01185745     
   2875410221.7006378       -1981657.3654112816        486108419.87476146     
   2742119602.6859202        4159887.7308080196        482827513.82325953     
   2608982439.0026512        10812950.598530054        482638244.85734665     
   2475998730.6508241        17977531.237715364        485540612.97704083     
   2771779930.0878038       -5393680.2216778994        653007159.46706975     
   2645518341.7905879       -714792.79134619236        646108091.35879397     
   2519709857.8707380        5474442.5635502338        641861869.25513625     
   2394354478.3282604        13174025.843006849        640268493.15608120     
   2269452203.1631393        22383957.047005177        641327963.06164932     
   3054219108.8037171       -7667507.4832220078        18352535.788889434     
   2887231982.4823198       -9620532.3855977058        12421443.067574149     
   2720954863.3578858       -9206866.6314295530        7302908.4154578699     
   2555387751.4303541       -6426510.2209306955        2996931.8325303500     
   2390530646.6997662       -1279463.1539301872       -496486.68119303900     
   2868382183.4711075        2951798.9725934267        174052899.34066665     
   2704456569.6201210        1526752.8338958025        166658876.00360882     
   2540933800.3467665        1444521.9539607763        160685462.93681937     
   2377813875.6510320        2705106.3327703476        156132660.14029634     
   2215096795.5329442        5308505.9704126120        153000467.61404294     
   2675642057.4201431        11500145.212909460        329782258.40337974     
   2516515248.0425935        11124265.438740730        320566948.06140810     
   2357484120.6233811        11067325.525698066        313380300.19076848     
   2198548675.1624851        11329325.473716974        308222314.79146200     
   2039708911.6599312        11910265.282871604        305092991.86347979     
   2475998730.6508241        17977531.237715364        485540612.97704083     
   2323408017.7497563        19172005.429024696        474145659.24096835     
   2170605824.1877155        19661544.083751202        465387420.17729616     
   2017592149.9646993        19446147.201898694        459265895.78601050     
   1864366995.0807152        18525814.783489466        455781086.06712425     
   2269452203.1631393        22383957.047005177        641327963.06164932     
   2125134878.7415922        25669972.804690242        627395009.54229152     
   1980298911.0397654        27227177.628098845        616706822.89639091     
   1834944300.0576739        27055571.517300367        609263403.12395394     
   1689071045.7953088        25155154.472250402        605064750.22497666     
   2390530646.6997662       -1279463.1539301872       -496486.68119303900     
   2248627120.1787820        6814163.6209708452       -6953654.1380669307     
   2103416118.0510111        3882871.7065938711       -11300535.625424767     
   1954897640.3164554       -10073338.897076726       -13537131.143220432     
   1803071686.9750857       -35054468.190115213       -13663440.691505166     
   2215096795.5329442        5308505.9704126120        153000467.61404294     
   2077359350.6920369        12701359.868159533        142927778.99962416     
   1937435916.4451313        12807582.412585735        134111199.44893259     
   1795326492.7922366        5627173.6037228107        126550728.96194322     
   1651031079.7333465       -8839866.5584584475        120246367.53867719     
   2039708911.6599312        11910265.282871604        305092991.86347979     
   1903697043.0538955        17870194.669896007        292713182.65912926     
   1766620671.2426777        20281780.039630294        280735305.61267865     
   1628479796.2262564        19145021.392033398        269159360.72412443     
   1489274418.0046449        14459918.727129757        257985347.99346682     
   1864366995.0807152        18525814.783489466        455781086.06712425     
   1727640197.2643678        22320668.026239872        442402556.84044200     
   1590970382.4436195        26305464.587654352        428571782.86583054     
   1454357550.6184876        30480204.467787623        414288764.14330047     
   1317801701.7889531        34844887.666604161        399553500.67285639     
   1689071045.7953088        25155154.472250402        605064750.22497666     
   1549188813.3234413        26052779.937144041        591995901.54355073     
   1410485050.0479910        30878636.056745708        577620631.20838821     
   1272959755.9689393        39632722.831017613        561938939.21949267     
   1136612931.0863016        52315040.259990692        544950825.57685268     
   1803071686.9750857       -35054468.190115213       -13663440.691505166     
   1771862577.2041638       -16586418.251656294       -8166745.9140160726     
   1748750476.7721188        28871662.816359282       -41447743.968731500     
   1733735385.6789582        101319775.01401120       -113506434.85566042     
   1726817303.9246755        200757918.34124511       -224342818.57479131     
   1651031079.7333465       -8839866.5584584475        120246367.53867719     
   1528117011.7845962       -13848811.545880735        135726948.91307899     
   1409395762.8957264       -4881693.0003691912        124860715.65809019     
   1294867333.0667448        18061489.078102708        87647667.773703739     
   1184531722.2976413        54980734.689479649        24087805.259938203     
   1489274418.0046449        14459918.727129757        257985347.99346682     
   1310172186.7432728       -3370982.7265688777        278894927.30593377     
   1131358584.2627645       -20239788.244043767        285888570.19183815     
   952833610.56313872       -36146497.825237334        278966276.65117508     
   774597265.64439476       -51091111.470176101        258128046.68394494     
   1317801701.7889531        34844887.666604161        399553500.67285639     
   1118028102.0801480        14847068.206144452        421337189.26456654     
   914638940.87321854       -17202622.914705873        441635819.63253140     
   707634218.16815853       -61304185.695996106        460449391.77675116     
   497013933.96499306       -117457620.13765180        477777905.69721740     
   1136612931.0863016        52315040.259990692        544950825.57685268     
   951684757.79526365        40805341.252366543        563053734.78897119     
   759236832.72709191        4229802.9876460731        592102463.98016787     
   559269155.88179684       -57411574.534148902        632097013.15043938     
   351781727.25938928       -144118791.31300807        683037382.29976702     
   1726817303.9246755        200757918.34124511       -224342818.57479131     
   1456484224.0378928        184614032.99090356       -96692195.235338941     
   1153950269.3806548        61133898.405689776        60110846.233142078     
   819215439.95304835       -169682485.41405904        246066305.83064660     
   452279735.75497401       -507835118.46873391        461174183.55717468     
   1184531722.2976413        54980734.689479649        24087805.259938203     
   977570426.28052616        11873704.610365272        155533925.31235069     
   732764506.73142946       -157382070.57538760        312797417.45751870     
   450113963.65032446       -452786590.86783528        495878281.69542938     
   129618797.03721839       -874339856.26689720        704776518.02609563     
   774597265.64439476       -51091111.470176101        258128046.68394494     
   621479050.53622091       -124019897.16619471        386785289.89414263     
   424872463.13445365       -341909923.84085345        537924859.16080344     
   184777503.43912572       -704761191.49403977        711546754.48397171     
  -98805828.549799442       -1212573700.1258924        907650975.86359680     
   497013933.96499306       -117457620.13765180        477777905.69721740     
   388210096.80495071       -223066772.33887413        597061898.51001763     
   230274138.58976224       -492449661.39062887        735493171.34302759     
   23206059.319433391       -925606287.29284954        893071724.19623315     
  -232994141.00608161       -1522536650.0456271        1069797557.0696729     
   351781727.25938928       -144118791.31300807        683037382.29976702     
   277763565.08673680       -285266920.90761673        786363751.15999246     
   148969533.09734523       -609001283.22468364        905502354.00417078     
  -34600368.708776891       -1115321878.2641885        1040453190.8322781     
  -272946140.33163023       -1804228706.0261416        1191216261.6443396     
   4485012801.2197676       -10518633.318873167        667022933.65491235     
   4341800957.5419950       -8410318.1344223022        681150936.53715169     
   4198212932.1284132       -7555942.0693478584        689943262.00290287     
   4054248724.9790192       -7955505.1236419678        693399910.05217600     
   3909908336.0938087       -9609007.2973127365        691520880.68496227     
   4178490783.6523833        13179504.850600958        788931581.88261807     
   4024734676.0656939        6519265.1564857960        791845583.53506768     
   3870821828.7389851       -663440.33769464493        794007803.03066075     
   3716752241.6722522       -8368611.6319427490        795418240.36939251     
   3562525914.8655057       -16596248.726252079        796076895.55126584     
   3834268543.2315693        25567576.164042473        908556347.00794935     
   3683065015.3348942        14067834.671048164        900512363.09237027     
   3531924189.6939883        2777100.6972918510        896300492.27955508     
   3380846066.3088531       -8304625.7572250366        895920734.56950426     
   3229830645.1794939       -19177344.692500591        899373089.96222258     
   3452346079.9573317        26645580.621457100        1025897229.0309104     
   3316791975.3495941        14235390.409258604        1007151275.2090536     
   3181520014.9934225        2765681.0356055498        996821329.74959075     
   3046530198.8888102       -7763547.4995043278        994907392.65251935     
   2911822527.0357661       -17352295.196065784        1001409463.9178321     
   3032723393.8296671        16413518.222847104        1140954227.9514935     
   2925915556.1097994        7021932.3711221218        1111762319.8851230     
   2819609304.6372867       -697699.32275140285        1095570315.4407680     
   2713804639.4121313       -6745376.8587729931        1092378214.6184297     
   2608501560.4343290       -11121100.236943603        1102186017.4181044     
   3909908336.0938087       -9609007.2973127365        691520880.68496227     
   3792097016.0164013       -3391671.6125104427        681394379.53983831     
   3674603932.9821453        3886454.2161343098        677474588.94272459     
   3557429086.9910407        12225370.188614368        679761508.89361405     
   3440572478.0430918        21625076.304944277        688255139.39249837     
   3562525914.8655057       -16596248.726252079        796076895.55126584     
   3459681758.3127484       -9083788.8413102627        790893592.13722241     
   3357208921.2163067       -333597.43530154228        790717906.07102871     
   3255107403.5761843        9654325.4917585850        795549837.35268152     
   3153377205.3923798        20879979.939889789        805389385.98218787     
   3229830645.1794939       -19177344.692500591        899373089.96222258     
   3138527671.5795035       -11397554.778987765        899194913.76129234     
   3047649099.8489976       -2203091.9671916962        902825261.70805120     
   2957194929.9879804        8406043.7428920269        910264133.80249858     
   2867165161.9964485        20429852.351272941        921511530.04464221     
   2911822527.0357661       -17352295.196065784        1001409463.9178321     
   2828634755.8166738       -10332969.425541043        1006298344.4120430     
   2745924468.8802271       -1722029.3795206547        1013796655.8537815     
   2663691666.2264419        8480524.9420326948        1023904398.2430568     
   2581936347.8553071        20274693.539091349        1036621571.5798672     
   2608501560.4343290       -11121100.236943603        1102186017.4181044     
   2530003011.0242519       -5890032.7809733152        1112203884.0894740     
   2452035028.3099952        1109590.3277257681        1123632088.5082262     
   2374597612.2915592        9877769.0891667604        1136470630.6743536     
   2297690762.9689474        20414503.503344297        1150719510.5878613     
   3440572478.0430918        21625076.304944277        688255139.39249837     
   3273753774.2180190        16135164.385788798        672401783.39477324     
   3106682114.9504485        9802067.6583021879        661242668.07462370     
   2939357500.2403789        2625786.1224851608        654777793.43205309     
   2771779930.0878038       -5393680.2216778994        653007159.46706975     
   3153377205.3923798        20879979.939889789        805389385.98218787     
   2999175852.2623072        16538363.545094848        789609042.91096222     
   2844717954.8237996        11341599.455519199        778575122.26807415     
   2690003513.0768542        5289687.6711444855        772287624.05351710     
   2535032527.0214739       -1617371.8080095053        770746548.26729345     
   2867165161.9964485        20429852.351272941        921511530.04464221     
   2725730250.2778215        17281258.695779800        905800012.88966429     
   2584035205.3848133        13265554.459032774        894887099.91376984     
   2442080027.3174372        8382739.6410495043        888772791.11696994     
   2299864716.0756879        2632814.2418222427        887457086.49925566     
   2581936347.8553071        20274693.539091349        1036621571.5798672     
   2453416968.2645564        18363849.837827086        1020974693.3308707     
   2324633866.6334915        15573932.668850183        1010178601.0117228     
   2195587042.9621234        11904942.032194018        1004233294.6224147     
   2066276497.2504332        7356877.9278098345        1003138774.1629499     
   2297690762.9689474        20414503.503344297        1150719510.5878613     
   2182236006.2225118        19786136.971237183        1135133084.2345960     
   2066513938.5698280        18266734.084956646        1124449625.5619261     
   1950524560.0109043        15856294.844546437        1118669134.5698502     
   1834267870.5457287        12554819.249969244        1117791611.2583725     
   2771779930.0878038       -5393680.2216778994        653007159.46706975     
   2645518341.7905879       -714792.79134619236        646108091.35879397     
   2519709857.8707380        5474442.5635502338        641861869.25513625     
   2394354478.3282604        13174025.843006849        640268493.15608120     
   2269452203.1631393        22383957.047005177        641327963.06164932     
   2535032527.0214739       -1617371.8080095053        770746548.26729345     
   2415936407.8870840        2523438.1296058893        765089261.49580538     
   2297285015.0438690        8146669.0378035307        762415199.80481231     
   2179078348.4918232        15252320.916564107        762724363.19431651     
   2061316408.2309446        23840393.765886188        766016751.66431892     
   2299864716.0756879        2632814.2418222427        887457086.49925566     
   2188878006.3209462        6518728.7517728806        883031806.63064551     
   2078327644.7711828        11859137.278311610        881920130.91842532     
   1968213631.4263885        18654039.821425557        884122059.36258876     
   1858535966.2865734        26903436.381117702        889637591.96313894     
   2066276497.2504332        7356877.9278098345        1003138774.1629499     
   1964343137.0921676        11271079.075151682        999935726.76332676     
   1862837747.0526769        16611847.285073876        1000376662.5959846     
   1761760327.1319621        23379182.557587743        1004461581.6609054     
   1661110877.3300266        31573084.892691612        1012190483.9581089     
   1834267870.5457287        12554819.249969244        1117791611.2583725     
   1742331800.2007535        16780489.099730015        1115801021.8938444     
   1650815321.8883545        22404799.058089435        1117784794.8374782     
   1559718435.6085410        29427749.125057995        1123742930.0892699     
   1469041141.3613029        37849339.300612450        1133675427.6492209     
   2269452203.1631393        22383957.047005177        641327963.06164932     
   2125134878.7415922        25669972.804690242        627395009.54229152     
   1980298911.0397654        27227177.628098845        616706822.89639091     
   1834944300.0576739        27055571.517300367        609263403.12395394     
   1689071045.7953088        25155154.472250402        605064750.22497666     
   2061316408.2309446        23840393.765886188        766016751.66431892     
   1925610760.0847034        27162909.447248459        753504624.42460656     
   1789537894.5688038        29261367.229740739        744363673.61774766     
   1653097811.6832500        30135767.113383174        738593899.24373841     
   1516290511.4280310        29786109.098159909        736195301.30258393     
   1858535966.2865734        26903436.381117702        889637591.96313894     
   1731803164.5853345        30370803.037059069        878722954.56545734     
   1604854571.4250522        33118864.829519033        871305903.16002309     
   1477690186.8057327        35147621.758531630        867386437.74682915     
   1350310010.7273705        36457073.824054658        866964558.32589018     
   1661110877.3300266        31573084.892691612        1012190483.9581089     
   1543712092.2434886        35293653.574125171        1003049999.9648371     
   1426248941.6085284        38799670.427478909        997533511.52321315     
   1308721425.4251423        42091135.452744722        995641018.63322628     
   1191129543.6933279        45168048.649927974        997372521.29487836     
   1469041141.3613029        37849339.300612450        1133675427.6492209     
   1361337543.0591617        41931461.058446944        1126485760.6227546     
   1253721005.1192203        46303784.023598671        1123046498.7073231     
   1146191527.5414667        50966308.196054399        1123357641.9029293     
   1038749110.3259003        55919033.575799227        1127419190.2095666     
   1689071045.7953088        25155154.472250402        605064750.22497666     
   1549188813.3234413        26052779.937144041        591995901.54355073     
   1410485050.0479910        30878636.056745708        577620631.20838821     
   1272959755.9689393        39632722.831017613        561938939.21949267     
   1136612931.0863016        52315040.259990692        544950825.57685268     
   1516290511.4280310        29786109.098159909        736195301.30258393     
   1374517798.9931931        27853838.437504470        727278190.35629058     
   1233050992.5050001        26941254.265677512        718866338.65965676     
   1091890091.9634664        27048356.582702458        710959746.21266842     
   951035097.36858368        28175145.388577044        703558413.01534355     
   1350310010.7273705        36457073.824054658        866964558.32589018     
   1211823049.4821041        33247776.383602440        861181194.65667963     
   1072769430.9337345        28149621.266147912        857714771.14052272     
   933149155.08226180        21162608.471681356        856565287.77741063     
   792962221.92769432        12286738.000218630        857732744.56733906     
   1191129543.6933279        45168048.649927974        997372521.29487836     
   1061104564.7901881        42234593.775467455        993704914.44471431     
   929640365.33418274        34503737.058115244        994165928.65098596     
   796736945.32532763        21975478.497934639        998755563.91369390     
   662394304.76362419        4649818.0949125886        1007473820.2328429     
   1038749110.3259003        55919033.575799227        1127419190.2095666     
   922362344.91743290        54814290.613060683        1124849349.7203889     
   803663795.70635450        46003601.641616285        1128219811.1910396     
   682653462.69266117        29486966.661462337        1137530574.6215303     
   559331345.87636423        5264385.6726296842        1152781640.0118427     
   1136612931.0863016        52315040.259990692        544950825.57685268     
   951684757.79526365        40805341.252366543        563053734.78897119     
   759236832.72709191        4229802.9876460731        592102463.98016787     
   559269155.88179684       -57411574.534148902        632097013.15043938     
   351781727.25938928       -144118791.31300807        683037382.29976702     
   951035097.36858368        28175145.388577044        703558413.01534355     
   791799995.39189887        11148347.109206587        721434442.26480663     
   623925215.02633595       -34677379.133102000        749401729.30127084     
   447410756.27189696       -109302033.33832115        787460274.12472093     
   262256619.12858260       -212725615.50645512        835610076.73515868     
   792962221.92769432        12286738.000218630        857732744.56733906     
   656978585.00227332       -10989641.429823250        874075312.80711269     
   511235343.07622731       -66798037.528630078        899654576.64179206     
   355732496.14954579       -155138450.29621559        934470536.07137549     
   190470044.22223771       -276010879.73255366        978523191.09587383     
   662394304.76362419        4649818.0949125886        1007473820.2328429     
   547220526.62637532       -25608624.364745677        1020976346.4158632     
   421167216.87675917       -92132172.198978901        1042861006.0017184     
   284234375.51474285       -194920825.40786552        1073127798.9903988     
   136422002.54036713       -333974583.99129492        1111776725.3819108     
   559331345.87636423        5264385.6726296842        1152781640.0118427     
   462525820.26421583       -32708601.695529908        1162137543.0910840     
   353720836.42792833       -110679783.14413650        1179021017.3810642     
   232916394.36750120       -228649158.67321706        1203432062.8818007     
   100112494.08294043       -386616728.28274298        1235370679.5932763     
   351781727.25938928       -144118791.31300807        683037382.29976702     
   277763565.08673680       -285266920.90761673        786363751.15999246     
   148969533.09734523       -609001283.22468364        905502354.00417078     
  -34600368.708776891       -1115321878.2641885        1040453190.8322781     
  -272946140.33163023       -1804228706.0261416        1191216261.6443396     
   262256619.12858260       -212725615.50645512        835610076.73515868     
   223566394.16753253       -352393679.10141498        884996943.88024390     
   140647503.58554959       -639490628.09946752        945405359.66576934     
   13499947.382643402       -1074016462.5006018        1016835324.0917461     
  -157876274.44118196       -1655971182.3047972        1099286837.1581798     
   190470044.22223771       -276010879.73255366        978523191.09587383     
   173420084.06279537       -418305179.05089635        986275628.08758187     
   122688662.47824669       -672871016.45292258        1000258928.3762537     
   38275779.468583107       -1039708391.9386659        1020473091.9618897     
  -79818564.966179550       -1518817305.5080867        1046918118.8444446     
   136422002.54036713       -333974583.99129492        1111776725.3819108     
   127324634.77255163       -483001420.75601804        1090199803.7820389     
   95093009.775445402       -709142448.28504431        1070063060.1356264     
   39727127.549042046       -1012397666.5783774        1051366494.4426825     
  -38773011.906643093       -1392767075.6360161        1034110106.7032055     
   100112494.08294043       -386616728.28274298        1235370679.5932763     
   85280046.296789050       -546482404.21678209        1196769470.9635904     
   57860545.477157056       -748304923.59576213        1154817754.9438932     
   17853991.624029875       -992084286.41971481        1109515531.5341511     
  -34739615.262563348       -1277820492.6885822        1060862800.7343823     
   3032723393.8296671        16413518.222847104        1140954227.9514935     
   2925915556.1097994        7021932.3711221218        1111762319.8851230     
   2819609304.6372867       -697699.32275140285        1095570315.4407680     
   2713804639.4121313       -6745376.8587729931        1092378214.6184297     
   2608501560.4343290       -11121100.236943603        1102186017.4181044     
   2607976766.1993685        1869082.1202685833        1219861413.5856595     
   2531826120.9865723       -1113191.3851553202        1199502573.5070963     
   2456086801.6376047       -2724378.6778217554        1188247213.5012751     
   2380758808.1524682       -2964479.7577137947        1186095333.5681939     
   2305842140.5311589       -1833494.6248512268        1193046933.7078502     
   2212512274.8478756       -3890713.0986682177        1297749002.8772178     
   2155886183.4299431       -3803465.8714611530        1286117927.0056748     
   2099581157.4923124       -2646000.3765721321        1279693907.6576052     
   2043597197.0349839       -418316.61400771141        1278476944.8329983     
   1987934302.0579593        2879585.4162356853        1282467038.5318599     
   1846329919.7751954       -865867.43396115303        1374616995.8261504     
   1798095743.4399114       -1048891.0877838135        1371608380.3808520     
   1750092372.2014084       -462564.41900742054        1369910397.9097505     
   1702319806.0596793        893112.57235050201        1369523048.4128439     
   1654778045.0147324        3018139.8863111734        1370446331.8901293     
   1509429700.9813254        10943619.114389002        1450465392.4324651     
   1458454801.0164828        7150532.9658762217        1455973933.6326315     
   1407620445.7648950        3825929.1948726177        1458896684.2577198     
   1356926635.2265575        969807.80137073994        1459233644.3077278     
   1306373369.4014723       -1417831.2146199942        1456984813.7826588     
   2608501560.4343290       -11121100.236943603        1102186017.4181044     
   2530003011.0242519       -5890032.7809733152        1112203884.0894740     
   2452035028.3099952        1109590.3277257681        1123632088.5082262     
   2374597612.2915592        9877769.0891667604        1136470630.6743536     
   2297690762.9689474        20414503.503344297        1150719510.5878613     
   2305842140.5311589       -1833494.6248512268        1193046933.7078502     
   2231819398.9017887        950490.67470300198        1198923517.4369245     
   2158298401.1025057        5406955.4078787565        1207397403.7475638     
   2085279147.1333060        11535899.574670315        1218468592.6397738     
   2012761636.9941933        19337323.175082326        1232137084.1135523     
   1987934302.0579593        2879585.4162356853        1282467038.5318599     
   1921778696.3069897        4233886.9886862040        1284168712.6419382     
   1856096011.5203660        7164591.7756335735        1289654654.1677783     
   1790886247.6980972        11671699.777093887        1298924863.1093786     
   1726149404.8401737        17755210.993040800        1311979339.4667435     
   1654778045.0147324        3018139.8863111734        1370446331.8901293     
   1599880903.2398477        3960156.1609593630        1367939469.7045233     
   1545427859.5635829        6382499.4310003519        1370403839.7688689     
   1491418913.9859300        10285169.696419895        1377839442.0831711     
   1437854066.5068922        15668166.957218945        1390246276.6474261     
   1306373369.4014723       -1417831.2146199942        1456984813.7826588     
   1266126019.7003708        129298.19154036045        1450235788.6246755     
   1226293945.2321496        3060678.3739678264        1449644960.5508389     
   1186877145.9968100        7376309.3326706290        1455212329.5611444     
   1147875621.9943464        13076191.067621231        1466937895.6555972     
   2297690762.9689474        20414503.503344297        1150719510.5878613     
   2182236006.2225118        19786136.971237183        1135133084.2345960     
   2066513938.5698280        18266734.084956646        1124449625.5619261     
   1950524560.0109043        15856294.844546437        1118669134.5698502     
   1834267870.5457287        12554819.249969244        1117791611.2583725     
   2012761636.9941933        19337323.175082326        1232137084.1135523     
   1910282509.8807869        18580339.798794150        1215780869.5009642     
   1807585206.9256086        17096103.616597295        1204532621.5818458     
   1704669728.1286478        14884614.628459215        1198392340.3561876     
   1601536073.4899068        11945872.834392548        1197360025.8239987     
   1726149404.8401737        17755210.993040800        1311979339.4667435     
   1637231618.8251474        17045324.212199986        1294910660.8367105     
   1548144792.0328102        15771968.173655152        1283154947.9130137     
   1458888924.4631631        13935142.877407134        1276712200.6956544     
   1369464016.1162009        11534848.323450685        1275582419.1846335     
   1437854066.5068922        15668166.957218945        1390246276.6474261     
   1363083333.0555859        15181090.211422741        1372522458.2418253     
   1288192693.8914382        14294327.756150484        1360316604.5554359     
   1213182149.0144446        13007879.591392994        1353628715.5882528     
   1138051698.4246018        11321745.717140853        1352458791.3402755     
   1147875621.9943464        13076191.067621231        1466937895.6555972     
   1087837652.5721023        12987637.796460390        1448616261.7163126     
   1027728912.5014862        12663182.364059269        1436017591.5091035     
   967549401.78248966        12102824.770387411        1429141885.0339758     
   907299120.41511512        11306565.015461445        1427989142.2909243     
   1834267870.5457287        12554819.249969244        1117791611.2583725     
   1742331800.2007535        16780489.099730015        1115801021.8938444     
   1650815321.8883545        22404799.058089435        1117784794.8374782     
   1559718435.6085410        29427749.125057995        1123742930.0892699     
   1469041141.3613029        37849339.300612450        1133675427.6492209     
   1601536073.4899068        11945872.834392548        1197360025.8239987     
   1519990899.8292580        15726639.790056229        1196139295.8419616     
   1438824098.3552041        20768647.367710173        1199039870.8998833     
   1358035669.0677419        27071895.567334473        1206061750.9977627     
   1277625611.9668782        34636384.388950884        1217204936.1356087     
   1369464016.1162009        11534848.323450685        1275582419.1846335     
   1298729575.5164452        14996663.297992229        1275083458.7647700     
   1228332287.2572966        19582319.407891333        1278852746.1166618     
   1158272151.3387556        25291816.653145015        1286890281.2403181     
   1088549167.7608263        32125155.033777833        1299196064.1357257     
   1138051698.4246018        11321745.717140853        1352458791.3402755     
   1078547827.2623067        14590559.623521566        1352633510.6622684     
   1019339888.5946351        18845815.178642452        1357223420.4878180     
   960427882.42158544        24087512.382508695        1366228520.8169229     
   901811808.74316239        30315651.235126227        1379648811.6495891     
   907299120.41511512        11306565.015461445        1427989142.2909243     
   859445655.06685233        14508328.766662627        1428789451.5344582     
   811846902.36722493        18559134.679984957        1434151894.0133479     
   764502862.31622899        23458982.755410314        1444076469.7275858     
   717413534.91388106        29207872.992995977        1458563178.6771884     
   1469041141.3613029        37849339.300612450        1133675427.6492209     
   1361337543.0591617        41931461.058446944        1126485760.6227546     
   1253721005.1192203        46303784.023598671        1123046498.7073231     
   1146191527.5414667        50966308.196054399        1123357641.9029293     
   1038749110.3259003        55919033.575799227        1127419190.2095666     
   1277625611.9668782        34636384.388950884        1217204936.1356087     
   1180012808.9439106        37578806.498469949        1211133405.0850122     
   1082376858.1725154        40444069.446556032        1209336626.7492816     
   984717759.65269041        43232173.233208597        1211814601.1284151     
   887035513.38442528        45943117.858404279        1218567328.2224157     
   1088549167.7608263        32125155.033777833        1299196064.1357257     
   1002525296.0279756        34377318.298277855        1294114092.9319463     
   916368068.43606961        36184962.032590479        1293831222.0468581     
   830077484.98510563        37548086.236716777        1298347451.4804587     
   743653545.67508662        38466690.910650253        1307662781.2327580     
   901811808.74316239        30315651.235126227        1379648811.6495891     
   828875004.31136227        32326996.457883924        1375427824.1635559     
   755694635.90988147        33526461.781705916        1376530284.6000497     
   682270703.53872228        33914047.206600457        1382956192.9590578     
   608603207.19787717        33489752.732541591        1394705549.2405825     
   717413534.91388106        29207872.992995977        1458563178.6771884     
   659061933.79406834        31427840.977289110        1455074598.7798481     
   600356560.59394825        32468568.693887740        1457433814.4088535     
   541297415.31353140        32330056.142831028        1465640825.5642099     
   481884497.95279920        31012303.324059129        1479695632.2459109     
   1038749110.3259003        55919033.575799227        1127419190.2095666     
   922362344.91743290        54814290.613060683        1124849349.7203889     
   803663795.70635450        46003601.641616285        1128219811.1910396     
   682653462.69266117        29486966.661462337        1137530574.6215303     
   559331345.87636423        5264385.6726296842        1152781640.0118427     
   887035513.38442528        45943117.858404279        1218567328.2224157     
   785777811.39888942        44089327.664383352        1216200402.7249489     
   682240774.89538121        34637755.743788064        1219703773.4155805     
   576424403.87390304        17588402.096624881        1229077440.2943170     
   468328698.33445877       -7058733.2770892084        1244321403.3611598     
   743653545.67508662        38466690.910650253        1307662781.2327580     
   657324890.62182987        35803848.538171202        1305536628.2257452     
   568749350.33523333        25651388.721225768        1309210765.6351058     
   477926924.81531215        8009311.4598638117        1318685193.4608369     
   384857614.06205863       -17122383.245936483        1333959911.7029438     
   608603207.19787717        33489752.732541591        1394705549.2405825     
   537003582.58623183        29957853.234364152        1392858026.2227783     
   463189522.02590007        19044500.573898673        1396740787.8496044     
   387161025.51688081        749694.75114083290        1406353834.1210797     
   308918093.05916482       -24926564.233938545        1421697165.0371978     
   481884497.95279920        31012303.324059129        1479695632.2459109     
   424813887.29212588        26551341.753051400        1478164596.7160447     
   365561289.96738595        14817091.301818997        1482293840.0590923     
   304126705.97860670       -4190448.0295445472        1492083362.2750554     
   240510135.32576978       -30471276.241097629        1507533163.3639312     
   559331345.87636423        5264385.6726296842        1152781640.0118427     
   462525820.26421583       -32708601.695529908        1162137543.0910840     
   353720836.42792833       -110679783.14413650        1179021017.3810642     
   232916394.36750120       -228649158.67321706        1203432062.8818007     
   100112494.08294043       -386616728.28274298        1235370679.5932763     
   468328698.33445877       -7058733.2770892084        1244321403.3611598     
   390624873.81674284       -41441596.407657757        1242797007.0427294     
   302769641.79718524       -109662484.54437374        1247610165.5313771     
   204763002.27580148       -211721397.68717673        1258760878.8270886     
   96604955.252557889       -347618335.83617085        1276249146.9298635     
   384857614.06205863       -17122383.245936483        1333959911.7029438     
   322855443.77112585       -48935136.199237153        1323711275.1628633     
   252549916.70065367       -108425745.08432755        1318610177.0261843     
   173941032.85064471       -195594209.90121353        1318656617.2928944     
   87028792.221091092       -310440530.64991075        1323850595.9629951     
   308918093.05916482       -24926564.233938545        1421697165.0371978     
   259217530.12736374       -55189221.070262581        1404880347.4514887     
   203061661.13832855       -106969564.76403606        1392021051.8654959     
   140450486.09205937       -180267595.31525886        1383119278.2792215     
   71384004.988539159       -275083312.72398275        1378175026.6926622     
   240510135.32576978       -30471276.241097629        1507533163.3639312     
   199711132.88546467       -60203851.020709127        1486304223.9086025     
   154304875.11021811       -105293943.58346185        1467842790.0493109     
   104291362.00003302       -165741553.92933857        1452148861.7860620     
   49670593.554895908       -241546682.05838886        1439222439.1188488     
   100112494.08294043       -386616728.28274298        1235370679.5932763     
   85280046.296789050       -546482404.21678209        1196769470.9635904     
   57860545.477157056       -748304923.59576213        1154817754.9438932     
   17853991.624029875       -992084286.41971481        1109515531.5341511     
  -34739615.262563348       -1277820492.6885822        1060862800.7343823     
   96604955.252557889       -347618335.83617085        1276249146.9298635     
   79714213.286609173       -488792818.81990051        1221944638.4481051     
   51442305.403619140       -667904521.52710390        1165093981.9218421     
   11789231.603572190       -884953443.95782888        1105697177.3510776     
  -39245008.113510311       -1139939586.1120057        1043754224.7358122     
   87028792.221091092       -310440530.64991075        1323850595.9629951     
   70377925.634005368       -432234369.81573951        1255249655.9316573     
   43551780.246306747       -587945804.98360968        1184906927.2013493     
   6550356.0580097437       -777574836.15347743        1112822409.7720785     
  -40626346.930897474       -1001121463.3253751        1038996103.6438283     
   71384004.988539159       -275083312.72398275        1378175026.6926622     
   57271183.338971645       -376807057.20432407        1296684523.4142525     
   34188970.005237848       -508428773.96521997        1214256590.7824078     
   2137364.9873373806       -669948463.00667083        1130891228.7971318     
  -38883631.714725524       -861366124.32866967        1046588437.4584172     
   49670593.554895908       -241546682.05838886        1439222439.1188488     
   40393986.401519910       -322510880.98560739        1346249240.8958881     
   23353874.680407584       -429353428.47194695        1253142972.6650286     
  -1449741.6084265113       -562074324.51736200        1159903634.4262636     
  -34016862.464996696       -720673569.12189722        1066531226.1795832     
   1509429700.9813254        10943619.114389002        1450465392.4324651     
   1458454801.0164828        7150532.9658762217        1455973933.6326315     
   1407620445.7648950        3825929.1948726177        1458896684.2577198     
   1356926635.2265575        969807.80137073994        1459233644.3077278     
   1306373369.4014723       -1417831.2146199942        1456984813.7826588     
   1172800538.5243654        20426188.546468377        1466971344.8054652     
   1118759777.4450862        12838501.085158229        1464964548.4330423     
   1064824424.5801114        5602174.3381940126        1464060865.1583171     
   1010994479.9294401       -1282791.6944239736        1464260294.9812872     
   957269943.49307132       -7816397.0127006769        1465562837.9019525     
   809019199.06725156        21763104.878495067        1482392084.6316478     
   762452301.65289569        13542733.538199604        1472828958.1045306     
   715955675.95389664        5556601.2490869462        1468057848.3478825     
   669529321.97025084       -2195291.9888454676        1468078755.3617070     
   623173239.70196199       -9712946.1755870879        1472891679.1460049     
   418085682.60998785        14954368.110478386        1496727611.9110160     
   389532373.63991570        9263230.3250045478        1479567162.6470916     
   361014199.88625032        3689209.9275483042        1470887633.8264194     
   332531161.34899330       -1767693.0818765014        1470689025.4489901     
   304083258.02814186       -7107478.7032851577        1478971337.5148141     
  -10.847425247417286       -21.757579758010369        1509977926.6435626     
  -6.5938539427136469       -8.5544257117491806        1485179162.0607338     
  -3.6228261690951138       0.37358392478438196        1472550221.5939226     
  -1.9343392043802297        5.0264557969156334        1472091105.2431378     
  -1.5283921564254945        5.4041960009585051        1483801813.0083773     
   1306373369.4014723       -1417831.2146199942        1456984813.7826588     
   1266126019.7003708        129298.19154036045        1450235788.6246755     
   1226293945.2321496        3060678.3739678264        1449644960.5508389     
   1186877145.9968100        7376309.3326706290        1455212329.5611444     
   1147875621.9943464        13076191.067621231        1466937895.6555972     
   957269943.49307132       -7816397.0127006769        1465562837.9019525     
   931892211.59834850       -5213716.2238215208        1463929184.5987198     
   906825936.15612960       -1572847.2599293590        1467331912.9740815     
   882071117.16641593        3106209.8789774776        1475771023.0280375     
   857627754.62920237        8823455.1928903461        1489246514.7605896     
   623173239.70196199       -9712946.1755870879        1472891679.1460049     
   609459938.74061632       -7016270.0658972859        1476252275.7870827     
   595954275.45139980       -3627468.3824424148        1483527438.7012081     
   582656249.83431256        453458.87477490306        1494717167.8883786     
   569565861.88935399        5226511.7057548165        1509821463.3485928     
   304083258.02814186       -7107478.7032851577        1478971337.5148141     
   298829201.12717235       -5278363.3346878141        1487205062.1897647     
   293678963.11796069       -3103184.9935668260        1498231537.7322128     
   288632544.00049996       -581943.67994214594        1512050764.1421602     
   283689943.77479374        2285360.6061990857        1528662741.4195974     
  -1.5283921564254945        5.4041960009585051        1483801813.0083773     
  -1.2419812431244157        3.9698087308257790        1496787543.8067679     
 -0.84418905016608692        2.9066930867732772        1511444210.0671039     
 -0.33502131929458467        2.2148292357646864        1527771811.7893870     
  0.28552856050219477        1.8942385206176295        1545770348.9736137     
   1147875621.9943464        13076191.067621231        1466937895.6555972     
   1087837652.5721023        12987637.796460390        1448616261.7163126     
   1027728912.5014862        12663182.364059269        1436017591.5091035     
   967549401.78248966        12102824.770387411        1429141885.0339758     
   907299120.41511512        11306565.015461445        1427989142.2909243     
   857627754.62920237        8823455.1928903461        1489246514.7605896     
   812497784.28845489        8726592.1682287455        1471629567.7877049     
   767314735.95838499        8452802.5124940276        1459759266.3193207     
   722078609.63898277        8002086.2256528437        1453635610.3554237     
   676789405.33026028        7374443.3077400327        1453258599.8960285     
   569565861.88935399        5226511.7057548165        1509821463.3485928     
   539411552.83700883        5141637.5896599889        1492929844.7776713     
   509221858.45439076        4938812.3726537228        1481808553.4836588     
   478996778.74149787        4618036.0547314286        1476457589.4665620     
   448736313.69832909        4179308.6358907819        1476876952.7263799     
   283689943.77479374        2285360.6061990857        1528662741.4195974     
   268578958.21776152        2232774.0607429296        1512517092.6861959     
   253450279.98950565        2121211.9445430338        1502165453.0021243     
   238303909.09003049        1950674.2576119751        1497607822.3673859     
   223139845.51932731        1721160.9999194890        1498844200.7819817     
  0.28552856050219477        1.8942385206176295        1545770348.9736137     
  0.43071937957664674        1.5815007728312105        1530391311.5132930     
  0.56373399538200120        1.2281763747038574        1520829964.8747208     
  0.68458247312699805       0.83429748915258806        1517086309.0578980     
  0.79325529661428318       0.39983378329833730        1519160344.0628276     
   907299120.41511512        11306565.015461445        1427989142.2909243     
   859445655.06685233        14508328.766662627        1428789451.5344582     
   811846902.36722493        18559134.679984957        1434151894.0133479     
   764502862.31622899        23458982.755410314        1444076469.7275858     
   717413534.91388106        29207872.992995977        1458563178.6771884     
   676789405.33026028        7374443.3077400327        1453258599.8960285     
   640617477.55254030        9691217.3815426230        1455211626.5385425     
   604636584.26904750        12644773.102766365        1461792546.4639742     
   568846725.47976768        16235110.471367478        1473001359.6723349     
   533247901.18471694        20462229.487399548        1488838066.1636212     
   448736313.69832909        4179308.6358907819        1476876952.7263799     
   424433809.34135872        5667458.7873750776        1479908405.5877161     
   400258661.32419068        7580130.0715343952        1487633511.7795475     
   376210869.64683110        9917322.4883888364        1500052271.3018727     
   352290434.30927807        12679036.037930623        1517164684.1546912     
   223139845.51932731        1721160.9999194890        1498844200.7819817     
   210894650.43329859        2437052.9841306284        1502879788.6819904     
   198713133.53266123        3365205.5863087848        1511674789.9600682     
   186595294.81741071        4505618.8064450324        1525229204.6162066     
   174541134.28755957        5858292.6445795149        1543543032.6504099     
  0.79325529661428318       0.39983378329833730        1519160344.0628276     
  0.82837024785407987       -2.8160944272463573E-002   1524125775.8213642     
  0.89445580063508789      -0.35291963948316946        1533916381.0055315     
  0.99151954961481092      -0.57441837458754919        1548532159.6153343     
   1.1195593902496033      -0.69266277695230727        1567973111.6507642     
   717413534.91388106        29207872.992995977        1458563178.6771884     
   659061933.79406834        31427840.977289110        1455074598.7798481     
   600356560.59394825        32468568.693887740        1457433814.4088535     
   541297415.31353140        32330056.142831028        1465640825.5642099     
   481884497.95279920        31012303.324059129        1479695632.2459109     
   533247901.18471694        20462229.487399548        1488838066.1636212     
   489854972.70888209        22238437.166202486        1486067945.5546076     
   446196715.17860872        23130214.663544834        1489059106.9081874     
   402273128.59391314        23137561.979477525        1497811550.2243581     
   358084212.95477360        22260479.113934189        1512325275.5031331     
   352290434.30927807        12679036.037930623        1517164684.1546912     
   323608996.86669379        13937328.928016946        1515216206.3641863     
   294750673.39555067        14606001.722906366        1518942496.9725280     
   265715463.89584351        14685054.422581941        1528343555.9797084     
   236503368.36757457        14174487.027050547        1543419383.3857331     
   174541134.28755957        5858292.6445795149        1543543032.6504099     
   160324006.26750275        6524516.2627297342        1542519381.2086027     
   146018435.24476483        6895929.8719428778        1547083984.6018832     
   131624421.21932724        6972533.4721556753        1557236842.8302541     
   117141964.19120385        6754327.0634187385        1572977955.8937106     
   1.1195593902496033      -0.69266277695230727        1567973111.6507642     
  0.91131012992261806      -0.82965461424021858        1567977470.0878394     
  0.72625065302249114      -0.88934578565982281        1573483569.7962499     
  0.56436176702619334      -0.87180200101135796        1584491410.7759905     
  0.42566115467544241      -0.77696466476712678        1601000993.0270729     
   481884497.95279920        31012303.324059129        1479695632.2459109     
   424813887.29212588        26551341.753051400        1478164596.7160447     
   365561289.96738595        14817091.301818997        1482293840.0590923     
   304126705.97860670       -4190448.0295445472        1492083362.2750554     
   240510135.32576978       -30471276.241097629        1507533163.3639312     
   358084212.95477360        22260479.113934189        1512325275.5031331     
   315927115.83641082        19108516.237207010        1509268248.9590225     
   272133528.71703732        10501586.690444022        1511720800.4143238     
   226703451.59665152       -3560309.5263589621        1519682929.8690395     
   179636884.47526127       -23077172.413178399        1533154637.3231745     
   236503368.36757457        14174487.027050547        1543419383.3857331     
   208829210.86724460        12202350.667333946        1539472778.6009254     
   180064060.02895206        6593569.8477405980        1540885050.9420381     
   150207915.85269028       -2651855.4317487553        1547656200.4090621     
   119260778.33846340       -15533925.171126008        1559786227.0020099     
   117141964.19120385        6754327.0634187385        1572977955.8937106     
   103520172.38462447        5832845.0434213579        1568778185.6417630     
   89352883.903134689        3093040.7737212665        1569786591.6422293     
   74640098.746708080       -1465085.7457680479        1576003173.8951187     
   59381816.915365279       -7841534.5149770156        1587427932.4004216     
  0.42566115467544241      -0.77696466476712678        1601000993.0270729     
  0.38855237708620216      -0.63452347771657480        1597184470.0815294     
  0.33958422154842205      -0.53161632605205078        1598425422.5149045     
  0.27871306453240507      -0.46838411125817359        1604723850.3271976     
  0.20597717670683663      -0.44470169305219165        1616079753.5184178     
   240510135.32576978       -30471276.241097629        1507533163.3639312     
   199711132.88546467       -60203851.020709127        1486304223.9086025     
   154304875.11021811       -105293943.58346185        1467842790.0493109     
   104291362.00003302       -165741553.92933857        1452148861.7860620     
   49670593.554895908       -241546682.05838886        1439222439.1188488     
   179636884.47526127       -23077172.413178399        1533154637.3231745     
   148399479.11256894       -45568049.550739922        1507470909.9409044     
   113706632.24865994       -79577065.025687575        1484703590.6433566     
   75558343.883551747       -125104218.83796448        1464852679.4305372     
   33954614.017230727       -182149510.98762304        1447918176.3024454     
   119260778.33846340       -15533925.171126008        1559786227.0020099     
   98010405.735341564       -30655473.962080210        1530991494.4988103     
   74456405.464746982       -53455781.644612275        1505262072.5690343     
   48598777.526682012       -83934848.218713358        1482597961.2126706     
   20437521.921146236       -122092673.68437967        1462999160.4297242     
   59381816.915365279       -7841534.5149770156        1587427932.4004216     
   48543912.753786750       -15466124.254727051        1556865977.5823336     
   36554194.758473769       -26930093.440258775        1529518235.8263404     
   23412662.929431520       -42233442.071553260        1505384707.1324615     
   9119317.2666411959       -61376170.148677446        1484465391.5006897     
  0.20597717670683663      -0.44470169305219165        1616079753.5184178     
  0.16791421732906964      -0.42864256100604914        1585094359.1914499     
  0.12985203571743256      -0.41258153029553074        1557472080.4152830     
   9.1782396701138330E-002 -0.39654396982175533        1533212917.1899102     
   5.3723600659713711E-002 -0.38047234776658584        1512316869.5153348     
   49670593.554895908       -241546682.05838886        1439222439.1188488     
   40393986.401519910       -322510880.98560739        1346249240.8958881     
   23353874.680407584       -429353428.47194695        1253142972.6650286     
  -1449741.6084265113       -562074324.51736200        1159903634.4262636     
  -34016862.464996696       -720673569.12189722        1066531226.1795832     
   33954614.017230727       -182149510.98762304        1447918176.3024454     
   29805274.952611566       -242030225.28828177        1347461730.8682406     
   19833307.460714355       -321319701.01319921        1246216988.2887051     
   4038711.5415533185       -420017938.16232735        1144183948.5638444     
  -17578512.804879159       -538124936.73569643        1041362611.6936303     
   20437521.921146236       -122092673.68437967        1462999160.4297242     
   19543373.409773506       -161451526.61913508        1357323823.2814846     
   14767472.611588985       -213749553.84326032        1250204961.8504775     
   6109819.5265909433       -278986755.35676187        1141642576.1367028     
  -6429585.8452164680       -357163131.15963215        1031636666.1401753     
   9119317.2666411959       -61376170.148677446        1484465391.5006897     
   9608281.7730139308       -80774784.978144854        1375835518.1356022     
   8156370.1330214292       -106642986.96216446        1265106893.3503301     
   4763582.3466754630       -138980776.10069576        1152279517.1448629     
  -570081.58601565659       -177788152.39370644        1037353389.5191953     
   5.3723600659713711E-002 -0.38047234776658584        1512316869.5153348     
   4.2318529632926330E-002 -0.36535536500943117        1402996815.4306161     
   2.5017533832095942E-002 -0.36989285261120070        1290922782.7882652     
   1.8193779816044753E-003 -0.39408684648911674        1176094771.5883105     
  -2.7270127548048320E-002 -0.43791728485212311        1058512781.8307235     
  -10.847425247417286       -21.757579758010369        1509977926.6435626     
  -6.5938539427136469       -8.5544257117491806        1485179162.0607338     
  -3.6228261690951138       0.37358392478438196        1472550221.5939226     
  -1.9343392043802297        5.0264557969156334        1472091105.2431378     
  -1.5283921564254945        5.4041960009585051        1483801813.0083773     
  -418085700.56324589       -14954399.859136164        1496727620.4042099     
  -389532384.93619192       -9263241.8543536514        1479567168.6600413     
  -361014206.49532020       -3689207.8035138994        1470887637.3636863     
  -332531165.24062890        1767702.2933904678        1470689026.5151515     
  -304083261.17211783        7107488.4363638759        1478971336.1144338     
  -809019212.81377053       -21763124.721102148        1482392099.1046429     
  -762452310.57953763       -13542739.344583899        1472828968.3115532     
  -715955681.43512714       -5556597.6008039117        1468057854.2980778     
  -669529325.38053644        2195300.5102414191        1468078757.0642118     
  -623173242.41576803        9712954.9885460734        1472891676.6099572     
  -1172800547.5989971       -20426196.343478680        1466971362.7448514     
  -1118759783.5238914       -12838501.025113225        1464964561.0152700     
  -1064824428.4422469       -5602169.0182920098        1464060872.3970909     
  -1010994482.3540614        1282799.6770030260        1464260296.8903134     
  -957269945.25933790        7816405.0607581735        1465562834.4949434     
  -1509429704.9189291       -10943614.726268470        1450465411.3248527     
  -1458454803.7692547       -7150526.8959521055        1455973946.7711897     
  -1407620447.5166781       -3825922.0559651852        1458896691.6607263     
  -1356926636.1612041       -969800.20632034540        1459233645.9934614     
  -1306373369.7028317        1417838.6529864669        1456984809.7693934     
  -1.5283921564254945        5.4041960009585051        1483801813.0083773     
  -1.2419812431244157        3.9698087308257790        1496787543.8067679     
 -0.84418905016608692        2.9066930867732772        1511444210.0671039     
 -0.33502131929458467        2.2148292357646864        1527771811.7893870     
  0.28552856050219477        1.8942385206176295        1545770348.9736137     
  -304083261.17211783        7107488.4363638759        1478971336.1144338     
  -298829203.57169235        5278370.8176265657        1487205061.1662922     
  -293678964.71119994        3103190.7324477136        1498231537.0402973     
  -288632544.59064925        581948.18079559505        1512050763.7364450     
  -283689943.21003133       -2285356.8372996300        1528662741.2547424     
  -623173242.41576803        9712954.9885460734        1472891676.6099572     
  -609459940.75790095        7016277.2084901631        1476252273.9220827     
  -595954276.69128489        3627474.1242663264        1483527437.4165523     
  -582656250.21592104       -453454.26413133740        1494717167.0933671     
  -569565861.33180618       -5226507.9566956460        1509821462.9525266     
  -957269945.25933790        7816405.0607581735        1465562834.4949434     
  -931892212.80060542        5213723.1424040794        1463929182.0741341     
  -906825936.78443515        1572853.0821790099        1467331911.1958725     
  -882071117.21083450       -3106205.1199457049        1475771021.8601527     
  -857627754.07979953       -8823451.4639571309        1489246514.0669758     
  -1306373369.7028317        1417838.6529864669        1456984809.7693934     
  -1266126019.6998029       -129291.38062149286        1450235785.6224513     
  -1226293944.9906597       -3060672.3938448429        1449644958.3782544     
  -1186877145.5753939       -7376304.3866606951        1455212328.0367997     
  -1147875621.4540110       -13076187.359087467        1466937894.5980868     
  0.28552856050219477        1.8942385206176295        1545770348.9736137     
  0.43071937957664674        1.5815007728312105        1530391311.5132930     
  0.56373399538200120        1.2281763747038574        1520829964.8747208     
  0.68458247312699805       0.83429748915258806        1517086309.0578980     
  0.79325529661428318       0.39983378329833730        1519160344.0628276     
  -283689943.21003133       -2285356.8372996300        1528662741.2547424     
  -268578957.40016031       -2232771.0705312192        1512517092.5076022     
  -253450278.92326820       -2121209.7470268905        1502165452.8162735     
  -238303907.77935725       -1950672.8667921275        1497607822.1807539     
  -223139843.96841615       -1721160.4297908396        1498844200.6010435     
  -569565861.33180618       -5226507.9566956460        1509821462.9525266     
  -539411552.04565930       -5141634.7669489980        1492929844.3776314     
  -509221857.41329652       -4938810.4231512845        1481808553.0926056     
  -478996777.43471551       -4618034.9252939522        1476457589.0974500     
  -448736312.10991699       -4179308.2733775973        1476876952.3921604     
  -857627754.07979953       -8823451.4639571309        1489246514.0669758     
  -812497783.50577652       -8726589.5077488720        1471629567.1233847     
  -767314734.90634179       -8452800.8001691401        1459759265.7037218     
  -722078608.28149509       -8002085.3412188888        1453635609.8079865     
  -676789403.63124275       -7374443.1309118271        1453258599.4361830     
  -1147875621.4540110       -13076187.359087467        1466937894.5980868     
  -1087837651.7805119       -12987635.292930901        1448616260.7448604     
  -1027728911.4024119       -12663180.878107786        1436017590.6496179     
  -967549400.31970632       -12102824.114595771        1429141884.3123655     
  -907299118.53238940       -11306565.002382398        1427989141.7331040     
  0.79325529661428318       0.39983378329833730        1519160344.0628276     
  0.82837024785407987       -2.8160944272463573E-002   1524125775.8213642     
  0.89445580063508789      -0.35291963948316946        1533916381.0055315     
  0.99151954961481092      -0.57441837458754919        1548532159.6153343     
   1.1195593902496033      -0.69266277695230727        1567973111.6507642     
  -223139843.96841615       -1721160.4297908396        1498844200.6010435     
  -210894648.80592629       -2437053.1957374811        1502879788.5929410     
  -198713131.76655489       -3365206.3720772117        1511674789.9505548     
  -186595292.85028964       -4505619.9587718025        1525229204.6738923     
  -174541132.05713943       -5858293.9558509737        1543543032.7629511     
  -448736312.10991699       -4179308.2733775973        1476876952.3921604     
  -424433807.70551258       -5667459.1429142803        1479908405.4376431     
  -400258659.57830822       -7580130.9364509284        1487633511.7889388     
  -376210867.72830737       -9917323.6539977789        1500052271.4460406     
  -352290432.15550941       -12679037.295557201        1517164684.4089577     
  -676789403.63124275       -7374443.1309118271        1453258599.4361830     
  -640617475.87038112       -9691217.8696656823        1455211626.3554811     
  -604636582.54080796       -12644774.046048552        1461792546.5206819     
  -568846723.64253044       -16235111.660083711        1473001359.9317799     
  -533247899.17554492       -20462230.711758077        1488838066.5887783     
  -907299118.53238940       -11306565.002382398        1427989141.7331040     
  -859445653.30053341       -14508329.376002282        1428789451.3464494     
  -811846900.65405440       -18559135.700876027        1434151894.1457844     
  -764502860.59295607       -23458983.977020204        1444076470.1311066     
  -717413533.11724377       -29207874.204451293        1458563179.3024189     
   1.1195593902496033      -0.69266277695230727        1567973111.6507642     
  0.91131012992261806      -0.82965461424021858        1567977470.0878394     
  0.72625065302249114      -0.88934578565982281        1573483569.7962499     
  0.56436176702619334      -0.87180200101135796        1584491410.7759905     
  0.42566115467544241      -0.77696466476712678        1601000993.0270729     
  -174541132.05713943       -5858293.9558509737        1543543032.7629511     
  -160324004.43181518       -6524517.7824081630        1542519381.3458006     
  -146018433.76852193       -6895931.4824016765        1547083984.7653446     
  -131624420.06724241       -6972535.0557755306        1557236843.0215876     
  -117141963.32799947       -6754328.5026023872        1572977956.1145308     
  -352290432.15550941       -12679037.295557201        1517164684.4089577     
  -323608995.08128619       -13937330.327080414        1515216206.6548355     
  -294750671.95429778       -14606003.182718575        1518942497.3027732     
  -265715462.77454475       -14685055.862475157        1528343556.3527770     
  -236503367.54202497       -14174488.366342910        1543419383.8048370     
  -533247899.17554492       -20462230.711758077        1488838066.5887783     
  -489854971.03709650       -22238438.463643640        1486067946.0149438     
  -446196713.83109587       -23130215.990355447        1489059107.4085329     
  -402273127.55753428       -23137563.291865960        1497811550.7695491     
  -358084212.21641916       -22260480.368194014        1512325276.0979886     
  -717413533.11724377       -29207874.204451293        1458563179.3024189     
  -659061932.29924917       -31427842.192116201        1455074599.4261298     
  -600356559.39891398       -32468569.905310035        1457433815.0826261     
  -541297414.41622245       -32330057.343982637        1465640826.2719126     
  -481884497.35118270       -31012304.508162633        1479695632.9939868     
  0.42566115467544241      -0.77696466476712678        1601000993.0270729     
  0.38855237708620216      -0.63452347771657480        1597184470.0815294     
  0.33958422154842205      -0.53161632605205078        1598425422.5149045     
  0.27871306453240507      -0.46838411125817359        1604723850.3271976     
  0.20597717670683663      -0.44470169305219165        1616079753.5184178     
  -117141963.32799947       -6754328.5026023872        1572977956.1145308     
  -103520171.60724322       -5832846.2510910630        1568778185.8225536     
  -89352883.229611352       -3093041.8099916242        1569786591.7863781     
  -74640098.195094779        1465084.8207240626        1576003174.0060155     
  -59381816.503698491        7841533.6410349235        1587427932.4814479     
  -236503367.54202497       -14174488.366342910        1543419383.8048370     
  -208829210.12946087       -12202351.825620234        1539472778.9466462     
  -180064059.39124960       -6593570.8660739139        1540885051.2211430     
  -150207915.32739913        2651854.5122697502        1547656200.6283309     
  -119260777.93790838        15533924.309414595        1559786227.1682103     
  -358084212.21641916       -22260480.368194014        1512325276.0979886     
  -315927115.17807865       -19108517.358041972        1509268249.4538031     
  -272133528.14534020       -10501587.699898154        1511720800.8191924     
  -226703451.11819375        3560308.6062751263        1519682930.1941617     
  -179636884.09665510        23077171.560418248        1533154637.5787046     
  -481884497.35118270       -31012304.508162633        1479695632.9939868     
  -424813886.75311309       -26551342.848412022        1478164597.3440270     
  -365561289.49188048       -14817092.311452284        1482293840.5805290     
  -304126705.56748444        4190447.1027196050        1492083362.7034922     
  -240510134.97992843        30471275.394090548        1507533163.7129185     
  0.20597717670683663      -0.44470169305219165        1616079753.5184178     
  0.16791421732906964      -0.42864256100604914        1585094359.1914499     
  0.12985203571743256      -0.41258153029553074        1557472080.4152830     
   9.1782396701138330E-002 -0.39654396982175533        1533212917.1899102     
   5.3723600659713711E-002 -0.38047234776658584        1512316869.5153348     
  -59381816.503698491        7841533.6410349235        1587427932.4814479     
  -48543912.415353991        15466123.422731951        1556865977.6588500     
  -36554194.494471066        26930092.646222688        1529518235.8983104     
  -23412662.741047695        42233441.311514400        1505384707.1998336     
  -9119317.1550838202        61376169.418607086        1484465391.5634241     
  -119260777.93790838        15533924.309414595        1559786227.1682103     
  -98010405.405253947        30655473.152103618        1530991494.6546061     
  -74456405.207516015        53455780.878402859        1505262072.7143271     
  -48598777.344694719        83934847.488314152        1482597961.3473840     
  -20437521.816797383        122092672.98181468        1462999160.5537667     
  -179636884.09665510        23077171.560418248        1533154637.5787046     
  -148399478.80177447        45568048.759505779        1507470910.1787183     
  -113706632.00927705        79577064.283978626        1484703590.8633306     
  -75558343.719154596        125104218.13387015        1464852679.6325510     
  -33954613.931410983        182149510.30916560        1447918176.4863577     
  -240510134.97992843        30471275.394090548        1507533163.7129185     
  -199711132.60492665        60203850.244901776        1486304224.2311933     
  -154304874.89976102        105293942.86292915        1467842790.3453267     
  -104291361.86442523        165741553.24819085        1452148862.0553300     
  -49670593.498937085        241546681.40062276        1439222439.3611984     
   5.3723600659713711E-002 -0.38047234776658584        1512316869.5153348     
   4.2318529632926330E-002 -0.36535536500943117        1402996815.4306161     
   2.5017533832095942E-002 -0.36989285261120070        1290922782.7882652     
   1.8193779816044753E-003 -0.39408684648911674        1176094771.5883105     
  -2.7270127548048320E-002 -0.43791728485212311        1058512781.8307235     
  -9119317.1550838202        61376169.418607086        1484465391.5634241     
  -9608281.6839216910        80774784.276235372        1375835518.1815703     
  -8156370.0772015452        106642986.25239283        1265106893.3802860     
  -4763582.3349187896        138980775.34708625        1152279517.1595540     
   570081.54293560237        177788151.56035870        1037353389.5193594     
  -20437521.816797383        122092672.98181468        1462999160.5537667     
  -19543373.325435564        161451525.94323403        1357323823.3731651     
  -14767472.557055205        213749553.16138148        1250204961.9112899     
  -6109819.5116541982        278986754.63627017        1141642576.1681449     
   6429585.8107785732        357163130.36792588        1031636666.1437110     
  -33954613.931410983        182149510.30916560        1447918176.4863577     
  -29805274.882218719        242030224.63565692        1347461731.0053720     
  -19833307.414546207        321319700.35708225        1246216988.3812816     
  -4038711.5283865631        420017937.47346330        1144183948.6140952     
   17578512.776253700        538124935.98478270        1041362611.7037978     
  -49670593.498937085        241546681.40062276        1439222439.3611984     
  -40393986.354266703        322510880.35351360        1346249241.0781987     
  -23353874.649670243        429353427.83949476        1253142972.7902696     
   1449741.6148695648        562074323.85862005        1159903634.4973991     
   34016862.439365745        720673568.41093051        1066531226.1996082     
  -1509429704.9189291       -10943614.726268470        1450465411.3248527     
  -1458454803.7692547       -7150526.8959521055        1455973946.7711897     
  -1407620447.5166781       -3825922.0559651852        1458896691.6607263     
  -1356926636.1612041       -969800.20632034540        1459233645.9934614     
  -1306373369.7028317        1417838.6529864669        1456984809.7693934     
  -1846329918.8071709        865883.16719543934        1374617015.7267828     
  -1798095743.0432060        1048902.5881932974        1371608394.4932952     
  -1750092371.9798489        462573.00717377663        1369910406.2297521     
  -1702319805.6170976       -893105.57586812973        1369523050.9361548     
  -1654778043.9549496       -3018133.1609251499        1370446328.6124980     
  -2212512269.3940830        3890740.0510549545        1297749021.3755214     
  -2155886180.3679895        3803482.6570841074        1286117940.3581197     
  -2099581155.8460028        2646010.2494167089        1279693915.8374114     
  -2043597195.8281281        418322.82804441452        1278476947.8133912     
  -1987934300.3143630       -2879579.6070235968        1282467036.2860584     
  -2607976756.6796665       -1869044.0746867657        1219861428.2710693     
  -2531826115.7435927        1113213.3107337952        1199502584.3656697     
  -2456086799.1151357        2724389.6707698107        1188247220.4837041     
  -2380758806.7942948        2964485.0054218769        1186095336.6251740     
  -2305842138.7810659        1833499.3146917820        1193046932.7900751     
  -3032723380.6639209       -16413469.210026503        1140954236.4134338     
  -2925915549.1700311       -7021905.4508752823        1111762326.5159407     
  -2819609301.7872567        697711.27122235298        1095570320.1686316     
  -2713804638.5156054        6745380.9562420845        1092378217.3715003     
  -2608501559.3550687        11121103.604210615        1102186018.1245496     
  -1306373369.7028317        1417838.6529864669        1456984809.7693934     
  -1266126019.6998029       -129291.38062149286        1450235785.6224513     
  -1226293944.9906597       -3060672.3938448429        1449644958.3782544     
  -1186877145.5753939       -7376304.3866606951        1455212328.0367997     
  -1147875621.4540110       -13076187.359087467        1466937894.5980868     
  -1654778043.9549496       -3018133.1609251499        1370446328.6124980     
  -1599880902.1074336       -3960149.4813761711        1367939467.1097736     
  -1545427858.4984424       -6382493.2635735869        1370403837.7277985     
  -1491418913.1279721       -10285164.507508755        1377839440.4665723     
  -1437854065.9960265       -15668163.213193297        1390246275.3260970     
  -1987934300.3143630       -2879579.6070235968        1282467036.2860584     
  -1921778694.5709107       -4233880.5988806486        1284168710.6588025     
  -1856096010.0106256       -7164585.5346286297        1289654652.3702996     
  -1790886246.6335015       -11671694.414248705        1298924861.4205561     
  -1726149404.4395440       -17755207.237751365        1311979337.8095677     
  -2305842138.7810659        1833499.3146917820        1193046932.7900751     
  -2231819397.0902295       -950484.73313796520        1198923516.2695374     
  -2158298399.5272026       -5406949.2069970369        1207397402.3057618     
  -2085279146.0919797       -11535894.106870174        1218468590.8987479     
  -2012761636.7845635       -19337319.432765841        1232137082.0485010     
  -2608501559.3550687        11121103.604210615        1102186018.1245496     
  -2530003009.6653976        5890038.1158432961        1112203883.9419792     
  -2452035027.0481787       -1109584.2806892395        1123632087.5341790     
  -2374597611.5034046       -9877763.5853774548        1136470628.9011526     
  -2297690763.0310774       -20414499.798218608        1150719508.0428932     
  -1147875621.4540110       -13076187.359087467        1466937894.5980868     
  -1087837651.7805119       -12987635.292930901        1448616260.7448604     
  -1027728911.4024119       -12663180.878107786        1436017590.6496179     
  -967549400.31970632       -12102824.114595771        1429141884.3123655     
  -907299118.53238940       -11306565.002382398        1427989141.7331040     
  -1437854065.9960265       -15668163.213193297        1390246275.3260970     
  -1363083332.2785318       -15181087.825405300        1372522457.0528333     
  -1288192692.7723231       -14294326.475233316        1360316603.5196667     
  -1213182147.4773996       -13007879.162679672        1353628714.7265861     
  -1138051696.3937564       -11321745.887726724        1352458790.6736047     
  -1726149404.4395440       -17755207.237751365        1311979337.8095677     
  -1637231618.1577556       -17045321.972242415        1294910659.3810678     
  -1548144791.0031395       -15771967.130646944        1283154946.6747651     
  -1458888922.9756944       -13935142.712950885        1276712199.6906619     
  -1369464014.0754211       -11534848.719158828        1275582418.4287531     
  -2012761636.7845635       -19337319.432765841        1232137082.0485010     
  -1910282509.4181771       -18580337.733444691        1215780867.7295601     
  -1807585206.0948553       -17096102.844327211        1204532620.1149230     
  -1704669726.8145893       -14884614.765398622        1198392339.2045853     
  -1601536071.5773859       -11945873.496685088        1197360024.9985559     
  -2297690763.0310774       -20414499.798218608        1150719508.0428932     
  -2182236006.0597973       -19786135.108993292        1135133082.0983100     
  -2066513938.0474684       -18266733.616269827        1124449623.8401337     
  -1950524558.9940851       -15856295.320032477        1118669133.2683644     
  -1834267868.8996499       -12554820.220291018        1117791610.3830023     
  -907299118.53238940       -11306565.002382398        1427989141.7331040     
  -859445653.30053341       -14508329.376002282        1428789451.3464494     
  -811846900.65405440       -18559135.700876027        1434151894.1457844     
  -764502860.59295607       -23458983.977020204        1444076470.1311066     
  -717413533.11724377       -29207874.204451293        1458563179.3024189     
  -1138051696.3937564       -11321745.887726724        1352458790.6736047     
  -1078547825.4522686       -14590560.391640425        1352633510.3991601     
  -1019339886.9387664       -18845816.322162747        1357223420.5915873     
  -960427880.85324371       -24087513.679288149        1366228521.2508862     
  -901811807.19570184       -30315652.463016093        1379648812.3770592     
  -1369464014.0754211       -11534848.719158828        1275582418.4287531     
  -1298729573.7646410       -14996664.255479813        1275083458.4501510     
  -1228332285.7244406       -19582320.693738461        1278852746.2193041     
  -1158272149.9548228       -25291818.033937037        1286890281.7362142     
  -1088549166.4557896       -32125156.276083231        1299196065.0008779     
  -1601536071.5773859       -11945873.496685088        1197360024.9985559     
  -1519990898.2376404       -15726640.967505515        1196139295.4994249     
  -1438824097.0110786       -20768648.815606475        1199039871.0289345     
  -1358035667.8976991       -27071897.040981591        1206061751.5870845     
  -1277625610.8975010       -34636385.643627465        1217204937.1738751     
  -1834267868.8996499       -12554820.220291018        1117791610.3830023     
  -1742331798.8712759       -16780490.527728677        1115801021.5469782     
  -1650815320.7986784       -22404800.687757373        1117784795.0204785     
  -1559718434.6818669       -29427750.700403869        1123742930.8035021     
  -1469041140.5208421       -37849340.565673947        1133675428.8960466     
  -717413533.11724377       -29207874.204451293        1458563179.3024189     
  -659061932.29924917       -31427842.192116201        1455074599.4261298     
  -600356559.39891398       -32468569.905310035        1457433815.0826261     
  -541297414.41622245       -32330057.343982637        1465640826.2719126     
  -481884497.35118270       -31012304.508162633        1479695632.9939868     
  -901811807.19570184       -30315652.463016093        1379648812.3770592     
  -828875003.02421200       -32326997.601296961        1375427824.9097793     
  -755694634.89203107       -33526462.870598435        1376530285.3702283     
  -682270702.79915488       -33914048.270916283        1382956193.7584128     
  -608603206.74559188       -33489753.802285135        1394705550.0743287     
  -1088549166.4557896       -32125156.276083231        1299196065.0008779     
  -1002525294.9452471       -34377319.369292736        1294114093.8006701     
  -916368067.59567046       -36184962.999051005        1293831222.9231424     
  -830077484.40705895       -37548087.165361613        1298347452.3682923     
  -743653545.37941146       -38466691.868224055        1307662782.1361148     
  -1277625610.8975010       -34636385.643627465        1217204937.1738751     
  -1180012808.0623534       -37578807.496109903        1211133406.0988116     
  -1082376857.5098295       -40444070.290665686        1209336627.7413688     
  -984717759.23992658       -43232174.027292609        1211814602.1015463     
  -887035513.25264633       -45943118.705997616        1218567329.1793475     
  -1469041140.5208421       -37849340.565673947        1133675428.8960466     
  -1361337542.3755355       -41931461.981759787        1126485761.8041954     
  -1253721004.6345012       -46303784.745412588        1123046499.8249099     
  -1146191527.2977586       -50966308.856705785        1123357642.9581807     
  -1038749110.3652911       -55919034.315587461        1127419191.2040248     
  -481884497.35118270       -31012304.508162633        1479695632.9939868     
  -424813886.75311309       -26551342.848412022        1478164597.3440270     
  -365561289.49188048       -14817092.311452284        1482293840.5805290     
  -304126705.56748444        4190447.1027196050        1492083362.7034922     
  -240510134.97992843        30471275.394090548        1507533163.7129185     
  -608603206.74559188       -33489753.802285135        1394705550.0743287     
  -537003582.17214370       -29957854.244360447        1392858026.9341052     
  -463189521.64732814       -19044501.515215769        1396740788.4504390     
  -387161025.17112911       -749695.61479212344        1406353834.6233358     
  -308918092.74355245        24926563.456892893        1421697165.4527831     
  -743653545.37941146       -38466691.868224055        1307662782.1361148     
  -657324890.34460020       -35803849.466354936        1305536629.0085409     
  -568749350.07020187       -25651389.599199593        1309210766.3076265     
  -477926924.55620587       -8009312.2667132914        1318685194.0333631     
  -384857613.80262566        17122382.531047150        1333959912.1857584     
  -887035513.25264633       -45943118.705997616        1218567329.1793475     
  -785777811.27047455       -44089328.514369041        1216200403.5673394     
  -682240774.76050031       -34637756.563397884        1219703774.1520884     
  -576424403.72272170       -17588402.853079647        1229077440.9335907     
  -468328698.15714329        7058732.6165714264        1244321403.9118421     
  -1038749110.3652911       -55919034.315587461        1127419191.2040248     
  -922362344.94976819       -54814291.388405472        1124849350.6105001     
  -803663795.71823716       -46003602.407857686        1128219811.9838297     
  -682653462.67067099       -29486967.373865157        1137530575.3240075     
  -559331345.80710387       -5264386.2865305543        1152781640.6310399     
  -240510134.97992843        30471275.394090548        1507533163.7129185     
  -199711132.60492665        60203850.244901776        1486304224.2311933     
  -154304874.89976102        105293942.86292915        1467842790.3453267     
  -104291361.86442523        165741553.24819085        1452148862.0553300     
  -49670593.498937085        241546681.40062276        1439222439.3611984     
  -308918092.74355245        24926563.456892893        1421697165.4527831     
  -259217529.87421167        55189220.365786657        1404880347.8266950     
  -203061660.95314103        106969564.11378025        1392021052.2023752     
  -140450485.98035607        180267594.70082480        1383119278.5798111     
  -71384004.955834180        275083312.12698632        1378175026.9590123     
  -384857613.80262566        17122382.531047150        1333959912.1857584     
  -322855443.56494832        48935135.560247689        1323711275.5904713     
  -252549916.55399615        108425744.50037627        1318610177.4028385     
  -173941032.76975876        195594209.35144407        1318656617.6228645     
  -87028792.212235928        310440530.11346853        1323850596.2505438     
  -468328698.15714329        7058732.6165714264        1244321403.9118421     
  -390624873.67715275        41441595.828249246        1242797007.5225024     
  -302769641.70232129        109662484.02272756        1247610165.9467154     
  -204763002.23264500        211721397.20002484        1258760879.1844766     
  -96604955.268133298        347618335.36010367        1276249147.2357988     
  -559331345.80710387       -5264386.2865305543        1152781640.6310399     
  -462525820.21080106        32708601.169847637        1162137543.6227996     
  -353720836.39811230        110679782.68085408        1179021017.8340096     
  -232916394.36902165        228649158.24653059        1203432063.2646668     
  -100112494.12351862        386616727.86691242        1235370679.9147651     
  -49670593.498937085        241546681.40062276        1439222439.3611984     
  -40393986.354266703        322510880.35351360        1346249241.0781987     
  -23353874.649670243        429353427.83949476        1253142972.7902696     
   1449741.6148695648        562074323.85862005        1159903634.4973991     
   34016862.439365745        720673568.41093051        1066531226.1996082     
  -71384004.955834180        275083312.12698632        1378175026.9590123     
  -57271183.308160558        376807056.63159961        1296684523.6125851     
  -34188969.981521666        508428773.39943397        1214256590.9153144     
  -2137364.9759231210        669948462.43046129        1130891228.8671935     
   38883631.708640009        861366123.72470558        1046588437.4682202     
  -87028792.212235928        310440530.11346853        1323850596.2505438     
  -70377925.621312559        432234369.30192137        1255249656.1462197     
  -43551780.232403576        587945804.48366296        1184906927.3451250     
  -6550356.0455210507        777574835.65864754        1112822409.8472519     
   40626346.939344704        1001121462.8269098        1038996103.6526366     
  -96604955.268133298        347618335.36010367        1276249147.2357988     
  -79714213.293727338        488792818.36447108        1221944638.6790879     
  -51442305.402325600        667904521.09216058        1165093982.0797036     
  -11789231.593923390        884953443.54318595        1105697177.4376352     
   39245008.131479919        1139939585.7175434        1043754224.7528754     
  -100112494.12351862        386616727.86691242        1235370679.9147651     
  -85280046.325410604        546482403.81922674        1196769471.2112155     
  -57860545.491265863        748304923.22499430        1154817755.1190543     
  -17853991.621115685        992084286.08410764        1109515531.6382787     
   34739615.285045743        1277820492.3966060        1060862800.7689085     
  -3032723380.6639209       -16413469.210026503        1140954236.4134338     
  -2925915549.1700311       -7021905.4508752823        1111762326.5159407     
  -2819609301.7872567        697711.27122235298        1095570320.1686316     
  -2713804638.5156054        6745380.9562420845        1092378217.3715003     
  -2608501559.3550687        11121103.604210615        1102186018.1245496     
  -3452346070.9250531       -26645545.096276522        1025897230.9320341     
  -3316791970.7433815       -14235370.446624517        1007151277.2329370     
  -3181520013.2859344       -2765671.5443843603        996821331.84567559     
  -3046530198.5527105        7763551.6104521751        994907394.77026057     
  -2911822526.5437012        17352299.017887712        1001409466.0066872     
  -3834268538.8866458       -25567554.292662859        908556345.00732374     
  -3683065013.5553055       -14067821.813960552        900512362.45798862     
  -3531924189.5612869       -2777093.7929997444        896300492.98216414     
  -3380846066.9045925        8304629.7702226639        895920736.57984233     
  -3229830645.5852213        19177348.875704050        899373093.25102675     
  -4178490784.5486951       -13179496.799187183        788931578.63927567     
  -4024734677.6057940       -6519259.5528655052        791845582.19109952     
  -3870821830.6133094        663444.52538490295        794007803.57808757     
  -3716752243.5712562        8368615.4355633259        795418242.80024660     
  -3562525916.4796214        16596253.177653551        796076899.85757244     
  -4485012807.9112072        10518627.384149790        667022931.82791352     
  -4341800962.8948469        8410316.3366670609        681150936.43226767     
  -4198212936.4420080        7555943.4107699394        689943263.63345361     
  -4054248728.5526996        7955508.6064608097        693399913.43147159     
  -3909908339.2269096        9609011.9237334728        691520885.82632399     
  -2608501559.3550687        11121103.604210615        1102186018.1245496     
  -2530003009.6653976        5890038.1158432961        1112203883.9419792     
  -2452035027.0481787       -1109584.2806892395        1123632087.5341790     
  -2374597611.5034046       -9877763.5853774548        1136470628.9011526     
  -2297690763.0310774       -20414499.798218608        1150719508.0428932     
  -2911822526.5437012        17352299.017887712        1001409466.0066872     
  -2828634755.0546422        10332974.811848044        1006298345.1427797     
  -2745924468.1759768        1722035.2378193140        1013796655.2846354     
  -2663691665.9077086       -8480519.7041876316        1023904396.4322526     
  -2581936348.2498302       -20274690.014170885        1036621568.5856349     
  -3229830645.5852213        19177348.875704050        899373093.25102675     
  -3138527671.6367912        11397560.149981499        899194915.24484539     
  -3047649099.8367014        2203097.5964568853        902825261.47541690     
  -2957194930.1849566       -8406038.7848742008        910264131.94274557     
  -2867165162.6815491       -20429848.994004846        921511526.64682555     
  -3562525916.4796214        16596253.177653551        796076899.85757244     
  -3459681759.4118495        9083794.1302390099        790893594.24817741     
  -3357208922.0303612        333602.79521203041        790717906.10652924     
  -3255107404.3351636       -9654320.8274534941        795549835.43262839     
  -3153377206.3262501       -20879976.737734079        805389382.22647345     
  -3909908339.2269096        9609011.9237334728        691520885.82632399     
  -3792097018.3798084        3391676.7526342869        681394382.15277445     
  -3674603934.7569451       -3886449.1659140587        677474589.17796719     
  -3557429088.3583183       -12225365.831917524        679761506.90189803     
  -3440572479.1839223       -21625073.245357990        688255135.32456779     
  -2297690763.0310774       -20414499.798218608        1150719508.0428932     
  -2182236006.0597973       -19786135.108993292        1135133082.0983100     
  -2066513938.0474684       -18266733.616269827        1124449623.8401337     
  -1950524558.9940851       -15856295.320032477        1118669133.2683644     
  -1834267868.8996499       -12554820.220291018        1117791610.3830023     
  -2581936348.2498302       -20274690.014170885        1036621568.5856349     
  -2453416968.4096065       -18363848.046150446        1020974690.9018832     
  -2324633866.4051647       -15573932.197398901        1010178599.1358025     
  -2195587042.2365007       -11904942.467913628        1004233293.2873956     
  -2066276495.9036233       -7356878.8577064276        1003138773.3566564     
  -2867165162.6815491       -20429848.994004846        921511526.64682555     
  -2725730250.7402020       -17281256.977540255        905800010.20093393     
  -2584035205.5114646       -13265554.003112435        894887097.90398133     
  -2442080026.9953437       -8382740.0707296133        888772789.75596321     
  -2299864715.1918325       -2632815.1803942919        887457085.75688124     
  -3153377206.3262501       -20879976.737734079        805389382.22647345     
  -2999175853.0515924       -16538361.903168321        789609039.99546969     
  -2844717955.3663750       -11341599.033400774        778575120.14466822     
  -2690003513.2706070       -5289688.1284716129        772287622.67406917     
  -2535032526.7642841        1617370.8116391897        770746547.58366787     
  -3440572479.1839223       -21625073.245357990        688255135.32456779     
  -3273753775.3437700       -16135162.823032498        672401780.28548348     
  -3106682115.9698896       -9802067.2882767916        661242665.85786486     
  -2939357501.0622935       -2625786.6411306858        654777792.04171407     
  -2771779930.6209736        5393679.1184182167        653007158.83702636     
  -1834267868.8996499       -12554820.220291018        1117791610.3830023     
  -1742331798.8712759       -16780490.527728677        1115801021.5469782     
  -1650815320.7986784       -22404800.687757373        1117784795.0204785     
  -1559718434.6818669       -29427750.700403869        1123742930.8035021     
  -1469041140.5208421       -37849340.565673947        1133675428.8960466     
  -2066276495.9036233       -7356878.8577064276        1003138773.3566564     
  -1964343136.0555196       -11271080.471880436        999935726.52090466     
  -1862837746.2478724       -16611848.887564898        1000376662.9231241     
  -1761760326.4806700       -23379184.104733229        1004461582.5633198     
  -1661110876.7539172       -31573086.123414457        1012190485.4414887     
  -2299864715.1918325       -2632815.1803942919        887457085.75688124     
  -2188878005.7284393       -6518730.1626616716        883031806.48928773     
  -2078327644.3901615       -11859138.895300746        881920131.38811815     
  -1968213631.1769981       -18654041.378330112        884122060.45337164     
  -1858535966.0889568       -26903437.611760974        889637593.68505251     
  -2535032526.7642841        1617370.8116391897        770746547.58366787     
  -2415936407.8900247       -2523439.6000292301        765089261.45212615     
  -2297285015.2255459       -8146670.7109653950        762415200.41545510     
  -2179078348.7708540       -15252322.521189928        762724364.47365952     
  -2061316408.5259404       -23840395.030679107        766016753.62673903     
  -2771779930.6209736        5393679.1184182167        653007158.83702636     
  -2645518342.5402822        714791.21599137783        646108091.40941882     
  -2519709858.7540269       -5474444.3345580101        641861870.00513947     
  -2394354479.2622242       -13174027.533282876        640268494.62418342     
  -2269452204.0648766       -22383958.380189657        641327965.26655221     
  -1469041140.5208421       -37849340.565673947        1133675428.8960466     
  -1361337542.3755355       -41931461.981759787        1126485761.8041954     
  -1253721004.6345012       -46303784.745412588        1123046499.8249099     
  -1146191527.2977586       -50966308.856705785        1123357642.9581807     
  -1038749110.3652911       -55919034.315587461        1127419191.2040248     
  -1661110876.7539172       -31573086.123414457        1012190485.4414887     
  -1543712091.8053079       -35293654.450636446        1003050001.2987301     
  -1426248941.3492577       -38799671.086401761        997533512.71775305     
  -1308721425.3857887       -42091136.030763507        995641019.69855285     
  -1191129543.9148822       -45168049.283680439        997372522.24113595     
  -1858535966.0889568       -26903437.611760974        889637593.68505251     
  -1731803164.4821260       -30370803.893618345        878722956.05504656     
  -1604854571.4561617       -33118865.445029438        871305904.43603659     
  -1477690187.0110567       -35147622.265979409        867386438.82802474     
  -1350310011.1468239       -36457074.356488705        866964559.23100460     
  -2061316408.5259404       -23840395.030679107        766016753.62673903     
  -1925610760.4059942       -27162910.310719490        753504626.07314909     
  -1789537894.9552040       -29261367.821284890        744363674.97976720     
  -1653097812.1735747       -30135767.562380314        738593900.34659970     
  -1516290512.0610969       -29786109.533977926        736195302.17364323     
  -2269452204.0648766       -22383958.380189657        641327965.26655221     
  -2125134879.5769107       -25669973.701945186        627395011.35303283     
  -1980298911.8464093       -27227178.215225935        616706824.34894061     
  -1834944300.8733354       -27055571.919938207        609263404.25427413     
  -1689071046.6577229       -25155154.816199839        605064751.06903732     
  -1038749110.3652911       -55919034.315587461        1127419191.2040248     
  -922362344.94976819       -54814291.388405472        1124849350.6105001     
  -803663795.71823716       -46003602.407857686        1128219811.9838297     
  -682653462.67067099       -29486967.373865157        1137530575.3240075     
  -559331345.80710387       -5264386.2865305543        1152781640.6310399     
  -1191129543.9148822       -45168049.283680439        997372522.24113595     
  -1061104564.9780293       -42234594.424367547        993704915.29534459     
  -929640365.47884512       -34503737.690623105        994165929.41477847     
  -796736945.41733813       -21975479.082466543        998755564.59943366     
  -662394304.79350638       -4649818.5998938382        1007473820.8493109     
  -1350310011.1468239       -36457074.356488705        866964559.23100460     
  -1211823049.8361394       -33247776.909269214        861181195.47031152     
  -1072769431.2168220       -28149621.766614139        857714771.87320292     
  -933149155.28887343       -21162608.928522110        856565288.43969584     
  -792962222.05229604       -12286738.394993216        857732745.16977513     
  -1516290512.0610969       -29786109.533977926        736195302.17364323     
  -1374517799.5241008       -27853838.843140423        727278191.13539326     
  -1233050992.9321647       -26941254.635820866        718866339.35910964     
  -1091890092.2852871       -27048356.912037671        710959746.84478593     
  -951035097.58346939       -28175145.671797812        703558413.59243274     
  -1689071046.6577229       -25155154.816199839        605064751.06903732     
  -1549188814.0419157       -26052780.225954354        591995902.29059684     
  -1410485050.6248622       -30878636.298210561        577620631.87248898     
  -1272959756.4065716       -39632723.033021986        561938939.81471837     
  -1136612931.3870325       -52315040.430325866        544950826.11727929     
  -559331345.80710387       -5264386.2865305543        1152781640.6310399     
  -462525820.21080106        32708601.169847637        1162137543.6227996     
  -353720836.39811230        110679782.68085408        1179021017.8340096     
  -232916394.36902165        228649158.24653059        1203432063.2646668     
  -100112494.12351862        386616727.86691242        1235370679.9147651     
  -662394304.79350638       -4649818.5998938382        1007473820.8493109     
  -547220526.65616345        25608623.926744938        1020976346.9385948     
  -421167216.91190100        92132171.809796304        1042861006.4391730     
  -284234375.56072038        194920825.04924566        1073127799.3510358     
  -136422002.60261425        333974583.64509112        1111776725.6742013     
  -792962222.05229604       -12286738.394993216        857732745.16977513     
  -656978585.11149323        10989641.080683678        874075313.31218755     
  -511235343.17325252        66798037.214482129        899654577.05774009     
  -355732496.23757565        155138450.00640693        934470536.40642440     
  -190470044.30445781        276010879.45646209        978523191.35823715     
  -951035097.58346939       -28175145.671797812        703558413.59243274     
  -791799995.57679617       -11148347.368368715        721434442.74358368     
  -623925215.18217373        34677378.894897550        749401729.68970597     
  -447410756.39959067        109302033.11802366        787460274.43080759     
  -262256619.22905055        212725615.30100667        835610076.96688116     
  -1136612931.3870325       -52315040.430325866        544950826.11727929     
  -951684758.05208683       -40805341.420444071        563053735.23276746     
  -759236832.93866277       -4229803.1489673853        592102464.33507502     
  -559269156.04676664        57411574.384079635        632097013.42420435     
  -351781727.37639463        144118791.17871916        683037382.50015032     
  -100112494.12351862        386616727.86691242        1235370679.9147651     
  -85280046.325410604        546482403.81922674        1196769471.2112155     
  -57860545.491265863        748304923.22499430        1154817755.1190543     
  -17853991.621115685        992084286.08410764        1109515531.6382787     
   34739615.285045743        1277820492.3966060        1060862800.7689085     
  -136422002.60261425        333974583.64509112        1111776725.6742013     
  -127324634.81885400        483001420.42789364        1090199804.0043304     
  -95093009.802929580        709142447.98455739        1070063060.2896017     
  -39727127.554854810        1012397666.3150584        1051366494.5300316     
   38773011.925359249        1392767075.4193821        1034110106.7256138     
  -190470044.30445781        276010879.45646209        978523191.35823715     
  -173420084.12430894        418305178.79297048        986275628.28420722     
  -122688662.51586753        672871016.22377729        1000258928.5090744     
  -38275779.479144216        1039708391.7488569        1020473092.0328561     
   79818564.985862911        1518817305.3682151        1046918118.8555460     
  -262256619.22905055        212725615.30100667        835610076.96688116     
  -223566394.24177819        352393678.91443634        884996944.05084920     
  -140647503.63008532        639490627.94260693        945405359.77747393     
  -13499947.393978834        1074016462.3854916        1016835324.1467503     
   157876274.46654141        1655971182.2431006        1099286837.1587093     
  -351781727.37639463        144118791.17871916        683037382.50015032     
  -277763565.17127174        285266920.79229486        786363751.30425406     
  -148969533.14559528        609001283.14104402        905502354.09478283     
   34600368.700636685        1115321878.2249641        1040453190.8717247     
   272946140.36740971        1804228706.0440431        1191216261.6350956     
  -4485012807.9112072        10518627.384149790        667022931.82791352     
  -4341800962.8948469        8410316.3366670609        681150936.43226767     
  -4198212936.4420080        7555943.4107699394        689943263.63345361     
  -4054248728.5526996        7955508.6064608097        693399913.43147159     
  -3909908339.2269096        9609011.9237334728        691520885.82632399     
  -4806401179.2637224        23510437.734689951        514836597.71351343     
  -4668654763.8931341        16450192.610822916        511065053.38310891     
  -4530503626.0575991        10739022.370124578        509567763.82290882     
  -4391947765.7571106        6376927.0126025677        510344729.03290367     
  -4252987182.9916697        3363906.5382475853        513395949.01310039     
  -5191103957.1798620        17507926.116139174        361359651.13404113     
  -5037080308.1025791        12018545.921624660        339721855.73544037     
  -4882623395.5318623        7973377.3718822002        327968247.28040552     
  -4727733219.4677238        5372420.4668843746        326098825.76893723     
  -4572409779.9101582        4215675.2066485882        334113591.20103317     
  -5639121141.6596375       -7488907.4715003967        206592092.08950654     
  -5447077595.5231762       -4884623.7309060097        167121343.48926109     
  -5254572244.8648052       -740991.58396482468        145144714.00594881     
  -5061605089.6845360        4941988.9693095684        140662203.63956493     
  -4868176129.9823666        12164317.928932428        153673812.39011893     
  -6150452732.7030449       -51480063.028229713        50533920.579904228     
  -5898646626.1549234       -34259316.346795082       -6736483.3554278268     
  -5646350174.0564260       -15404084.497418404       -38902836.000467844     
  -5393563376.4075527        5085632.5198671818       -45965137.355207980     
  -5140286233.2082958        27209834.705097198       -27923387.419646148     
  -3909908339.2269096        9609011.9237334728        691520885.82632399     
  -3792097018.3798084        3391676.7526342869        681394382.15277445     
  -3674603934.7569451       -3886449.1659140587        677474589.17796719     
  -3557429088.3583183       -12225365.831917524        679761506.90189803     
  -3440572479.1839223       -21625073.245357990        688255135.32456779     
  -4252987182.9916697        3363906.5382475853        513395949.01310039     
  -4121361135.6021023       -1660860.2206060886        510168990.83898246     
  -3990015449.5819240       -7620164.8774268627        511086826.59597200     
  -3858950124.9311457       -14514007.432250977        516149456.28406435     
  -3728165161.6497617       -22342387.885046959        525356879.90326256     
  -4572409779.9101582        4215675.2066485882        334113591.20103317     
  -4432860196.7427883       -1383880.3693597317        337830367.02366036     
  -4293553099.0899668       -7791720.9938719273        343630020.00976068     
  -4154488486.9517012       -15007846.666906118        351512550.15932941     
  -4015666360.3279886       -23032257.388443947        361477957.47236794     
  -4868176129.9823666        12164317.928932428        153673812.39011893     
  -4726594201.8018646        4222616.3063676357        164378510.70680329     
  -4585216883.2810688       -4401117.5152311325        175104169.41932335     
  -4444044174.4199877       -13706883.535875797        185850788.52768174     
  -4303076075.2186222       -23694681.755561829        196618368.03188178     
  -5140286233.2082958        27209834.705097198       -27923387.419646148     
  -5002563150.7793303        15158629.806581020       -10186578.111591566     
  -4865006802.1552277        2551645.5584988594        5509274.8246767074     
  -4727617187.3359985       -10611118.039165974        19164171.389139540     
  -4590394306.3216505       -24329660.986408472        30778111.581799891     
  -3440572479.1839223       -21625073.245357990        688255135.32456779     
  -3273753775.3437700       -16135162.823032498        672401780.28548348     
  -3106682115.9698896       -9802067.2882767916        661242665.85786486     
  -2939357501.0622935       -2625786.6411306858        654777792.04171407     
  -2771779930.6209736        5393679.1184182167        653007158.83702636     
  -3728165161.6497617       -22342387.885046959        525356879.90326256     
  -3548591939.7677708       -15702183.657516241        509860688.56688833     
  -3368849055.1316876       -8496436.9163253307        499215971.92695183     
  -3188936507.7415013       -725147.66146516800        493422729.98345709     
  -3008854297.5972123        7611684.1070636511        492480962.73639554     
  -4015666360.3279886       -23032257.388443947        361477957.47236794     
  -3822889380.1613960       -15106987.282895803        346241754.92914349     
  -3630026030.0203209       -6893817.2624144554        336014261.16733289     
  -3437076309.9047689        1607252.6729893684        330795476.18692940     
  -3244040219.8147411        10396222.523320436        330585399.98793763     
  -4303076075.2186222       -23694681.755561829        196618368.03188178     
  -4096646096.5246482       -14349573.699175358        181544979.37224835     
  -3890213040.6358008       -4994208.3265626431        171637533.57900190     
  -3683776907.5521073        4371414.3622188568        166896030.65213576     
  -3477337697.2735529        13747294.367193222        167320470.59165746     
  -4590394306.3216505       -24329660.986408472        30778111.581799891     
  -4369862088.8574982       -13429942.906295061        15770361.896208294     
  -4149410086.9781232       -2797610.1087667942        6085789.1619713586     
  -3929038300.6835017        7567337.4062442780        1724393.3790798010     
  -3708746729.9736514        17664899.638686419        2686174.5475537954     
  -2771779930.6209736        5393679.1184182167        653007158.83702636     
  -2645518342.5402822        714791.21599137783        646108091.40941882     
  -2519709858.7540269       -5474444.3345580101        641861870.00513947     
  -2394354479.2622242       -13174027.533282876        640268494.62418342     
  -2269452204.0648766       -22383958.380189657        641327965.26655221     
  -3008854297.5972123        7611684.1070636511        492480962.73639554     
  -2875410223.3192663        1981656.4516487122        486108420.11850798     
  -2742119604.3211446       -4159888.8031868935        482827514.64895505     
  -2608982440.6028624       -10812951.657490492        482638246.32773650     
  -2475998732.1644082       -17977532.111221910        485540615.15484941     
  -3244040219.8147411        10396222.523320436        330585399.98793763     
  -3102159970.4109473        4191161.7935017347        325088972.69682389     
  -2960133527.2723646       -1526586.4870436192        323122973.67905641     
  -2817960890.3990040       -6757022.3183158636        324687402.93462235     
  -2675642059.7908630       -11500145.700324416        329782260.46352792     
  -3477337697.2735529        13747294.367193222        167320470.59165746     
  -3325767583.8153162        7343307.2415392399        163049749.14437452     
  -3173751627.6076932        2425462.6138492823        162748247.09543303     
  -3021289828.6506639       -1006239.5158268213        166415964.44484144     
  -2868382186.9442315       -2951799.1474909782        174052901.19259360     
  -3708746729.9736514        17664899.638686419        2686174.5475537954     
  -3546233063.5323977        11438092.795749664       -9250.5388605578482     
  -3382973905.3271227        7696258.4995300770        1703334.8980954876     
  -3218969255.3578305        6439396.7500431538        7823930.8583802991     
  -3054219113.6245308        7667507.5472499132        18352537.342036791     
  -2269452204.0648766       -22383958.380189657        641327965.26655221     
  -2125134879.5769107       -25669973.701945186        627395011.35303283     
  -1980298911.8464093       -27227178.215225935        616706824.34894061     
  -1834944300.8733354       -27055571.919938207        609263404.25427413     
  -1689071046.6577229       -25155154.816199839        605064751.06903732     
  -2475998732.1644082       -17977532.111221910        485540615.15484941     
  -2323408019.1137090       -19172006.050578833        474145660.92222142     
  -2170605825.4222770       -19661544.520826936        465387421.43249017     
  -2017592151.0901129       -19446147.521967053        459265896.68565160     
  -1864366996.1172071       -18525815.053982735        455781086.68171048     
  -2675642059.7908630       -11500145.700324416        329782260.46352792     
  -2516515250.0818081       -11124265.828597784        320566949.54300278     
  -2357484122.3338394       -11067325.827169657        313380301.19884384     
  -2198548676.5469565       -11329325.696025848        308222315.43104881     
  -2039708912.7211421       -11910265.435100913        305092992.23960900     
  -2868382186.9442315       -2951799.1474909782        174052901.19259360     
  -2704456572.4812121       -1526753.0360370874        166658877.21539295     
  -2540933802.5810857       -1444522.1342110634        160685463.64802226     
  -2377813877.2438607       -2705106.4420642853        156132660.49047399     
  -2215096796.4695287       -5308505.9595614672        153000467.74275246     
  -3054219113.6245308        7667507.5472499132        18352537.342036791     
  -2887231986.3119206        9620532.3271653652        12421443.939365249     
  -2720954866.1640148        9206866.5580527782        7302908.7799931951     
  -2555387753.1808376        6426510.2398461103        2996931.8639094159     
  -2390530647.3623624        1279463.3726439476       -496486.80887295690     
  -1689071046.6577229       -25155154.816199839        605064751.06903732     
  -1549188814.0419157       -26052780.225954354        591995902.29059684     
  -1410485050.6248622       -30878636.298210561        577620631.87248898     
  -1272959756.4065716       -39632723.033021986        561938939.81471837     
  -1136612931.3870325       -52315040.430325866        544950826.11727929     
  -1864366996.1172071       -18525815.053982735        455781086.68171048     
  -1727640198.1386948       -22320668.257469296        442402557.40306246     
  -1590970383.1568251       -26305464.783113241        428571783.38010526     
  -1454357551.1716084       -30480204.630930126        414288764.61283183     
  -1317801702.1830530       -34844887.800944567        399553501.10124671     
  -2039708912.7211421       -11910265.435100913        305092992.23960900     
  -1903697043.9646282       -17870194.807717443        292713183.02988142     
  -1766620672.0026584       -20281780.162162185        280735305.97119409     
  -1628479796.8352435       -19145021.498443842        269159361.06353784     
  -1489274418.4623742       -14459918.816543519        257985348.30692571     
  -2215096796.4695287       -5308505.9595614672        153000467.74275246     
  -2077359351.5197155       -12701359.876711607        142927779.17105627     
  -1937435917.1623704       -12807582.435392022        134111199.64576024     
  -1795326493.3974566       -5627173.6355212927        126550729.16684493     
  -1651031080.2249863        8839866.5228618383        120246367.73431893     
  -2390530647.3623624        1279463.3726439476       -496486.80887295690     
  -2248627120.8039770       -6814163.4644579887       -6953654.1734053297     
  -2103416118.6359429       -3882871.6027436256       -11300535.596204551     
  -1954897640.8582511        10073338.957840919       -13537131.077257812     
  -1803071687.4709032        35054468.217269301       -13663440.616570236     
  -1136612931.3870325       -52315040.430325866        544950826.11727929     
  -951684758.05208683       -40805341.420444071        563053735.23276746     
  -759236832.93866277       -4229803.1489673853        592102464.33507502     
  -559269156.04676664        57411574.384079635        632097013.42420435     
  -351781727.37639463        144118791.17871916        683037382.50015032     
  -1317801702.1830530       -34844887.800944567        399553501.10124671     
  -1118028102.4089317       -14847068.339347005        421337189.60890490     
  -914638941.13536918        17202622.787064075        441635819.90179181     
  -707634218.36235106        61304185.578316897        460449391.97990108     
  -497013934.08989501        117457620.03437382        477777905.84324801     
  -1489274418.4623742       -14459918.816543519        257985348.30692571     
  -1310172187.1107869        3370982.6382037401        278894927.54789537     
  -1131358584.5387664        20239788.161059916        285888570.37250066     
  -952833610.74631643        36146497.751999497        278966276.78074294     
  -774597265.73344350        51091111.411037445        258128046.77261823     
  -1651031080.2249863        8839866.5228618383        120246367.73431893     
  -1528117012.1576197        13848811.512286127        135726949.04974180     
  -1409395763.1488326        4881692.9730959535        124860715.74720657     
  -1294867333.1986706       -18061489.094847679        87647667.826705575     
  -1184531722.3070834       -54980734.691351414        24087805.288252573     
  -1803071687.4709032        35054468.217269301       -13663440.616570236     
  -1771862577.5494401        16586418.282878995       -8166745.8855670346     
  -1748750476.9655981       -28871662.776937723       -41447743.974106051     
  -1733735385.7193713       -101319774.96212047       -113506434.88219352     
  -1726817303.8107767       -200757918.27275628       -224342818.60983250     
  -351781727.37639463        144118791.17871916        683037382.50015032     
  -277763565.17127174        285266920.79229486        786363751.30425406     
  -148969533.14559528        609001283.14104402        905502354.09478283     
   34600368.700636685        1115321878.2249641        1040453190.8717247     
   272946140.36740971        1804228706.0440431        1191216261.6350956     
  -497013934.08989501        117457620.03437382        477777905.84324801     
  -388210096.89819121        223066772.24684325        597061898.61790955     
  -230274138.64732465        492449661.32320517        735493171.41145837     
  -23206059.337261677        925606287.26351643        893071724.22391438     
   232994141.03196490        1522536650.0677674        1069797557.0552435     
  -774597265.73344350        51091111.411037445        258128046.77261823     
  -621479050.60526824        124019897.10730436        386785289.96290046     
  -424872463.17927557        341909923.79630584        537924859.20455790     
  -184777503.45548162        704761191.47795558        711546754.49756002     
   98805828.566132486        1212573700.1523752        907650975.84195256     
  -1184531722.3070834       -54980734.691351414        24087805.288252573     
  -977570426.29249656       -11873704.626273155        155533925.33923286     
  -732764506.74147916        157382070.56026110        312797417.47405457     
  -450113963.65400445        452786590.86832547        495878281.69268733     
  -129618797.03008044        874339856.29785562        704776517.99519658     
  -1726817303.8107767       -200757918.27275628       -224342818.60983250     
  -1456484223.9598613       -184614032.95386505       -96692195.253100365     
  -1153950269.3338661       -61133898.384685338        60110846.219951987     
  -819215439.93283343        169682485.43456858        246066305.80931801     
  -452279735.75669861        507835118.50424105        461174183.51498276     
 </DataArray>
 <DataArray  type="Float64" Name="VM" NumberOfComponents="1" format="ascii">
   6125500372.5355635     
   5881603402.6138058     
   5639066520.8147116     
   5396695280.7958355     
   5154171950.1599712     
   5646729460.0638227     
   5452326113.5753632     
   5260212683.9493504     
   5069935158.0128613     
   4881531703.4291897     
   5237412985.1752310     
   5077311662.5992355     
   4919521858.3460093     
   4764022558.5161810     
   4610978247.4580355     
   4900022021.9539804     
   4759933889.8921432     
   4620953310.0918303     
   4483147125.4880161     
   4346601440.9917250     
   4636527305.6354771     
   4503301234.7309494     
   4368619402.4898043     
   4232216903.2719669     
   4093855060.0479693     
   5154171950.1599712     
   5010190736.6752453     
   4866292486.1869364     
   4722437228.3130388     
   4578588314.9188938     
   4881531703.4291897     
   4737270317.2085772     
   4593042299.6806068     
   4448867726.5795975     
   4304769618.5647726     
   4610978247.4580355     
   4470626905.6628046     
   4330756227.8647385     
   4191459542.8323350     
   4052852806.7582564     
   4346601440.9917250     
   4214213154.8000722     
   4083320459.8993015     
   3954102762.3970942     
   3826802593.5443573     
   4093855060.0479693     
   3973130721.6757135     
   3855562662.5507727     
   3741415161.1466374     
   3631072760.0700822     
   4578588314.9188938     
   4363248117.1739779     
   4148025378.0039520     
   3932828556.9330759     
   3717613559.1132321     
   4304769618.5647726     
   4101561378.9635854     
   3899068120.8039217     
   3697282454.6703491     
   3496263550.2900324     
   4052852806.7582564     
   3862202627.7626519     
   3672986319.2775893     
   3485297306.6076527     
   3299316731.1423521     
   3826802593.5443573     
   3649233402.9858022     
   3473937634.0122542     
   3301121338.3900685     
   3131098379.0916719     
   3631072760.0700822     
   3467170898.2062440     
   3306485072.3762736     
   3149335352.2853394     
   2996163917.1042356     
   3717613559.1132321     
   3551965914.4749947     
   3386829871.0214686     
   3222222269.8750029     
   3058225277.8097587     
   3496263550.2900324     
   3341401159.0995555     
   3187454162.5591722     
   3034507520.8865199     
   2882714243.7807035     
   3299316731.1423521     
   3154911124.5606189     
   3011826568.8823996     
   2870221929.6274714     
   2730328078.1712322     
   3131098379.0916719     
   2997096951.2997489     
   2864820681.0763831     
   2734504436.8032103     
   2606459211.6201315     
   2996163917.1042356     
   2872807999.5497704     
   2751569317.3332424     
   2632754235.5977263     
   2516747840.3593965     
   3058225277.8097587     
   2892134274.3461995     
   2725599310.3857269     
   2558612325.1673231     
   2391170789.6372924     
   2882714243.7807035     
   2719059428.1950135     
   2555413016.2711143     
   2391799767.5710936     
   2228261781.8654466     
   2730328078.1712322     
   2571627473.7762427     
   2413790475.1954036     
   2256953597.9213009     
   2101310549.5235515     
   2606459211.6201315     
   2455298415.6996155     
   2306294671.2834663     
   2159767888.3146095     
   2016154204.3628395     
   2516747840.3593965     
   2375537526.4979410     
   2238166450.9772596     
   2105163367.6943808     
   1977224062.2558272     
   2391170789.6372924     
   2245260097.4558697     
   2101568522.2599251     
   1960093968.2755389     
   1821005796.8170857     
   2228261781.8654466     
   2085781138.5164101     
   1944984713.5087619     
   1805871404.0475118     
   1668518573.6555891     
   2101310549.5235515     
   1961480400.2959390     
   1822626311.1916904     
   1684777724.9305687     
   1547992866.1540592     
   2016154204.3628395     
   1879850219.3019948     
   1743860326.8126094     
   1608310092.2021949     
   1473372267.5781791     
   1977224062.2558272     
   1847073765.1126523     
   1716917147.9260223     
   1587095632.3062360     
   1458107703.2204695     
   1821005796.8170857     
   1780269935.3675098     
   1735979900.5891385     
   1696789184.7293112     
   1681225325.8730910     
   1668518573.6555891     
   1552984677.8982518     
   1428310568.3881943     
   1294861666.9111161     
   1158771990.1034088     
   1547992866.1540592     
   1397972185.5893559     
   1244378229.1111376     
   1084945439.7718394     
   917647277.72340119     
   1473372267.5781791     
   1328978146.6071520     
   1199050083.5024657     
   1088083754.3978276     
   1002004190.8394381     
   1458107703.2204695     
   1348934267.3264208     
   1274756063.2268193     
   1243714799.5179226     
   1262869416.7800965     
   1681225325.8730910     
   1383686868.9553475     
   1129439259.4154947     
   1010226942.5480534     
   1153335112.9883096     
   1158771990.1034088     
   1008340193.8290389     
   985171866.67188990     
   1161511797.1926053     
   1544257724.0396650     
   917647277.72340119     
   963068790.12999392     
   1144891514.4120352     
   1476465857.2917857     
   1957493065.8452392     
   1002004190.8394381     
   1164693680.5116589     
   1425405866.6777058     
   1808727870.1759000     
   2334751044.7335463     
   1262869416.7800965     
   1446675643.8890045     
   1715692472.7058463     
   2110492372.9717293     
   2663507481.4242740     
   4636527305.6354771     
   4503301234.7309494     
   4368619402.4898043     
   4232216903.2719669     
   4093855060.0479693     
   4390003144.8212099     
   4248923591.3932371     
   4108183942.2252316     
   3967806931.6709561     
   3827820027.9830999     
   4132875502.1920109     
   3993259396.7440081     
   3856779926.6078892     
   3723746452.1773200     
   3594541585.1698866     
   3871021706.2884879     
   3741277442.1143694     
   3618595925.9852018     
   3503509749.8341460     
   3396763323.8749213     
   3612925764.1437740     
   3499790270.2319140     
   3398968564.9191771     
   3311035675.9383521     
   3236951579.4890366     
   4093855060.0479693     
   3973130721.6757135     
   3855562662.5507727     
   3741415161.1466374     
   3631072760.0700822     
   3827820027.9830999     
   3725244344.3113241     
   3625972452.9030213     
   3530310210.1044979     
   3438653444.2158227     
   3594541585.1698866     
   3508833405.7617970     
   3426392344.7570844     
   3347529923.0091920     
   3272617940.4450145     
   3396763323.8749213     
   3326923296.7440557     
   3260089522.5515862     
   3196541311.8929968     
   3136592298.5588102     
   3236951579.4890366     
   3182270285.2366223     
   3130080425.1449051     
   3080592823.9358635     
   3034033545.3317885     
   3631072760.0700822     
   3467170898.2062440     
   3306485072.3762736     
   3149335352.2853394     
   2996163917.1042356     
   3438653444.2158227     
   3288795398.2608891     
   3143059478.5673108     
   3001866440.3237028     
   2865770985.9805403     
   3272617940.4450145     
   3137550155.7177520     
   3007591066.3915701     
   2883245572.5769463     
   2765152756.8138490     
   3136592298.5588102     
   3016903353.3775525     
   2903333237.4678378     
   2796436908.7249975     
   2696889605.3554783     
   3034033545.3317885     
   2930008330.0767899     
   2833059468.5883088     
   2743744027.1797662     
   2662713203.0000529     
   2996163917.1042356     
   2872807999.5497704     
   2751569317.3332424     
   2632754235.5977263     
   2516747840.3593965     
   2865770985.9805403     
   2754404357.1728110     
   2646261589.2119751     
   2541775844.2703376     
   2441474164.4874701     
   2765152756.8138490     
   2667619956.6186929     
   2574546293.4789081     
   2486466003.0314598     
   2404005795.3009987     
   2696889605.3554783     
   2614621407.3186250     
   2538061396.0942011     
   2467789846.6483378     
   2404460134.6609406     
   2662713203.0000529     
   2596497692.7395649     
   2537131364.1872883     
   2485172651.2948270     
   2441223491.7472429     
   2516747840.3593965     
   2375537526.4979410     
   2238166450.9772596     
   2105163367.6943808     
   1977224062.2558272     
   2441474164.4874701     
   2315106280.3648133     
   2193893710.7368059     
   2078553827.2518084     
   1969977232.7933118     
   2404005795.3009987     
   2294325701.8947983     
   2191124374.3005400     
   2095219330.9762352     
   2007565821.5200651     
   2404460134.6609406     
   2312604015.6516051     
   2228356521.9278255     
   2152519680.7969174     
   2085973294.1728470     
   2441223491.7472429     
   2367451327.4937973     
   2302087897.3708835     
   2245825595.7664480     
   2199377843.2775345     
   1977224062.2558272     
   1847073765.1126523     
   1716917147.9260223     
   1587095632.3062360     
   1458107703.2204695     
   1969977232.7933118     
   1854343581.3963728     
   1743051083.4628949     
   1637013450.2103550     
   1537351412.2283642     
   2007565821.5200651     
   1911603841.3373735     
   1824404693.5465136     
   1747163303.2115152     
   1681164332.7109208     
   2085973294.1728470     
   2011283100.1769681     
   1948959550.9083762     
   1900079481.3472207     
   1865668330.1516967     
   2199377843.2775345     
   2144541079.7770452     
   2104675800.6575539     
   2080548792.0329556     
   2072836525.3820844     
   1458107703.2204695     
   1348934267.3264208     
   1274756063.2268193     
   1243714799.5179226     
   1262869416.7800965     
   1537351412.2283642     
   1476362835.0151527     
   1448078085.4085793     
   1456470828.6441505     
   1504842856.7522051     
   1681164332.7109208     
   1652569075.6586087     
   1651698563.0793164     
   1680924413.5612745     
   1742858443.6157153     
   1865668330.1516967     
   1855073521.7603126     
   1867444897.6589429     
   1904992474.1017995     
   1970749585.4059527     
   2072836525.3820844     
   2069255800.2939672     
   2084895649.2516241     
   2122388468.6965990     
   2185548516.7294712     
   1262869416.7800965     
   1446675643.8890045     
   1715692472.7058463     
   2110492372.9717293     
   2663507481.4242740     
   1504842856.7522051     
   1613259245.7097378     
   1788867414.4146996     
   2066411141.3258958     
   2476089975.1137552     
   1742858443.6157153     
   1787684287.3870993     
   1884652575.1716979     
   2060667420.7493727     
   2340952762.3912067     
   1970749585.4059527     
   1968910041.3842852     
   2003612996.6226702     
   2093528468.4229250     
   2257310974.8943191     
   2185548516.7294712     
   2156221521.3280711     
   2146489593.2345042     
   2166872586.2552290     
   2228436830.1701655     
   3612925764.1437740     
   3499790270.2319140     
   3398968564.9191771     
   3311035675.9383521     
   3236951579.4890366     
   3355720099.8929453     
   3275573602.3911915     
   3205441534.5021524     
   3145718586.1051364     
   3096969816.7743554     
   3155359151.9660788     
   3101347692.2580471     
   3053956945.1182661     
   3013412425.2724590     
   2979988551.8988547     
   3013179260.3454089     
   2979759060.1829653     
   2948490554.6005235     
   2919444004.7608728     
   2892693309.2852817     
   2928058866.4180241     
   2911407407.7409453     
   2891567586.4356556     
   2868453130.5071983     
   2841985195.2900214     
   3236951579.4890366     
   3182270285.2366223     
   3130080425.1449051     
   3080592823.9358635     
   3034033545.3317885     
   3096969816.7743554     
   3048138811.0141191     
   3003337622.0275054     
   2962847238.9527907     
   2926968961.1127925     
   2979988551.8988547     
   2938091648.8677402     
   2901977419.9996858     
   2871954821.0518479     
   2848355355.2922120     
   2892693309.2852817     
   2857809298.6585164     
   2830643807.5356154     
   2811480259.5024657     
   2800624108.9528875     
   2841985195.2900214     
   2812910047.3529577     
   2793647159.4419670     
   2784404024.0203056     
   2785408400.6691189     
   3034033545.3317885     
   2930008330.0767899     
   2833059468.5883088     
   2743744027.1797662     
   2662713203.0000529     
   2926968961.1127925     
   2836970244.1815915     
   2754895715.3449998     
   2681264568.4549632     
   2616666170.2665439     
   2848355355.2922120     
   2771875111.1207500     
   2704079071.0981770     
   2645411761.2838764     
   2596362784.5221095     
   2800624108.9528875     
   2736601403.6471734     
   2681905048.6006041     
   2636879083.9356422     
   2601891516.7799516     
   2785408400.6691189     
   2732196591.9023814     
   2688831033.0904155     
   2655546615.1182523     
   2632588092.9851813     
   2662713203.0000529     
   2596497692.7395649     
   2537131364.1872883     
   2485172651.2948270     
   2441223491.7472429     
   2616666170.2665439     
   2564948919.2903972     
   2520685130.7573252     
   2484347803.3156972     
   2456427919.0187321     
   2596362784.5221095     
   2558311998.2751560     
   2528146182.2280803     
   2506232039.0424299     
   2492936570.5207601     
   2601891516.7799516     
   2576158754.0835829     
   2558586508.4939294     
   2549433019.3900061     
   2548948233.1509242     
   2632588092.9851813     
   2617385354.8808045     
   2610507158.3255591     
   2612116199.9728780     
   2622365496.0912476     
   2441223491.7472429     
   2367451327.4937973     
   2302087897.3708835     
   2245825595.7664480     
   2199377843.2775345     
   2456427919.0187321     
   2397922287.6680088     
   2348804992.2106185     
   2309642933.6005201     
   2280988512.7244859     
   2492936570.5207601     
   2448666676.9000955     
   2414514182.6032238     
   2390897108.4442902     
   2378201051.1062407     
   2548948233.1509242     
   2517278066.9988818     
   2496271121.5563860     
   2486203613.8637347     
   2487317463.3881707     
   2622365496.0912476     
   2601223502.9228868     
   2591202319.3335900     
   2592461578.7335920     
   2605134848.0203266     
   2199377843.2775345     
   2144541079.7770452     
   2104675800.6575539     
   2080548792.0329556     
   2072836525.3820844     
   2280988512.7244859     
   2241021303.1266665     
   2214961138.3467107     
   2203254439.1870284     
   2206285264.2744851     
   2378201051.1062407     
   2350127832.5857286     
   2334875391.3526659     
   2332689938.0963850     
   2343788680.0571899     
   2487317463.3881707     
   2468469827.6071868     
   2461450892.9748826     
   2466393579.5760598     
   2483429176.7106829     
   2605134848.0203266     
   2593222736.0634336     
   2592300741.1831670     
   2602445642.1285706     
   2623751320.2604895     
   2072836525.3820844     
   2069255800.2939672     
   2084895649.2516241     
   2122388468.6965990     
   2185548516.7294712     
   2206285264.2744851     
   2191831772.3921618     
   2192371128.0452085     
   2209874068.0348058     
   2247262408.7286496     
   2343788680.0571899     
   2319280897.2224503     
   2306321511.0610504     
   2306317467.2487888     
   2321358610.7017865     
   2483429176.7106829     
   2450635012.3160744     
   2426430664.5837746     
   2411762473.8343992     
   2408007945.6416078     
   2623751320.2604895     
   2585117629.3532934     
   2552416805.0598402     
   2526230653.2946854     
   2507367827.4908519     
   2185548516.7294712     
   2156221521.3280711     
   2146489593.2345042     
   2166872586.2552290     
   2228436830.1701655     
   2247262408.7286496     
   2182586220.2530260     
   2134346098.7313948     
   2112205778.1073895     
   2127095234.6575205     
   2321358610.7017865     
   2224669516.4341917     
   2141307169.0080016     
   2079634600.6197712     
   2049819866.8829014     
   2408007945.6416078     
   2282764988.4827695     
   2168019502.8514481     
   2070510166.5804734     
   1999002892.9622231     
   2507367827.4908519     
   2357081563.8137469     
   2214953445.5569429     
   2085963592.4346485     
   1976987368.6314373     
   2928058866.4180241     
   2911407407.7409453     
   2891567586.4356556     
   2868453130.5071983     
   2841985195.2900214     
   2794268646.1497121     
   2770521332.2801208     
   2749243488.3323770     
   2730491350.2335711     
   2714319903.4420815     
   2688835771.3425045     
   2660613960.9241405     
   2640876116.7143354     
   2629735697.8363461     
   2627303136.6083269     
   2624756692.8574791     
   2591441667.4515800     
   2572847508.0442758     
   2569036111.0285444     
   2580067258.9911418     
   2615358487.2541614     
   2572405767.0317626     
   2550531800.4974828     
   2549736587.6513381     
   2570020128.4933243     
   2841985195.2900214     
   2812910047.3529577     
   2793647159.4419670     
   2784404024.0203056     
   2785408400.6691189     
   2714319903.4420815     
   2702327676.4627576     
   2698694291.6009202     
   2703519843.3687482     
   2716910290.0144510     
   2627303136.6083269     
   2629397103.1016831     
   2638161755.1593289     
   2653631951.9461007     
   2675843474.1916928     
   2580067258.9911418     
   2593499715.1865945     
   2611754491.7646284     
   2634837678.4971266     
   2662755378.2245197     
   2570020128.4933243     
   2592512074.0095487     
   2617898164.6420312     
   2646178400.3907747     
   2677352781.2557731     
   2785408400.6691189     
   2732196591.9023814     
   2688831033.0904155     
   2655546615.1182523     
   2632588092.9851813     
   2716910290.0144510     
   2673989383.0089393     
   2641031756.8663545     
   2618177396.5234389     
   2605568845.9520302     
   2675843474.1916928     
   2640972617.3018942     
   2616120430.9649882     
   2601351236.6436868     
   2596729277.1454315     
   2662755378.2245197     
   2633374989.0492015     
   2614040372.0648317     
   2604767796.5155835     
   2605573278.2071729     
   2677352781.2557731     
   2650715507.0029926     
   2634154768.8362074     
   2627670566.7554197     
   2631262900.7606339     
   2632588092.9851813     
   2617385354.8808045     
   2610507158.3255591     
   2612116199.9728780     
   2622365496.0912476     
   2605568845.9520302     
   2599461279.3895564     
   2601655654.3091054     
   2612243078.9000616     
   2631307079.7227902     
   2596729277.1454315     
   2597721575.5862370     
   2606988844.9570484     
   2624570901.5230584     
   2650503469.4349785     
   2605573278.2071729     
   2611496028.9186597     
   2625702103.3054032     
   2648201230.5000281     
   2679001996.0871243     
   2631262900.7606339     
   2639863280.8479352     
   2656821106.4637609     
   2682136377.6081171     
   2715809094.2809916     
   2622365496.0912476     
   2601223502.9228868     
   2591202319.3335900     
   2592461578.7335920     
   2605134848.0203266     
   2631307079.7227902     
   2618158255.2929749     
   2615568190.9024930     
   2623617677.4206362     
   2642372404.3236589     
   2650503469.4349785     
   2643491487.2273278     
   2646572329.1150446     
   2659778259.1491809     
   2683134850.2148190     
   2679001996.0871243     
   2676340494.7660222     
   2683424783.8584161     
   2700262135.9426293     
   2726858191.1702566     
   2715809094.2809916     
   2715816643.3154473     
   2725353487.7619543     
   2744419627.6205039     
   2773015062.8911161     
   2605134848.0203266     
   2593222736.0634336     
   2592300741.1831670     
   2602445642.1285706     
   2623751320.2604895     
   2642372404.3236589     
   2632073350.3149695     
   2631959050.2414312     
   2642067918.7398233     
   2662449417.9875102     
   2683134850.2148190     
   2674161483.0769706     
   2674744753.5364041     
   2684899797.7565999     
   2704647157.3799000     
   2726858191.1702566     
   2719069991.4279218     
   2720368901.9228725     
   2730758256.8481526     
   2750242835.8430195     
   2773015062.8911161     
   2766404651.2411823     
   2768554043.9055643     
   2779463240.8842607     
   2799132242.1772881     
   2623751320.2604895     
   2585117629.3532934     
   2552416805.0598402     
   2526230653.2946854     
   2507367827.4908519     
   2662449417.9875102     
   2616919326.2904420     
   2577080597.0655179     
   2543264224.1407394     
   2515932692.3242798     
   2704647157.3799000     
   2654308803.0295911     
   2609563780.3286219     
   2570559506.1608291     
   2537502554.7216201     
   2750242835.8430195     
   2697191412.3976364     
   2649778094.1323338     
   2608039486.5038161     
   2572026905.1212535     
   2799132242.1772881     
   2745463964.9104228     
   2697620774.6492701     
   2655602671.3938179     
   2619409655.1440721     
   2507367827.4908519     
   2357081563.8137469     
   2214953445.5569429     
   2085963592.4346485     
   1976987368.6314373     
   2515932692.3242798     
   2348114160.3940301     
   2183845893.9370089     
   2026227636.5988634     
   1879823471.1425250     
   2537502554.7216201     
   2357241551.0733256     
   2176717903.3132215     
   1997403017.2273250     
   1821574336.5550041     
   2572026905.1212535     
   2384567698.9239588     
   2194036332.3161454     
   2000810998.3475902     
   1805495434.1159606     
   2619409655.1440721     
   2430061767.1831617     
   2235943848.4374771     
   2037055898.9070673     
   1833397918.5918837     
   2615358487.2541614     
   2572405767.0317626     
   2550531800.4974828     
   2549736587.6513381     
   2570020128.4933243     
   2624756707.8477087     
   2591441678.6032515     
   2572847515.1796041     
   2569036113.9671354     
   2580067257.5581741     
   2688835796.5358939     
   2660613979.6079397     
   2640876128.6045241     
   2629735702.6492376     
   2627303134.0695944     
   2794268676.6001997     
   2770521354.6918130     
   2749243502.4083481     
   2730491355.6846704     
   2714319899.9911718     
   2928058897.6311979     
   2911407430.3334885     
   2891567600.2206635     
   2868453135.3157229     
   2841985190.9695520     
   2570020128.4933243     
   2592512074.0095487     
   2617898164.6420312     
   2646178400.3907747     
   2677352781.2557731     
   2580067257.5581741     
   2593499714.1563892     
   2611754491.0834494     
   2634837678.1108737     
   2662755378.0782018     
   2627303134.0695944     
   2629397101.2775302     
   2638161753.9294791     
   2653631951.1918240     
   2675843473.7948093     
   2714319899.9911718     
   2702327673.9818673     
   2698694289.8932910     
   2703519842.2415652     
   2716910289.2777576     
   2841985190.9695520     
   2812910044.2417111     
   2793647157.2599425     
   2784404022.4922662     
   2785408399.5236359     
   2677352781.2557731     
   2650715507.0029926     
   2634154768.8362074     
   2627670566.7554197     
   2631262900.7606339     
   2662755378.0782018     
   2633374988.8083782     
   2614040371.7462349     
   2604767796.1368327     
   2605573277.7866502     
   2675843473.7948093     
   2640972616.7453818     
   2616120430.2848825     
   2601351235.8777084     
   2596729276.3327012     
   2716910289.2777576     
   2673989382.0710859     
   2641031755.7848797     
   2618177395.3585577     
   2605568844.7661462     
   2785408399.5236359     
   2732196590.5303850     
   2688831031.5728264     
   2655546613.5400481     
   2632588091.4348249     
   2631262900.7606339     
   2639863280.8479352     
   2656821106.4637609     
   2682136377.6081171     
   2715809094.2809916     
   2605573277.7866502     
   2611496028.6259112     
   2625702103.1277184     
   2648201230.4241309     
   2679001996.0989256     
   2596729276.3327012     
   2597721575.0359888     
   2606988844.6437316     
   2624570901.4197364     
   2650503469.5129313     
   2605568844.7661462     
   2599461278.6123695     
   2601655653.9022145     
   2612243078.8225408     
   2631307079.9305763     
   2632588091.4348249     
   2617385353.9011540     
   2610507157.8656526     
   2612116199.9777040     
   2622365496.5007815     
   2715809094.2809916     
   2715816643.3154473     
   2725353487.7619543     
   2744419627.6205039     
   2773015062.8911161     
   2679001996.0989256     
   2676340494.8537054     
   2683424784.0230289     
   2700262136.1844759     
   2726858191.4890332     
   2650503469.5129313     
   2643491487.4350004     
   2646572329.4538860     
   2659778259.6193933     
   2683134850.8155251     
   2631307079.9305763     
   2618158255.6607914     
   2615568191.4316859     
   2623617678.1110029     
   2642372405.1736622     
   2622365496.5007815     
   2601223503.4985127     
   2591202320.0759406     
   2592461579.6417065     
   2605134849.0919080     
   2773015062.8911161     
   2766404651.2411823     
   2768554043.9055643     
   2779463240.8842607     
   2799132242.1772881     
   2726858191.4890332     
   2719069991.6916847     
   2720368902.1348352     
   2730758257.0117946     
   2750242835.9619217     
   2683134850.8155251     
   2674161483.5781760     
   2674744753.9448595     
   2684899798.0795035     
   2704647157.6246862     
   2642372405.1736622     
   2632073351.0303526     
   2631959050.8329358     
   2642067919.2187510     
   2662449418.3656011     
   2605134849.0919080     
   2593222736.9732590     
   2592300741.9465361     
   2602445642.7614660     
   2623751320.7796760     
   2799132242.1772881     
   2745463964.9104228     
   2697620774.6492701     
   2655602671.3938179     
   2619409655.1440721     
   2750242835.9619217     
   2697191412.5108166     
   2649778094.2384324     
   2608039486.6015444     
   2572026905.2094340     
   2704647157.6246862     
   2654308803.2607741     
   2609563780.5434470     
   2570559506.3567557     
   2537502554.8961864     
   2662449418.3656011     
   2616919326.6448765     
   2577080597.3921871     
   2543264224.4357820     
   2515932692.5838418     
   2623751320.7796760     
   2585117629.8367367     
   2552416805.5019703     
   2526230653.6902380     
   2507367827.8344908     
   2619409655.1440721     
   2430061767.1831617     
   2235943848.4374771     
   2037055898.9070673     
   1833397918.5918837     
   2572026905.2094340     
   2384567698.9764676     
   2194036332.3305821     
   2000810998.3192914     
   1805495434.0364220     
   2537502554.8961864     
   2357241551.1790147     
   2176717903.3456855     
   1997403017.1784134     
   1821574336.4104302     
   2515932692.5838418     
   2348114160.5541763     
   2183845893.9921632     
   2026227636.5391185     
   1879823470.9518037     
   2507367827.8344908     
   2357081564.0301819     
   2214953445.6402802     
   2085963592.3751774     
   1976987368.4150238     
   2928058897.6311979     
   2911407430.3334885     
   2891567600.2206635     
   2868453135.3157229     
   2841985190.9695520     
   3013179291.8130107     
   2979759082.9056735     
   2948490568.6158929     
   2919444010.0916333     
   2892693305.9377623     
   3155359180.4453664     
   3101347712.5941095     
   3053956957.6707511     
   3013412430.3552699     
   2979988549.7690792     
   3355720123.2751446     
   3275573618.7479339     
   3205441544.5542722     
   3145718590.5252500     
   3096969816.1588268     
   3612925781.4872618     
   3499790281.9551945     
   3398968572.0847335     
   3311035679.6150470     
   3236951580.7074227     
   2841985190.9695520     
   2812910044.2417111     
   2793647157.2599425     
   2784404022.4922662     
   2785408399.5236359     
   2892693305.9377623     
   2857809296.1597314     
   2830643805.6605372     
   2811480258.0294509     
   2800624107.6644430     
   2979988549.7690792     
   2938091647.2136445     
   2901977418.6199517     
   2871954819.7489762     
   2848355353.8752146     
   3096969816.1588268     
   3048138810.4838176     
   3003337621.3748813     
   2962847237.9767914     
   2926968959.6234164     
   3236951580.7074227     
   3182270286.1309524     
   3130080425.4740767     
   3080592823.4707088     
   3034033543.8609629     
   2785408399.5236359     
   2732196590.5303850     
   2688831031.5728264     
   2655546613.5400481     
   2632588091.4348249     
   2800624107.6644430     
   2736601402.0542860     
   2681905046.7907581     
   2636879082.0017757     
   2601891514.8199234     
   2848355353.8752146     
   2771875109.3362956     
   2704079069.0414176     
   2645411759.0568972     
   2596362782.2335396     
   2926968959.6234164     
   2836970242.2760344     
   2754895713.1268921     
   2681264566.0362725     
   2616666167.7675490     
   3034033543.8609629     
   2930008328.1541681     
   2833059466.3267298     
   2743744024.7016740     
   2662713200.4379315     
   2632588091.4348249     
   2617385353.9011540     
   2610507157.8656526     
   2612116199.9777040     
   2622365496.5007815     
   2601891514.8199234     
   2576158752.7600255     
   2558586507.7860994     
   2549433019.2722521     
   2548948233.5912857     
   2596362782.2335396     
   2558311996.6831369     
   2528146181.3426099     
   2506232038.8685746     
   2492936571.0567245     
   2616666167.7675490     
   2564948917.5312071     
   2520685129.7784834     
   2484347803.1540508     
   2456427919.7049150     
   2662713200.4379315     
   2596497690.9346728     
   2537131363.2091718     
   2485172651.2119093     
   2441223492.6240120     
   2622365496.5007815     
   2601223503.4985127     
   2591202320.0759406     
   2592461579.6417065     
   2605134849.0919080     
   2548948233.5912857     
   2517278067.6329546     
   2496271122.3790016     
   2486203614.8682356     
   2487317464.5665903     
   2492936571.0567245     
   2448666677.6375532     
   2414514183.5303407     
   2390897109.5479021     
   2378201052.3720913     
   2456427919.7049150     
   2397922288.5474076     
   2348804993.2633853     
   2309642934.8057222     
   2280988514.0604901     
   2441223492.6240120     
   2367451328.5441084     
   2302087898.5653520     
   2245825597.0747433     
   2199377844.6690516     
   2605134849.0919080     
   2593222736.9732590     
   2592300741.9465361     
   2602445642.7614660     
   2623751320.7796760     
   2487317464.5665903     
   2468469828.6261334     
   2461450893.8466477     
   2466393580.3134847     
   2483429177.3274455     
   2378201052.3720913     
   2350127833.6992049     
   2334875392.3235631     
   2332689938.9348178     
   2343788680.7741036     
   2280988514.0604901     
   2241021304.3221025     
   2214961139.4095206     
   2203254440.1250138     
   2206285265.0960817     
   2199377844.6690516     
   2144541081.0442569     
   2104675801.8073514     
   2080548793.0713475     
   2072836526.3152909     
   2623751320.7796760     
   2585117629.8367367     
   2552416805.5019703     
   2526230653.6902380     
   2507367827.8344908     
   2483429177.3274455     
   2450635012.8786092     
   2426430665.0881128     
   2411762474.2770567     
   2408007946.0190430     
   2343788680.7741036     
   2319280897.8657784     
   2306321511.6281600     
   2306317467.7378922     
   2321358611.1110268     
   2206285265.0960817     
   2191831773.1194916     
   2192371128.6766906     
   2209874068.5702100     
   2247262409.1678848     
   2072836526.3152909     
   2069255801.1104131     
   2084895649.9503102     
   2122388469.2787428     
   2185548517.1969957     
   2507367827.8344908     
   2357081564.0301819     
   2214953445.6402802     
   2085963592.3751774     
   1976987368.4150238     
   2408007946.0190430     
   2282764988.7157097     
   2168019502.9344616     
   2070510166.5066762     
   1999002892.7244403     
   2321358611.1110268     
   2224669516.6877937     
   2141307169.1021316     
   2079634600.5522780     
   2049819866.6558921     
   2247262409.1678848     
   2182586220.5317268     
   2134346098.8483319     
   2112205778.0663674     
   2127095234.4703965     
   2185548517.1969957     
   2156221521.6365285     
   2146489593.3858020     
   2166872586.2594514     
   2228436830.0482316     
   3612925781.4872618     
   3499790281.9551945     
   3398968572.0847335     
   3311035679.6150470     
   3236951580.7074227     
   3871021715.3726211     
   3741277448.4469075     
   3618595930.3819966     
   3503509753.1421447     
   3396763326.9569359     
   4132875506.8652878     
   3993259400.5605001     
   3856779930.1326652     
   3723746456.0005870     
   3594541589.9058580     
   4390003147.7319736     
   4248923594.7448721     
   4108183946.2823677     
   3967806936.7032323     
   3827820034.2663555     
   4636527308.4434748     
   4503301238.9792395     
   4368619408.0582848     
   4232216910.0344348     
   4093855067.8694878     
   3236951580.7074227     
   3182270286.1309524     
   3130080425.4740767     
   3080592823.4707088     
   3034033543.8609629     
   3396763326.9569359     
   3326923299.0645709     
   3260089523.8975282     
   3196541312.0561905     
   3136592297.3415880     
   3594541589.9058580     
   3508833409.3732128     
   3426392347.0693827     
   3347529923.8433309     
   3272617939.6225071     
   3827820034.2663555     
   3725244349.1467662     
   3625972456.1618042     
   3530310211.6428266     
   3438653443.8792381     
   4093855067.8694878     
   3973130727.7341485     
   3855562666.7668896     
   3741415163.4158363     
   3631072760.2657962     
   3034033543.8609629     
   2930008328.1541681     
   2833059466.3267298     
   2743744024.7016740     
   2662713200.4379315     
   3136592297.3415880     
   3016903351.7466407     
   2903333235.5137362     
   2796436906.5493703     
   2696889603.0720067     
   3272617939.6225071     
   3137550154.5263796     
   3007591064.8999577     
   2883245570.8652778     
   2765152754.9749331     
   3438653443.8792381     
   3288795397.6191463     
   3143059477.6689253     
   3001866439.2283854     
   2865770984.7601271     
   3631072760.2657962     
   3467170898.1881013     
   3306485072.1753907     
   3149335351.9433150     
   2996163916.6737022     
   2662713200.4379315     
   2596497690.9346728     
   2537131363.2091718     
   2485172651.2119093     
   2441223492.6240120     
   2696889603.0720067     
   2614621405.7452445     
   2538061395.3153715     
   2467789846.7507930     
   2404460135.7311087     
   2765152754.9749331     
   2667619955.4174728     
   2574546293.0096703     
   2486466003.3940272     
   2404005796.5990524     
   2865770984.7601271     
   2754404356.4954705     
   2646261589.1761055     
   2541775844.9822145     
   2441474166.0606537     
   2996163916.6737022     
   2872807999.5486512     
   2751569317.8587213     
   2632754236.7557287     
   2516747842.2648706     
   2441223492.6240120     
   2367451328.5441084     
   2302087898.5653520     
   2245825597.0747433     
   2199377844.6690516     
   2404460135.7311087     
   2312604016.8189411     
   2228356523.1689634     
   2152519682.0872521     
   2085973295.4870512     
   2404005796.5990524     
   2294325703.2171726     
   2191124375.6292129     
   2095219332.2916822     
   2007565822.8016109     
   2441474166.0606537     
   2315106281.8908648     
   2193893712.2023978     
   2078553828.6418514     
   1969977234.0912256     
   2516747842.2648706     
   2375537528.2837400     
   2238166452.6341739     
   2105163369.2111905     
   1977224063.6194258     
   2199377844.6690516     
   2144541081.0442569     
   2104675801.8073514     
   2080548793.0713475     
   2072836526.3152909     
   2085973295.4870512     
   2011283101.3773510     
   1948959552.0052791     
   1900079482.3508327     
   1865668331.0725729     
   2007565822.8016109     
   1911603842.5008812     
   1824404694.6047442     
   1747163304.1782265     
   1681164333.6011112     
   1969977234.0912256     
   1854343582.5583706     
   1743051084.5019753     
   1637013451.1415505     
   1537351413.0692182     
   1977224063.6194258     
   1847073766.3114409     
   1716917148.9701736     
   1587095633.2080669     
   1458107703.9951546     
   2072836526.3152909     
   2069255801.1104131     
   2084895649.9503102     
   2122388469.2787428     
   2185548517.1969957     
   1865668331.0725729     
   1855073522.5617440     
   1867444898.3375285     
   1904992474.6570301     
   1970749585.8395612     
   1681164333.6011112     
   1652569076.4321015     
   1651698563.7296684     
   1680924414.0853410     
   1742858444.0143106     
   1537351413.0692182     
   1476362835.7479515     
   1448078086.0236316     
   1456470829.1342688     
   1504842857.1158836     
   1458107703.9951546     
   1348934268.0052516     
   1274756063.7995179     
   1243714799.9726536     
   1262869417.1104758     
   2185548517.1969957     
   2156221521.6365285     
   2146489593.3858020     
   2166872586.2594514     
   2228436830.0482316     
   1970749585.8395612     
   1968910041.6711090     
   2003612996.7620552     
   2093528468.4262052     
   2257310974.7878604     
   1742858444.0143106     
   1787684287.6528382     
   1884652575.3030727     
   2060667420.7601330     
   2340952762.3120222     
   1504842857.1158836     
   1613259245.9551077     
   1788867414.5410254     
   2066411141.3499103     
   2476089975.0683031     
   1262869417.1104758     
   1446675644.1150060     
   1715692472.8287482     
   2110492373.0116801     
   2663507481.4146285     
   4636527308.4434748     
   4503301238.9792395     
   4368619408.0582848     
   4232216910.0344348     
   4093855067.8694878     
   4900022020.2973452     
   4759933891.3189650     
   4620953313.9703026     
   4483147131.2056446     
   4346601447.9521532     
   5237412975.7612171     
   5077311658.2013836     
   4919521857.8548574     
   4764022560.8800592     
   4610978251.6679773     
   5646729438.8113813     
   5452326099.6625404     
   5260212675.9070215     
   5069935154.4466333     
   4881531702.9784260     
   6125500334.7611990     
   5881603375.0029430     
   5639066501.7048435     
   5396695268.5735588     
   5154171943.1789284     
   4093855067.8694878     
   3973130727.7341485     
   3855562666.7668896     
   3741415163.4158363     
   3631072760.2657962     
   4346601447.9521532     
   4214213160.4113536     
   4083320464.0568848     
   3954102764.9760089     
   3826802594.3964462     
   4610978251.6679773     
   4470626909.2192230     
   4330756230.7010937     
   4191459544.8653398     
   4052852807.8833852     
   4881531702.9784260     
   4737270317.0805178     
   4593042299.8998270     
   4448867727.1542387     
   4304769619.4840298     
   5154171943.1789284     
   5010190731.2596798     
   4866292482.5001793     
   4722437226.4961939     
   4578588315.0928535     
   3631072760.2657962     
   3467170898.1881013     
   3306485072.1753907     
   3149335351.9433150     
   2996163916.6737022     
   3826802594.3964462     
   3649233403.9398322     
   3473937635.0339546     
   3301121339.4523273     
   3131098380.1718769     
   4052852807.8833852     
   3862202629.5023375     
   3672986321.5585566     
   3485297309.3630495     
   3299316734.3063283     
   4304769619.4840298     
   4101561381.2254810     
   3899068124.3201251     
   3697282459.3613200     
   3496263556.0777955     
   4578588315.0928535     
   4363248119.6445560     
   4148025382.6878324     
   3932828563.7609768     
   3717613568.0219493     
   2996163916.6737022     
   2872807999.5486512     
   2751569317.8587213     
   2632754236.7557287     
   2516747842.2648706     
   3131098380.1718769     
   2997096952.5328603     
   2864820682.5461960     
   2734504438.6043835     
   2606459213.8609395     
   3299316734.3063283     
   3154911127.5453978     
   3011826571.7440047     
   2870221932.4319992     
   2730328080.9992070     
   3496263556.0777955     
   3341401164.3303246     
   3187454167.2513013     
   3034507525.0652928     
   2882714247.4833951     
   3717613568.0219493     
   3551965922.4111280     
   3386829877.9597745     
   3222222275.7924571     
   3058225282.6903944     
   2516747842.2648706     
   2375537528.2837400     
   2238166452.6341739     
   2105163369.2111905     
   1977224063.6194258     
   2606459213.8609395     
   2455298417.6697526     
   2306294672.9980345     
   2159767889.7881689     
   2016154205.6107659     
   2730328080.9992070     
   2571627476.1323457     
   2413790477.1088367     
   2256953599.4213448     
   2101310550.6414571     
   2882714247.4833951     
   2719059431.1623421     
   2555413018.5367918     
   2391799769.1680803     
   2228261782.8272624     
   3058225282.6903944     
   2892134278.1575499     
   2725599313.1578703     
   2558612326.9274025     
   2391170790.4094124     
   1977224063.6194258     
   1847073766.3114409     
   1716917148.9701736     
   1587095633.2080669     
   1458107703.9951546     
   2016154205.6107659     
   1879850220.3940494     
   1743860327.7508593     
   1608310092.9893000     
   1473372268.2176225     
   2101310550.6414571     
   1961480401.2760515     
   1822626312.0317342     
   1684777725.6282015     
   1547992866.7068334     
   2228261782.8272624     
   2085781139.3692622     
   1944984714.2503622     
   1805871404.6756248     
   1668518574.1678765     
   2391170790.4094124     
   2245260098.1592803     
   2101568522.8961382     
   1960093968.8465378     
   1821005797.3250716     
   1458107703.9951546     
   1348934268.0052516     
   1274756063.7995179     
   1243714799.9726536     
   1262869417.1104758     
   1473372268.2176225     
   1328978147.1548750     
   1199050083.9513245     
   1088083754.7425983     
   1002004191.0798841     
   1547992866.7068334     
   1397972186.0374243     
   1244378229.4497614     
   1084945440.0011089     
   917647277.84762442     
   1668518574.1678765     
   1552984678.2859695     
   1428310568.6482029     
   1294861667.0447464     
   1158771990.1137347     
   1821005797.3250716     
   1780269935.7282014     
   1735979900.8020172     
   1696789184.7981343     
   1681225325.8039265     
   1262869417.1104758     
   1446675644.1150060     
   1715692472.8287482     
   2110492373.0116801     
   2663507481.4146285     
   1002004191.0798841     
   1164693680.6846299     
   1425405866.7741373     
   1808727870.2064946     
   2334751044.7211876     
   917647277.84762442     
   963068790.23525488     
   1144891514.4754658     
   1476465857.3086979     
   1957493065.8266335     
   1158771990.1137347     
   1008340193.8454891     
   985171866.68787622     
   1161511797.1915228     
   1544257724.0135672     
   1681225325.8039265     
   1383686868.8966918     
   1129439259.3764441     
   1010226942.5261383     
   1153335112.9613495     
 </DataArray>
 <DataArray  type="Float64" Name="strain" NumberOfComponents="3" format="ascii">
  0.10225014568941027       -2.9894263543520427E-002   2.1898033764387037E-003
   9.8139480896875964E-002  -2.8922245029608051E-002  -2.9191422570262748E-004
   9.4028816104341773E-002  -2.7975016335717307E-002  -1.6857895621381624E-003
   8.9918151311807581E-002  -2.7052577461848137E-002  -1.9918226328683730E-003
   8.5807486519273279E-002  -2.6154928408000822E-002  -1.2100134378931759E-003
   9.3947908023154780E-002  -2.8070791297993725E-002   8.9523242813925874E-003
   9.0760203627106961E-002  -2.7153977961360376E-002   7.2419250405773572E-003
   8.7572499231059198E-002  -2.6260511508904238E-002   6.2896043270295188E-003
   8.4384794835011323E-002  -2.5390391940625187E-002   6.0953621407489056E-003
   8.1197090438963504E-002  -2.4543619256523597E-002   6.6591984817356287E-003
   8.6605938939544214E-002  -2.6247319052466911E-002   1.5658918541144873E-002
   8.4011431201544445E-002  -2.5385710893112479E-002   1.4721280597500552E-002
   8.1416923463544733E-002  -2.4546006682090948E-002   1.4211957442685164E-002
   7.8822415725544992E-002  -2.3728206419402070E-002   1.4130949076698776E-002
   7.6227907987545251E-002  -2.2932310105045872E-002   1.4478255499541098E-002
   8.0224238438578371E-002  -2.4423846806940153E-002   2.2309586155696004E-002
   7.7893163620188388E-002  -2.3617443824864817E-002   2.2146152445066833E-002
   7.5562088801798460E-002  -2.2831501855277714E-002   2.2081269784828286E-002
   7.3231013983408477E-002  -2.2066020898178926E-002   2.2114938174980323E-002
   7.0899939165018494E-002  -2.1321000953568342E-002   2.2247157615523087E-002
   7.4802806520257170E-002  -2.2600374561413394E-002   2.8904327125046203E-002
   7.2405400883038706E-002  -2.1849176756617017E-002   2.9516540583276574E-002
   7.0007995245820298E-002  -2.1116997028464535E-002   2.9897541353459123E-002
   6.7610589608601862E-002  -2.0403835376955795E-002   3.0047329435594294E-002
   6.5213183971383371E-002  -1.9709691802090923E-002   2.9965904829681700E-002
   8.5807486519273279E-002  -2.6154928408000822E-002  -1.2100134378931759E-003
   8.3451845755197596E-002  -2.5265459598659612E-002  -4.4141840211853189E-004
   8.1096204991121967E-002  -2.4367561458309789E-002   2.3873521875689141E-004
   7.8740564227046367E-002  -2.3461233986950970E-002   8.3044742473251110E-004
   7.6384923462970655E-002  -2.2546477184583469E-002   1.3337182158089655E-003
   8.1197090438963504E-002  -2.4543619256523597E-002   6.6591984817356287E-003
   7.8797683118985912E-002  -2.3703347934067698E-002   7.1230687513463842E-003
   7.6398275799008236E-002  -2.2852732450726221E-002   7.5878473240526545E-003
   7.3998868479030616E-002  -2.1991772806499679E-002   8.0535341998541482E-003
   7.1599461159052968E-002  -2.1120469001387643E-002   8.5201293787515175E-003
   7.6227907987545251E-002  -2.2932310105045872E-002   1.4478255499541098E-002
   7.3874083829660542E-002  -2.2141236269475145E-002   1.4639315832864486E-002
   7.1520259671775846E-002  -2.1337903443142528E-002   1.4890634187278123E-002
   6.9166435513891150E-002  -2.0522311626048052E-002   1.5232210562782254E-002
   6.6812611356006496E-002  -1.9694460818191539E-002   1.5664044959376788E-002
   7.0899939165018494E-002  -2.1321000953568342E-002   2.2247157615523087E-002
   6.8681047887221680E-002  -2.0579124604882690E-002   2.2107322842435564E-002
   6.6462156609424783E-002  -1.9823074435558898E-002   2.2147095808433385E-002
   6.4243265331627969E-002  -1.9052850445596313E-002   2.2366476513516267E-002
   6.2024374053831079E-002  -1.8268452634995574E-002   2.2765464957684681E-002
   6.5213183971383371E-002  -1.9709691802090923E-002   2.9965904829681700E-002
   6.3218575291669243E-002  -1.9017012940290512E-002   2.9527089780059662E-002
   6.1223966611955088E-002  -1.8308245427975156E-002   2.9357232187518068E-002
   5.9229357932240947E-002  -1.7583389265144966E-002   2.9456332052056611E-002
   5.7234749252526806E-002  -1.6842444451799721E-002   2.9824389373674931E-002
   7.6384923462970655E-002  -2.2546477184583469E-002   1.3337182158089655E-003
   7.2763885059243139E-002  -2.1625478047427260E-002   6.8338234333631398E-004
   6.9142846655515566E-002  -2.0700423571701931E-002   2.6371749128717425E-004
   6.5521808251788077E-002  -1.9771313757407996E-002   7.4723659662628839E-005
   6.1900769848060477E-002  -1.8838148604545579E-002   1.1640084846187282E-004
   7.1599461159052968E-002  -2.1120469001387643E-002   8.5201293787515175E-003
   6.8205687035200191E-002  -2.0244070901735356E-002   7.8669491499818722E-003
   6.4811912911347358E-002  -1.9367828373888174E-002   7.4376264605377773E-003
   6.1418138787494636E-002  -1.8491741417846125E-002   7.2321613104185251E-003
   5.8024364663641803E-002  -1.7615810033609236E-002   7.2505536996247955E-003
   6.6812611356006496E-002  -1.9694460818191539E-002   1.5664044959376788E-002
   6.3639288030929497E-002  -1.8862663756043757E-002   1.5003809463936979E-002
   6.0465964705852512E-002  -1.8035233176074500E-002   1.4560618026723496E-002
   5.7292641380775548E-002  -1.7212169078284469E-002   1.4334470647736394E-002
   5.4119318055698584E-002  -1.6393471462672948E-002   1.4325367326975785E-002
   6.2024374053831079E-002  -1.8268452634995574E-002   2.2765464957684681E-002
   5.9064688046431002E-002  -1.7481256610352061E-002   2.2093963285200774E-002
   5.6105002039030918E-002  -1.6702637978260895E-002   2.1632692189844246E-002
   5.3145316031630828E-002  -1.5932596738722372E-002   2.1381651671615574E-002
   5.0185630024230765E-002  -1.5171132891736633E-002   2.1340841730513822E-002
   5.7234749252526806E-002  -1.6842444451799721E-002   2.9824389373674931E-002
   5.4481887081704705E-002  -1.6099849464660282E-002   2.9137410613773507E-002
   5.1729024910882632E-002  -1.5370042780447207E-002   2.8653848949900362E-002
   4.8976162740060558E-002  -1.4653024399160476E-002   2.8373704382055637E-002
   4.6223300569238457E-002  -1.3948794320800317E-002   2.8296976910239691E-002
   6.1900769848060477E-002  -1.8838148604545579E-002   1.1640084846187282E-004
   5.9161074723748097E-002  -1.7921800158614110E-002  -4.0089729569370292E-007
   5.6421379599435939E-002  -1.7043140465113654E-002   7.3811137849766340E-005
   5.3681684475123614E-002  -1.6202169524043623E-002   3.3903695389927990E-004
   5.0941989350811401E-002  -1.5398887335405620E-002   7.9527655085187554E-004
   5.8024364663641803E-002  -1.7615810033609236E-002   7.2505536996247955E-003
   5.5466176180145266E-002  -1.6751226349496107E-002   7.0654890998180231E-003
   5.2907987696648673E-002  -1.5909182493825197E-002   7.0524240007382999E-003
   5.0349799213152080E-002  -1.5089678466597388E-002   7.2113584023865140E-003
   4.7791610729655487E-002  -1.4292714267812312E-002   7.5422923047622215E-003
   5.4119318055698584E-002  -1.6393471462672948E-002   1.4325367326975785E-002
   5.1723621932841690E-002  -1.5580652540378215E-002   1.4087188797107436E-002
   4.9327925809984879E-002  -1.4775224522537531E-002   1.4001995487790783E-002
   4.6932229687128027E-002  -1.3977187409151045E-002   1.4069787399026208E-002
   4.4536533564271175E-002  -1.3186541200218893E-002   1.4290564530813121E-002
   5.0185630024230765E-002  -1.5171132891736633E-002   2.1340841730513822E-002
   4.7933411981837690E-002  -1.4410078731260045E-002   2.1064698194572996E-002
   4.5681193939444635E-002  -1.3641266551249469E-002   2.0922525599007914E-002
   4.3428975897051539E-002  -1.2864696351704423E-002   2.0914323943818355E-002
   4.1176757854658491E-002  -1.2080368132625530E-002   2.1040093229005102E-002
   4.6223300569238457E-002  -1.3948794320800317E-002   2.8296976910239691E-002
   4.4095546327133195E-002  -1.3239504922142042E-002   2.7998017292214405E-002
   4.1967792085027877E-002  -1.2507308579961185E-002   2.7814014334389237E-002
   3.9840037842922643E-002  -1.1752205294257856E-002   2.7744968036763518E-002
   3.7712283600817298E-002  -1.0974195065032277E-002   2.7790878399338137E-002
   5.0941989350811401E-002  -1.5398887335405620E-002   7.9527655085187554E-004
   4.8168635703299989E-002  -1.4596502118838228E-002   5.3826253292821313E-004
   4.5395282055788577E-002  -1.3758222093979922E-002   3.1645936466984104E-004
   4.2621928408277221E-002  -1.2884047260833947E-002   1.2986704607631516E-004
   3.9848574760765754E-002  -1.1973977619397669E-002  -2.1514422851698356E-005
   4.7791610729655487E-002  -1.4292714267812312E-002   7.5422923047622215E-003
   4.5066642396165868E-002  -1.3496836967535675E-002   7.2218846268230497E-003
   4.2341674062676304E-002  -1.2680593635834486E-002   6.9630367272621729E-003
   3.9616705729186685E-002  -1.1843984272708989E-002   6.7657486060795080E-003
   3.6891737395697011E-002  -1.0987008878157845E-002   6.6300202632751937E-003
   4.4536533564271175E-002  -1.3186541200218893E-002   1.4290564530813121E-002
   4.1886299473516186E-002  -1.2397171816233954E-002   1.3891234415994352E-002
   3.9236065382761198E-002  -1.1602965177688607E-002   1.3579813008266634E-002
   3.6585831292006168E-002  -1.0803921284583809E-002   1.3356300307630020E-002
   3.3935597201251166E-002  -1.0000040136918464E-002   1.3220696314084124E-002
   4.1176757854658491E-002  -1.2080368132625530E-002   2.1040093229005102E-002
   3.8627606935350819E-002  -1.1297506664931706E-002   2.0546311900441962E-002
   3.6078456016043176E-002  -1.0525336719542727E-002   2.0166788207682834E-002
   3.3529305096735490E-002  -9.7638582964585177E-003   1.9901522150727123E-002
   3.0980154177427804E-002  -9.0130713956787512E-003   1.9750513729575384E-002
   3.7712283600817298E-002  -1.0974195065032277E-002   2.7790878399338137E-002
   3.5290564781669753E-002  -1.0197841513629791E-002   2.7187117080165968E-002
   3.2868845962522264E-002  -9.4477082613971808E-003   2.6723962325510275E-002
   3.0447127143374733E-002  -8.7237953083333653E-003   2.6401414135371337E-002
   2.8025408324227230E-002  -8.0261026544390379E-003   2.6219472509748987E-002
   3.9848574760765754E-002  -1.1973977619397669E-002  -2.1514422851698356E-005
   3.7443047851541511E-002  -1.1129566207211061E-002  -3.0132501264956701E-004
   3.5037520942317213E-002  -1.0452366061811824E-002  -4.8968987710173995E-004
   3.2631994033092970E-002  -9.9423771832002211E-003  -5.8660901620621875E-004
   3.0226467123868672E-002  -9.5995995713773485E-003  -5.9208242996522387E-004
   3.6891737395697011E-002  -1.0987008878157845E-002   6.6300202632751937E-003
   3.4559149045526483E-002  -1.0175107422324192E-002   6.1935370899837139E-003
   3.2226560695355927E-002  -9.4737198753492291E-003   5.8114853094537455E-003
   2.9893972345185330E-002  -8.8828462372324696E-003   5.4838649216842061E-003
   2.7561383995014732E-002  -8.4024865079743716E-003   5.2106759266760116E-003
   3.3935597201251166E-002  -1.0000040136918464E-002   1.3220696314084124E-002
   3.1638933077548781E-002  -9.2206486374378782E-003   1.2684237915228935E-002
   2.9342268953846479E-002  -8.4950736888862177E-003   1.2165196576549409E-002
   2.7045604830144107E-002  -7.8233152912640588E-003   1.1663572298045391E-002
   2.4748940706441763E-002  -7.2053734445710615E-003   1.1179365079716896E-002
   3.0980154177427804E-002  -9.0130713956787512E-003   1.9750513729575384E-002
   2.8682399947608267E-002  -8.2661898525511757E-003   1.9170777463085820E-002
   2.6384645717788723E-002  -7.5164275024238586E-003   1.8571443924185992E-002
   2.4086891487969189E-002  -6.7637843452959777E-003   1.7952513112876354E-002
   2.1789137258149530E-002  -6.0082603811680291E-003   1.7313985029157111E-002
   2.8025408324227230E-002  -8.0261026544390379E-003   2.6219472509748987E-002
   2.5689549655704969E-002  -7.3117310676648062E-003   2.5653155733553867E-002
   2.3353690987182790E-002  -6.5377813159608611E-003   2.5030227352363488E-002
   2.1017832318660570E-002  -5.7042533993277370E-003   2.4350687366178014E-002
   1.8681973650138406E-002  -4.8111473177649966E-003   2.3614535774996948E-002
   3.0226467123868672E-002  -9.5995995713773485E-003  -5.9208242996522387E-004
   2.9613975044661012E-002  -9.1357531902150901E-003  -3.5389232294069650E-004
   2.9001482965453518E-002  -8.2625580035879387E-003  -1.7960689053116985E-003
   2.8388990886245913E-002  -6.9800140114946035E-003  -4.9186121770786184E-003
   2.7776498807038363E-002  -5.2881212139359590E-003  -9.7215221382409567E-003
   2.7561383995014732E-002  -8.4024865079743716E-003   5.2106759266760116E-003
   2.5537860920806010E-002  -7.8713985846876611E-003   5.8815011195667566E-003
   2.3514337846597289E-002  -7.1283403644847865E-003   5.4106310118505752E-003
   2.1490814772388567E-002  -6.1733118473653453E-003   3.7980656035271620E-003
   1.9467291698179956E-002  -5.0063130333302119E-003   1.0438048945973222E-003
   2.4748940706441763E-002  -7.2053734445710615E-003   1.1179365079716896E-002
   2.1853058026020722E-002  -6.6070439791591773E-003   1.2085446849923798E-002
   1.8957175345599625E-002  -5.9941227253812179E-003   1.2388504708312986E-002
   1.6061292665178500E-002  -5.3666096832363161E-003   1.2088538654884254E-002
   1.3165409984757459E-002  -4.7245048527249089E-003   1.1185548689637614E-002
   2.1789137258149530E-002  -6.0082603811680291E-003   1.7313985029157111E-002
   1.8559566360305077E-002  -5.3426893736316650E-003   1.8257944868131218E-002
   1.5329995462460506E-002  -4.8599050862778576E-003   1.9137552184076360E-002
   1.2100424564615957E-002  -4.5599075191073944E-003   1.9952806976992549E-002
   8.8708536667714763E-003  -4.4426966721191619E-003   2.0703709246879420E-002
   1.8681973650138406E-002  -4.8111473177649966E-003   2.3614535774996948E-002
   1.5657385923659228E-002  -4.0783347681035420E-003   2.4398995174188753E-002
   1.2632798197179967E-002  -3.7256874471746915E-003   2.5657773439140608E-002
   9.6082104707006927E-003  -3.7532053549781327E-003   2.7390870569852371E-002
   6.5836227442215289E-003  -4.1608884915137478E-003   2.9598286566323240E-002
   2.7776498807038363E-002  -5.2881212139359590E-003  -9.7215221382409567E-003
   2.3351666902343693E-002  -4.2055205703410703E-003  -4.1899951268646873E-003
   1.8926834997649133E-002  -4.7508530401417781E-003   2.6048033367694901E-003
   1.4502003092954435E-002  -6.9241186233328922E-003   1.0662873252661353E-002
   1.0077171188259904E-002  -1.0725317319920435E-002   1.9984214620810903E-002
   1.9467291698179956E-002  -5.0063130333302119E-003   1.0438048945973222E-003
   1.6233471914956943E-002  -4.6899570545632097E-003   6.7398034302018628E-003
   1.2999652131734096E-002  -6.2868570432469406E-003   1.3554554756492476E-002
   9.7658323485112497E-003  -9.7970129993822097E-003   2.1488058873468607E-002
   6.5320125652881256E-003  -1.5220424922967712E-002   3.0540315781130811E-002
   1.3165409984757459E-002  -4.7245048527249089E-003   1.1185548689637614E-002
   1.0978083661434657E-002  -5.1743935387843498E-003   1.6760695895412847E-002
   8.7907573381118265E-003  -7.8228610463531578E-003   2.3310077230301485E-002
   6.6034310147889616E-003  -1.2669907375429626E-002   3.0833692694305442E-002
   4.4161046914661384E-003  -1.9715532526015878E-002   3.9331542287422527E-002
   8.8708536667714763E-003  -4.4426966721191619E-003   2.0703709246879420E-002
   7.5855021417768828E-003  -5.6588300230059896E-003   2.5872682268767433E-002
   6.3001506167825148E-003  -9.3588650494592918E-003   3.1871370758197862E-002
   5.0147990917881382E-003  -1.5542801751477993E-002   3.8699774715170103E-002
   3.7294475667934424E-003  -2.4210640129063377E-002   4.6357894139685829E-002
   6.5836227442215289E-003  -4.1608884915137478E-003   2.9598286566323240E-002
   6.0557273559836977E-003  -6.1432665072272963E-003   3.4075762550266342E-002
   5.5278319677458387E-003  -1.0894869052564787E-002   3.9238435340180733E-002
   4.9999365795079936E-003  -1.8415696127525923E-002   4.5086304936065386E-002
   4.4720411912702041E-003  -2.8705747732110876E-002   5.1619371337921383E-002
   7.4802806520257170E-002  -2.2600374561413394E-002   2.8904327125046203E-002
   7.2405400883038706E-002  -2.1849176756617017E-002   2.9516540583276574E-002
   7.0007995245820298E-002  -2.1116997028464535E-002   2.9897541353459123E-002
   6.7610589608601862E-002  -2.0403835376955795E-002   3.0047329435594294E-002
   6.5213183971383371E-002  -1.9709691802090923E-002   2.9965904829681700E-002
   6.9575615536620061E-002  -2.0672795504085240E-002   3.4187035214913453E-002
   6.7046314941979129E-002  -2.0015018961053704E-002   3.4313308619852934E-002
   6.4517014347338225E-002  -1.9365166482656501E-002   3.4407004797995300E-002
   6.1987713752697252E-002  -1.8723238068893640E-002   3.4468123749340343E-002
   5.9458413158056361E-002  -1.8089233719765063E-002   3.4496665473888188E-002
   6.3776637839705941E-002  -1.8745216446757140E-002   3.9370775037011141E-002
   6.1314077748892998E-002  -1.8180861165490336E-002   3.9022202400669379E-002
   5.8851517658080013E-002  -1.7613335936848412E-002   3.8839687998780723E-002
   5.6388957567267008E-002  -1.7042640760831347E-002   3.8823231831345187E-002
   5.3926397476454072E-002  -1.6468775637439148E-002   3.8972833898362980E-002
   5.7405873429514913E-002  -1.6817637389429041E-002   4.4455546591339448E-002
   5.5208689303780277E-002  -1.6346703369926996E-002   4.3643221925725659E-002
   5.3011505178045676E-002  -1.5861505391040351E-002   4.3195590955815599E-002
   5.0814321052311026E-002  -1.5362043452769123E-002   4.3112653681609173E-002
   4.8617136926576432E-002  -1.4848317555113261E-002   4.3394410103106060E-002
   5.0463322306046887E-002  -1.4890058332100886E-002   4.9441349877898055E-002
   4.8730149606641043E-002  -1.4512545574363628E-002   4.8176367195021996E-002
   4.6996976907235199E-002  -1.4109674845232290E-002   4.7474713669099944E-002
   4.5263804207829383E-002  -1.3681446144706871E-002   4.7336389300131954E-002
   4.3530631508423540E-002  -1.3227859472787373E-002   4.7761394088117859E-002
   6.5213183971383371E-002  -1.9709691802090923E-002   2.9965904829681700E-002
   6.3218575291669243E-002  -1.9017012940290512E-002   2.9527089780059662E-002
   6.1223966611955088E-002  -1.8308245427975156E-002   2.9357232187518068E-002
   5.9229357932240947E-002  -1.7583389265144966E-002   2.9456332052056611E-002
   5.7234749252526806E-002  -1.6842444451799721E-002   2.9824389373674931E-002
   5.9458413158056361E-002  -1.8089233719765063E-002   3.4496665473888188E-002
   5.7706781582752359E-002  -1.7449805272252247E-002   3.4272055659279640E-002
   5.5955150007448287E-002  -1.6791604563336560E-002   3.4264442596411246E-002
   5.4203518432144278E-002  -1.6114631593018278E-002   3.4473826285282866E-002
   5.2451886856840213E-002  -1.5418886361297068E-002   3.4900206725894806E-002
   5.3926397476454072E-002  -1.6468775637439148E-002   3.8972833898362980E-002
   5.2365782300220001E-002  -1.5882597604213983E-002   3.8965112929656001E-002
   5.0805167123985924E-002  -1.5274963698698185E-002   3.9122428007348886E-002
   4.9244551947751874E-002  -1.4645873920891700E-002   3.9444779131441607E-002
   4.7683936771517776E-002  -1.3995328270794360E-002   3.9932166301934496E-002
   4.8617136926576432E-002  -1.4848317555113261E-002   4.3394410103106060E-002
   4.7195577444072268E-002  -1.4315389936175718E-002   4.3606261591188529E-002
   4.5774017961568048E-002  -1.3758322834059811E-002   4.3931188420330530E-002
   4.4352458479063869E-002  -1.3177116248764997E-002   4.4369190590532459E-002
   4.2930898996559663E-002  -1.2571770180291680E-002   4.4920268101794246E-002
   4.3530631508423540E-002  -1.3227859472787373E-002   4.7761394088117859E-002
   4.2196167014309061E-002  -1.2748182268137481E-002   4.8195501643877203E-002
   4.0861702520194623E-002  -1.2241681969421214E-002   4.8690723835356470E-002
   3.9527238026080151E-002  -1.1708358576638350E-002   4.9247060662555325E-002
   3.8192773531965735E-002  -1.1148212089789000E-002   4.9864512125473992E-002
   5.7234749252526806E-002  -1.6842444451799721E-002   2.9824389373674931E-002
   5.4481887081704705E-002  -1.6099849464660282E-002   2.9137410613773507E-002
   5.1729024910882632E-002  -1.5370042780447207E-002   2.8653848949900362E-002
   4.8976162740060558E-002  -1.4653024399160476E-002   2.8373704382055637E-002
   4.6223300569238457E-002  -1.3948794320800317E-002   2.8296976910239691E-002
   5.2451886856840213E-002  -1.5418886361297068E-002   3.4900206725894806E-002
   4.9903572386646305E-002  -1.4720239868893287E-002   3.4216391859475032E-002
   4.7355257916452398E-002  -1.4034563116527010E-002   3.3738255298283212E-002
   4.4806943446258518E-002  -1.3361856104198530E-002   3.3465797042319077E-002
   4.2258628976064611E-002  -1.2702118831907527E-002   3.3399017091582717E-002
   4.7683936771517776E-002  -1.3995328270794360E-002   3.9932166301934496E-002
   4.5342431211151460E-002  -1.3340630273126111E-002   3.9251333891885454E-002
   4.3000925650785060E-002  -1.2699083452606855E-002   3.8778440996263361E-002
   4.0659420090418702E-002  -1.2070687809236359E-002   3.8513487615068696E-002
   3.8317914530052358E-002  -1.1455443343014737E-002   3.8456473748301079E-002
   4.2930898996559663E-002  -1.2571770180291680E-002   4.4920268101794246E-002
   4.0798463555220141E-002  -1.1961020677358998E-002   4.4242236711004398E-002
   3.8666028113880611E-002  -1.1363603788686623E-002   4.3774406043841321E-002
   3.6533592672541089E-002  -1.0779519514274050E-002   4.3516776100304640E-002
   3.4401157231201504E-002  -1.0208767854122003E-002   4.3469346880394499E-002
   3.8192773531965735E-002  -1.1148212089789000E-002   4.9864512125473992E-002
   3.6271669418852348E-002  -1.0581411081591940E-002   4.9189100316832490E-002
   3.4350565305739017E-002  -1.0028124124766530E-002   4.8726150441016802E-002
   3.2429461192625672E-002  -9.4883512193120814E-003   4.8475662498026845E-002
   3.0508357079512299E-002  -8.9620923652291573E-003   4.8437636487862812E-002
   4.6223300569238457E-002  -1.3948794320800317E-002   2.8296976910239691E-002
   4.4095546327133195E-002  -1.3239504922142042E-002   2.7998017292214405E-002
   4.1967792085027877E-002  -1.2507308579961185E-002   2.7814014334389237E-002
   3.9840037842922643E-002  -1.1752205294257856E-002   2.7744968036763518E-002
   3.7712283600817298E-002  -1.0974195065032277E-002   2.7790878399338137E-002
   4.2258628976064611E-002  -1.2702118831907527E-002   3.3399017091582717E-002
   4.0252989607470036E-002  -1.2037624737275321E-002   3.3153867998151565E-002
   3.8247350238875460E-002  -1.1350647257922619E-002   3.3037991991541865E-002
   3.6241710870280899E-002  -1.0641186393849714E-002   3.3051389071753715E-002
   3.4236071501686310E-002  -9.9092421450566182E-003   3.3194059238787155E-002
   3.8317914530052358E-002  -1.1455443343014737E-002   3.8456473748301079E-002
   3.6448706461590236E-002  -1.0835744552408516E-002   3.8264711620661307E-002
   3.4579498393128155E-002  -1.0193985935884053E-002   3.8216539006465100E-002
   3.2710290324666012E-002  -9.5301674934415159E-003   3.8311955905712181E-002
   3.0841082256203967E-002  -8.8442892250809035E-003   3.8550962318402687E-002
   3.4401157231201504E-002  -1.0208767854122003E-002   4.3469346880394499E-002
   3.2682696889493698E-002  -9.6338643675416419E-003   4.3330548159744159E-002
   3.0964236547785913E-002  -9.0373246138454877E-003   4.3349655379159330E-002
   2.9245776206078093E-002  -8.4191485930333460E-003   4.3526668538639235E-002
   2.7527315864370318E-002  -7.7793363051052722E-003   4.3861587638184721E-002
   3.0508357079512299E-002  -8.9620923652291573E-003   4.8437636487862812E-002
   2.8954960891180576E-002  -8.4319841826749342E-003   4.8351377615399926E-002
   2.7401564702848796E-002  -7.8806632918069497E-003   4.8437341109624055E-002
   2.5848168514517059E-002  -7.3081296926250719E-003   4.8695526970535030E-002
   2.4294772326185321E-002  -6.7143833851296408E-003   4.9125935198132908E-002
   3.7712283600817298E-002  -1.0974195065032277E-002   2.7790878399338137E-002
   3.5290564781669753E-002  -1.0197841513629791E-002   2.7187117080165968E-002
   3.2868845962522264E-002  -9.4477082613971808E-003   2.6723962325510275E-002
   3.0447127143374733E-002  -8.7237953083333653E-003   2.6401414135371337E-002
   2.8025408324227230E-002  -8.0261026544390379E-003   2.6219472509748987E-002
   3.4236071501686310E-002  -9.9092421450566182E-003   3.3194059238787155E-002
   3.1957698120842148E-002  -9.1753386429693773E-003   3.2651867058399620E-002
   2.9679324739998028E-002  -8.4600000190150071E-003   3.2255759190102401E-002
   2.7400951359153915E-002  -7.7632262731931953E-003   3.2005735633895332E-002
   2.5122577978309718E-002  -7.0850174055041570E-003   3.1901796389778636E-002
   3.0841082256203967E-002  -8.8442892250809035E-003   3.8550962318402687E-002
   2.8711532061236944E-002  -8.1528357723090195E-003   3.8077994697836487E-002
   2.6581981866269942E-002  -7.4722917766332775E-003   3.7756589136934332E-002
   2.4452431671302888E-002  -6.8026572380531364E-003   3.7586745635695931E-002
   2.2322881476335904E-002  -6.1439321565692762E-003   3.7568464194121909E-002
   2.7527315864370318E-002  -7.7793363051052722E-003   4.3861587638184721E-002
   2.5552066602854182E-002  -7.1303329016486894E-003   4.3465499998476272E-002
   2.3576817341338076E-002  -6.4845835342513258E-003   4.3226452166005902E-002
   2.1601568079821980E-002  -5.8420882029132995E-003   4.3144444140773140E-002
   1.9626318818305826E-002  -5.2028469076345063E-003   4.3219475922778063E-002
   2.4294772326185321E-002  -6.7143833851296408E-003   4.9125935198132908E-002
   2.2479301745693792E-002  -6.1078300309883593E-003   4.8814382960319369E-002
   2.0663831165202345E-002  -5.4968752918694574E-003   4.8665348277317333E-002
   1.8848360584710844E-002  -4.8815191677730949E-003   4.8678831149126939E-002
   1.7032890004219342E-002  -4.2617616586995144E-003   4.8854831575747881E-002
   2.8025408324227230E-002  -8.0261026544390379E-003   2.6219472509748987E-002
   2.5689549655704969E-002  -7.3117310676648062E-003   2.5653155733553867E-002
   2.3353690987182790E-002  -6.5377813159608611E-003   2.5030227352363488E-002
   2.1017832318660570E-002  -5.7042533993277370E-003   2.4350687366178014E-002
   1.8681973650138406E-002  -4.8111473177649966E-003   2.3614535774996948E-002
   2.5122577978309718E-002  -7.0850174055041570E-003   3.1901796389778636E-002
   2.2769360791032367E-002  -6.4083583543408928E-003   3.1515388248772591E-002
   2.0416143603754947E-002  -5.7162340580970417E-003   3.1150874675251794E-002
   1.8062926416477595E-002  -5.0086445167722912E-003   3.0808255669215634E-002
   1.5709709229200175E-002  -4.2855897303666346E-003   3.0487531230664888E-002
   2.2322881476335904E-002  -6.1439321565692762E-003   3.7568464194121909E-002
   2.0030811942783722E-002  -5.5049856410171460E-003   3.7317851768456117E-002
   1.7738742409231505E-002  -4.8946868002328753E-003   3.7167640082755984E-002
   1.5446672875679291E-002  -4.3130356342166200E-003   3.7117829137021129E-002
   1.3154603342127147E-002  -3.7600321429681616E-003   3.7168418931251362E-002
   1.9626318818305826E-002  -5.2028469076345063E-003   4.3219475922778063E-002
   1.7473903110959130E-002  -4.6016129276931494E-003   4.3060546292604286E-002
   1.5321487403612470E-002  -4.0731395423689934E-003   4.3080523574876059E-002
   1.3169071696265789E-002  -3.6174267516610615E-003   4.3279407769593402E-002
   1.1016655988919172E-002  -3.2344745555695775E-003   4.3657198876756530E-002
   1.7032890004219342E-002  -4.2617616586995144E-003   4.8854831575747881E-002
   1.5098634295558577E-002  -3.6982402143694859E-003   4.8743471821216855E-002
   1.3164378586897826E-002  -3.2515922845048340E-003   4.8889525151611712E-002
   1.1230122878237041E-002  -2.9218178691056002E-003   4.9292991566932981E-002
   9.2958671695762551E-003  -2.7089169681713265E-003   4.9953871067179856E-002
   1.8681973650138406E-002  -4.8111473177649966E-003   2.3614535774996948E-002
   1.5657385923659228E-002  -4.0783347681035420E-003   2.4398995174188753E-002
   1.2632798197179967E-002  -3.7256874471746915E-003   2.5657773439140608E-002
   9.6082104707006927E-003  -3.7532053549781327E-003   2.7390870569852371E-002
   6.5836227442215289E-003  -4.1608884915137478E-003   2.9598286566323240E-002
   1.5709709229200175E-002  -4.2855897303666346E-003   3.0487531230664888E-002
   1.3140924854318947E-002  -3.7731941918060508E-003   3.1262159164808290E-002
   1.0572140479437775E-002  -3.6975823940167130E-003   3.2474074936388403E-002
   8.0033561045565541E-003  -4.0587543369981702E-003   3.4123278545404576E-002
   5.4345717296753193E-003  -4.8567100207504987E-003   3.6209769991856877E-002
   1.3154603342127147E-002  -3.7600321429681616E-003   3.7168418931251362E-002
   1.1004591290520338E-002  -3.4680536155084207E-003   3.7876596888308217E-002
   8.8545792389136055E-003  -3.6694773408583042E-003   3.8985031654477656E-002
   6.7045671873068417E-003  -4.3643033190179890E-003   4.0493723229759603E-002
   4.5545551357000641E-003  -5.5525315499870831E-003   4.2402671614154536E-002
   1.1016655988919172E-002  -3.2344745555695775E-003   4.3657198876756530E-002
   9.2483852322633175E-003  -3.1629130392109711E-003   4.4242308344687405E-002
   7.4801144756075476E-003  -3.6413722877001106E-003   4.5190643593407798E-002
   5.7118437189517075E-003  -4.6698523010381392E-003   4.6502204622917279E-002
   3.9435729622959263E-003  -6.2483530792234176E-003   4.8176991433216139E-002
   9.2958671695762551E-003  -2.7089169681713265E-003   4.9953871067179856E-002
   7.8723066795479135E-003  -2.8577724629132439E-003   5.0359293533946969E-002
   6.4487461895194886E-003  -3.6132672345419170E-003   5.1090910753179453E-002
   5.0251856994911054E-003  -4.9754012830577898E-003   5.2148722724878027E-002
   3.6016252094627221E-003  -6.9441746084604183E-003   5.3532729449041971E-002
   6.5836227442215289E-003  -4.1608884915137478E-003   2.9598286566323240E-002
   6.0557273559836977E-003  -6.1432665072272963E-003   3.4075762550266342E-002
   5.5278319677458387E-003  -1.0894869052564787E-002   3.9238435340180733E-002
   4.9999365795079936E-003  -1.8415696127525923E-002   4.5086304936065386E-002
   4.4720411912702041E-003  -2.8705747732110876E-002   5.1619371337921383E-002
   5.4345717296753193E-003  -4.8567100207504987E-003   3.6209769991856877E-002
   5.4880749649659499E-003  -6.9910599558612452E-003   3.8349867568143903E-002
   5.5415782002564973E-003  -1.1361414652918872E-002   4.0967565585516674E-002
   5.5950814355470654E-003  -1.7967774111923247E-002   4.4062864043975664E-002
   5.6485846708376197E-003  -2.6810138332874045E-002   4.7635762943521121E-002
   4.5545551357000641E-003  -5.5525315499870831E-003   4.2402671614154536E-002
   4.9818606296344048E-003  -7.8388534044955827E-003   4.2738610550461881E-002
   5.4091661235687247E-003  -1.1827960253273276E-002   4.3344553562970997E-002
   5.8364716175030480E-003  -1.7519852096320680E-002   4.4220500651681892E-002
   6.2637771114374408E-003  -2.4914528933637214E-002   4.5366451816592601E-002
   3.9435729622959263E-003  -6.2483530792234176E-003   4.8176991433216139E-002
   4.5370843499892843E-003  -8.6866468531297258E-003   4.7241991497221685E-002
   5.1305957376826441E-003  -1.2294505853627964E-002   4.6369399272543813E-002
   5.7241071253759214E-003  -1.7071930080718167E-002   4.5559214759182912E-002
   6.3176185130693618E-003  -2.3018919534400384E-002   4.4811437957138905E-002
   3.6016252094627221E-003  -6.9441746084604183E-003   5.3532729449041971E-002
   4.1537461260303943E-003  -9.5344403017636470E-003   5.1860010408422252E-002
   4.7058670425980942E-003  -1.2761051453981820E-002   5.0042102714235370E-002
   5.2579879591657386E-003  -1.6624008065115395E-002   4.8079006366479882E-002
   5.8101088757335217E-003  -2.1123310135163553E-002   4.5970721365156564E-002
   5.0463322306046887E-002  -1.4890058332100886E-002   4.9441349877898055E-002
   4.8730149606641043E-002  -1.4512545574363628E-002   4.8176367195021996E-002
   4.6996976907235199E-002  -1.4109674845232290E-002   4.7474713669099944E-002
   4.5263804207829383E-002  -1.3681446144706871E-002   4.7336389300131954E-002
   4.3530631508423540E-002  -1.3227859472787373E-002   4.7761394088117859E-002
   4.3456934026054800E-002  -1.3008732462325701E-002   5.2860661255378583E-002
   4.2202667973368649E-002  -1.2677683794685451E-002   5.1978444851974170E-002
   4.0948401920682526E-002  -1.2325840319485054E-002   5.1490712585055248E-002
   3.9694135867996375E-002  -1.1953202036724238E-002   5.1397464454621733E-002
   3.8439869815310237E-002  -1.1559768946403315E-002   5.1698700460673513E-002
   3.6894658146291268E-002  -1.1127406592550515E-002   5.6235790124679441E-002
   3.5950453719856355E-002  -1.0842822015007400E-002   5.5731776836912578E-002
   3.5006249293421401E-002  -1.0542005793737763E-002   5.5453402665162896E-002
   3.4062044866986441E-002  -1.0224957928741715E-002   5.5400667609429924E-002
   3.3117840440551473E-002  -9.8916784200192009E-003   5.5573571669713925E-002
   3.0776494666756395E-002  -9.2460807227753294E-003   5.9566736485799854E-002
   2.9973506846104107E-002  -9.0079602353292862E-003   5.9436363149836920E-002
   2.9170519025451844E-002  -8.7581712679904999E-003   5.9362783909422526E-002
   2.8367531204799568E-002  -8.4967138207592205E-003   5.9345998764556575E-002
   2.7564543384147315E-002  -8.2235878936351425E-003   5.9386007715238942E-002
   2.5102443587450146E-002  -7.3647548530001439E-003   6.2853500338740154E-002
   2.4271827352112002E-002  -7.1730984556511446E-003   6.3092203790747370E-002
   2.3441211116773886E-002  -6.9743367422432645E-003   6.3218856317834526E-002
   2.2610594881435769E-002  -6.7684697127766077E-003   6.3233457920001540E-002
   2.1779978646097639E-002  -6.5554973672510286E-003   6.3136008597248550E-002
   4.3530631508423540E-002  -1.3227859472787373E-002   4.7761394088117859E-002
   4.2196167014309061E-002  -1.2748182268137481E-002   4.8195501643877203E-002
   4.0861702520194623E-002  -1.2241681969421214E-002   4.8690723835356470E-002
   3.9527238026080151E-002  -1.1708358576638350E-002   4.9247060662555325E-002
   3.8192773531965735E-002  -1.1148212089789000E-002   4.9864512125473992E-002
   3.8439869815310237E-002  -1.1559768946403315E-002   5.1698700460673513E-002
   3.7192237528322958E-002  -1.1143255483263892E-002   5.1953352422266730E-002
   3.5944605241335699E-002  -1.0701376082047881E-002   5.2320554162394436E-002
   3.4696972954348412E-002  -1.0234130742755358E-002   5.2800305681056862E-002
   3.3449340667361147E-002  -9.7415194653862613E-003   5.3392606978253931E-002
   3.3117840440551473E-002  -9.8916784200192009E-003   5.5573571669713925E-002
   3.2008475503506398E-002  -9.5383286983901777E-003   5.5647310881150658E-002
   3.0899110566461264E-002  -9.1610701946746032E-003   5.5885035013937059E-002
   2.9789745629416151E-002  -8.7599029088722552E-003   5.6286744068073075E-002
   2.8680380692371027E-002  -8.3348268409835224E-003   5.6852438043558884E-002
   2.7564543384147315E-002  -8.2235878936351425E-003   5.9386007715238942E-002
   2.6644880939859329E-002  -7.9334019135165815E-003   5.9277377020529341E-002
   2.5725218495571380E-002  -7.6207643073012421E-003   5.9384166389984325E-002
   2.4805556051283401E-002  -7.2856750749893187E-003   5.9706375823604087E-002
   2.3885893606995442E-002  -6.9281342165808113E-003   6.0244005321388468E-002
   2.1779978646097639E-002  -6.5554973672510286E-003   6.3136008597248550E-002
   2.1101453837381809E-002  -6.3284751286428464E-003   6.2843550840402607E-002
   2.0422929028665986E-002  -6.0804584199279504E-003   6.2817948290536357E-002
   1.9744404219950145E-002  -5.8114472411062053E-003   6.3059200947649593E-002
   1.9065879411234332E-002  -5.5214415921780446E-003   6.3567308811742551E-002
   3.8192773531965735E-002  -1.1148212089789000E-002   4.9864512125473992E-002
   3.6271669418852348E-002  -1.0581411081591940E-002   4.9189100316832490E-002
   3.4350565305739017E-002  -1.0028124124766530E-002   4.8726150441016802E-002
   3.2429461192625672E-002  -9.4883512193120814E-003   4.8475662498026845E-002
   3.0508357079512299E-002  -8.9620923652291573E-003   4.8437636487862812E-002
   3.3449340667361147E-002  -9.7415194653862613E-003   5.3392606978253931E-002
   3.1745140132352481E-002  -9.2417402194240328E-003   5.2683837678375117E-002
   3.0040939597343823E-002  -8.7529909743514211E-003   5.2196413601879987E-002
   2.8336739062335168E-002  -8.2752717301689191E-003   5.1930334748768125E-002
   2.6632538527326485E-002  -7.8085824868763254E-003   5.1885601119039948E-002
   2.8680380692371027E-002  -8.3348268409835224E-003   5.6852438043558884E-002
   2.7201967026024787E-002  -7.9020693572557366E-003   5.6112795302924123E-002
   2.5723553359678561E-002  -7.4778578239364651E-003   5.5603381076230599E-002
   2.4245139693332352E-002  -7.0621922410256978E-003   5.5324195363478358E-002
   2.2766726026986095E-002  -6.6550726085234935E-003   5.5275238164667451E-002
   2.3885893606995442E-002  -6.9281342165808113E-003   6.0244005321388468E-002
   2.2642150099869321E-002  -6.5623984950875514E-003   5.9475973190479099E-002
   2.1398406592743217E-002  -6.2027246735213495E-003   5.8947052864068886E-002
   2.0154663085617110E-002  -5.8491127518823394E-003   5.8657244342157619E-002
   1.8910919578490993E-002  -5.5015627301706616E-003   5.8606547624745271E-002
   1.9065879411234332E-002  -5.5214415921780446E-003   6.3567308811742551E-002
   1.8065689353886069E-002  -5.2227276329195049E-003   6.2773371341040218E-002
   1.7065499296537806E-002  -4.9275915231064421E-003   6.2227428965394488E-002
   1.6065309239189557E-002  -4.6360332627393246E-003   6.1929481684805623E-002
   1.5065119181841280E-002  -4.3480528518178851E-003   6.1879529499273389E-002
   3.0508357079512299E-002  -8.9620923652291573E-003   4.8437636487862812E-002
   2.8954960891180576E-002  -8.4319841826749342E-003   4.8351377615399926E-002
   2.7401564702848796E-002  -7.8806632918069497E-003   4.8437341109624055E-002
   2.5848168514517059E-002  -7.3081296926250719E-003   4.8695526970535030E-002
   2.4294772326185321E-002  -6.7143833851296408E-003   4.9125935198132908E-002
   2.6632538527326485E-002  -7.8085824868763254E-003   5.1885601119039948E-002
   2.5254548464870685E-002  -7.3378438359786857E-003   5.1832702819818333E-002
   2.3876558402414851E-002  -6.8479763689808515E-003   5.1958394405661606E-002
   2.2498568339959026E-002  -6.3389800858831349E-003   5.2262675876569714E-002
   2.1120578277503216E-002  -5.8108549866852099E-003   5.2745547232543044E-002
   2.2766726026986095E-002  -6.6550726085234935E-003   5.5275238164667451E-002
   2.1570509608784122E-002  -6.2437034892823540E-003   5.5253616546473372E-002
   2.0374293190582156E-002  -5.8152894461549615E-003   5.5416952331722016E-002
   1.9178076772380200E-002  -5.3698304791413611E-003   5.5765245520413780E-002
   1.7981860354178217E-002  -4.9073265882411676E-003   5.6298496112548113E-002
   1.8910919578490993E-002  -5.5015627301706616E-003   5.8606547624745271E-002
   1.7902844322920837E-002  -5.1495631425861749E-003   5.8614118795364968E-002
   1.6894769067350705E-002  -4.7826025233291339E-003   5.8813014887805451E-002
   1.5886693811780549E-002  -4.4006808723994501E-003   5.9203235902066664E-002
   1.4878618556210411E-002  -4.0037981897970421E-003   5.9784781838148858E-002
   1.5065119181841280E-002  -4.3480528518178851E-003   6.1879529499273389E-002
   1.4251552607280893E-002  -4.0554227958898847E-003   6.1914209566493184E-002
   1.3437986032720492E-002  -3.7499156005030426E-003   6.2146582073911744E-002
   1.2624419458160098E-002  -3.4315312656576398E-003   6.2576647021528722E-002
   1.1810852883599704E-002  -3.1002697913528054E-003   6.3204404409344828E-002
   2.4294772326185321E-002  -6.7143833851296408E-003   4.9125935198132908E-002
   2.2479301745693792E-002  -6.1078300309883593E-003   4.8814382960319369E-002
   2.0663831165202345E-002  -5.4968752918694574E-003   4.8665348277317333E-002
   1.8848360584710844E-002  -4.8815191677730949E-003   4.8678831149126939E-002
   1.7032890004219342E-002  -4.2617616586995144E-003   4.8854831575747881E-002
   2.1120578277503216E-002  -5.8108549866852099E-003   5.2745547232543044E-002
   1.9478986116572825E-002  -5.2737506030783865E-003   5.2482447553683864E-002
   1.7837393955642475E-002  -4.7378164667533085E-003   5.2404587159135541E-002
   1.6195801794712132E-002  -4.2030525777099759E-003   5.2511966048897990E-002
   1.4554209633781734E-002  -3.6694589359487217E-003   5.2804584222971351E-002
   1.7981860354178217E-002  -4.9073265882411676E-003   5.6298496112548113E-002
   1.6536868342308206E-002  -4.4396711751685802E-003   5.6078277360384343E-002
   1.5091876330438209E-002  -3.9787576416371734E-003   5.6066019622030519E-002
   1.3646884318568177E-002  -3.5245859876469159E-003   5.6261722897486550E-002
   1.2201892306698194E-002  -3.0771562131979291E-003   5.6665387186752847E-002
   1.4878618556210411E-002  -4.0037981897970421E-003   5.9784781838148858E-002
   1.3652948422899953E-002  -3.6055917472587462E-003   5.9601872380420751E-002
   1.2427278289589496E-002  -3.2196988165209758E-003   5.9649645666002157E-002
   1.1201608156279037E-002  -2.8461193975836043E-003   5.9928101694892509E-002
   9.9759380229685769E-003  -2.4848534904470254E-003   6.0437240467091910E-002
   1.1810852883599704E-002  -3.1002697913528054E-003   6.3204404409344828E-002
   1.0827226358348027E-002  -2.7715123193488567E-003   6.3053232613793420E-002
   9.8435998330963642E-003  -2.4606399914049448E-003   6.3155465291050317E-002
   8.8599733078447013E-003  -2.1676528075204732E-003   6.3511102441115769E-002
   7.8763467825930245E-003  -1.8925507676963438E-003   6.4120144063989470E-002
   1.7032890004219342E-002  -4.2617616586995144E-003   4.8854831575747881E-002
   1.5098634295558577E-002  -3.6982402143694859E-003   4.8743471821216855E-002
   1.3164378586897826E-002  -3.2515922845048340E-003   4.8889525151611712E-002
   1.1230122878237041E-002  -2.9218178691056002E-003   4.9292991566932981E-002
   9.2958671695762551E-003  -2.7089169681713265E-003   4.9953871067179856E-002
   1.4554209633781734E-002  -3.6694589359487217E-003   5.2804584222971351E-002
   1.2875850218326240E-002  -3.1940669292547241E-003   5.2702017451414451E-002
   1.1197490802870746E-002  -2.8339079454137717E-003   5.2853830181341821E-002
   9.5191313874152597E-003  -2.5889819844257672E-003   5.3260022412753738E-002
   7.8407719719597591E-003  -2.4592890462904471E-003   5.3920594145650258E-002
   1.2201892306698194E-002  -3.0771562131979291E-003   5.6665387186752847E-002
   1.0776395601006308E-002  -2.6898936441396293E-003   5.6573253889782293E-002
   9.3508988953144266E-003  -2.4162236063224041E-003   5.6732466510854590E-002
   7.9254021896225501E-003  -2.2561460997454971E-003   5.7143025049969598E-002
   6.4999054839306597E-003  -2.2096611244092346E-003   5.7804929507127567E-002
   9.9759380229685769E-003  -2.4848534904470254E-003   6.0437240467091910E-002
   8.8002704435987088E-003  -2.1857203590250895E-003   6.0357181136320395E-002
   7.6246028642288416E-003  -1.9985392672311891E-003   6.0525434140149527E-002
   6.4489352848589761E-003  -1.9233102150653901E-003   6.0941999478580117E-002
   5.2732677054891063E-003  -1.9600332025281331E-003   6.1606877151611908E-002
   7.8763467825930245E-003  -1.8925507676963438E-003   6.4120144063989470E-002
   6.9474747461035075E-003  -1.6815470739097726E-003   6.4053799191028604E-002
   6.0186027096140043E-003  -1.5808549281399464E-003   6.4232733069227332E-002
   5.0897306731245012E-003  -1.5904743303854427E-003   6.4656945698585738E-002
   4.1608586366349842E-003  -1.7104052806471426E-003   6.5326437079103683E-002
   9.2958671695762551E-003  -2.7089169681713265E-003   4.9953871067179856E-002
   7.8723066795479135E-003  -2.8577724629132439E-003   5.0359293533946969E-002
   6.4487461895194886E-003  -3.6132672345419170E-003   5.1090910753179453E-002
   5.0251856994911054E-003  -4.9754012830577898E-003   5.2148722724878027E-002
   3.6016252094627221E-003  -6.9441746084604183E-003   5.3532729449041971E-002
   7.8407719719597591E-003  -2.4592890462904471E-003   5.3920594145650258E-002
   6.7176225456506700E-003  -2.6438176425446769E-003   5.3854536971851608E-002
   5.5944731193416225E-003  -3.3415562847254887E-003   5.4063107173026342E-002
   4.4713236930325750E-003  -4.5525049728319528E-003   5.4546304749173838E-002
   3.3481742667234859E-003  -6.2766637068656372E-003   5.5304129700294080E-002
   6.4999054839306597E-003  -2.2096611244092346E-003   5.7804929507127567E-002
   5.6255997438482835E-003  -2.4298628221762486E-003   5.7360821923724076E-002
   4.7512940037658657E-003  -3.0698453349087274E-003   5.7139774337801319E-002
   3.8769882636834792E-003  -4.1296086626067818E-003   5.7141786749358756E-002
   3.0026825236010718E-003  -5.6091528052706341E-003   5.7366859158396455E-002
   5.2732677054891063E-003  -1.9600332025281331E-003   6.1606877151611908E-002
   4.5962382741407092E-003  -2.2159080018078620E-003   6.0878148389564513E-002
   3.9192088427923225E-003  -2.7981343850922435E-003   6.0320912247504826E-002
   3.2421794114439505E-003  -3.7067123523812778E-003   5.9935168725432933E-002
   2.5651499800955664E-003  -4.9416419036757420E-003   5.9720917823348693E-002
   4.1608586366349842E-003  -1.7104052806471426E-003   6.5326437079103683E-002
   3.6295381365279572E-003  -2.0019531814391422E-003   6.4406516369372779E-002
   3.0982176364209441E-003  -2.5264234352754544E-003   6.3606520902136809E-002
   2.5668971363139101E-003  -3.2838160421558085E-003   6.2926450677396023E-002
   2.0355766362068761E-003  -4.2741310020809609E-003   6.2366305695150115E-002
   3.6016252094627221E-003  -6.9441746084604183E-003   5.3532729449041971E-002
   4.1537461260303943E-003  -9.5344403017636470E-003   5.1860010408422252E-002
   4.7058670425980942E-003  -1.2761051453981820E-002   5.0042102714235370E-002
   5.2579879591657386E-003  -1.6624008065115395E-002   4.8079006366479882E-002
   5.8101088757335217E-003  -2.1123310135163553E-002   4.5970721365156564E-002
   3.3481742667234859E-003  -6.2766637068656372E-003   5.5304129700294080E-002
   3.7725343155429886E-003  -8.5451180467647214E-003   5.2950934332751221E-002
   4.1968943643625051E-003  -1.1388953552469827E-002   5.0487405883279823E-002
   4.6212544131820146E-003  -1.4808170223981676E-002   4.7913544351880027E-002
   5.0456144620015242E-003  -1.8802768061299213E-002   4.5229349738551861E-002
   3.0026825236010718E-003  -5.6091528052706341E-003   5.7366859158396455E-002
   3.3341372763121199E-003  -7.5557957917656848E-003   5.4394151757038489E-002
   3.6655920290231611E-003  -1.0016855650958362E-002   5.1345966845391805E-002
   3.9970467817342162E-003  -1.2992332382848006E-002   4.8222304423456736E-002
   4.3285015344452504E-003  -1.6482225987435095E-002   4.5023164491232559E-002
   2.5651499800955664E-003  -4.9416419036757420E-003   5.9720917823348693E-002
   2.8385550083378144E-003  -6.5664735367669258E-003   5.6189662681284280E-002
   3.1119600365800641E-003  -8.6447577494465216E-003   5.2617785600571003E-002
   3.3853650648223103E-003  -1.1176494541714533E-002   4.9005286581209048E-002
   3.6587700930645894E-003  -1.4161683913570866E-002   4.5352165623198076E-002
   2.0355766362068761E-003  -4.2741310020809609E-003   6.2366305695150115E-002
   2.2857875116200355E-003  -5.5771512817677227E-003   5.8337467105488483E-002
   2.5359983870331948E-003  -7.2726598479344873E-003   5.4302862148817910E-002
   2.7862092624463680E-003  -9.3606567005805677E-003   5.0262490825138090E-002
   3.0364201378595412E-003  -1.1841141839706637E-002   4.6216353134448607E-002
   2.5102443587450146E-002  -7.3647548530001439E-003   6.2853500338740154E-002
   2.4271827352112002E-002  -7.1730984556511446E-003   6.3092203790747370E-002
   2.3441211116773886E-002  -6.9743367422432645E-003   6.3218856317834526E-002
   2.2610594881435769E-002  -6.7684697127766077E-003   6.3233457920001540E-002
   2.1779978646097639E-002  -6.5554973672510286E-003   6.3136008597248550E-002
   1.9444544699340413E-002  -5.5235662168473532E-003   6.3568758274903492E-002
   1.8581803785325646E-002  -5.3798238691394606E-003   6.3481797098765169E-002
   1.7719062871310885E-002  -5.2307525505973229E-003   6.3442637490193743E-002
   1.6856321957296121E-002  -5.0763522612209330E-003   6.3451279449189116E-002
   1.5993581043281357E-002  -4.9166230010103673E-003   6.3507722975751274E-002
   1.3374837793395052E-002  -3.6823775806946735E-003   6.4236990334038069E-002
   1.2639824693190596E-002  -3.5865492826278184E-003   6.3822588184529655E-002
   1.1904811592986175E-002  -3.4871683589513675E-003   6.3615840095074913E-002
   1.1169798492781741E-002  -3.3842348096653450E-003   6.3616746065673968E-002
   1.0434785392577303E-002  -3.2777486347695950E-003   6.3825306096326875E-002
   6.8933228696140721E-003  -1.8411889445419660E-003   6.4858196516144023E-002
   6.4458900757069053E-003  -1.7932746961161691E-003   6.4114577048040633E-002
   5.9984572817997645E-003  -1.7435841673054467E-003   6.3738464132478176E-002
   5.5510244878926038E-003  -1.6921173581095749E-003   6.3729857769456236E-002
   5.1035916939854561E-003  -1.6388742685287949E-003   6.4088757958975284E-002
  -7.2002522000236269E-011  -3.0838920306308637E-010   6.5432376821221050E-002
  -6.7125437153148226E-011  -1.0960449214891810E-010   6.4357763689298464E-002
  -6.2248355775507136E-011   2.4340529591881932E-011   6.3810509602403309E-002
  -5.7371265724248666E-011   9.3445959303828374E-011   6.3790614560535974E-002
  -5.2494182611884099E-011   9.7711894131435884E-011   6.4298078563696348E-002
   2.1779978646097639E-002  -6.5554973672510286E-003   6.3136008597248550E-002
   2.1101453837381809E-002  -6.3284751286428464E-003   6.2843550840402607E-002
   2.0422929028665986E-002  -6.0804584199279504E-003   6.2817948290536357E-002
   1.9744404219950145E-002  -5.8114472411062053E-003   6.3059200947649593E-002
   1.9065879411234332E-002  -5.5214415921780446E-003   6.3567308811742551E-002
   1.5993581043281357E-002  -4.9166230010103673E-003   6.3507722975751274E-002
   1.5557605441091582E-002  -4.7463563283887678E-003   6.3436931332611191E-002
   1.5121629838901807E-002  -4.5603438017794706E-003   6.3584382895543537E-002
   1.4685654236712045E-002  -4.3585854211824551E-003   6.3950077664548299E-002
   1.4249678634522256E-002  -4.1410811865978392E-003   6.4534015639625547E-002
   1.0434785392577303E-002  -3.2777486347695950E-003   6.3825306096326875E-002
   1.0192746996006426E-002  -3.1642375281347029E-003   6.3970931950773580E-002
   9.9507085994355437E-003  -3.0402291836310394E-003   6.4286189010385686E-002
   9.7086702028646686E-003  -2.9057236012586477E-003   6.4771077275163069E-002
   9.4666318062937918E-003  -2.7607207810175227E-003   6.5425596745105688E-002
   5.1035916939854561E-003  -1.6388742685287949E-003   6.4088757958975284E-002
   5.0068785021263121E-003  -1.5821187278806589E-003   6.4445552694889802E-002
   4.9101653102671793E-003  -1.5201145654825839E-003   6.4923366635062554E-002
   4.8134521184080440E-003  -1.4528617813348689E-003   6.5522199779493612E-002
   4.7167389265488999E-003  -1.3803603754373173E-003   6.6242052128182558E-002
  -5.2494182611884099E-011   9.7711894131435884E-011   6.4298078563696348E-002
  -4.0548731039535824E-011   7.2373385062718398E-011   6.4860793564959940E-002
  -2.8603282936634500E-011   5.2665830030385052E-011   6.5495915769574503E-002
  -1.6657834833733176E-011   3.8588927192551026E-011   6.6203445177540107E-002
  -4.7123832613849004E-012   3.0142999207782850E-011   6.6983381788856600E-002
   1.9065879411234332E-002  -5.5214415921780446E-003   6.3567308811742551E-002
   1.8065689353886069E-002  -5.2227276329195049E-003   6.2773371341040218E-002
   1.7065499296537806E-002  -4.9275915231064421E-003   6.2227428965394488E-002
   1.6065309239189557E-002  -4.6360332627393246E-003   6.1929481684805623E-002
   1.5065119181841280E-002  -4.3480528518178851E-003   6.1879529499273389E-002
   1.4249678634522256E-002  -4.1410811865978392E-003   6.4534015639625547E-002
   1.3497996777299771E-002  -3.9170457186384622E-003   6.3770614604133885E-002
   1.2746314920077280E-002  -3.6956936379170247E-003   6.3256234873837233E-002
   1.1994633062854781E-002  -3.4770249444340331E-003   6.2990876448735023E-002
   1.1242951205632304E-002  -3.2610396381889672E-003   6.2974539328827905E-002
   9.4666318062937918E-003  -2.7607207810175227E-003   6.5425596745105688E-002
   8.9644843593351814E-003  -2.6113638043573778E-003   6.4693626607032428E-002
   8.4623369123765779E-003  -2.4637957527277252E-003   6.4211703984291879E-002
   7.9601894654179745E-003  -2.3180166261286324E-003   6.3979828876884359E-002
   7.4580420184593640E-003  -2.1740264245601326E-003   6.3998001284809800E-002
   4.7167389265488999E-003  -1.3803603754373173E-003   6.6242052128182558E-002
   4.4651520999923104E-003  -1.3056818900764253E-003   6.5542407349735154E-002
   4.2135652734357123E-003  -1.2318978675384777E-003   6.5093836296758717E-002
   3.9619784468791150E-003  -1.1590083078232864E-003   6.4896338969253384E-002
   3.7103916203225246E-003  -1.0870132109313119E-003   6.4949915367219210E-002
  -4.7123832613849004E-012   3.0142999207782850E-011   6.6983381788856600E-002
  -7.2884753787860745E-013   2.4204749315970275E-011   6.6316956832242702E-002
   3.2546847161807335E-012   1.7650936268154283E-011   6.5902631811237899E-002
   7.2382204396870264E-012   1.0482045786908145E-011   6.5740406725842249E-002
   1.1221752693746367E-011   2.6976199052342054E-012   6.5830281576055860E-002
   1.5065119181841280E-002  -4.3480528518178851E-003   6.1879529499273389E-002
   1.4251552607280893E-002  -4.0554227958898847E-003   6.1914209566493184E-002
   1.3437986032720492E-002  -3.7499156005030426E-003   6.2146582073911744E-002
   1.2624419458160098E-002  -3.4315312656576398E-003   6.2576647021528722E-002
   1.1810852883599704E-002  -3.1002697913528054E-003   6.3204404409344828E-002
   1.1242951205632304E-002  -3.2610396381889672E-003   6.2974539328827905E-002
   1.0628501872301292E-002  -3.0415670980703247E-003   6.3059170483336840E-002
   1.0014052538970294E-002  -2.8124367029657982E-003   6.3344343680105553E-002
   9.3996032056392897E-003  -2.5736484528760470E-003   6.3830058919134514E-002
   8.7851538723082850E-003  -2.3252023478002593E-003   6.4516316200423585E-002
   7.4580420184593640E-003  -2.1740264245601326E-003   6.3998001284809800E-002
   7.0455595284191035E-003  -2.0277114002505425E-003   6.4129364242134362E-002
   6.6330770383788394E-003  -1.8749578054287133E-003   6.4464118843780394E-002
   6.2205945483385736E-003  -1.7157656400943414E-003   6.5002265089747824E-002
   5.8081120582983148E-003  -1.5501349042475465E-003   6.5743802980036625E-002
   3.7103916203225246E-003  -1.0870132109313119E-003   6.4949915367219210E-002
   3.5027255756343231E-003  -1.0138557024309824E-003   6.5124790842886249E-002
   3.2950595309461433E-003  -9.3747890789149316E-004   6.5505907564936294E-002
   3.0873934862579535E-003  -8.5788282731296978E-004   6.6093265533368958E-002
   2.8797274415697620E-003  -7.7506746069480603E-004   6.6886864748184435E-002
   1.1221752693746367E-011   2.6976199052342054E-012   6.5830281576055860E-002
   1.3946975518930316E-011  -4.6112003104781252E-012   6.6045450285592444E-002
   1.6672194874667312E-011  -1.0354272994561597E-011   6.6469709843573033E-002
   1.9397417699851260E-011  -1.4531237324533208E-011   6.7103060249997820E-002
   2.2122637055588257E-011  -1.7142176567119805E-011   6.7945501504866446E-002
   1.1810852883599704E-002  -3.1002697913528054E-003   6.3204404409344828E-002
   1.0827226358348027E-002  -2.7715123193488567E-003   6.3053232613793420E-002
   9.8435998330963642E-003  -2.4606399914049448E-003   6.3155465291050317E-002
   8.8599733078447013E-003  -2.1676528075204732E-003   6.3511102441115769E-002
   7.8763467825930245E-003  -1.8925507676963438E-003   6.4120144063989470E-002
   8.7851538723082850E-003  -2.3252023478002593E-003   6.4516316200423585E-002
   8.0530573593170229E-003  -2.0786342441077021E-003   6.4396277640699662E-002
   7.3209608463257539E-003  -1.8454799981672959E-003   6.4525894632688124E-002
   6.5888643333344987E-003  -1.6257396099782738E-003   6.4905167176388848E-002
   5.8567678203432227E-003  -1.4194130795416315E-003   6.5534095271802428E-002
   5.8081120582983148E-003  -1.5501349042475465E-003   6.5743802980036625E-002
   5.3237966364714784E-003  -1.3857561688665199E-003   6.5659368942448074E-002
   4.8394812146446455E-003  -1.2303200049293139E-003   6.5820841535476210E-002
   4.3551657928178160E-003  -1.0838264124361854E-003   6.6228220759120701E-002
   3.8708503709909900E-003  -9.4627539138703032E-004   6.6881506613381769E-002
   2.8797274415697620E-003  -7.7506746069480603E-004   6.6886864748184435E-002
   2.6394441898113970E-003  -6.9287809362535147E-004   6.6842506519039446E-002
   2.3991609380530328E-003  -6.1516001169144297E-004   6.7040305999414934E-002
   2.1588776862946756E-003  -5.4191321489404157E-004   6.7480263189311010E-002
   1.9185944345363037E-003  -4.7313770323237359E-004   6.8162378088727466E-002
   2.2122637055588257E-011  -1.7142176567119805E-011   6.7945501504866446E-002
   1.9336775236578063E-011  -1.8384127553616736E-011   6.7945690370473044E-002
   1.6550906478673966E-011  -1.8453683026109502E-011   6.8184288024504158E-002
   1.3765039455493344E-011  -1.7351842185320265E-011   6.8661294466959594E-002
   1.0979175901759675E-011  -1.5077716852829326E-011   6.9376709697839822E-002
   7.8763467825930245E-003  -1.8925507676963438E-003   6.4120144063989470E-002
   6.9474747461035075E-003  -1.6815470739097726E-003   6.4053799191028604E-002
   6.0186027096140043E-003  -1.5808549281399464E-003   6.4232733069227332E-002
   5.0897306731245012E-003  -1.5904743303854427E-003   6.4656945698585738E-002
   4.1608586366349842E-003  -1.7104052806471426E-003   6.5326437079103683E-002
   5.8567678203432227E-003  -1.4194130795416315E-003   6.5534095271802428E-002
   5.1699093494208120E-003  -1.2611603085619372E-003   6.5401624121557644E-002
   4.4830508784984013E-003  -1.1856411987444526E-003   6.5507901351287368E-002
   3.7961924075759872E-003  -1.1928557500892403E-003   6.5852926960991709E-002
   3.1093339366535799E-003  -1.2828039625959464E-003   6.6436700950670891E-002
   3.8708503709909900E-003  -9.4627539138703032E-004   6.6881506613381769E-002
   3.4194750944507406E-003  -8.4077354321399067E-004   6.6710487072706770E-002
   2.9680998179104981E-003  -7.9042746934908370E-004   6.6771685540821649E-002
   2.5167245413702487E-003  -7.9523716979259737E-004   6.7065102017726030E-002
   2.0653492648300201E-003  -8.5520264454441719E-004   6.7590736503420429E-002
   1.9185944345363037E-003  -4.7313770323237359E-004   6.8162378088727466E-002
   1.6961719811933009E-003  -4.2038677786609968E-004   6.7980388044476397E-002
   1.4737495278503050E-003  -3.9521373995365233E-004   6.8024085637829940E-002
   1.2513270745073083E-003  -3.9761858949634125E-004   6.8293470868788481E-002
   1.0289046211643064E-003  -4.2760132649311000E-004   6.8788543737351604E-002
   1.0979175901759675E-011  -1.5077716852829326E-011   6.9376709697839822E-002
   9.6484903400195776E-012  -1.2518153180707259E-011   6.9211327036866277E-002
   8.3178186560672884E-012  -1.0558193208609623E-011   6.9265101642312532E-002
   6.9871382984976194E-012  -9.1999671769649183E-012   6.9538033514178560E-002
   5.6564614103749022E-012  -8.4415807677373778E-012   7.0030122652464777E-002
   4.1608586366349842E-003  -1.7104052806471426E-003   6.5326437079103683E-002
   3.6295381365279572E-003  -2.0019531814391422E-003   6.4406516369372779E-002
   3.0982176364209441E-003  -2.5264234352754544E-003   6.3606520902136809E-002
   2.5668971363139101E-003  -3.2838160421558085E-003   6.2926450677396023E-002
   2.0355766362068761E-003  -4.2741310020809609E-003   6.2366305695150115E-002
   3.1093339366535799E-003  -1.2828039625959464E-003   6.6436700950670891E-002
   2.7011648996298487E-003  -1.5014648880751769E-003   6.5323739430772521E-002
   2.2929958626061037E-003  -1.8948175783380927E-003   6.4337155594545448E-002
   1.8848268255823517E-003  -2.4628620333838336E-003   6.3476949441989949E-002
   1.4766577885586274E-003  -3.2055982532132044E-003   6.2743120973105970E-002
   2.0653492648300201E-003  -8.5520264454441719E-004   6.7590736503420429E-002
   1.7867841320660938E-003  -1.0009765947113780E-003   6.6342964761615109E-002
   1.5082189993021779E-003  -1.2632117214006061E-003   6.5228023144658157E-002
   1.2296538665382672E-003  -1.6419080246119662E-003   6.4245911652549059E-002
   9.5108873377433567E-004  -2.1370655043453923E-003   6.3396630285288053E-002
   1.0289046211643064E-003  -4.2760132649311000E-004   6.8788543737351604E-002
   8.8639583383674780E-004  -5.0048830134771793E-004   6.7464192361901126E-002
   7.4388704650919010E-004  -6.3160586446334849E-004   6.6279123552474756E-002
   6.0137825918162502E-004  -8.2095401583971196E-004   6.5233337309073339E-002
   4.5886947185407381E-004  -1.0685327554778301E-003   6.4326833631696556E-002
   5.6564614103749022E-012  -8.4415807677373778E-012   7.0030122652464777E-002
   4.9417830938480733E-012  -7.9836137700795007E-012   6.8687422231629491E-002
   4.2271082467681964E-012  -7.5256190168460080E-012   6.7490456817995592E-002
   3.5124264607944156E-012  -7.0679781472016145E-012   6.6439226411562774E-002
   2.7977550831614906E-012  -6.6098237994083320E-012   6.5533731012331176E-002
   2.0355766362068761E-003  -4.2741310020809609E-003   6.2366305695150115E-002
   2.2857875116200355E-003  -5.5771512817677227E-003   5.8337467105488483E-002
   2.5359983870331948E-003  -7.2726598479344873E-003   5.4302862148817910E-002
   2.7862092624463680E-003  -9.3606567005805677E-003   5.0262490825138090E-002
   3.0364201378595412E-003  -1.1841141839706637E-002   4.6216353134448607E-002
   1.4766577885586274E-003  -3.2055982532132044E-003   6.2743120973105970E-002
   1.7069057089849349E-003  -4.1828634629010875E-003   5.8390008337623756E-002
   1.9371536294112354E-003  -5.4544948875235588E-003   5.4002736159177223E-002
   2.1674015498375256E-003  -7.0204925270798899E-003   4.9581304437766593E-002
   2.3976494702638296E-003  -8.8808563815705455E-003   4.5125713173390647E-002
   9.5108873377433567E-004  -2.1370655043453923E-003   6.3396630285288053E-002
   1.1329805232585671E-003  -2.7885756440344522E-003   5.8817365675531003E-002
   1.3148723127427847E-003  -3.6363299271122834E-003   5.4175548346854022E-002
   1.4967641022269919E-003  -4.6803283535789865E-003   4.9471178299257117E-002
   1.6786558917112199E-003  -5.9205709234344539E-003   4.4704255532740933E-002
   4.5886947185407381E-004  -1.0685327554778301E-003   6.4326833631696556E-002
   5.6401195444095650E-004  -1.3942878251674840E-003   5.9619539119209426E-002
   6.6915443702784613E-004  -1.8181649667011815E-003   5.4821298711847641E-002
   7.7429691961473663E-004  -2.3401641800783069E-003   4.9932112409610721E-002
   8.7943940220160458E-004  -2.9602854652983623E-003   4.4951980212498466E-002
   2.7977550831614906E-012  -6.6098237994083320E-012   6.5533731012331176E-002
   2.5320856522625945E-012  -6.3008487316551509E-012   6.0796528668660033E-002
   2.2664231602576024E-012  -6.2899685460138244E-012   5.5939987254158163E-002
   2.0007571988056583E-012  -6.5772109980599680E-012   5.0964106768826789E-002
   1.7350842984598103E-012  -7.1622707764618099E-012   4.5868887212664688E-002
  -7.2002522000236269E-011  -3.0838920306308637E-010   6.5432376821221050E-002
  -6.7125437153148226E-011  -1.0960449214891810E-010   6.4357763689298464E-002
  -6.2248355775507136E-011   2.4340529591881932E-011   6.3810509602403309E-002
  -5.7371265724248666E-011   9.3445959303828374E-011   6.3790614560535974E-002
  -5.2494182611884099E-011   9.7711894131435884E-011   6.4298078563696348E-002
  -6.8933230100917502E-003   1.8411885051639598E-003   6.4858196884182429E-002
  -6.4458902063314304E-003   1.7932745604417322E-003   6.4114577308601789E-002
  -5.9984574025711002E-003   1.7435842357513692E-003   6.3738464285759744E-002
  -5.5510245988107674E-003   1.6921175310929855E-003   6.3729857815656571E-002
  -5.1035917950504502E-003   1.6388744464666538E-003   6.4088757898292131E-002
  -1.3374837923290665E-002   3.6823773187171505E-003   6.4236990961201196E-002
  -1.2639824812936041E-002   3.5865492304879565E-003   6.3822588626833973E-002
  -1.1904811702581432E-002   3.4871684471622366E-003   6.3615840352916703E-002
  -1.1169798592226814E-002   3.3842349687400394E-003   6.3616746139449176E-002
  -1.0434785481872197E-002   3.2777487952212747E-003   6.3825305986431477E-002
  -1.9444544811599226E-002   5.5235661322703411E-003   6.3568759052276894E-002
  -1.8581803886939290E-002   5.3798239005342363E-003   6.3481797643995030E-002
  -1.7719062962279323E-002   5.2307526585730346E-003   6.3442637803873936E-002
  -1.6856322037619369E-002   5.0763524063870240E-003   6.3451279531913582E-002
  -1.5993581112959423E-002   4.9166231439759928E-003   6.3507722828114219E-002
  -2.5102443675017475E-002   7.3647549458235040E-003   6.2853501157410285E-002
  -2.4271827428341150E-002   7.1730985705804051E-003   6.3092204360084891E-002
  -2.3441211181664812E-002   6.9743368699839714E-003   6.3218856638631471E-002
  -2.2610594934988466E-002   6.7684698440340155E-003   6.3233457993049996E-002
  -2.1779978688312128E-002   6.5554974927305998E-003   6.3136008423340384E-002
  -5.2494182611884099E-011   9.7711894131435884E-011   6.4298078563696348E-002
  -4.0548731039535824E-011   7.2373385062718398E-011   6.4860793564959940E-002
  -2.8603282936634500E-011   5.2665830030385052E-011   6.5495915769574503E-002
  -1.6657834833733176E-011   3.8588927192551026E-011   6.6203445177540107E-002
  -4.7123832613849004E-012   3.0142999207782850E-011   6.6983381788856600E-002
  -5.1035917950504502E-003   1.6388744464666538E-003   6.4088757898292131E-002
  -5.0068785802830050E-003   1.5821188648189044E-003   6.4445552650539334E-002
  -4.9101653655155703E-003   1.5201146690967948E-003   6.4923366605079552E-002
  -4.8134521507481320E-003   1.4528618592998394E-003   6.5522199761912620E-002
  -4.7167389359806904E-003   1.3803604354284960E-003   6.6242052121038841E-002
  -1.0434785481872197E-002   3.2777487952212747E-003   6.3825305986431477E-002
  -1.0192747065340799E-002   3.1642376572643405E-003   6.3970931869956921E-002
  -9.9507086488094150E-003   3.0402292855275306E-003   6.4286188954717272E-002
  -9.7086702322780275E-003   2.9057236800107498E-003   6.4771077240712571E-002
  -9.4666318157466262E-003   2.7607208407141037E-003   6.5425596727942820E-002
  -1.5993581112959423E-002   4.9166231439759928E-003   6.3507722828114219E-002
  -1.5557605495722111E-002   4.7463564497097627E-003   6.3436931223212478E-002
  -1.5121629878484814E-002   4.5603439019584920E-003   6.3584382818487814E-002
  -1.4685654261247514E-002   4.3585855007217443E-003   6.3950077613939948E-002
  -1.4249678644010206E-002   4.1410812459997115E-003   6.4534015609568951E-002
  -2.1779978688312128E-002   6.5554974927305998E-003   6.3136008423340384E-002
  -2.1101453871426944E-002   6.3284752421553236E-003   6.2843550710306229E-002
  -2.0422929054541770E-002   6.0804585183892174E-003   6.2817948196391027E-002
  -1.9744404237656596E-002   5.8114473214326244E-003   6.3059200881594654E-002
  -1.9065879420771412E-002   5.5214416512852638E-003   6.3567308765917097E-002
  -4.7123832613849004E-012   3.0142999207782850E-011   6.6983381788856600E-002
  -7.2884753787860745E-013   2.4204749315970275E-011   6.6316956832242702E-002
   3.2546847161807335E-012   1.7650936268154283E-011   6.5902631811237899E-002
   7.2382204396870264E-012   1.0482045786908145E-011   6.5740406725842249E-002
   1.1221752693746367E-011   2.6976199052342054E-012   6.5830281576055860E-002
  -4.7167389359806904E-003   1.3803604354284960E-003   6.6242052121038841E-002
  -4.4651521013166825E-003   1.3056819358252814E-003   6.5542407341996095E-002
  -4.2135652666526694E-003   1.2318978988325596E-003   6.5093836288705187E-002
  -3.9619784319886607E-003   1.1590083244502510E-003   6.4896338961166006E-002
  -3.7103915973246485E-003   1.0870132126789001E-003   6.4949915359378552E-002
  -9.4666318157466262E-003   2.7607208407141037E-003   6.5425596727942820E-002
  -8.9644843602595774E-003   2.6113638474458134E-003   6.4693626589697364E-002
  -8.4623369047725182E-003   2.4637957800139609E-003   6.4211703967346240E-002
  -7.9601894492854555E-003   2.3180166384186782E-003   6.3979828860889501E-002
  -7.4580419937983946E-003   2.1740264226599582E-003   6.3998001270326954E-002
  -1.4249678644010206E-002   4.1410812459997115E-003   6.4534015609568951E-002
  -1.3497996777557530E-002   3.9170457590664010E-003   6.3770614575346676E-002
  -1.2746314911104849E-002   3.6956936611955565E-003   6.3256234847161280E-002
  -1.1994633044652158E-002   3.4770249523871609E-003   6.2990876425012748E-002
  -1.1242951178199486E-002   3.2610396326410163E-003   6.2974539308901262E-002
  -1.9065879420771412E-002   5.5214416512852638E-003   6.3567308765917097E-002
  -1.8065689353210544E-002   5.2227276706870440E-003   6.2773371298943947E-002
  -1.7065499285649662E-002   4.9275915423769301E-003   6.2227428928150114E-002
  -1.6065309218088793E-002   4.6360332663552689E-003   6.1929481653535845E-002
  -1.5065119150527911E-002   4.3480528426222409E-003   6.1879529475101169E-002
   1.1221752693746367E-011   2.6976199052342054E-012   6.5830281576055860E-002
   1.3946975518930316E-011  -4.6112003104781252E-012   6.6045450285592444E-002
   1.6672194874667312E-011  -1.0354272994561597E-011   6.6469709843573033E-002
   1.9397417699851260E-011  -1.4531237324533208E-011   6.7103060249997820E-002
   2.2122637055588257E-011  -1.7142176567119805E-011   6.7945501504866446E-002
  -3.7103915973246485E-003   1.0870132126789001E-003   6.4949915359378552E-002
  -3.5027255474534176E-003   1.0138556907673402E-003   6.5124790839027447E-002
  -3.2950594975821954E-003   9.3747888596482087E-004   6.5505907564524041E-002
  -3.0873934477109680E-003   8.5788279827191810E-004   6.6093265535868667E-002
  -2.8797273978397354E-003   7.7506742768818082E-004   6.6886864753061215E-002
  -7.4580419937983946E-003   2.1740264226599582E-003   6.3998001270326954E-002
  -7.0455594993773058E-003   2.0277113861456586E-003   6.4129364235631203E-002
  -6.6330770049562162E-003   1.8749577822840258E-003   6.4464118844187346E-002
  -6.2205945105351336E-003   1.7157656110749070E-003   6.5002265095995090E-002
  -5.8081120161140379E-003   1.5501348725182607E-003   6.5743802991054839E-002
  -1.1242951178199486E-002   3.2610396326410163E-003   6.2974539308901262E-002
  -1.0628501841824688E-002   3.0415670815241436E-003   6.3059170475404186E-002
  -1.0014052505449889E-002   2.8124366786032307E-003   6.3344343682562879E-002
  -9.3996031690750884E-003   2.5736484238779236E-003   6.3830058930377132E-002
  -8.7851538327002928E-003   2.3252023173484238E-003   6.4516316218847056E-002
  -1.5065119150527911E-002   4.3480528426222409E-003   6.1879529475101169E-002
  -1.4251552574795545E-002   4.0554227769026285E-003   6.1914209558346145E-002
  -1.3437985999063193E-002   3.7499155749223384E-003   6.2146582079650653E-002
  -1.2624419423330834E-002   3.4315312366811103E-003   6.2576647039014624E-002
  -1.1810852847598474E-002   3.1002697621786979E-003   6.3204404436438155E-002
   2.2122637055588257E-011  -1.7142176567119805E-011   6.7945501504866446E-002
   1.9336775236578063E-011  -1.8384127553616736E-011   6.7945690370473044E-002
   1.6550906478673966E-011  -1.8453683026109502E-011   6.8184288024504158E-002
   1.3765039455493344E-011  -1.7351842185320265E-011   6.8661294466959594E-002
   1.0979175901759675E-011  -1.5077716852829326E-011   6.9376709697839822E-002
  -2.8797273978397354E-003   7.7506742768818082E-004   6.6886864753061215E-002
  -2.6394441516182122E-003   6.9287805911893985E-004   6.6842506524984691E-002
  -2.3991609053966908E-003   6.1515997746924844E-004   6.7040306006498268E-002
  -2.1588776591751624E-003   5.4191318273995315E-004   6.7480263197602128E-002
  -1.9185944129536461E-003   4.7313767492995762E-004   6.8162378098296339E-002
  -5.8081120161140379E-003   1.5501348725182607E-003   6.5743802991054839E-002
  -5.3237965997193675E-003   1.3857561366217575E-003   6.5659368955042874E-002
  -4.8394811833247032E-003   1.2303199733928460E-003   6.5820841549786846E-002
  -4.3551657669300362E-003   1.0838263828314709E-003   6.6228220775287006E-002
  -3.8708503505353684E-003   9.4627536493774311E-004   6.6881506631542936E-002
  -8.7851538327002928E-003   2.3252023173484238E-003   6.4516316218847056E-002
  -8.0530573249667243E-003   2.0786342141247555E-003   6.4396277660647566E-002
  -7.3209608172331540E-003   1.8454799693162216E-003   6.4525894654369753E-002
  -6.5888643094995742E-003   1.6257395829232385E-003   6.4905167200013797E-002
  -5.8567678017660153E-003   1.4194130549455286E-003   6.5534095297579503E-002
  -1.1810852847598474E-002   3.1002697621786979E-003   6.3204404436438155E-002
  -1.0827226327360238E-002   2.7715122916276425E-003   6.3053232641798962E-002
  -9.8435998071220165E-003   2.4606399652394029E-003   6.3155465320247128E-002
  -8.8599732868837947E-003   2.1676527830147355E-003   6.3511102471782876E-002
  -7.8763467666455658E-003   1.8925507449532031E-003   6.4120144096406095E-002
   1.0979175901759675E-011  -1.5077716852829326E-011   6.9376709697839822E-002
   9.6484903400195776E-012  -1.2518153180707259E-011   6.9211327036866277E-002
   8.3178186560672884E-012  -1.0558193208609623E-011   6.9265101642312532E-002
   6.9871382984976194E-012  -9.1999671769649183E-012   6.9538033514178560E-002
   5.6564614103749022E-012  -8.4415807677373778E-012   7.0030122652464777E-002
  -1.9185944129536461E-003   4.7313767492995762E-004   6.8162378098296339E-002
  -1.6961719621985984E-003   4.2038675385136504E-004   6.7980388052310659E-002
  -1.4737495114435645E-003   3.9521371931486304E-004   6.8024085644076387E-002
  -1.2513270606885332E-003   3.9761857132087491E-004   6.8293470873594012E-002
  -1.0289046099334828E-003   4.2760130986907452E-004   6.8788543740862740E-002
  -3.8708503505353684E-003   9.4627536493774311E-004   6.6881506631542936E-002
  -3.4194750763629133E-003   8.4077352022030039E-004   6.6710487087688009E-002
  -2.9680998021904574E-003   7.9042744918834951E-004   6.6771685552916196E-002
  -2.5167245280180010E-003   7.9523715184149149E-004   6.7065102027227680E-002
  -2.0653492538455463E-003   8.5520262817978532E-004   6.7590736510622446E-002
  -5.8567678017660153E-003   1.4194130549455286E-003   6.5534095297579503E-002
  -5.1699093328444346E-003   1.2611602865896937E-003   6.5401624142998133E-002
  -4.4830508639228462E-003   1.1856411790617319E-003   6.5507901368831667E-002
  -3.7961923950012712E-003   1.1928557323622208E-003   6.5852926975080342E-002
  -3.1093339260796762E-003   1.2828039464902463E-003   6.6436700961743866E-002
  -7.8763467666455658E-003   1.8925507449532031E-003   6.4120144096406095E-002
  -6.9474747316431579E-003   1.6815470529586984E-003   6.4053799218241170E-002
  -6.0186026966407465E-003   1.5808549089351975E-003   6.4232733091822924E-002
  -5.0897306616383385E-003   1.5904743128827489E-003   6.4656945717151332E-002
  -4.1608586266359271E-003   1.7104052648011514E-003   6.5326437094226475E-002
   5.6564614103749022E-012  -8.4415807677373778E-012   7.0030122652464777E-002
   4.9417830938480733E-012  -7.9836137700795007E-012   6.8687422231629491E-002
   4.2271082467681964E-012  -7.5256190168460080E-012   6.7490456817995592E-002
   3.5124264607944156E-012  -7.0679781472016145E-012   6.6439226411562774E-002
   2.7977550831614906E-012  -6.6098237994083320E-012   6.5533731012331176E-002
  -1.0289046099334828E-003   4.2760130986907452E-004   6.8788543740862740E-002
  -8.8639582403622630E-004   5.0048828578896920E-004   6.7464192365216835E-002
  -7.4388703813896458E-004   6.3160584990940016E-004   6.6279123555593455E-002
  -6.0137825224170025E-004   8.2095400223047843E-004   6.5233337311992795E-002
  -4.5886946634443246E-004   1.0685327427522040E-003   6.4326833634415048E-002
  -2.0653492538455463E-003   8.5520262817978532E-004   6.7590736510622446E-002
  -1.7867841225147505E-003   1.0009765795613301E-003   6.6342964768366264E-002
  -1.5082189911839478E-003   1.2632117073442944E-003   6.5228023150954176E-002
  -1.2296538598531494E-003   1.6419080115287095E-003   6.4245911658386640E-002
  -9.5108872852236320E-004   2.1370654921142318E-003   6.3396630290663225E-002
  -3.1093339260796762E-003   1.2828039464902463E-003   6.6436700961743866E-002
  -2.7011648904937701E-003   1.5014648733339686E-003   6.5323739441077791E-002
  -2.2929958549078437E-003   1.8948175647793622E-003   6.4337155604077656E-002
  -1.8848268193219276E-003   2.4628620208269423E-003   6.3476949450743878E-002
  -1.4766577837360111E-003   3.2055982414764816E-003   6.2743120981075498E-002
  -4.1608586266359271E-003   1.7104052648011514E-003   6.5326437094226475E-002
  -3.6295381279732863E-003   2.0019531671063295E-003   6.4406516383351708E-002
  -3.0982176293106629E-003   2.5264234222142912E-003   6.3606520914964160E-002
  -2.5668971306480413E-003   3.2838160301253069E-003   6.2926450689064301E-002
  -2.0355766319853988E-003   4.2741309908383984E-003   6.2366305705651937E-002
   2.7977550831614906E-012  -6.6098237994083320E-012   6.5533731012331176E-002
   2.5320856522625945E-012  -6.3008487316551509E-012   6.0796528668660033E-002
   2.2664231602576024E-012  -6.2899685460138244E-012   5.5939987254158163E-002
   2.0007571988056583E-012  -6.5772109980599680E-012   5.0964106768826789E-002
   1.7350842984598103E-012  -7.1622707764618099E-012   4.5868887212664688E-002
  -4.5886946634443246E-004   1.0685327427522040E-003   6.4326833634415048E-002
  -5.6401194944653843E-004   1.3942878130235314E-003   5.9619539121201381E-002
  -6.6915443254865654E-004   1.8181649545925549E-003   5.4821298713145727E-002
  -7.7429691565074430E-004   2.3401641674593646E-003   4.9932112410247337E-002
  -8.7943939875286675E-004   2.9602854516246335E-003   4.4951980212505571E-002
  -9.5108872852236320E-004   2.1370654921142318E-003   6.3396630290663225E-002
  -1.1329805184734296E-003   2.7885756323477451E-003   5.8817365679503825E-002
  -1.3148723084244942E-003   3.6363299154749673E-003   5.4175548349489233E-002
  -1.4967640983755874E-003   4.6803283414961067E-003   4.9471178300619617E-002
  -1.6786558883266529E-003   5.9205709104115378E-003   4.4704255532894144E-002
  -1.4766577837360111E-003   3.2055982414764816E-003   6.2743120981075498E-002
  -1.7069057045485964E-003   4.1828634516720420E-003   5.8390008343566120E-002
  -1.9371536253611813E-003   5.4544948763574352E-003   5.4002736163188875E-002
  -2.1674015461737592E-003   7.0204925155329875E-003   4.9581304439944122E-002
  -2.3976494669863515E-003   8.8808563691984421E-003   4.5125713173831239E-002
  -2.0355766319853988E-003   4.2741309908383984E-003   6.2366305705651937E-002
  -2.2857875076720130E-003   5.5771512709965609E-003   5.8337467113388608E-002
  -2.5359983833586446E-003   7.2726598372399309E-003   5.4302862154245013E-002
  -2.7862092590452744E-003   9.3606566895693202E-003   5.0262490828220624E-002
  -3.0364201347318903E-003   1.1841141827985346E-002   4.6216353135316357E-002
  -2.5102443675017475E-002   7.3647549458235040E-003   6.2853501157410285E-002
  -2.4271827428341150E-002   7.1730985705804051E-003   6.3092204360084891E-002
  -2.3441211181664812E-002   6.9743368699839714E-003   6.3218856638631471E-002
  -2.2610594934988466E-002   6.7684698440340155E-003   6.3233457993049996E-002
  -2.1779978688312128E-002   6.5554974927305998E-003   6.3136008423340384E-002
  -3.0776494729288829E-002   9.2460809801557797E-003   5.9566737348160592E-002
  -2.9973506896994399E-002   9.0079604250192513E-003   5.9436363761376121E-002
  -2.9170519064700015E-002   8.7581714100188057E-003   5.9362784269955921E-002
  -2.8367531232405620E-002   8.4967139351543527E-003   5.9345998873900047E-002
  -2.7564543400111201E-002   8.2235880004259965E-003   5.9386007573208249E-002
  -3.6894658190156665E-002   1.1127407014488000E-002   5.6235790926272594E-002
  -3.5950453752751910E-002   1.0842822279458014E-002   5.5731777415518519E-002
  -3.5006249315347134E-002   1.0542005950053626E-002   5.5453403019621164E-002
  -3.4062044877942357E-002   1.0224958026274714E-002   5.5400667738580288E-002
  -3.3117840440537595E-002   9.8916785081214209E-003   5.5573571572395869E-002
  -4.3456934057621008E-002   1.3008733048820220E-002   5.2860661891746340E-002
  -4.2202667995613549E-002   1.2677684133896860E-002   5.1978445322512355E-002
  -4.0948401933606111E-002   1.2325840490088509E-002   5.1490712887627174E-002
  -3.9694135871598694E-002   1.1953202117395175E-002   5.1397464587090873E-002
  -3.8439869809591222E-002   1.1559769015816859E-002   5.1698700420903257E-002
  -5.0463322331681881E-002   1.4890059083152496E-002   4.9441350244582127E-002
  -4.8730149625579477E-002   1.4512545988335568E-002   4.8176367482357429E-002
  -4.6996976919477060E-002   1.4109675030123323E-002   4.7474713873974034E-002
  -4.5263804213374635E-002   1.3681446208515396E-002   4.7336389419431676E-002
  -4.3530631507272197E-002   1.3227859523512187E-002   4.7761394118730482E-002
  -2.1779978688312128E-002   6.5554974927305998E-003   6.3136008423340384E-002
  -2.1101453871426944E-002   6.3284752421553236E-003   6.2843550710306229E-002
  -2.0422929054541770E-002   6.0804585183892174E-003   6.2817948196391027E-002
  -1.9744404237656596E-002   5.8114473214326244E-003   6.3059200881594654E-002
  -1.9065879420771412E-002   5.5214416512852638E-003   6.3567308765917097E-002
  -2.7564543400111201E-002   8.2235880004259965E-003   5.9386007573208249E-002
  -2.6644880954383679E-002   7.9334020191808990E-003   5.9277376908090193E-002
  -2.5725218508656174E-002   7.6207644047659867E-003   5.9384166301537936E-002
  -2.4805556062928658E-002   7.2856751571813809E-003   5.9706375753551470E-002
  -2.3885893617201143E-002   6.9281342764269116E-003   6.0244005264130873E-002
  -3.3117840440537595E-002   9.8916785081214209E-003   5.5573571572395869E-002
  -3.2008475506520778E-002   9.5383287962065438E-003   5.5647310795214774E-002
  -3.0899110572503951E-002   9.1610702911426520E-003   5.5885034936046317E-002
  -2.9789745638487117E-002   8.7599029929300281E-003   5.6286743994890767E-002
  -2.8680380704470310E-002   8.3348269015685317E-003   5.6852437971747938E-002
  -3.8439869809591222E-002   1.1559769015816859E-002   5.1698700420903257E-002
  -3.7192237527838137E-002   1.1143255573232182E-002   5.1953352371679959E-002
  -3.5944605246085060E-002   1.0701376177519397E-002   5.2320554099916344E-002
  -3.4696972964331982E-002   1.0234130828678731E-002   5.2800305605612406E-002
  -3.3449340682578897E-002   9.7415195267100546E-003   5.3392606888768374E-002
  -4.3530631507272197E-002   1.3227859523512187E-002   4.7761394118730482E-002
  -4.2196167018335839E-002   1.2748182350257709E-002   4.8195501637485760E-002
  -4.0861702529399531E-002   1.2241682063896073E-002   4.8690723793147761E-002
  -3.9527238040463195E-002   1.1708358664427401E-002   4.9247060585716609E-002
  -3.8192773551526865E-002   1.1148212151851744E-002   4.9864512015192042E-002
  -1.9065879420771412E-002   5.5214416512852638E-003   6.3567308765917097E-002
  -1.8065689353210544E-002   5.2227276706870440E-003   6.2773371298943947E-002
  -1.7065499285649662E-002   4.9275915423769301E-003   6.2227428928150114E-002
  -1.6065309218088793E-002   4.6360332663552689E-003   6.1929481653535845E-002
  -1.5065119150527911E-002   4.3480528426222409E-003   6.1879529475101169E-002
  -2.3885893617201143E-002   6.9281342764269116E-003   6.0244005264130873E-002
  -2.2642150098848506E-002   6.5623985309692379E-003   5.9475973138956112E-002
  -2.1398406580495889E-002   6.2027246892743942E-003   5.8947052819185553E-002
  -2.0154663062143259E-002   5.8491127513423356E-003   5.8657244304818737E-002
  -1.8910919543790639E-002   5.5015627171733361E-003   5.8606547595856207E-002
  -2.8680380704470310E-002   8.3348269015685317E-003   5.6852437971747938E-002
  -2.7201967026101382E-002   7.9020693912514040E-003   5.6112795239846275E-002
  -2.5723553347732422E-002   7.4778578361715808E-003   5.5603381022573159E-002
  -2.4245139669363487E-002   7.0621922363292913E-003   5.5324195319928687E-002
  -2.2766725990994559E-002   6.6550725917244591E-003   5.5275238131912638E-002
  -3.3449340682578897E-002   9.7415195267100546E-003   5.3392606888768374E-002
  -3.1745140134969062E-002   9.2417402515334729E-003   5.2683837601614270E-002
  -3.0040939587359285E-002   8.7529909830688229E-003   5.2196413538313328E-002
  -2.8336739039749495E-002   8.2752717213163025E-003   5.1930334698865363E-002
  -2.6632538492139677E-002   7.8085824662755127E-003   5.1885601083270755E-002
  -3.8192773551526865E-002   1.1148212151851744E-002   4.9864512015192042E-002
  -3.6271669425451653E-002   1.0581411111815764E-002   4.9189100224260096E-002
  -3.4350565299376454E-002   1.0028124129966176E-002   4.8726150366405790E-002
  -3.2429461173301255E-002   9.4883512063032166E-003   4.8475662441629125E-002
  -3.0508357047226042E-002   8.9620923408267328E-003   4.8437636449930099E-002
  -1.5065119150527911E-002   4.3480528426222409E-003   6.1879529475101169E-002
  -1.4251552574795545E-002   4.0554227769026285E-003   6.1914209558346145E-002
  -1.3437985999063193E-002   3.7499155749223384E-003   6.2146582079650653E-002
  -1.2624419423330834E-002   3.4315312366811103E-003   6.2576647039014624E-002
  -1.1810852847598474E-002   3.1002697621786979E-003   6.3204404436438155E-002
  -1.8910919543790639E-002   5.5015627171733361E-003   5.8606547595856207E-002
  -1.7902844288912940E-002   5.1495631207340020E-003   5.8614118783963609E-002
  -1.6894769034035292E-002   4.7826024959911201E-003   5.8813014892302118E-002
  -1.5886693779157621E-002   4.4006808429447493E-003   5.9203235920871733E-002
  -1.4878618524279949E-002   4.0037981615949070E-003   5.9784781869672565E-002
  -2.2766725990994559E-002   6.6550725917244591E-003   5.5275238131912638E-002
  -2.1570509574799952E-002   6.2437034645652090E-003   5.5253616532839875E-002
  -2.0374293158605318E-002   5.8152894170598948E-003   5.5416952336169840E-002
  -1.9178076742410698E-002   5.3698304492084976E-003   5.5765245541902611E-002
  -1.7981860326216077E-002   4.9073265610108940E-003   5.6298496150038041E-002
  -2.6632538492139677E-002   7.8085824662755127E-003   5.1885601083270755E-002
  -2.5254548432456479E-002   7.3378438083964437E-003   5.1832702804975081E-002
  -2.3876558372773277E-002   6.8479763381286175E-003   5.1958394411253828E-002
  -2.2498568313090078E-002   6.3389800554721357E-003   5.2262675902106995E-002
  -2.1120578253406880E-002   5.8108549604270476E-003   5.2745547277534589E-002
  -3.0508357047226042E-002   8.9620923408267328E-003   4.8437636449930099E-002
  -2.8954960861882623E-002   8.4319841522275674E-003   4.8351377600369061E-002
  -2.7401564676539189E-002   7.8806632591974374E-003   4.8437341117554072E-002
  -2.5848168491195762E-002   7.3081296617359369E-003   4.8695527001485092E-002
  -2.4294772305852336E-002   6.7143833598429792E-003   4.9125935252162023E-002
  -1.1810852847598474E-002   3.1002697621786979E-003   6.3204404436438155E-002
  -1.0827226327360238E-002   2.7715122916276425E-003   6.3053232641798962E-002
  -9.8435998071220165E-003   2.4606399652394029E-003   6.3155465320247128E-002
  -8.8599732868837947E-003   2.1676527830147355E-003   6.3511102471782876E-002
  -7.8763467666455658E-003   1.8925507449532031E-003   6.4120144096406095E-002
  -1.4878618524279949E-002   4.0037981615949070E-003   5.9784781869672565E-002
  -1.3652948395730381E-002   3.6055917217661104E-003   5.9601872412757106E-002
  -1.2427278267180861E-002   3.2196987932835153E-003   5.9649645699376558E-002
  -1.1201608138631334E-002   2.8461193761471701E-003   5.9928101729531225E-002
  -9.9759380100817724E-003   2.4848534703565406E-003   6.0437240503220913E-002
  -1.7981860326216077E-002   4.9073265610108940E-003   5.6298496150038041E-002
  -1.6536868318907653E-002   4.4396711519046894E-003   5.6078277398029036E-002
  -1.5091876311599254E-002   3.9787576213275028E-003   5.6066019660002839E-002
  -1.3646884304290842E-002   3.5245859692792682E-003   5.6261722935959331E-002
  -1.2201892296982403E-002   3.0771561957599891E-003   5.6665387225898312E-002
  -2.1120578253406880E-002   5.8108549604270476E-003   5.2745547277534589E-002
  -1.9478986096892009E-002   5.2737505820432684E-003   5.2482447597615174E-002
  -1.7837393940377165E-002   4.7378164493713862E-003   5.2404587202125985E-002
  -1.6195801783862315E-002   4.2030525624114235E-003   5.2511966091067001E-002
  -1.4554209627347450E-002   3.6694589211632711E-003   5.2804584264438396E-002
  -2.4294772305852336E-002   6.7143833598429792E-003   4.9125935252162023E-002
  -2.2479301729683460E-002   6.1078300121816809E-003   4.8814383011515139E-002
  -2.0663831153514625E-002   5.4968752774156304E-003   4.8665348325746094E-002
  -1.8848360577345784E-002   4.8815191555436968E-003   4.8678831194854499E-002
  -1.7032890001176915E-002   4.2617616465666641E-003   4.8854831618841077E-002
  -7.8763467666455658E-003   1.8925507449532031E-003   6.4120144096406095E-002
  -6.9474747316431579E-003   1.6815470529586984E-003   6.4053799218241170E-002
  -6.0186026966407465E-003   1.5808549089351975E-003   6.4232733091822924E-002
  -5.0897306616383385E-003   1.5904743128827489E-003   6.4656945717151332E-002
  -4.1608586266359271E-003   1.7104052648011514E-003   6.5326437094226475E-002
  -9.9759380100817724E-003   2.4848534703565406E-003   6.0437240503220913E-002
  -8.8002704316472585E-003   2.1857203401213776E-003   6.0357181167144558E-002
  -7.6246028532127239E-003   1.9985392496497112E-003   6.0525434166185693E-002
  -6.4489352747781909E-003   1.9233101989424434E-003   6.0941999500344554E-002
  -5.2732676963436718E-003   1.9600331879993105E-003   6.1606877169620600E-002
  -1.2201892296982403E-002   3.0771561957599891E-003   5.6665387225898312E-002
  -1.0776395591744894E-002   2.6898936272837515E-003   5.6573253923703437E-002
  -9.3508988865073674E-003   2.4162235903643497E-003   5.6732466539997153E-002
  -7.9254021812698652E-003   2.2561460850024743E-003   5.7143025074779065E-002
  -6.4999054760323301E-003   2.2096611111972475E-003   5.7804929528049526E-002
  -1.4554209627347450E-002   3.6694589211632711E-003   5.2804584264438396E-002
  -1.2875850211936065E-002   3.1940669144462225E-003   5.2702017487918043E-002
  -1.1197490796524682E-002   2.8339079310792034E-003   5.2853830213257166E-002
  -9.5191313811132973E-003   2.5889819710622815E-003   5.3260022440455600E-002
  -7.8407719657019124E-003   2.4592890343952400E-003   5.3920594169513163E-002
  -1.7032890001176915E-002   4.2617616465666641E-003   4.8854831618841077E-002
  -1.5098634292220775E-002   3.6982402016087490E-003   4.8743471859788334E-002
  -1.3164378583264663E-002   3.2515922717935575E-003   4.8889525185965954E-002
  -1.1230122874308524E-002   2.9218178571222692E-003   4.9292991597373659E-002
  -9.2958671653524116E-003   2.7089169575933436E-003   4.9953871094011726E-002
  -4.1608586266359271E-003   1.7104052648011514E-003   6.5326437094226475E-002
  -3.6295381279732863E-003   2.0019531671063295E-003   6.4406516383351708E-002
  -3.0982176293106629E-003   2.5264234222142912E-003   6.3606520914964160E-002
  -2.5668971306480413E-003   3.2838160301253069E-003   6.2926450689064301E-002
  -2.0355766319853988E-003   4.2741309908383984E-003   6.2366305705651937E-002
  -5.2732676963436718E-003   1.9600331879993105E-003   6.1606877169620600E-002
  -4.5962382663991275E-003   2.2159079888008359E-003   6.0878148405823451E-002
  -3.9192088364545848E-003   2.7981343733287090E-003   6.0320912262102927E-002
  -3.2421794065100587E-003   3.7067123415821940E-003   5.9935168738458486E-002
  -2.5651499765655013E-003   4.9416418935622763E-003   5.9720917834890530E-002
  -6.4999054760323301E-003   2.2096611111972475E-003   5.7804929528049526E-002
  -5.6255997372170446E-003   2.4298628104955367E-003   5.7360821942253754E-002
  -4.7512939984018171E-003   3.0698453244429186E-003   5.7139774354122999E-002
  -3.8769882595865329E-003   4.1296086530395286E-003   5.7141786763657464E-002
  -3.0026825207712746E-003   5.6091527962856547E-003   5.7366859170856904E-002
  -7.8407719657019124E-003   2.4592890343952400E-003   5.3920594169513163E-002
  -6.7176225404271261E-003   2.6438176321899182E-003   5.3854536992641769E-002
  -5.5944731151523260E-003   3.3415562755570657E-003   5.4063107191024334E-002
  -4.4713236898775406E-003   4.5525049644969725E-003   5.4546304764660651E-002
  -3.3481742646027401E-003   6.2766636990090607E-003   5.5304129713551288E-002
  -9.2958671653524116E-003   2.7089169575933436E-003   4.9953871094011726E-002
  -7.8723066760292559E-003   2.8577724538847993E-003   5.0359293556987983E-002
  -6.4487461867061419E-003   3.6132672266714627E-003   5.1090910772807085E-002
  -5.0251856973830139E-003   4.9754012759539515E-003   5.2148722741468895E-002
  -3.6016252080598721E-003   6.9441746017327999E-003   5.3532729462973161E-002
  -2.0355766319853988E-003   4.2741309908383984E-003   6.2366305705651937E-002
  -2.2857875076720130E-003   5.5771512709965609E-003   5.8337467113388608E-002
  -2.5359983833586446E-003   7.2726598372399309E-003   5.4302862154245013E-002
  -2.7862092590452744E-003   9.3606566895693202E-003   5.0262490828220624E-002
  -3.0364201347318903E-003   1.1841141827985346E-002   4.6216353135316357E-002
  -2.5651499765655013E-003   4.9416418935622763E-003   5.9720917834890530E-002
  -2.8385550049606738E-003   6.5664735270674623E-003   5.6189662689878683E-002
  -3.1119600333558636E-003   8.6447577398981734E-003   5.2617785606330292E-002
  -3.3853650617510257E-003   1.1176494532053972E-002   4.9005286584245050E-002
  -3.6587700901461948E-003   1.4161683903535227E-002   4.5352165623622875E-002
  -3.0026825207712746E-003   5.6091527962856547E-003   5.7366859170856904E-002
  -3.3341372735314831E-003   7.5557957831385858E-003   5.4394151766336191E-002
  -3.6655920262917080E-003   1.0016855642556402E-002   5.1345966851622085E-002
  -3.9970467790519226E-003   1.2992332374538399E-002   4.8222304426714248E-002
  -4.3285015318121380E-003   1.6482225979085108E-002   4.5023164491614254E-002
  -3.3481742646027401E-003   6.2766636990090607E-003   5.5304129713551288E-002
  -3.7725343133844774E-003   8.5451180392098203E-003   5.2950934342760471E-002
  -4.1968943621662298E-003   1.1388953545214305E-002   5.0487405890120490E-002
  -4.6212544109479866E-003   1.4808170217022716E-002   4.7913544355630860E-002
  -5.0456144597297182E-003   1.8802768054634988E-002   4.5229349739291269E-002
  -3.6016252080598721E-003   6.9441746017327999E-003   5.3532729462973161E-002
  -4.1537461245196444E-003   9.5344402952808327E-003   5.1860010419152669E-002
  -4.7058670409794029E-003   1.2761051447872901E-002   5.0042102721825688E-002
  -5.2579879574391336E-003   1.6624008059507374E-002   4.8079006370992078E-002
  -5.8101088738989337E-003   2.1123310130184869E-002   4.5970721366652700E-002
  -5.0463322331681881E-002   1.4890059083152496E-002   4.9441350244582127E-002
  -4.8730149625579477E-002   1.4512545988335568E-002   4.8176367482357429E-002
  -4.6996976919477060E-002   1.4109675030123323E-002   4.7474713873974034E-002
  -4.5263804213374635E-002   1.3681446208515396E-002   4.7336389419431676E-002
  -4.3530631507272197E-002   1.3227859523512187E-002   4.7761394118730482E-002
  -5.7405873456602835E-002   1.6817637936353991E-002   4.4455546673721480E-002
  -5.5208689326823240E-002   1.6346703679606500E-002   4.3643222013427269E-002
  -5.3011505197043660E-002   1.5861505540689935E-002   4.3195591046645943E-002
  -5.0814321067264100E-002   1.5362043519604421E-002   4.3112653773377960E-002
  -4.8617136937484463E-002   1.4848317616349971E-002   4.3394410193623112E-002
  -6.3776637876647446E-002   1.8745216789555513E-002   3.9370774950317364E-002
  -6.1314077783518620E-002   1.8180861370877183E-002   3.9022202373179507E-002
  -5.8851517690389793E-002   1.7613336051256444E-002   3.8839688029227111E-002
  -5.6388957597260987E-002   1.7042640830693338E-002   3.8823231918459836E-002
  -5.3926397504132209E-002   1.6468775709187838E-002   3.8972834040877827E-002
  -6.9575615591815645E-002   2.0672795642757022E-002   3.4187035074368613E-002
  -6.7046314995665574E-002   2.0015019062147879E-002   3.4313308561614311E-002
  -6.4517014399515418E-002   1.9365166561822963E-002   3.4407004821717130E-002
  -6.1987713803365416E-002   1.8723238141782336E-002   3.4468123854677353E-002
  -5.9458413207215288E-002   1.8089233802025664E-002   3.4496665660494807E-002
  -7.4802806602107530E-002   2.2600374495958531E-002   2.8904327045876255E-002
  -7.2405400963264116E-002   2.1849176753418686E-002   2.9516540578731598E-002
  -7.0007995324420647E-002   2.1116997072389537E-002   2.9897541424116325E-002
  -6.7610589685577288E-002   2.0403835452871173E-002   3.0047329582030435E-002
  -6.5213184046733819E-002   1.9709691894863435E-002   2.9965905052474040E-002
  -4.3530631507272197E-002   1.3227859523512187E-002   4.7761394118730482E-002
  -4.2196167018335839E-002   1.2748182350257709E-002   4.8195501637485760E-002
  -4.0861702529399531E-002   1.2241682063896073E-002   4.8690723793147761E-002
  -3.9527238040463195E-002   1.1708358664427401E-002   4.9247060585716609E-002
  -3.8192773551526865E-002   1.1148212151851744E-002   4.9864512015192042E-002
  -4.8617136937484463E-002   1.4848317616349971E-002   4.3394410193623112E-002
  -4.7195577458303273E-002   1.4315390022137345E-002   4.3606261622853790E-002
  -4.5774017979122048E-002   1.3758322928176872E-002   4.3931188395667536E-002
  -4.4352458499940878E-002   1.3177116334468750E-002   4.4369190512064283E-002
  -4.2930899020759646E-002   1.2571770241012969E-002   4.4920267972044181E-002
  -5.3926397504132209E-002   1.6468775709187838E-002   3.8972834040877827E-002
  -5.2365782328029763E-002   1.5882597694016981E-002   3.8965112993943299E-002
  -5.0805167151927309E-002   1.5274963792457789E-002   3.9122427997268068E-002
  -4.9244551975824905E-002   1.4645874004510213E-002   3.9444779050852308E-002
  -4.7683936799722465E-002   1.3995328330174334E-002   3.9932166154695775E-002
  -5.9458413207215288E-002   1.8089233802025664E-002   3.4496665660494807E-002
  -5.7706781627515351E-002   1.7449805365896562E-002   3.4272055750754357E-002
  -5.5955150047815420E-002   1.6791604656738675E-002   3.4264442597949599E-002
  -5.4203518468115462E-002   1.6114631674551592E-002   3.4473826202080567E-002
  -5.2451886888415504E-002   1.5418886419335684E-002   3.4900206563147185E-002
  -6.5213184046733819E-002   1.9709691894863435E-002   2.9965905052474040E-002
  -6.3218575356759982E-002   1.9017013037776281E-002   2.9527089893286895E-002
  -6.1223966666786186E-002   1.8308245521019492E-002   2.9357232197711913E-002
  -5.9229357976812384E-002   1.7583389344592967E-002   2.9456331965748914E-002
  -5.7234749286838582E-002   1.6842444508496979E-002   2.9824389197397938E-002
  -3.8192773551526865E-002   1.1148212151851744E-002   4.9864512015192042E-002
  -3.6271669425451653E-002   1.0581411111815764E-002   4.9189100224260096E-002
  -3.4350565299376454E-002   1.0028124129966176E-002   4.8726150366405790E-002
  -3.2429461173301255E-002   9.4883512063032166E-003   4.8475662441629125E-002
  -3.0508357047226042E-002   8.9620923408267328E-003   4.8437636449930099E-002
  -4.2930899020759646E-002   1.2571770241012969E-002   4.4920267972044181E-002
  -4.0798463566596020E-002   1.1961020707945524E-002   4.4242236605748275E-002
  -3.8666028112432416E-002   1.1363603795402508E-002   4.3774405962551444E-002
  -3.6533592658268776E-002   1.0779519503383943E-002   4.3516776042453811E-002
  -3.4401157204105193E-002   1.0208767831889676E-002   4.3469346845455115E-002
  -4.7683936799722465E-002   1.3995328330174334E-002   3.9932166154695775E-002
  -4.5342431227449000E-002   1.3340630304075340E-002   3.9251333775373806E-002
  -4.3000925655175520E-002   1.2699083460838784E-002   3.8778440909172526E-002
  -4.0659420082902083E-002   1.2070687800464559E-002   3.8513487556091741E-002
  -3.8317914510628569E-002   1.1455443322952591E-002   3.8456473716131520E-002
  -5.2451886888415504E-002   1.5418886419335684E-002   3.4900206563147185E-002
  -4.9903572408010695E-002   1.4720239900205156E-002   3.4216391733137022E-002
  -4.7355257927605920E-002   1.4034563126275199E-002   3.3738255206268955E-002
  -4.4806943447201091E-002   1.3361856097545175E-002   3.3465796982542997E-002
  -4.2258628966796268E-002   1.2702118814015409E-002   3.3399017061958941E-002
  -5.7234749286838582E-002   1.6842444508496979E-002   2.9824389197397938E-002
  -5.4481887108281002E-002   1.6099849496334973E-002   2.9137410479037618E-002
  -5.1729024929723449E-002   1.5370042791711502E-002   2.8653848853840813E-002
  -4.8976162751165911E-002   1.4653024394625958E-002   2.8373704321807608E-002
  -4.6223300572608317E-002   1.3948794305078505E-002   2.8296976882937808E-002
  -3.0508357047226042E-002   8.9620923408267328E-003   4.8437636449930099E-002
  -2.8954960861882623E-002   8.4319841522275674E-003   4.8351377600369061E-002
  -2.7401564676539189E-002   7.8806632591974374E-003   4.8437341117554072E-002
  -2.5848168491195762E-002   7.3081296617359369E-003   4.8695527001485092E-002
  -2.4294772305852336E-002   6.7143833598429792E-003   4.9125935252162023E-002
  -3.4401157204105193E-002   1.0208767831889676E-002   4.3469346845455115E-002
  -3.2682696865232591E-002   9.6338643390795897E-003   4.3330548149239201E-002
  -3.0964236526360045E-002   9.0373245831132792E-003   4.3349655393335379E-002
  -2.9245776187487499E-002   8.4191485639911294E-003   4.3526668577743857E-002
  -2.7527315848614883E-002   7.7793362817126788E-003   4.3861587702464511E-002
  -3.8317914510628569E-002   1.1455443322952591E-002   3.8456473716131520E-002
  -3.6448706444660674E-002   1.0835744525931168E-002   3.8264711614535804E-002
  -3.4579498378692855E-002   1.0193985907029128E-002   3.8216539026818451E-002
  -3.2710290312724988E-002   9.5301674662461571E-003   3.8311955952979440E-002
  -3.0841082246757141E-002   8.8442892035821008E-003   3.8550962393018945E-002
  -4.2258628966796268E-002   1.2702118814015409E-002   3.3399017061958941E-002
  -4.0252989600166933E-002   1.2037624712782968E-002   3.3153867996258801E-002
  -3.8247350233537605E-002   1.1350647230944973E-002   3.3037992018003053E-002
  -3.6241710866908278E-002   1.0641186368501102E-002   3.3051389127191910E-002
  -3.4236071500278943E-002   9.9092421254517171E-003   3.3194059323825360E-002
  -4.6223300572608317E-002   1.3948794305078505E-002   2.8296976882937808E-002
  -4.4095546331751334E-002   1.3239504899634602E-002   2.7998017294408151E-002
  -4.1967792090894324E-002   1.2507308554860833E-002   2.7814014366889378E-002
  -3.9840037850037327E-002   1.1752205270756409E-002   2.7744968100381281E-002
  -3.7712283609180330E-002   1.0974195047321222E-002   2.7790878494883930E-002
  -2.4294772305852336E-002   6.7143833598429792E-003   4.9125935252162023E-002
  -2.2479301729683460E-002   6.1078300121816809E-003   4.8814383011515139E-002
  -2.0663831153514625E-002   5.4968752774156304E-003   4.8665348325746094E-002
  -1.8848360577345784E-002   4.8815191555436968E-003   4.8678831194854499E-002
  -1.7032890001176915E-002   4.2617616465666641E-003   4.8854831618841077E-002
  -2.7527315848614883E-002   7.7793362817126788E-003   4.3861587702464511E-002
  -2.5552066591168619E-002   7.1303328848492664E-003   4.3465500056278306E-002
  -2.3576817333722286E-002   6.4845835219729253E-003   4.3226452217769301E-002
  -2.1601568076275994E-002   5.8420881930828852E-003   4.3144444186937289E-002
  -1.9626318818829633E-002   5.2028468981797360E-003   4.3219475963782561E-002
  -3.0841082246757141E-002   8.8442892035821008E-003   3.8550962393018945E-002
  -2.8711532055234010E-002   8.1528357575169907E-003   3.8077994762385353E-002
  -2.6581981863710882E-002   7.4722917665303173E-003   3.7756589192228254E-002
  -2.4452431672187712E-002   6.8026572306222922E-003   3.7586745682547738E-002
  -2.2322881480664622E-002   6.1439321497926414E-003   3.7568464233343535E-002
  -3.4236071500278943E-002   9.9092421254517171E-003   3.3194059323825360E-002
  -3.1957698121879638E-002   9.1753386301846457E-003   3.2651867129836462E-002
  -2.9679324743480309E-002   8.4600000110879384E-003   3.2255759249123245E-002
  -2.7400951365081010E-002   7.7632262681615345E-003   3.2005735681685986E-002
  -2.5122577986681726E-002   7.0850174014058520E-003   3.1901796427524540E-002
  -3.7712283609180330E-002   1.0974195047321222E-002   2.7790878494883930E-002
  -3.5290564791105455E-002   1.0197841502852134E-002   2.7187117158631424E-002
  -3.2868845973030691E-002   9.4477082556449488E-003   2.6723962388454092E-002
  -3.0447127154955900E-002   8.7237953057010403E-003   2.6401414184351879E-002
  -2.8025408336881052E-002   8.0261026530186186E-003   2.6219472546324951E-002
  -1.7032890001176915E-002   4.2617616465666641E-003   4.8854831618841077E-002
  -1.5098634292220775E-002   3.6982402016087490E-003   4.8743471859788334E-002
  -1.3164378583264663E-002   3.2515922717935575E-003   4.8889525185965954E-002
  -1.1230122874308524E-002   2.9218178571222692E-003   4.9292991597373659E-002
  -9.2958671653524116E-003   2.7089169575933436E-003   4.9953871094011726E-002
  -1.9626318818829633E-002   5.2028468981797360E-003   4.3219475963782561E-002
  -1.7473903110845318E-002   4.6016129178173548E-003   4.3060546329464933E-002
  -1.5321487402860968E-002   4.0731395325505071E-003   4.3080523607973736E-002
  -1.3169071694876636E-002   3.6174267423789153E-003   4.3279407799308792E-002
  -1.1016655986892304E-002   3.2344745473026348E-003   4.3657198903470140E-002
  -2.2322881480664622E-002   6.1439321497926414E-003   3.7568464233343535E-002
  -2.0030811946055976E-002   5.5049856340262104E-003   3.7317851803713498E-002
  -1.7738742411447295E-002   4.8946867933072069E-003   3.7167640114505462E-002
  -1.5446672876838614E-002   4.3130356276356654E-003   3.7117829165720151E-002
  -1.3154603342229967E-002   3.7600321370115930E-003   3.7168418957356925E-002
  -2.5122577986681726E-002   7.0850174014058520E-003   3.1901796427524540E-002
  -2.2769360797852644E-002   6.4083583502348301E-003   3.1515388282533710E-002
  -2.0416143609023642E-002   5.7162340540638096E-003   3.1150874705561417E-002
  -1.8062926420194598E-002   5.0086445128924746E-003   3.0808255696607393E-002
  -1.5709709231365502E-002   4.2855897267207177E-003   3.0487531255672086E-002
  -2.8025408336881052E-002   8.0261026530186186E-003   2.6219472546324951E-002
  -2.5689549666235489E-002   7.3117310664436719E-003   2.5653155765925861E-002
  -2.3353690995589982E-002   6.5377813148208008E-003   2.5030227381141190E-002
  -2.1017832324944419E-002   5.7042533981491589E-003   2.4350687391971132E-002
  -1.8681973654298911E-002   4.8111473164297314E-003   2.3614535798415437E-002
  -9.2958671653524116E-003   2.7089169575933436E-003   4.9953871094011726E-002
  -7.8723066760292559E-003   2.8577724538847993E-003   5.0359293556987983E-002
  -6.4487461867061419E-003   3.6132672266714627E-003   5.1090910772807085E-002
  -5.0251856973830139E-003   4.9754012759539515E-003   5.2148722741468895E-002
  -3.6016252080598721E-003   6.9441746017327999E-003   5.3532729462973161E-002
  -1.1016655986892304E-002   3.2344745473026348E-003   4.3657198903470140E-002
  -9.2483852305697833E-003   3.1629130320598997E-003   4.4242308367339112E-002
  -7.4801144742473319E-003   3.6413722813894434E-003   4.5190643612364162E-002
  -5.7118437179249013E-003   4.6698522952910299E-003   4.6502204638544889E-002
  -3.9435729616023596E-003   6.2483530737645898E-003   4.8176991445882056E-002
  -1.3154603342229967E-002   3.7600321370115930E-003   3.7168418957356925E-002
  -1.1004591290594973E-002   3.4680536102355275E-003   3.7876596910194793E-002
  -8.8545792389599538E-003   3.6694773361076322E-003   3.8985031672502071E-002
  -6.7045671873249627E-003   4.3643033146279937E-003   4.0493723244278391E-002
  -4.5545551356899402E-003   5.5525315457966573E-003   4.2402671625523608E-002
  -1.5709709231365502E-002   4.2855897267207177E-003   3.0487531255672086E-002
  -1.3140924856104760E-002   3.7731941884111692E-003   3.1262159185555291E-002
  -1.0572140480844049E-002   3.6975823908258279E-003   3.2474074953220591E-002
  -8.0033561055832970E-003   4.0587543339650149E-003   3.4123278558668327E-002
  -5.4345717303225429E-003   4.8567100178286970E-003   3.6209770001898185E-002
  -1.8681973654298911E-002   4.8111473164297314E-003   2.3614535798415437E-002
  -1.5657385927099227E-002   4.0783347665863667E-003   2.4398995193419926E-002
  -1.2632798199899542E-002   3.7256874455438571E-003   2.5657773454519917E-002
  -9.6082104726998435E-003   3.7532053533018278E-003   2.7390870581715521E-002
  -6.5836227455001728E-003   4.1608884898606258E-003   2.9598286575006516E-002
  -3.6016252080598721E-003   6.9441746017327999E-003   5.3532729462973161E-002
  -4.1537461245196444E-003   9.5344402952808327E-003   5.1860010419152669E-002
  -4.7058670409794029E-003   1.2761051447872901E-002   5.0042102721825688E-002
  -5.2579879574391336E-003   1.6624008059507374E-002   4.8079006370992078E-002
  -5.8101088738989337E-003   2.1123310130184869E-002   4.5970721366652700E-002
  -3.9435729616023596E-003   6.2483530737645898E-003   4.8176991445882056E-002
  -4.5370843491203683E-003   8.6866468478924985E-003   4.7241991506854319E-002
  -5.1305957366382798E-003   1.2294505848757270E-002   4.6369399279216073E-002
  -5.7241071241562053E-003   1.7071930076358578E-002   4.5559214762968037E-002
  -6.3176185116742556E-003   2.3018919530696236E-002   4.4811437958109934E-002
  -4.5545551356899402E-003   5.5525315457966573E-003   4.2402671625523608E-002
  -4.9818606293700017E-003   7.8388534005043864E-003   4.2738610558982315E-002
  -5.4091661230500111E-003   1.1827960249642291E-002   4.3344553568726560E-002
  -5.8364716167300205E-003   1.7519852093210001E-002   4.4220500654757099E-002
  -6.2637771104100265E-003   2.4914528931207602E-002   4.5366451817073661E-002
  -5.4345717303225429E-003   4.8567100178286970E-003   3.6209770001898185E-002
  -5.4880749652684848E-003   6.9910599531161632E-003   3.8349867575536802E-002
  -5.5415782002144563E-003   1.1361414650527209E-002   4.0967565590357205E-002
  -5.5950814351604398E-003   1.7967774110061424E-002   4.4062864046359181E-002
  -5.6485846701064789E-003   2.6810138331718969E-002   4.7635762943544074E-002
  -6.5836227455001728E-003   4.1608884898606258E-003   2.9598286575006516E-002
  -6.0557273568160042E-003   6.1432665057279401E-003   3.4075762556517675E-002
  -5.5278319681318078E-003   1.0894869051412043E-002   3.9238435344107259E-002
  -4.9999365794475420E-003   1.8415696126912885E-002   4.5086304937774740E-002
  -4.4720411907633872E-003   2.8705747732230336E-002   5.1619371337520814E-002
  -7.4802806602107530E-002   2.2600374495958531E-002   2.8904327045876255E-002
  -7.2405400963264116E-002   2.1849176753418686E-002   2.9516540578731598E-002
  -7.0007995324420647E-002   2.1116997072389537E-002   2.9897541424116325E-002
  -6.7610589685577288E-002   2.0403835452871173E-002   3.0047329582030435E-002
  -6.5213184046733819E-002   1.9709691894863435E-002   2.9965905052474040E-002
  -8.0224238509735479E-002   2.4423846525230108E-002   2.2309585900918916E-002
  -7.7893163694606346E-002   2.3617443696312718E-002   2.2146152313268053E-002
  -7.5562088879477282E-002   2.2831501836456741E-002   2.2081269765659384E-002
  -7.3231014064348177E-002   2.2066020945662256E-002   2.2114938258092492E-002
  -7.0899939249219071E-002   2.1321001023929143E-002   2.2247157790567684E-002
  -8.6605938916911734E-002   2.6247318554501631E-002   1.5658918215808448E-002
  -8.4011431197984432E-002   2.5385710639206638E-002   1.4721280415202417E-002
  -8.1416923479057116E-002   2.4546006600524015E-002   1.4211957382150905E-002
  -7.8822415760129827E-002   2.3728206438453362E-002   1.4130949116653947E-002
  -7.6227908041202552E-002   2.2932310152994934E-002   1.4478255618711439E-002
  -9.3947907823636462E-002   2.8070790583773181E-002   8.9523239905452828E-003
  -9.0760203473398401E-002   2.7153977582100780E-002   7.2419248845346472E-003
  -8.7572499123160272E-002   2.6260511364591281E-002   6.2896042735911158E-003
  -8.4384794772922156E-002   2.5390391931244510E-002   6.0953621577144804E-003
  -8.1197090422684109E-002   2.4543619282060711E-002   6.6591985369051539E-003
 -0.10225014522990961        2.9894262613044731E-002   2.1898032251291832E-003
  -9.8139480520848088E-002   2.8922244524994700E-002  -2.9191427873520581E-004
  -9.4028815811786681E-002   2.7975016128658492E-002  -1.6857895600202732E-003
  -8.9918151102725219E-002   2.7052577424035551E-002  -1.9918226187256791E-003
  -8.5807486393663757E-002   2.6154928411126432E-002  -1.2100134548513330E-003
  -6.5213184046733819E-002   1.9709691894863435E-002   2.9965905052474040E-002
  -6.3218575356759982E-002   1.9017013037776281E-002   2.9527089893286895E-002
  -6.1223966666786186E-002   1.8308245521019492E-002   2.9357232197711913E-002
  -5.9229357976812384E-002   1.7583389344592967E-002   2.9456331965748914E-002
  -5.7234749286838582E-002   1.6842444508496979E-002   2.9824389197397938E-002
  -7.0899939249219071E-002   2.1321001023929143E-002   2.2247157790567684E-002
  -6.8681047958932012E-002   2.0579124674333746E-002   2.2107322936355908E-002
  -6.6462156668644939E-002   1.9823074499952506E-002   2.2147095819158788E-002
  -6.4243265378357839E-002   1.9052850500784878E-002   2.2366476438976123E-002
  -6.2024374088070794E-002   1.8268452676831359E-002   2.2765464795808044E-002
  -7.6227908041202552E-002   2.2932310152994934E-002   1.4478255618711439E-002
  -7.3874083877199681E-002   2.2141236310891280E-002   1.4639315904358616E-002
  -7.1520259713196754E-002   2.1337903478885305E-002   1.4890634200422963E-002
  -6.9166435549193828E-002   2.0522311656976738E-002   1.5232210506904275E-002
  -6.6812611385190929E-002   1.9694460845165879E-002   1.5664044823802611E-002
  -8.1197090422684109E-002   2.4543619282060711E-002   6.6591985369051539E-003
  -7.8797683111562905E-002   2.3703347947448779E-002   7.1230687972948098E-003
  -7.6398275800441645E-002   2.2852732457818156E-002   7.5878473415040126E-003
  -7.3998868489320427E-002   2.1991772813168678E-002   8.0535341695328749E-003
  -7.1599461178199222E-002   2.1120469013500412E-002   8.5201292813815444E-003
  -8.5807486393663757E-002   2.6154928411126432E-002  -1.2100134548513330E-003
  -8.3451845662021740E-002   2.5265459584006333E-002  -4.4141838483563456E-004
  -8.1096204930379612E-002   2.4367561436751117E-002   2.3873524240265731E-004
  -7.8740564198737484E-002   2.3461233969360562E-002   8.3044742686271336E-004
  -7.6384923467095467E-002   2.2546477181834779E-002   1.3337181685446620E-003
  -5.7234749286838582E-002   1.6842444508496979E-002   2.9824389197397938E-002
  -5.4481887108281002E-002   1.6099849496334973E-002   2.9137410479037618E-002
  -5.1729024929723449E-002   1.5370042791711502E-002   2.8653848853840813E-002
  -4.8976162751165911E-002   1.4653024394625958E-002   2.8373704321807608E-002
  -4.6223300572608317E-002   1.3948794305078505E-002   2.8296976882937808E-002
  -6.2024374088070794E-002   1.8268452676831359E-002   2.2765464795808044E-002
  -5.9064688077841931E-002   1.7481256637880249E-002   2.2093963171231829E-002
  -5.6105002067613166E-002   1.6702637993719682E-002   2.1632692116834579E-002
  -5.3145316057384366E-002   1.5932596744349756E-002   2.1381651632616475E-002
  -5.0185630047155524E-002   1.5171132889770456E-002   2.1340841718577142E-002
  -6.6812611385190929E-002   1.9694460845165879E-002   1.5664044823802611E-002
  -6.3639288066275460E-002   1.8862663779425387E-002   1.5003809380262884E-002
  -6.0465964747359942E-002   1.8035233195728029E-002   1.4560617983917758E-002
  -5.7292641428444424E-002   1.7212169094073665E-002   1.4334470634766942E-002
  -5.4119318109528955E-002   1.6393471474462379E-002   1.4325367332810632E-002
  -7.1599461178199222E-002   2.1120469013500412E-002   8.5201292813815444E-003
  -6.8205687073581586E-002   2.0244070920970317E-002   7.8669491061307620E-003
  -6.4811912968963867E-002   1.9367828397736292E-002   7.4376264550900829E-003
  -6.1418138864346217E-002   1.8491741443797519E-002   7.2321613282592158E-003
  -5.8024364759728511E-002   1.7615810059154316E-002   7.2505537256384901E-003
  -7.6384923467095467E-002   2.2546477181834779E-002   1.3337181685446620E-003
  -7.2763885099760173E-002   2.1625478062515913E-002   6.8338234883569271E-004
  -6.9142846732424879E-002   2.0700423599744500E-002   2.6371753035209222E-004
  -6.5521808365089584E-002   1.9771313793521580E-002   7.4723713093458044E-005
  -6.1900769997754290E-002   1.8838148643846364E-002   1.1640089706066448E-004
  -4.6223300572608317E-002   1.3948794305078505E-002   2.8296976882937808E-002
  -4.4095546331751334E-002   1.3239504899634602E-002   2.7998017294408151E-002
  -4.1967792090894324E-002   1.2507308554860833E-002   2.7814014366889378E-002
  -3.9840037850037327E-002   1.1752205270756409E-002   2.7744968100381281E-002
  -3.7712283609180330E-002   1.0974195047321222E-002   2.7790878494883930E-002
  -5.0185630047155524E-002   1.5171132889770456E-002   2.1340841718577142E-002
  -4.7933412004246015E-002   1.4410078724123809E-002   2.1064698205135346E-002
  -4.5681193961336471E-002   1.3641266541552607E-002   2.0922525634788053E-002
  -4.3428975918426926E-002   1.2864696342056139E-002   2.0914324007535248E-002
  -4.1176757875517361E-002   1.2080368125635010E-002   2.1040093323376807E-002
  -5.4119318109528955E-002   1.6393471474462379E-002   1.4325367332810632E-002
  -5.1723621982483300E-002   1.5580652548613100E-002   1.4087188816862370E-002
  -4.9327925855437528E-002   1.4775224528244431E-002   1.4001995526092444E-002
  -4.6932229728391825E-002   1.3977187413356422E-002   1.4069787460500301E-002
  -4.4536533601346101E-002   1.3186541203948909E-002   1.4290564620086210E-002
  -5.8024364759728511E-002   1.7615810059154316E-002   7.2505537256384901E-003
  -5.5466176266462969E-002   1.6751226373102238E-002   7.0654891295895625E-003
  -5.2907987773197461E-002   1.5909182514935952E-002   7.0524240408020977E-003
  -5.0349799279931932E-002   1.5089678484656206E-002   7.2113584592764625E-003
  -4.7791610786666404E-002   1.4292714282262975E-002   7.5422923850123891E-003
  -6.1900769997754290E-002   1.8838148643846364E-002   1.1640089706066448E-004
  -5.9161074856185381E-002   1.7921800197591153E-002  -4.0085668395750673E-007
  -5.6421379714616360E-002   1.7043140501627779E-002   7.3811178917471132E-005
  -5.3681684573047395E-002   1.6202169555956540E-002   3.3903700386314628E-004
  -5.0941989431478429E-002   1.5398887360576818E-002   7.9527661815492756E-004
  -3.7712283609180330E-002   1.0974195047321222E-002   2.7790878494883930E-002
  -3.5290564791105455E-002   1.0197841502852134E-002   2.7187117158631424E-002
  -3.2868845973030691E-002   9.4477082556449488E-003   2.6723962388454092E-002
  -3.0447127154955900E-002   8.7237953057010403E-003   2.6401414184351879E-002
  -2.8025408336881052E-002   8.0261026530186186E-003   2.6219472546324951E-002
  -4.1176757875517361E-002   1.2080368125635010E-002   2.1040093323376807E-002
  -3.8627606954975593E-002   1.1297506661392231E-002   2.0546311973296261E-002
  -3.6078456034433812E-002   1.0525336718430936E-002   2.0166788262074575E-002
  -3.3529305113892044E-002   9.7638582967511135E-003   1.9901522189711571E-002
  -3.0980154193350207E-002   9.0130713963529896E-003   1.9750513756207455E-002
  -4.4536533601346101E-002   1.3186541203948909E-002   1.4290564620086210E-002
  -4.1886299505553816E-002   1.2397171819932412E-002   1.3891234480196787E-002
  -3.9236065409761475E-002   1.1602965181216368E-002   1.3579813051949899E-002
  -3.6585831313969149E-002   1.0803921287801020E-002   1.3356300335345447E-002
  -3.3935597218176863E-002   1.0000040139687361E-002   1.3220696330383058E-002
  -4.7791610786666404E-002   1.4292714282262975E-002   7.5422923850123891E-003
  -4.5066642442840012E-002   1.3496836978472107E-002   7.2218846793336948E-003
  -4.2341674099013710E-002   1.2680593644001911E-002   6.9630367580809649E-003
  -3.9616705755187359E-002   1.1843984278851565E-002   6.7657486212538732E-003
  -3.6891737411361009E-002   1.0987008883021621E-002   6.6300202688526072E-003
  -5.0941989431478429E-002   1.5398887360576818E-002   7.9527661815492756E-004
  -4.8168635766834500E-002   1.4596502137012357E-002   5.3826257070582750E-004
  -4.5395282102190515E-002   1.3758222106787621E-002   3.1645938046637179E-004
  -4.2621928437546530E-002   1.2884047269901625E-002   1.2986704743607469E-004
  -3.9848574772902601E-002   1.1973977626355881E-002  -2.1514428384494799E-005
  -2.8025408336881052E-002   8.0261026530186186E-003   2.6219472546324951E-002
  -2.5689549666235489E-002   7.3117310664436719E-003   2.5653155765925861E-002
  -2.3353690995589982E-002   6.5377813148208008E-003   2.5030227381141190E-002
  -2.1017832324944419E-002   5.7042533981491589E-003   2.4350687391971132E-002
  -1.8681973654298911E-002   4.8111473164297314E-003   2.3614535798415437E-002
  -3.0980154193350207E-002   9.0130713963529896E-003   1.9750513756207455E-002
  -2.8682399961024230E-002   8.2661898530689837E-003   1.9170777487466040E-002
  -2.6384645728698183E-002   7.5164275027322369E-003   1.8571443946471228E-002
  -2.4086891496372158E-002   6.7637843453425411E-003   1.7952513133222714E-002
  -2.1789137264046160E-002   6.0082603808995216E-003   1.7313985047720692E-002
  -3.3935597218176863E-002   1.0000040139687361E-002   1.3220696330383058E-002
  -3.1638933092038551E-002   9.2206486396945175E-003   1.2684237931294862E-002
  -2.9342268965900163E-002   8.4950736906439228E-003   1.2165196592085079E-002
  -2.7045604839761837E-002   7.8233152925354862E-003   1.1663572312753306E-002
  -2.4748940713623518E-002   7.2053734453694784E-003   1.1179365093300114E-002
  -3.6891737411361009E-002   1.0987008883021621E-002   6.6300202688526072E-003
  -3.4559149059278371E-002   1.0175107426320051E-002   6.1935370974124382E-003
  -3.2226560707195880E-002   9.4737198785553173E-003   5.8114853179829437E-003
  -2.9893972355113339E-002   8.8828462397285944E-003   5.4838649305632807E-003
  -2.7561384003030747E-002   8.4024865098392965E-003   5.2106759351538204E-003
  -3.9848574772902601E-002   1.1973977626355881E-002  -2.1514428384494799E-005
  -3.7443047862743994E-002   1.1129566212945585E-002  -3.0132501418089763E-004
  -3.5037520952585333E-002   1.0452366066467322E-002  -4.8968987583553059E-004
  -3.2631994042426726E-002   9.9423771869219385E-003  -5.8660901334783855E-004
  -3.0226467132268064E-002   9.5995995743090035E-003  -5.9208242671804356E-004
  -1.8681973654298911E-002   4.8111473164297314E-003   2.3614535798415437E-002
  -1.5657385927099227E-002   4.0783347665863667E-003   2.4398995193419926E-002
  -1.2632798199899542E-002   3.7256874455438571E-003   2.5657773454519917E-002
  -9.6082104726998435E-003   3.7532053533018278E-003   2.7390870581715521E-002
  -6.5836227455001728E-003   4.1608884898606258E-003   2.9598286575006516E-002
  -2.1789137264046160E-002   6.0082603808995216E-003   1.7313985047720692E-002
  -1.8559566365118796E-002   5.3426893730555425E-003   1.8257944883052546E-002
  -1.5329995466191473E-002   4.8599050854612469E-003   1.9137552195744312E-002
  -1.2100424567264102E-002   4.5599075181170373E-003   1.9952806985795712E-002
  -8.8708536683367867E-003   4.4426966710223725E-003   2.0703709253207414E-002
  -2.4748940713623518E-002   7.2053734453694784E-003   1.1179365093300114E-002
  -2.1853058031704134E-002   6.6070439795239966E-003   1.2085446860408799E-002
  -1.8957175349784743E-002   5.9941227253781648E-003   1.2388504716141696E-002
  -1.6061292667865271E-002   5.3666096829315738E-003   1.2088538660498860E-002
  -1.3165409985945911E-002   4.7245048521845079E-003   1.1185548693480124E-002
  -2.7561384003030747E-002   8.4024865098392965E-003   5.2106759351538204E-003
  -2.5537860926855092E-002   7.8713985859928670E-003   5.8815011254888111E-003
  -2.3514337850679357E-002   7.1283403652957628E-003   5.4106310157122847E-003
  -2.1490814774503604E-002   6.1733118477458916E-003   3.7980656058239082E-003
  -1.9467291698327966E-002   5.0063130333462269E-003   1.0438048958242782E-003
  -3.0226467132268064E-002   9.5995995743090035E-003  -5.9208242671804356E-004
  -2.9613975050571728E-002   9.1357531924618485E-003  -3.5389232170790486E-004
  -2.9001482968875281E-002   8.2625580052123615E-003  -1.7960689055445955E-003
  -2.8388990887178917E-002   6.9800140125615140E-003  -4.9186121782283862E-003
  -2.7776498805482497E-002   5.2881212145079459E-003  -9.7215221397594087E-003
  -6.5836227455001728E-003   4.1608884898606258E-003   2.9598286575006516E-002
  -6.0557273568160042E-003   6.1432665057279401E-003   3.4075762556517675E-002
  -5.5278319681318078E-003   1.0894869051412043E-002   3.9238435344107259E-002
  -4.9999365794475420E-003   1.8415696126912885E-002   4.5086304937774740E-002
  -4.4720411907633872E-003   2.8705747732230336E-002   5.1619371337520814E-002
  -8.8708536683367867E-003   4.4426966710223725E-003   2.0703709253207414E-002
  -7.5855021428707370E-003   5.6588300219383436E-003   2.5872682273442749E-002
  -6.3001506174047706E-003   9.3588650486233771E-003   3.1871370761163198E-002
  -5.0147990919386098E-003   1.5542801751078250E-002   3.8699774716369623E-002
  -3.7294475664727544E-003   2.4210640129302963E-002   4.6357894139060551E-002
  -1.3165409985945911E-002   4.7245048521845079E-003   1.1185548693480124E-002
  -1.0978083662290992E-002   5.1743935381480810E-003   1.6760695898392353E-002
  -8.7907573386361224E-003   7.8228610458348086E-003   2.3310077232197510E-002
  -6.6034310149811377E-003   1.2669907375243334E-002   3.0833692694894270E-002
  -4.4161046913263335E-003   1.9715532526375590E-002   3.9331542286484611E-002
  -1.9467291698327966E-002   5.0063130333462269E-003   1.0438048958242782E-003
  -1.6233471915076909E-002   4.6899570543579294E-003   6.7398034313667574E-003
  -1.2999652131825959E-002   6.2868570430450813E-003   1.3554554757209031E-002
  -9.7658323485750355E-003   9.7970129994087805E-003   2.1488058873349786E-002
  -6.5320125653239511E-003   1.5220424923447995E-002   3.0540315779791855E-002
  -2.7776498805482497E-002   5.2881212145079459E-003  -9.7215221397594087E-003
  -2.3351666901228363E-002   4.2055205705682219E-003  -4.1899951276343494E-003
  -1.8926834996974340E-002   4.7508530402579074E-003   2.6048033361979195E-003
  -1.4502003092720067E-002   6.9241186235736440E-003   1.0662873251737114E-002
  -1.0077171188466183E-002   1.0725317320520844E-002   1.9984214618982588E-002
 </DataArray>
 </PointData>
 </Piece>
 </UnstructuredGrid>
 </VTKFile>
