 <VTKFile type="UnstructuredGrid"  version="0.1"   >
 <UnstructuredGrid>
 <Piece  NumberOfPoints="          1600 "  NumberOfCells="         1024 ">
 <Points>
 <DataArray  type="Float64" NumberOfComponents="3"  format="ascii" >
   0.0000000000000000        0.0000000000000000        0.0000000000000000     
   3.1250000000000000E-002   0.0000000000000000        0.0000000000000000     
   6.2500000000000000E-002   0.0000000000000000        0.0000000000000000     
   9.3750000000000000E-002   0.0000000000000000        0.0000000000000000     
  0.12500000000000000        0.0000000000000000        0.0000000000000000     
   0.0000000000000000        3.1250000000000000E-002   0.0000000000000000     
   3.1250000000000000E-002   3.1250000000000000E-002   0.0000000000000000     
   6.2500000000000000E-002   3.1250000000000000E-002   0.0000000000000000     
   9.3750000000000000E-002   3.1250000000000000E-002   0.0000000000000000     
  0.12500000000000000        3.1250000000000000E-002   0.0000000000000000     
   0.0000000000000000        6.2500000000000000E-002   0.0000000000000000     
   3.1250000000000000E-002   6.2500000000000000E-002   0.0000000000000000     
   6.2500000000000000E-002   6.2500000000000000E-002   0.0000000000000000     
   9.3750000000000000E-002   6.2500000000000000E-002   0.0000000000000000     
  0.12500000000000000        6.2500000000000000E-002   0.0000000000000000     
   0.0000000000000000        9.3750000000000000E-002   0.0000000000000000     
   3.1250000000000000E-002   9.3750000000000000E-002   0.0000000000000000     
   6.2500000000000000E-002   9.3750000000000000E-002   0.0000000000000000     
   9.3750000000000000E-002   9.3750000000000000E-002   0.0000000000000000     
  0.12500000000000000        9.3750000000000000E-002   0.0000000000000000     
   0.0000000000000000       0.12500000000000000        0.0000000000000000     
   3.1250000000000000E-002  0.12500000000000000        0.0000000000000000     
   6.2500000000000000E-002  0.12500000000000000        0.0000000000000000     
   9.3750000000000000E-002  0.12500000000000000        0.0000000000000000     
  0.12500000000000000       0.12500000000000000        0.0000000000000000     
  0.12500000000000000        0.0000000000000000        0.0000000000000000     
  0.15625000000000000        0.0000000000000000        0.0000000000000000     
  0.18750000000000000        0.0000000000000000        0.0000000000000000     
  0.21875000000000000        0.0000000000000000        0.0000000000000000     
  0.25000000000000000        0.0000000000000000        0.0000000000000000     
  0.12500000000000000        3.1250000000000000E-002   0.0000000000000000     
  0.15625000000000000        3.1250000000000000E-002   0.0000000000000000     
  0.18750000000000000        3.1250000000000000E-002   0.0000000000000000     
  0.21875000000000000        3.1250000000000000E-002   0.0000000000000000     
  0.25000000000000000        3.1250000000000000E-002   0.0000000000000000     
  0.12500000000000000        6.2500000000000000E-002   0.0000000000000000     
  0.15625000000000000        6.2500000000000000E-002   0.0000000000000000     
  0.18750000000000000        6.2500000000000000E-002   0.0000000000000000     
  0.21875000000000000        6.2500000000000000E-002   0.0000000000000000     
  0.25000000000000000        6.2500000000000000E-002   0.0000000000000000     
  0.12500000000000000        9.3750000000000000E-002   0.0000000000000000     
  0.15625000000000000        9.3750000000000000E-002   0.0000000000000000     
  0.18750000000000000        9.3750000000000000E-002   0.0000000000000000     
  0.21875000000000000        9.3750000000000000E-002   0.0000000000000000     
  0.25000000000000000        9.3750000000000000E-002   0.0000000000000000     
  0.12500000000000000       0.12500000000000000        0.0000000000000000     
  0.15625000000000000       0.12500000000000000        0.0000000000000000     
  0.18750000000000000       0.12500000000000000        0.0000000000000000     
  0.21875000000000000       0.12500000000000000        0.0000000000000000     
  0.25000000000000000       0.12500000000000000        0.0000000000000000     
  0.25000000000000000        0.0000000000000000        0.0000000000000000     
  0.28125000000000000        0.0000000000000000        0.0000000000000000     
  0.31250000000000000        0.0000000000000000        0.0000000000000000     
  0.34375000000000000        0.0000000000000000        0.0000000000000000     
  0.37500000000000000        0.0000000000000000        0.0000000000000000     
  0.25000000000000000        3.1250000000000000E-002   0.0000000000000000     
  0.28125000000000000        3.1250000000000000E-002   0.0000000000000000     
  0.31250000000000000        3.1250000000000000E-002   0.0000000000000000     
  0.34375000000000000        3.1250000000000000E-002   0.0000000000000000     
  0.37500000000000000        3.1250000000000000E-002   0.0000000000000000     
  0.25000000000000000        6.2500000000000000E-002   0.0000000000000000     
  0.28125000000000000        6.2500000000000000E-002   0.0000000000000000     
  0.31250000000000000        6.2500000000000000E-002   0.0000000000000000     
  0.34375000000000000        6.2500000000000000E-002   0.0000000000000000     
  0.37500000000000000        6.2500000000000000E-002   0.0000000000000000     
  0.25000000000000000        9.3750000000000000E-002   0.0000000000000000     
  0.28125000000000000        9.3750000000000000E-002   0.0000000000000000     
  0.31250000000000000        9.3750000000000000E-002   0.0000000000000000     
  0.34375000000000000        9.3750000000000000E-002   0.0000000000000000     
  0.37500000000000000        9.3750000000000000E-002   0.0000000000000000     
  0.25000000000000000       0.12500000000000000        0.0000000000000000     
  0.28125000000000000       0.12500000000000000        0.0000000000000000     
  0.31250000000000000       0.12500000000000000        0.0000000000000000     
  0.34375000000000000       0.12500000000000000        0.0000000000000000     
  0.37500000000000000       0.12500000000000000        0.0000000000000000     
  0.37500000000000000        0.0000000000000000        0.0000000000000000     
  0.40625000000000000        0.0000000000000000        0.0000000000000000     
  0.43750000000000000        0.0000000000000000        0.0000000000000000     
  0.46875000000000000        0.0000000000000000        0.0000000000000000     
  0.50000000000000000        0.0000000000000000        0.0000000000000000     
  0.37500000000000000        3.1250000000000000E-002   0.0000000000000000     
  0.40625000000000000        3.1250000000000000E-002   0.0000000000000000     
  0.43750000000000000        3.1250000000000000E-002   0.0000000000000000     
  0.46875000000000000        3.1250000000000000E-002   0.0000000000000000     
  0.50000000000000000        3.1250000000000000E-002   0.0000000000000000     
  0.37500000000000000        6.2500000000000000E-002   0.0000000000000000     
  0.40625000000000000        6.2500000000000000E-002   0.0000000000000000     
  0.43750000000000000        6.2500000000000000E-002   0.0000000000000000     
  0.46875000000000000        6.2500000000000000E-002   0.0000000000000000     
  0.50000000000000000        6.2500000000000000E-002   0.0000000000000000     
  0.37500000000000000        9.3750000000000000E-002   0.0000000000000000     
  0.40625000000000000        9.3750000000000000E-002   0.0000000000000000     
  0.43750000000000000        9.3750000000000000E-002   0.0000000000000000     
  0.46875000000000000        9.3750000000000000E-002   0.0000000000000000     
  0.50000000000000000        9.3750000000000000E-002   0.0000000000000000     
  0.37500000000000000       0.12500000000000000        0.0000000000000000     
  0.40625000000000000       0.12500000000000000        0.0000000000000000     
  0.43750000000000000       0.12500000000000000        0.0000000000000000     
  0.46875000000000000       0.12500000000000000        0.0000000000000000     
  0.50000000000000000       0.12500000000000000        0.0000000000000000     
  0.50000000000000000        0.0000000000000000        0.0000000000000000     
  0.53125000000000000        0.0000000000000000        0.0000000000000000     
  0.56250000000000000        0.0000000000000000        0.0000000000000000     
  0.59375000000000000        0.0000000000000000        0.0000000000000000     
  0.62500000000000000        0.0000000000000000        0.0000000000000000     
  0.50000000000000000        3.1250000000000000E-002   0.0000000000000000     
  0.53125000000000000        3.1250000000000000E-002   0.0000000000000000     
  0.56250000000000000        3.1250000000000000E-002   0.0000000000000000     
  0.59375000000000000        3.1250000000000000E-002   0.0000000000000000     
  0.62500000000000000        3.1250000000000000E-002   0.0000000000000000     
  0.50000000000000000        6.2500000000000000E-002   0.0000000000000000     
  0.53125000000000000        6.2500000000000000E-002   0.0000000000000000     
  0.56250000000000000        6.2500000000000000E-002   0.0000000000000000     
  0.59375000000000000        6.2500000000000000E-002   0.0000000000000000     
  0.62500000000000000        6.2500000000000000E-002   0.0000000000000000     
  0.50000000000000000        9.3750000000000000E-002   0.0000000000000000     
  0.53125000000000000        9.3750000000000000E-002   0.0000000000000000     
  0.56250000000000000        9.3750000000000000E-002   0.0000000000000000     
  0.59375000000000000        9.3750000000000000E-002   0.0000000000000000     
  0.62500000000000000        9.3750000000000000E-002   0.0000000000000000     
  0.50000000000000000       0.12500000000000000        0.0000000000000000     
  0.53125000000000000       0.12500000000000000        0.0000000000000000     
  0.56250000000000000       0.12500000000000000        0.0000000000000000     
  0.59375000000000000       0.12500000000000000        0.0000000000000000     
  0.62500000000000000       0.12500000000000000        0.0000000000000000     
  0.62500000000000000        0.0000000000000000        0.0000000000000000     
  0.65625000000000000        0.0000000000000000        0.0000000000000000     
  0.68750000000000000        0.0000000000000000        0.0000000000000000     
  0.71875000000000000        0.0000000000000000        0.0000000000000000     
  0.75000000000000000        0.0000000000000000        0.0000000000000000     
  0.62500000000000000        3.1250000000000000E-002   0.0000000000000000     
  0.65625000000000000        3.1250000000000000E-002   0.0000000000000000     
  0.68750000000000000        3.1250000000000000E-002   0.0000000000000000     
  0.71875000000000000        3.1250000000000000E-002   0.0000000000000000     
  0.75000000000000000        3.1250000000000000E-002   0.0000000000000000     
  0.62500000000000000        6.2500000000000000E-002   0.0000000000000000     
  0.65625000000000000        6.2500000000000000E-002   0.0000000000000000     
  0.68750000000000000        6.2500000000000000E-002   0.0000000000000000     
  0.71875000000000000        6.2500000000000000E-002   0.0000000000000000     
  0.75000000000000000        6.2500000000000000E-002   0.0000000000000000     
  0.62500000000000000        9.3750000000000000E-002   0.0000000000000000     
  0.65625000000000000        9.3750000000000000E-002   0.0000000000000000     
  0.68750000000000000        9.3750000000000000E-002   0.0000000000000000     
  0.71875000000000000        9.3750000000000000E-002   0.0000000000000000     
  0.75000000000000000        9.3750000000000000E-002   0.0000000000000000     
  0.62500000000000000       0.12500000000000000        0.0000000000000000     
  0.65625000000000000       0.12500000000000000        0.0000000000000000     
  0.68750000000000000       0.12500000000000000        0.0000000000000000     
  0.71875000000000000       0.12500000000000000        0.0000000000000000     
  0.75000000000000000       0.12500000000000000        0.0000000000000000     
  0.75000000000000000        0.0000000000000000        0.0000000000000000     
  0.78125000000000000        0.0000000000000000        0.0000000000000000     
  0.81250000000000000        0.0000000000000000        0.0000000000000000     
  0.84375000000000000        0.0000000000000000        0.0000000000000000     
  0.87500000000000000        0.0000000000000000        0.0000000000000000     
  0.75000000000000000        3.1250000000000000E-002   0.0000000000000000     
  0.78125000000000000        3.1250000000000000E-002   0.0000000000000000     
  0.81250000000000000        3.1250000000000000E-002   0.0000000000000000     
  0.84375000000000000        3.1250000000000000E-002   0.0000000000000000     
  0.87500000000000000        3.1250000000000000E-002   0.0000000000000000     
  0.75000000000000000        6.2500000000000000E-002   0.0000000000000000     
  0.78125000000000000        6.2500000000000000E-002   0.0000000000000000     
  0.81250000000000000        6.2500000000000000E-002   0.0000000000000000     
  0.84375000000000000        6.2500000000000000E-002   0.0000000000000000     
  0.87500000000000000        6.2500000000000000E-002   0.0000000000000000     
  0.75000000000000000        9.3750000000000000E-002   0.0000000000000000     
  0.78125000000000000        9.3750000000000000E-002   0.0000000000000000     
  0.81250000000000000        9.3750000000000000E-002   0.0000000000000000     
  0.84375000000000000        9.3750000000000000E-002   0.0000000000000000     
  0.87500000000000000        9.3750000000000000E-002   0.0000000000000000     
  0.75000000000000000       0.12500000000000000        0.0000000000000000     
  0.78125000000000000       0.12500000000000000        0.0000000000000000     
  0.81250000000000000       0.12500000000000000        0.0000000000000000     
  0.84375000000000000       0.12500000000000000        0.0000000000000000     
  0.87500000000000000       0.12500000000000000        0.0000000000000000     
  0.87500000000000000        0.0000000000000000        0.0000000000000000     
  0.90625000000000000        0.0000000000000000        0.0000000000000000     
  0.93750000000000000        0.0000000000000000        0.0000000000000000     
  0.96875000000000000        0.0000000000000000        0.0000000000000000     
   1.0000000000000000        0.0000000000000000        0.0000000000000000     
  0.87500000000000000        3.1250000000000000E-002   0.0000000000000000     
  0.90625000000000000        3.1250000000000000E-002   0.0000000000000000     
  0.93750000000000000        3.1250000000000000E-002   0.0000000000000000     
  0.96875000000000000        3.1250000000000000E-002   0.0000000000000000     
   1.0000000000000000        3.1250000000000000E-002   0.0000000000000000     
  0.87500000000000000        6.2500000000000000E-002   0.0000000000000000     
  0.90625000000000000        6.2500000000000000E-002   0.0000000000000000     
  0.93750000000000000        6.2500000000000000E-002   0.0000000000000000     
  0.96875000000000000        6.2500000000000000E-002   0.0000000000000000     
   1.0000000000000000        6.2500000000000000E-002   0.0000000000000000     
  0.87500000000000000        9.3750000000000000E-002   0.0000000000000000     
  0.90625000000000000        9.3750000000000000E-002   0.0000000000000000     
  0.93750000000000000        9.3750000000000000E-002   0.0000000000000000     
  0.96875000000000000        9.3750000000000000E-002   0.0000000000000000     
   1.0000000000000000        9.3750000000000000E-002   0.0000000000000000     
  0.87500000000000000       0.12500000000000000        0.0000000000000000     
  0.90625000000000000       0.12500000000000000        0.0000000000000000     
  0.93750000000000000       0.12500000000000000        0.0000000000000000     
  0.96875000000000000       0.12500000000000000        0.0000000000000000     
   1.0000000000000000       0.12500000000000000        0.0000000000000000     
   0.0000000000000000       0.12500000000000000        0.0000000000000000     
   3.1250000000000000E-002  0.12500000000000000        0.0000000000000000     
   6.2500000000000000E-002  0.12500000000000000        0.0000000000000000     
   9.3750000000000000E-002  0.12500000000000000        0.0000000000000000     
  0.12500000000000000       0.12500000000000000        0.0000000000000000     
   0.0000000000000000       0.15625000000000000        0.0000000000000000     
   3.1250000000000000E-002  0.15625000000000000        0.0000000000000000     
   6.2500000000000000E-002  0.15625000000000000        0.0000000000000000     
   9.3750000000000000E-002  0.15625000000000000        0.0000000000000000     
  0.12500000000000000       0.15625000000000000        0.0000000000000000     
   0.0000000000000000       0.18750000000000000        0.0000000000000000     
   3.1250000000000000E-002  0.18750000000000000        0.0000000000000000     
   6.2500000000000000E-002  0.18750000000000000        0.0000000000000000     
   9.3750000000000000E-002  0.18750000000000000        0.0000000000000000     
  0.12500000000000000       0.18750000000000000        0.0000000000000000     
   0.0000000000000000       0.21875000000000000        0.0000000000000000     
   3.1250000000000000E-002  0.21875000000000000        0.0000000000000000     
   6.2500000000000000E-002  0.21875000000000000        0.0000000000000000     
   9.3750000000000000E-002  0.21875000000000000        0.0000000000000000     
  0.12500000000000000       0.21875000000000000        0.0000000000000000     
   0.0000000000000000       0.25000000000000000        0.0000000000000000     
   3.1250000000000000E-002  0.25000000000000000        0.0000000000000000     
   6.2500000000000000E-002  0.25000000000000000        0.0000000000000000     
   9.3750000000000000E-002  0.25000000000000000        0.0000000000000000     
  0.12500000000000000       0.25000000000000000        0.0000000000000000     
  0.12500000000000000       0.12500000000000000        0.0000000000000000     
  0.15625000000000000       0.12500000000000000        0.0000000000000000     
  0.18750000000000000       0.12500000000000000        0.0000000000000000     
  0.21875000000000000       0.12500000000000000        0.0000000000000000     
  0.25000000000000000       0.12500000000000000        0.0000000000000000     
  0.12500000000000000       0.15625000000000000        0.0000000000000000     
  0.15625000000000000       0.15625000000000000        0.0000000000000000     
  0.18750000000000000       0.15625000000000000        0.0000000000000000     
  0.21875000000000000       0.15625000000000000        0.0000000000000000     
  0.25000000000000000       0.15625000000000000        0.0000000000000000     
  0.12500000000000000       0.18750000000000000        0.0000000000000000     
  0.15625000000000000       0.18750000000000000        0.0000000000000000     
  0.18750000000000000       0.18750000000000000        0.0000000000000000     
  0.21875000000000000       0.18750000000000000        0.0000000000000000     
  0.25000000000000000       0.18750000000000000        0.0000000000000000     
  0.12500000000000000       0.21875000000000000        0.0000000000000000     
  0.15625000000000000       0.21875000000000000        0.0000000000000000     
  0.18750000000000000       0.21875000000000000        0.0000000000000000     
  0.21875000000000000       0.21875000000000000        0.0000000000000000     
  0.25000000000000000       0.21875000000000000        0.0000000000000000     
  0.12500000000000000       0.25000000000000000        0.0000000000000000     
  0.15625000000000000       0.25000000000000000        0.0000000000000000     
  0.18750000000000000       0.25000000000000000        0.0000000000000000     
  0.21875000000000000       0.25000000000000000        0.0000000000000000     
  0.25000000000000000       0.25000000000000000        0.0000000000000000     
  0.25000000000000000       0.12500000000000000        0.0000000000000000     
  0.28125000000000000       0.12500000000000000        0.0000000000000000     
  0.31250000000000000       0.12500000000000000        0.0000000000000000     
  0.34375000000000000       0.12500000000000000        0.0000000000000000     
  0.37500000000000000       0.12500000000000000        0.0000000000000000     
  0.25000000000000000       0.15625000000000000        0.0000000000000000     
  0.28125000000000000       0.15625000000000000        0.0000000000000000     
  0.31250000000000000       0.15625000000000000        0.0000000000000000     
  0.34375000000000000       0.15625000000000000        0.0000000000000000     
  0.37500000000000000       0.15625000000000000        0.0000000000000000     
  0.25000000000000000       0.18750000000000000        0.0000000000000000     
  0.28125000000000000       0.18750000000000000        0.0000000000000000     
  0.31250000000000000       0.18750000000000000        0.0000000000000000     
  0.34375000000000000       0.18750000000000000        0.0000000000000000     
  0.37500000000000000       0.18750000000000000        0.0000000000000000     
  0.25000000000000000       0.21875000000000000        0.0000000000000000     
  0.28125000000000000       0.21875000000000000        0.0000000000000000     
  0.31250000000000000       0.21875000000000000        0.0000000000000000     
  0.34375000000000000       0.21875000000000000        0.0000000000000000     
  0.37500000000000000       0.21875000000000000        0.0000000000000000     
  0.25000000000000000       0.25000000000000000        0.0000000000000000     
  0.28125000000000000       0.25000000000000000        0.0000000000000000     
  0.31250000000000000       0.25000000000000000        0.0000000000000000     
  0.34375000000000000       0.25000000000000000        0.0000000000000000     
  0.37500000000000000       0.25000000000000000        0.0000000000000000     
  0.37500000000000000       0.12500000000000000        0.0000000000000000     
  0.40625000000000000       0.12500000000000000        0.0000000000000000     
  0.43750000000000000       0.12500000000000000        0.0000000000000000     
  0.46875000000000000       0.12500000000000000        0.0000000000000000     
  0.50000000000000000       0.12500000000000000        0.0000000000000000     
  0.37500000000000000       0.15625000000000000        0.0000000000000000     
  0.40625000000000000       0.15625000000000000        0.0000000000000000     
  0.43750000000000000       0.15625000000000000        0.0000000000000000     
  0.46875000000000000       0.15625000000000000        0.0000000000000000     
  0.50000000000000000       0.15625000000000000        0.0000000000000000     
  0.37500000000000000       0.18750000000000000        0.0000000000000000     
  0.40625000000000000       0.18750000000000000        0.0000000000000000     
  0.43750000000000000       0.18750000000000000        0.0000000000000000     
  0.46875000000000000       0.18750000000000000        0.0000000000000000     
  0.50000000000000000       0.18750000000000000        0.0000000000000000     
  0.37500000000000000       0.21875000000000000        0.0000000000000000     
  0.40625000000000000       0.21875000000000000        0.0000000000000000     
  0.43750000000000000       0.21875000000000000        0.0000000000000000     
  0.46875000000000000       0.21875000000000000        0.0000000000000000     
  0.50000000000000000       0.21875000000000000        0.0000000000000000     
  0.37500000000000000       0.25000000000000000        0.0000000000000000     
  0.40625000000000000       0.25000000000000000        0.0000000000000000     
  0.43750000000000000       0.25000000000000000        0.0000000000000000     
  0.46875000000000000       0.25000000000000000        0.0000000000000000     
  0.50000000000000000       0.25000000000000000        0.0000000000000000     
  0.50000000000000000       0.12500000000000000        0.0000000000000000     
  0.53125000000000000       0.12500000000000000        0.0000000000000000     
  0.56250000000000000       0.12500000000000000        0.0000000000000000     
  0.59375000000000000       0.12500000000000000        0.0000000000000000     
  0.62500000000000000       0.12500000000000000        0.0000000000000000     
  0.50000000000000000       0.15625000000000000        0.0000000000000000     
  0.53125000000000000       0.15625000000000000        0.0000000000000000     
  0.56250000000000000       0.15625000000000000        0.0000000000000000     
  0.59375000000000000       0.15625000000000000        0.0000000000000000     
  0.62500000000000000       0.15625000000000000        0.0000000000000000     
  0.50000000000000000       0.18750000000000000        0.0000000000000000     
  0.53125000000000000       0.18750000000000000        0.0000000000000000     
  0.56250000000000000       0.18750000000000000        0.0000000000000000     
  0.59375000000000000       0.18750000000000000        0.0000000000000000     
  0.62500000000000000       0.18750000000000000        0.0000000000000000     
  0.50000000000000000       0.21875000000000000        0.0000000000000000     
  0.53125000000000000       0.21875000000000000        0.0000000000000000     
  0.56250000000000000       0.21875000000000000        0.0000000000000000     
  0.59375000000000000       0.21875000000000000        0.0000000000000000     
  0.62500000000000000       0.21875000000000000        0.0000000000000000     
  0.50000000000000000       0.25000000000000000        0.0000000000000000     
  0.53125000000000000       0.25000000000000000        0.0000000000000000     
  0.56250000000000000       0.25000000000000000        0.0000000000000000     
  0.59375000000000000       0.25000000000000000        0.0000000000000000     
  0.62500000000000000       0.25000000000000000        0.0000000000000000     
  0.62500000000000000       0.12500000000000000        0.0000000000000000     
  0.65625000000000000       0.12500000000000000        0.0000000000000000     
  0.68750000000000000       0.12500000000000000        0.0000000000000000     
  0.71875000000000000       0.12500000000000000        0.0000000000000000     
  0.75000000000000000       0.12500000000000000        0.0000000000000000     
  0.62500000000000000       0.15625000000000000        0.0000000000000000     
  0.65625000000000000       0.15625000000000000        0.0000000000000000     
  0.68750000000000000       0.15625000000000000        0.0000000000000000     
  0.71875000000000000       0.15625000000000000        0.0000000000000000     
  0.75000000000000000       0.15625000000000000        0.0000000000000000     
  0.62500000000000000       0.18750000000000000        0.0000000000000000     
  0.65625000000000000       0.18750000000000000        0.0000000000000000     
  0.68750000000000000       0.18750000000000000        0.0000000000000000     
  0.71875000000000000       0.18750000000000000        0.0000000000000000     
  0.75000000000000000       0.18750000000000000        0.0000000000000000     
  0.62500000000000000       0.21875000000000000        0.0000000000000000     
  0.65625000000000000       0.21875000000000000        0.0000000000000000     
  0.68750000000000000       0.21875000000000000        0.0000000000000000     
  0.71875000000000000       0.21875000000000000        0.0000000000000000     
  0.75000000000000000       0.21875000000000000        0.0000000000000000     
  0.62500000000000000       0.25000000000000000        0.0000000000000000     
  0.65625000000000000       0.25000000000000000        0.0000000000000000     
  0.68750000000000000       0.25000000000000000        0.0000000000000000     
  0.71875000000000000       0.25000000000000000        0.0000000000000000     
  0.75000000000000000       0.25000000000000000        0.0000000000000000     
  0.75000000000000000       0.12500000000000000        0.0000000000000000     
  0.78125000000000000       0.12500000000000000        0.0000000000000000     
  0.81250000000000000       0.12500000000000000        0.0000000000000000     
  0.84375000000000000       0.12500000000000000        0.0000000000000000     
  0.87500000000000000       0.12500000000000000        0.0000000000000000     
  0.75000000000000000       0.15625000000000000        0.0000000000000000     
  0.78125000000000000       0.15625000000000000        0.0000000000000000     
  0.81250000000000000       0.15625000000000000        0.0000000000000000     
  0.84375000000000000       0.15625000000000000        0.0000000000000000     
  0.87500000000000000       0.15625000000000000        0.0000000000000000     
  0.75000000000000000       0.18750000000000000        0.0000000000000000     
  0.78125000000000000       0.18750000000000000        0.0000000000000000     
  0.81250000000000000       0.18750000000000000        0.0000000000000000     
  0.84375000000000000       0.18750000000000000        0.0000000000000000     
  0.87500000000000000       0.18750000000000000        0.0000000000000000     
  0.75000000000000000       0.21875000000000000        0.0000000000000000     
  0.78125000000000000       0.21875000000000000        0.0000000000000000     
  0.81250000000000000       0.21875000000000000        0.0000000000000000     
  0.84375000000000000       0.21875000000000000        0.0000000000000000     
  0.87500000000000000       0.21875000000000000        0.0000000000000000     
  0.75000000000000000       0.25000000000000000        0.0000000000000000     
  0.78125000000000000       0.25000000000000000        0.0000000000000000     
  0.81250000000000000       0.25000000000000000        0.0000000000000000     
  0.84375000000000000       0.25000000000000000        0.0000000000000000     
  0.87500000000000000       0.25000000000000000        0.0000000000000000     
  0.87500000000000000       0.12500000000000000        0.0000000000000000     
  0.90625000000000000       0.12500000000000000        0.0000000000000000     
  0.93750000000000000       0.12500000000000000        0.0000000000000000     
  0.96875000000000000       0.12500000000000000        0.0000000000000000     
   1.0000000000000000       0.12500000000000000        0.0000000000000000     
  0.87500000000000000       0.15625000000000000        0.0000000000000000     
  0.90625000000000000       0.15625000000000000        0.0000000000000000     
  0.93750000000000000       0.15625000000000000        0.0000000000000000     
  0.96875000000000000       0.15625000000000000        0.0000000000000000     
   1.0000000000000000       0.15625000000000000        0.0000000000000000     
  0.87500000000000000       0.18750000000000000        0.0000000000000000     
  0.90625000000000000       0.18750000000000000        0.0000000000000000     
  0.93750000000000000       0.18750000000000000        0.0000000000000000     
  0.96875000000000000       0.18750000000000000        0.0000000000000000     
   1.0000000000000000       0.18750000000000000        0.0000000000000000     
  0.87500000000000000       0.21875000000000000        0.0000000000000000     
  0.90625000000000000       0.21875000000000000        0.0000000000000000     
  0.93750000000000000       0.21875000000000000        0.0000000000000000     
  0.96875000000000000       0.21875000000000000        0.0000000000000000     
   1.0000000000000000       0.21875000000000000        0.0000000000000000     
  0.87500000000000000       0.25000000000000000        0.0000000000000000     
  0.90625000000000000       0.25000000000000000        0.0000000000000000     
  0.93750000000000000       0.25000000000000000        0.0000000000000000     
  0.96875000000000000       0.25000000000000000        0.0000000000000000     
   1.0000000000000000       0.25000000000000000        0.0000000000000000     
   0.0000000000000000       0.25000000000000000        0.0000000000000000     
   3.1250000000000000E-002  0.25000000000000000        0.0000000000000000     
   6.2500000000000000E-002  0.25000000000000000        0.0000000000000000     
   9.3750000000000000E-002  0.25000000000000000        0.0000000000000000     
  0.12500000000000000       0.25000000000000000        0.0000000000000000     
   0.0000000000000000       0.28125000000000000        0.0000000000000000     
   3.1250000000000000E-002  0.28125000000000000        0.0000000000000000     
   6.2500000000000000E-002  0.28125000000000000        0.0000000000000000     
   9.3750000000000000E-002  0.28125000000000000        0.0000000000000000     
  0.12500000000000000       0.28125000000000000        0.0000000000000000     
   0.0000000000000000       0.31250000000000000        0.0000000000000000     
   3.1250000000000000E-002  0.31250000000000000        0.0000000000000000     
   6.2500000000000000E-002  0.31250000000000000        0.0000000000000000     
   9.3750000000000000E-002  0.31250000000000000        0.0000000000000000     
  0.12500000000000000       0.31250000000000000        0.0000000000000000     
   0.0000000000000000       0.34375000000000000        0.0000000000000000     
   3.1250000000000000E-002  0.34375000000000000        0.0000000000000000     
   6.2500000000000000E-002  0.34375000000000000        0.0000000000000000     
   9.3750000000000000E-002  0.34375000000000000        0.0000000000000000     
  0.12500000000000000       0.34375000000000000        0.0000000000000000     
   0.0000000000000000       0.37500000000000000        0.0000000000000000     
   3.1250000000000000E-002  0.37500000000000000        0.0000000000000000     
   6.2500000000000000E-002  0.37500000000000000        0.0000000000000000     
   9.3750000000000000E-002  0.37500000000000000        0.0000000000000000     
  0.12500000000000000       0.37500000000000000        0.0000000000000000     
  0.12500000000000000       0.25000000000000000        0.0000000000000000     
  0.15625000000000000       0.25000000000000000        0.0000000000000000     
  0.18750000000000000       0.25000000000000000        0.0000000000000000     
  0.21875000000000000       0.25000000000000000        0.0000000000000000     
  0.25000000000000000       0.25000000000000000        0.0000000000000000     
  0.12500000000000000       0.28125000000000000        0.0000000000000000     
  0.15625000000000000       0.28125000000000000        0.0000000000000000     
  0.18750000000000000       0.28125000000000000        0.0000000000000000     
  0.21875000000000000       0.28125000000000000        0.0000000000000000     
  0.25000000000000000       0.28125000000000000        0.0000000000000000     
  0.12500000000000000       0.31250000000000000        0.0000000000000000     
  0.15625000000000000       0.31250000000000000        0.0000000000000000     
  0.18750000000000000       0.31250000000000000        0.0000000000000000     
  0.21875000000000000       0.31250000000000000        0.0000000000000000     
  0.25000000000000000       0.31250000000000000        0.0000000000000000     
  0.12500000000000000       0.34375000000000000        0.0000000000000000     
  0.15625000000000000       0.34375000000000000        0.0000000000000000     
  0.18750000000000000       0.34375000000000000        0.0000000000000000     
  0.21875000000000000       0.34375000000000000        0.0000000000000000     
  0.25000000000000000       0.34375000000000000        0.0000000000000000     
  0.12500000000000000       0.37500000000000000        0.0000000000000000     
  0.15625000000000000       0.37500000000000000        0.0000000000000000     
  0.18750000000000000       0.37500000000000000        0.0000000000000000     
  0.21875000000000000       0.37500000000000000        0.0000000000000000     
  0.25000000000000000       0.37500000000000000        0.0000000000000000     
  0.25000000000000000       0.25000000000000000        0.0000000000000000     
  0.28125000000000000       0.25000000000000000        0.0000000000000000     
  0.31250000000000000       0.25000000000000000        0.0000000000000000     
  0.34375000000000000       0.25000000000000000        0.0000000000000000     
  0.37500000000000000       0.25000000000000000        0.0000000000000000     
  0.25000000000000000       0.28125000000000000        0.0000000000000000     
  0.28125000000000000       0.28125000000000000        0.0000000000000000     
  0.31250000000000000       0.28125000000000000        0.0000000000000000     
  0.34375000000000000       0.28125000000000000        0.0000000000000000     
  0.37500000000000000       0.28125000000000000        0.0000000000000000     
  0.25000000000000000       0.31250000000000000        0.0000000000000000     
  0.28125000000000000       0.31250000000000000        0.0000000000000000     
  0.31250000000000000       0.31250000000000000        0.0000000000000000     
  0.34375000000000000       0.31250000000000000        0.0000000000000000     
  0.37500000000000000       0.31250000000000000        0.0000000000000000     
  0.25000000000000000       0.34375000000000000        0.0000000000000000     
  0.28125000000000000       0.34375000000000000        0.0000000000000000     
  0.31250000000000000       0.34375000000000000        0.0000000000000000     
  0.34375000000000000       0.34375000000000000        0.0000000000000000     
  0.37500000000000000       0.34375000000000000        0.0000000000000000     
  0.25000000000000000       0.37500000000000000        0.0000000000000000     
  0.28125000000000000       0.37500000000000000        0.0000000000000000     
  0.31250000000000000       0.37500000000000000        0.0000000000000000     
  0.34375000000000000       0.37500000000000000        0.0000000000000000     
  0.37500000000000000       0.37500000000000000        0.0000000000000000     
  0.37500000000000000       0.25000000000000000        0.0000000000000000     
  0.40625000000000000       0.25000000000000000        0.0000000000000000     
  0.43750000000000000       0.25000000000000000        0.0000000000000000     
  0.46875000000000000       0.25000000000000000        0.0000000000000000     
  0.50000000000000000       0.25000000000000000        0.0000000000000000     
  0.37500000000000000       0.28125000000000000        0.0000000000000000     
  0.40625000000000000       0.28125000000000000        0.0000000000000000     
  0.43750000000000000       0.28125000000000000        0.0000000000000000     
  0.46875000000000000       0.28125000000000000        0.0000000000000000     
  0.50000000000000000       0.28125000000000000        0.0000000000000000     
  0.37500000000000000       0.31250000000000000        0.0000000000000000     
  0.40625000000000000       0.31250000000000000        0.0000000000000000     
  0.43750000000000000       0.31250000000000000        0.0000000000000000     
  0.46875000000000000       0.31250000000000000        0.0000000000000000     
  0.50000000000000000       0.31250000000000000        0.0000000000000000     
  0.37500000000000000       0.34375000000000000        0.0000000000000000     
  0.40625000000000000       0.34375000000000000        0.0000000000000000     
  0.43750000000000000       0.34375000000000000        0.0000000000000000     
  0.46875000000000000       0.34375000000000000        0.0000000000000000     
  0.50000000000000000       0.34375000000000000        0.0000000000000000     
  0.37500000000000000       0.37500000000000000        0.0000000000000000     
  0.40625000000000000       0.37500000000000000        0.0000000000000000     
  0.43750000000000000       0.37500000000000000        0.0000000000000000     
  0.46875000000000000       0.37500000000000000        0.0000000000000000     
  0.50000000000000000       0.37500000000000000        0.0000000000000000     
  0.50000000000000000       0.25000000000000000        0.0000000000000000     
  0.53125000000000000       0.25000000000000000        0.0000000000000000     
  0.56250000000000000       0.25000000000000000        0.0000000000000000     
  0.59375000000000000       0.25000000000000000        0.0000000000000000     
  0.62500000000000000       0.25000000000000000        0.0000000000000000     
  0.50000000000000000       0.28125000000000000        0.0000000000000000     
  0.53125000000000000       0.28125000000000000        0.0000000000000000     
  0.56250000000000000       0.28125000000000000        0.0000000000000000     
  0.59375000000000000       0.28125000000000000        0.0000000000000000     
  0.62500000000000000       0.28125000000000000        0.0000000000000000     
  0.50000000000000000       0.31250000000000000        0.0000000000000000     
  0.53125000000000000       0.31250000000000000        0.0000000000000000     
  0.56250000000000000       0.31250000000000000        0.0000000000000000     
  0.59375000000000000       0.31250000000000000        0.0000000000000000     
  0.62500000000000000       0.31250000000000000        0.0000000000000000     
  0.50000000000000000       0.34375000000000000        0.0000000000000000     
  0.53125000000000000       0.34375000000000000        0.0000000000000000     
  0.56250000000000000       0.34375000000000000        0.0000000000000000     
  0.59375000000000000       0.34375000000000000        0.0000000000000000     
  0.62500000000000000       0.34375000000000000        0.0000000000000000     
  0.50000000000000000       0.37500000000000000        0.0000000000000000     
  0.53125000000000000       0.37500000000000000        0.0000000000000000     
  0.56250000000000000       0.37500000000000000        0.0000000000000000     
  0.59375000000000000       0.37500000000000000        0.0000000000000000     
  0.62500000000000000       0.37500000000000000        0.0000000000000000     
  0.62500000000000000       0.25000000000000000        0.0000000000000000     
  0.65625000000000000       0.25000000000000000        0.0000000000000000     
  0.68750000000000000       0.25000000000000000        0.0000000000000000     
  0.71875000000000000       0.25000000000000000        0.0000000000000000     
  0.75000000000000000       0.25000000000000000        0.0000000000000000     
  0.62500000000000000       0.28125000000000000        0.0000000000000000     
  0.65625000000000000       0.28125000000000000        0.0000000000000000     
  0.68750000000000000       0.28125000000000000        0.0000000000000000     
  0.71875000000000000       0.28125000000000000        0.0000000000000000     
  0.75000000000000000       0.28125000000000000        0.0000000000000000     
  0.62500000000000000       0.31250000000000000        0.0000000000000000     
  0.65625000000000000       0.31250000000000000        0.0000000000000000     
  0.68750000000000000       0.31250000000000000        0.0000000000000000     
  0.71875000000000000       0.31250000000000000        0.0000000000000000     
  0.75000000000000000       0.31250000000000000        0.0000000000000000     
  0.62500000000000000       0.34375000000000000        0.0000000000000000     
  0.65625000000000000       0.34375000000000000        0.0000000000000000     
  0.68750000000000000       0.34375000000000000        0.0000000000000000     
  0.71875000000000000       0.34375000000000000        0.0000000000000000     
  0.75000000000000000       0.34375000000000000        0.0000000000000000     
  0.62500000000000000       0.37500000000000000        0.0000000000000000     
  0.65625000000000000       0.37500000000000000        0.0000000000000000     
  0.68750000000000000       0.37500000000000000        0.0000000000000000     
  0.71875000000000000       0.37500000000000000        0.0000000000000000     
  0.75000000000000000       0.37500000000000000        0.0000000000000000     
  0.75000000000000000       0.25000000000000000        0.0000000000000000     
  0.78125000000000000       0.25000000000000000        0.0000000000000000     
  0.81250000000000000       0.25000000000000000        0.0000000000000000     
  0.84375000000000000       0.25000000000000000        0.0000000000000000     
  0.87500000000000000       0.25000000000000000        0.0000000000000000     
  0.75000000000000000       0.28125000000000000        0.0000000000000000     
  0.78125000000000000       0.28125000000000000        0.0000000000000000     
  0.81250000000000000       0.28125000000000000        0.0000000000000000     
  0.84375000000000000       0.28125000000000000        0.0000000000000000     
  0.87500000000000000       0.28125000000000000        0.0000000000000000     
  0.75000000000000000       0.31250000000000000        0.0000000000000000     
  0.78125000000000000       0.31250000000000000        0.0000000000000000     
  0.81250000000000000       0.31250000000000000        0.0000000000000000     
  0.84375000000000000       0.31250000000000000        0.0000000000000000     
  0.87500000000000000       0.31250000000000000        0.0000000000000000     
  0.75000000000000000       0.34375000000000000        0.0000000000000000     
  0.78125000000000000       0.34375000000000000        0.0000000000000000     
  0.81250000000000000       0.34375000000000000        0.0000000000000000     
  0.84375000000000000       0.34375000000000000        0.0000000000000000     
  0.87500000000000000       0.34375000000000000        0.0000000000000000     
  0.75000000000000000       0.37500000000000000        0.0000000000000000     
  0.78125000000000000       0.37500000000000000        0.0000000000000000     
  0.81250000000000000       0.37500000000000000        0.0000000000000000     
  0.84375000000000000       0.37500000000000000        0.0000000000000000     
  0.87500000000000000       0.37500000000000000        0.0000000000000000     
  0.87500000000000000       0.25000000000000000        0.0000000000000000     
  0.90625000000000000       0.25000000000000000        0.0000000000000000     
  0.93750000000000000       0.25000000000000000        0.0000000000000000     
  0.96875000000000000       0.25000000000000000        0.0000000000000000     
   1.0000000000000000       0.25000000000000000        0.0000000000000000     
  0.87500000000000000       0.28125000000000000        0.0000000000000000     
  0.90625000000000000       0.28125000000000000        0.0000000000000000     
  0.93750000000000000       0.28125000000000000        0.0000000000000000     
  0.96875000000000000       0.28125000000000000        0.0000000000000000     
   1.0000000000000000       0.28125000000000000        0.0000000000000000     
  0.87500000000000000       0.31250000000000000        0.0000000000000000     
  0.90625000000000000       0.31250000000000000        0.0000000000000000     
  0.93750000000000000       0.31250000000000000        0.0000000000000000     
  0.96875000000000000       0.31250000000000000        0.0000000000000000     
   1.0000000000000000       0.31250000000000000        0.0000000000000000     
  0.87500000000000000       0.34375000000000000        0.0000000000000000     
  0.90625000000000000       0.34375000000000000        0.0000000000000000     
  0.93750000000000000       0.34375000000000000        0.0000000000000000     
  0.96875000000000000       0.34375000000000000        0.0000000000000000     
   1.0000000000000000       0.34375000000000000        0.0000000000000000     
  0.87500000000000000       0.37500000000000000        0.0000000000000000     
  0.90625000000000000       0.37500000000000000        0.0000000000000000     
  0.93750000000000000       0.37500000000000000        0.0000000000000000     
  0.96875000000000000       0.37500000000000000        0.0000000000000000     
   1.0000000000000000       0.37500000000000000        0.0000000000000000     
   0.0000000000000000       0.37500000000000000        0.0000000000000000     
   3.1250000000000000E-002  0.37500000000000000        0.0000000000000000     
   6.2500000000000000E-002  0.37500000000000000        0.0000000000000000     
   9.3750000000000000E-002  0.37500000000000000        0.0000000000000000     
  0.12500000000000000       0.37500000000000000        0.0000000000000000     
   0.0000000000000000       0.40625000000000000        0.0000000000000000     
   3.1250000000000000E-002  0.40625000000000000        0.0000000000000000     
   6.2500000000000000E-002  0.40625000000000000        0.0000000000000000     
   9.3750000000000000E-002  0.40625000000000000        0.0000000000000000     
  0.12500000000000000       0.40625000000000000        0.0000000000000000     
   0.0000000000000000       0.43750000000000000        0.0000000000000000     
   3.1250000000000000E-002  0.43750000000000000        0.0000000000000000     
   6.2500000000000000E-002  0.43750000000000000        0.0000000000000000     
   9.3750000000000000E-002  0.43750000000000000        0.0000000000000000     
  0.12500000000000000       0.43750000000000000        0.0000000000000000     
   0.0000000000000000       0.46875000000000000        0.0000000000000000     
   3.1250000000000000E-002  0.46875000000000000        0.0000000000000000     
   6.2500000000000000E-002  0.46875000000000000        0.0000000000000000     
   9.3750000000000000E-002  0.46875000000000000        0.0000000000000000     
  0.12500000000000000       0.46875000000000000        0.0000000000000000     
   0.0000000000000000       0.50000000000000000        0.0000000000000000     
   3.1250000000000000E-002  0.50000000000000000        0.0000000000000000     
   6.2500000000000000E-002  0.50000000000000000        0.0000000000000000     
   9.3750000000000000E-002  0.50000000000000000        0.0000000000000000     
  0.12500000000000000       0.50000000000000000        0.0000000000000000     
  0.12500000000000000       0.37500000000000000        0.0000000000000000     
  0.15625000000000000       0.37500000000000000        0.0000000000000000     
  0.18750000000000000       0.37500000000000000        0.0000000000000000     
  0.21875000000000000       0.37500000000000000        0.0000000000000000     
  0.25000000000000000       0.37500000000000000        0.0000000000000000     
  0.12500000000000000       0.40625000000000000        0.0000000000000000     
  0.15625000000000000       0.40625000000000000        0.0000000000000000     
  0.18750000000000000       0.40625000000000000        0.0000000000000000     
  0.21875000000000000       0.40625000000000000        0.0000000000000000     
  0.25000000000000000       0.40625000000000000        0.0000000000000000     
  0.12500000000000000       0.43750000000000000        0.0000000000000000     
  0.15625000000000000       0.43750000000000000        0.0000000000000000     
  0.18750000000000000       0.43750000000000000        0.0000000000000000     
  0.21875000000000000       0.43750000000000000        0.0000000000000000     
  0.25000000000000000       0.43750000000000000        0.0000000000000000     
  0.12500000000000000       0.46875000000000000        0.0000000000000000     
  0.15625000000000000       0.46875000000000000        0.0000000000000000     
  0.18750000000000000       0.46875000000000000        0.0000000000000000     
  0.21875000000000000       0.46875000000000000        0.0000000000000000     
  0.25000000000000000       0.46875000000000000        0.0000000000000000     
  0.12500000000000000       0.50000000000000000        0.0000000000000000     
  0.15625000000000000       0.50000000000000000        0.0000000000000000     
  0.18750000000000000       0.50000000000000000        0.0000000000000000     
  0.21875000000000000       0.50000000000000000        0.0000000000000000     
  0.25000000000000000       0.50000000000000000        0.0000000000000000     
  0.25000000000000000       0.37500000000000000        0.0000000000000000     
  0.28125000000000000       0.37500000000000000        0.0000000000000000     
  0.31250000000000000       0.37500000000000000        0.0000000000000000     
  0.34375000000000000       0.37500000000000000        0.0000000000000000     
  0.37500000000000000       0.37500000000000000        0.0000000000000000     
  0.25000000000000000       0.40625000000000000        0.0000000000000000     
  0.28125000000000000       0.40625000000000000        0.0000000000000000     
  0.31250000000000000       0.40625000000000000        0.0000000000000000     
  0.34375000000000000       0.40625000000000000        0.0000000000000000     
  0.37500000000000000       0.40625000000000000        0.0000000000000000     
  0.25000000000000000       0.43750000000000000        0.0000000000000000     
  0.28125000000000000       0.43750000000000000        0.0000000000000000     
  0.31250000000000000       0.43750000000000000        0.0000000000000000     
  0.34375000000000000       0.43750000000000000        0.0000000000000000     
  0.37500000000000000       0.43750000000000000        0.0000000000000000     
  0.25000000000000000       0.46875000000000000        0.0000000000000000     
  0.28125000000000000       0.46875000000000000        0.0000000000000000     
  0.31250000000000000       0.46875000000000000        0.0000000000000000     
  0.34375000000000000       0.46875000000000000        0.0000000000000000     
  0.37500000000000000       0.46875000000000000        0.0000000000000000     
  0.25000000000000000       0.50000000000000000        0.0000000000000000     
  0.28125000000000000       0.50000000000000000        0.0000000000000000     
  0.31250000000000000       0.50000000000000000        0.0000000000000000     
  0.34375000000000000       0.50000000000000000        0.0000000000000000     
  0.37500000000000000       0.50000000000000000        0.0000000000000000     
  0.37500000000000000       0.37500000000000000        0.0000000000000000     
  0.40625000000000000       0.37500000000000000        0.0000000000000000     
  0.43750000000000000       0.37500000000000000        0.0000000000000000     
  0.46875000000000000       0.37500000000000000        0.0000000000000000     
  0.50000000000000000       0.37500000000000000        0.0000000000000000     
  0.37500000000000000       0.40625000000000000        0.0000000000000000     
  0.40625000000000000       0.40625000000000000        0.0000000000000000     
  0.43750000000000000       0.40625000000000000        0.0000000000000000     
  0.46875000000000000       0.40625000000000000        0.0000000000000000     
  0.50000000000000000       0.40625000000000000        0.0000000000000000     
  0.37500000000000000       0.43750000000000000        0.0000000000000000     
  0.40625000000000000       0.43750000000000000        0.0000000000000000     
  0.43750000000000000       0.43750000000000000        0.0000000000000000     
  0.46875000000000000       0.43750000000000000        0.0000000000000000     
  0.50000000000000000       0.43750000000000000        0.0000000000000000     
  0.37500000000000000       0.46875000000000000        0.0000000000000000     
  0.40625000000000000       0.46875000000000000        0.0000000000000000     
  0.43750000000000000       0.46875000000000000        0.0000000000000000     
  0.46875000000000000       0.46875000000000000        0.0000000000000000     
  0.50000000000000000       0.46875000000000000        0.0000000000000000     
  0.37500000000000000       0.50000000000000000        0.0000000000000000     
  0.40625000000000000       0.50000000000000000        0.0000000000000000     
  0.43750000000000000       0.50000000000000000        0.0000000000000000     
  0.46875000000000000       0.50000000000000000        0.0000000000000000     
  0.50000000000000000       0.50000000000000000        0.0000000000000000     
  0.50000000000000000       0.37500000000000000        0.0000000000000000     
  0.53125000000000000       0.37500000000000000        0.0000000000000000     
  0.56250000000000000       0.37500000000000000        0.0000000000000000     
  0.59375000000000000       0.37500000000000000        0.0000000000000000     
  0.62500000000000000       0.37500000000000000        0.0000000000000000     
  0.50000000000000000       0.40625000000000000        0.0000000000000000     
  0.53125000000000000       0.40625000000000000        0.0000000000000000     
  0.56250000000000000       0.40625000000000000        0.0000000000000000     
  0.59375000000000000       0.40625000000000000        0.0000000000000000     
  0.62500000000000000       0.40625000000000000        0.0000000000000000     
  0.50000000000000000       0.43750000000000000        0.0000000000000000     
  0.53125000000000000       0.43750000000000000        0.0000000000000000     
  0.56250000000000000       0.43750000000000000        0.0000000000000000     
  0.59375000000000000       0.43750000000000000        0.0000000000000000     
  0.62500000000000000       0.43750000000000000        0.0000000000000000     
  0.50000000000000000       0.46875000000000000        0.0000000000000000     
  0.53125000000000000       0.46875000000000000        0.0000000000000000     
  0.56250000000000000       0.46875000000000000        0.0000000000000000     
  0.59375000000000000       0.46875000000000000        0.0000000000000000     
  0.62500000000000000       0.46875000000000000        0.0000000000000000     
  0.50000000000000000       0.50000000000000000        0.0000000000000000     
  0.53125000000000000       0.50000000000000000        0.0000000000000000     
  0.56250000000000000       0.50000000000000000        0.0000000000000000     
  0.59375000000000000       0.50000000000000000        0.0000000000000000     
  0.62500000000000000       0.50000000000000000        0.0000000000000000     
  0.62500000000000000       0.37500000000000000        0.0000000000000000     
  0.65625000000000000       0.37500000000000000        0.0000000000000000     
  0.68750000000000000       0.37500000000000000        0.0000000000000000     
  0.71875000000000000       0.37500000000000000        0.0000000000000000     
  0.75000000000000000       0.37500000000000000        0.0000000000000000     
  0.62500000000000000       0.40625000000000000        0.0000000000000000     
  0.65625000000000000       0.40625000000000000        0.0000000000000000     
  0.68750000000000000       0.40625000000000000        0.0000000000000000     
  0.71875000000000000       0.40625000000000000        0.0000000000000000     
  0.75000000000000000       0.40625000000000000        0.0000000000000000     
  0.62500000000000000       0.43750000000000000        0.0000000000000000     
  0.65625000000000000       0.43750000000000000        0.0000000000000000     
  0.68750000000000000       0.43750000000000000        0.0000000000000000     
  0.71875000000000000       0.43750000000000000        0.0000000000000000     
  0.75000000000000000       0.43750000000000000        0.0000000000000000     
  0.62500000000000000       0.46875000000000000        0.0000000000000000     
  0.65625000000000000       0.46875000000000000        0.0000000000000000     
  0.68750000000000000       0.46875000000000000        0.0000000000000000     
  0.71875000000000000       0.46875000000000000        0.0000000000000000     
  0.75000000000000000       0.46875000000000000        0.0000000000000000     
  0.62500000000000000       0.50000000000000000        0.0000000000000000     
  0.65625000000000000       0.50000000000000000        0.0000000000000000     
  0.68750000000000000       0.50000000000000000        0.0000000000000000     
  0.71875000000000000       0.50000000000000000        0.0000000000000000     
  0.75000000000000000       0.50000000000000000        0.0000000000000000     
  0.75000000000000000       0.37500000000000000        0.0000000000000000     
  0.78125000000000000       0.37500000000000000        0.0000000000000000     
  0.81250000000000000       0.37500000000000000        0.0000000000000000     
  0.84375000000000000       0.37500000000000000        0.0000000000000000     
  0.87500000000000000       0.37500000000000000        0.0000000000000000     
  0.75000000000000000       0.40625000000000000        0.0000000000000000     
  0.78125000000000000       0.40625000000000000        0.0000000000000000     
  0.81250000000000000       0.40625000000000000        0.0000000000000000     
  0.84375000000000000       0.40625000000000000        0.0000000000000000     
  0.87500000000000000       0.40625000000000000        0.0000000000000000     
  0.75000000000000000       0.43750000000000000        0.0000000000000000     
  0.78125000000000000       0.43750000000000000        0.0000000000000000     
  0.81250000000000000       0.43750000000000000        0.0000000000000000     
  0.84375000000000000       0.43750000000000000        0.0000000000000000     
  0.87500000000000000       0.43750000000000000        0.0000000000000000     
  0.75000000000000000       0.46875000000000000        0.0000000000000000     
  0.78125000000000000       0.46875000000000000        0.0000000000000000     
  0.81250000000000000       0.46875000000000000        0.0000000000000000     
  0.84375000000000000       0.46875000000000000        0.0000000000000000     
  0.87500000000000000       0.46875000000000000        0.0000000000000000     
  0.75000000000000000       0.50000000000000000        0.0000000000000000     
  0.78125000000000000       0.50000000000000000        0.0000000000000000     
  0.81250000000000000       0.50000000000000000        0.0000000000000000     
  0.84375000000000000       0.50000000000000000        0.0000000000000000     
  0.87500000000000000       0.50000000000000000        0.0000000000000000     
  0.87500000000000000       0.37500000000000000        0.0000000000000000     
  0.90625000000000000       0.37500000000000000        0.0000000000000000     
  0.93750000000000000       0.37500000000000000        0.0000000000000000     
  0.96875000000000000       0.37500000000000000        0.0000000000000000     
   1.0000000000000000       0.37500000000000000        0.0000000000000000     
  0.87500000000000000       0.40625000000000000        0.0000000000000000     
  0.90625000000000000       0.40625000000000000        0.0000000000000000     
  0.93750000000000000       0.40625000000000000        0.0000000000000000     
  0.96875000000000000       0.40625000000000000        0.0000000000000000     
   1.0000000000000000       0.40625000000000000        0.0000000000000000     
  0.87500000000000000       0.43750000000000000        0.0000000000000000     
  0.90625000000000000       0.43750000000000000        0.0000000000000000     
  0.93750000000000000       0.43750000000000000        0.0000000000000000     
  0.96875000000000000       0.43750000000000000        0.0000000000000000     
   1.0000000000000000       0.43750000000000000        0.0000000000000000     
  0.87500000000000000       0.46875000000000000        0.0000000000000000     
  0.90625000000000000       0.46875000000000000        0.0000000000000000     
  0.93750000000000000       0.46875000000000000        0.0000000000000000     
  0.96875000000000000       0.46875000000000000        0.0000000000000000     
   1.0000000000000000       0.46875000000000000        0.0000000000000000     
  0.87500000000000000       0.50000000000000000        0.0000000000000000     
  0.90625000000000000       0.50000000000000000        0.0000000000000000     
  0.93750000000000000       0.50000000000000000        0.0000000000000000     
  0.96875000000000000       0.50000000000000000        0.0000000000000000     
   1.0000000000000000       0.50000000000000000        0.0000000000000000     
   0.0000000000000000       0.50000000000000000        0.0000000000000000     
   3.1250000000000000E-002  0.50000000000000000        0.0000000000000000     
   6.2500000000000000E-002  0.50000000000000000        0.0000000000000000     
   9.3750000000000000E-002  0.50000000000000000        0.0000000000000000     
  0.12500000000000000       0.50000000000000000        0.0000000000000000     
   0.0000000000000000       0.53125000000000000        0.0000000000000000     
   3.1250000000000000E-002  0.53125000000000000        0.0000000000000000     
   6.2500000000000000E-002  0.53125000000000000        0.0000000000000000     
   9.3750000000000000E-002  0.53125000000000000        0.0000000000000000     
  0.12500000000000000       0.53125000000000000        0.0000000000000000     
   0.0000000000000000       0.56250000000000000        0.0000000000000000     
   3.1250000000000000E-002  0.56250000000000000        0.0000000000000000     
   6.2500000000000000E-002  0.56250000000000000        0.0000000000000000     
   9.3750000000000000E-002  0.56250000000000000        0.0000000000000000     
  0.12500000000000000       0.56250000000000000        0.0000000000000000     
   0.0000000000000000       0.59375000000000000        0.0000000000000000     
   3.1250000000000000E-002  0.59375000000000000        0.0000000000000000     
   6.2500000000000000E-002  0.59375000000000000        0.0000000000000000     
   9.3750000000000000E-002  0.59375000000000000        0.0000000000000000     
  0.12500000000000000       0.59375000000000000        0.0000000000000000     
   0.0000000000000000       0.62500000000000000        0.0000000000000000     
   3.1250000000000000E-002  0.62500000000000000        0.0000000000000000     
   6.2500000000000000E-002  0.62500000000000000        0.0000000000000000     
   9.3750000000000000E-002  0.62500000000000000        0.0000000000000000     
  0.12500000000000000       0.62500000000000000        0.0000000000000000     
  0.12500000000000000       0.50000000000000000        0.0000000000000000     
  0.15625000000000000       0.50000000000000000        0.0000000000000000     
  0.18750000000000000       0.50000000000000000        0.0000000000000000     
  0.21875000000000000       0.50000000000000000        0.0000000000000000     
  0.25000000000000000       0.50000000000000000        0.0000000000000000     
  0.12500000000000000       0.53125000000000000        0.0000000000000000     
  0.15625000000000000       0.53125000000000000        0.0000000000000000     
  0.18750000000000000       0.53125000000000000        0.0000000000000000     
  0.21875000000000000       0.53125000000000000        0.0000000000000000     
  0.25000000000000000       0.53125000000000000        0.0000000000000000     
  0.12500000000000000       0.56250000000000000        0.0000000000000000     
  0.15625000000000000       0.56250000000000000        0.0000000000000000     
  0.18750000000000000       0.56250000000000000        0.0000000000000000     
  0.21875000000000000       0.56250000000000000        0.0000000000000000     
  0.25000000000000000       0.56250000000000000        0.0000000000000000     
  0.12500000000000000       0.59375000000000000        0.0000000000000000     
  0.15625000000000000       0.59375000000000000        0.0000000000000000     
  0.18750000000000000       0.59375000000000000        0.0000000000000000     
  0.21875000000000000       0.59375000000000000        0.0000000000000000     
  0.25000000000000000       0.59375000000000000        0.0000000000000000     
  0.12500000000000000       0.62500000000000000        0.0000000000000000     
  0.15625000000000000       0.62500000000000000        0.0000000000000000     
  0.18750000000000000       0.62500000000000000        0.0000000000000000     
  0.21875000000000000       0.62500000000000000        0.0000000000000000     
  0.25000000000000000       0.62500000000000000        0.0000000000000000     
  0.25000000000000000       0.50000000000000000        0.0000000000000000     
  0.28125000000000000       0.50000000000000000        0.0000000000000000     
  0.31250000000000000       0.50000000000000000        0.0000000000000000     
  0.34375000000000000       0.50000000000000000        0.0000000000000000     
  0.37500000000000000       0.50000000000000000        0.0000000000000000     
  0.25000000000000000       0.53125000000000000        0.0000000000000000     
  0.28125000000000000       0.53125000000000000        0.0000000000000000     
  0.31250000000000000       0.53125000000000000        0.0000000000000000     
  0.34375000000000000       0.53125000000000000        0.0000000000000000     
  0.37500000000000000       0.53125000000000000        0.0000000000000000     
  0.25000000000000000       0.56250000000000000        0.0000000000000000     
  0.28125000000000000       0.56250000000000000        0.0000000000000000     
  0.31250000000000000       0.56250000000000000        0.0000000000000000     
  0.34375000000000000       0.56250000000000000        0.0000000000000000     
  0.37500000000000000       0.56250000000000000        0.0000000000000000     
  0.25000000000000000       0.59375000000000000        0.0000000000000000     
  0.28125000000000000       0.59375000000000000        0.0000000000000000     
  0.31250000000000000       0.59375000000000000        0.0000000000000000     
  0.34375000000000000       0.59375000000000000        0.0000000000000000     
  0.37500000000000000       0.59375000000000000        0.0000000000000000     
  0.25000000000000000       0.62500000000000000        0.0000000000000000     
  0.28125000000000000       0.62500000000000000        0.0000000000000000     
  0.31250000000000000       0.62500000000000000        0.0000000000000000     
  0.34375000000000000       0.62500000000000000        0.0000000000000000     
  0.37500000000000000       0.62500000000000000        0.0000000000000000     
  0.37500000000000000       0.50000000000000000        0.0000000000000000     
  0.40625000000000000       0.50000000000000000        0.0000000000000000     
  0.43750000000000000       0.50000000000000000        0.0000000000000000     
  0.46875000000000000       0.50000000000000000        0.0000000000000000     
  0.50000000000000000       0.50000000000000000        0.0000000000000000     
  0.37500000000000000       0.53125000000000000        0.0000000000000000     
  0.40625000000000000       0.53125000000000000        0.0000000000000000     
  0.43750000000000000       0.53125000000000000        0.0000000000000000     
  0.46875000000000000       0.53125000000000000        0.0000000000000000     
  0.50000000000000000       0.53125000000000000        0.0000000000000000     
  0.37500000000000000       0.56250000000000000        0.0000000000000000     
  0.40625000000000000       0.56250000000000000        0.0000000000000000     
  0.43750000000000000       0.56250000000000000        0.0000000000000000     
  0.46875000000000000       0.56250000000000000        0.0000000000000000     
  0.50000000000000000       0.56250000000000000        0.0000000000000000     
  0.37500000000000000       0.59375000000000000        0.0000000000000000     
  0.40625000000000000       0.59375000000000000        0.0000000000000000     
  0.43750000000000000       0.59375000000000000        0.0000000000000000     
  0.46875000000000000       0.59375000000000000        0.0000000000000000     
  0.50000000000000000       0.59375000000000000        0.0000000000000000     
  0.37500000000000000       0.62500000000000000        0.0000000000000000     
  0.40625000000000000       0.62500000000000000        0.0000000000000000     
  0.43750000000000000       0.62500000000000000        0.0000000000000000     
  0.46875000000000000       0.62500000000000000        0.0000000000000000     
  0.50000000000000000       0.62500000000000000        0.0000000000000000     
  0.50000000000000000       0.50000000000000000        0.0000000000000000     
  0.53125000000000000       0.50000000000000000        0.0000000000000000     
  0.56250000000000000       0.50000000000000000        0.0000000000000000     
  0.59375000000000000       0.50000000000000000        0.0000000000000000     
  0.62500000000000000       0.50000000000000000        0.0000000000000000     
  0.50000000000000000       0.53125000000000000        0.0000000000000000     
  0.53125000000000000       0.53125000000000000        0.0000000000000000     
  0.56250000000000000       0.53125000000000000        0.0000000000000000     
  0.59375000000000000       0.53125000000000000        0.0000000000000000     
  0.62500000000000000       0.53125000000000000        0.0000000000000000     
  0.50000000000000000       0.56250000000000000        0.0000000000000000     
  0.53125000000000000       0.56250000000000000        0.0000000000000000     
  0.56250000000000000       0.56250000000000000        0.0000000000000000     
  0.59375000000000000       0.56250000000000000        0.0000000000000000     
  0.62500000000000000       0.56250000000000000        0.0000000000000000     
  0.50000000000000000       0.59375000000000000        0.0000000000000000     
  0.53125000000000000       0.59375000000000000        0.0000000000000000     
  0.56250000000000000       0.59375000000000000        0.0000000000000000     
  0.59375000000000000       0.59375000000000000        0.0000000000000000     
  0.62500000000000000       0.59375000000000000        0.0000000000000000     
  0.50000000000000000       0.62500000000000000        0.0000000000000000     
  0.53125000000000000       0.62500000000000000        0.0000000000000000     
  0.56250000000000000       0.62500000000000000        0.0000000000000000     
  0.59375000000000000       0.62500000000000000        0.0000000000000000     
  0.62500000000000000       0.62500000000000000        0.0000000000000000     
  0.62500000000000000       0.50000000000000000        0.0000000000000000     
  0.65625000000000000       0.50000000000000000        0.0000000000000000     
  0.68750000000000000       0.50000000000000000        0.0000000000000000     
  0.71875000000000000       0.50000000000000000        0.0000000000000000     
  0.75000000000000000       0.50000000000000000        0.0000000000000000     
  0.62500000000000000       0.53125000000000000        0.0000000000000000     
  0.65625000000000000       0.53125000000000000        0.0000000000000000     
  0.68750000000000000       0.53125000000000000        0.0000000000000000     
  0.71875000000000000       0.53125000000000000        0.0000000000000000     
  0.75000000000000000       0.53125000000000000        0.0000000000000000     
  0.62500000000000000       0.56250000000000000        0.0000000000000000     
  0.65625000000000000       0.56250000000000000        0.0000000000000000     
  0.68750000000000000       0.56250000000000000        0.0000000000000000     
  0.71875000000000000       0.56250000000000000        0.0000000000000000     
  0.75000000000000000       0.56250000000000000        0.0000000000000000     
  0.62500000000000000       0.59375000000000000        0.0000000000000000     
  0.65625000000000000       0.59375000000000000        0.0000000000000000     
  0.68750000000000000       0.59375000000000000        0.0000000000000000     
  0.71875000000000000       0.59375000000000000        0.0000000000000000     
  0.75000000000000000       0.59375000000000000        0.0000000000000000     
  0.62500000000000000       0.62500000000000000        0.0000000000000000     
  0.65625000000000000       0.62500000000000000        0.0000000000000000     
  0.68750000000000000       0.62500000000000000        0.0000000000000000     
  0.71875000000000000       0.62500000000000000        0.0000000000000000     
  0.75000000000000000       0.62500000000000000        0.0000000000000000     
  0.75000000000000000       0.50000000000000000        0.0000000000000000     
  0.78125000000000000       0.50000000000000000        0.0000000000000000     
  0.81250000000000000       0.50000000000000000        0.0000000000000000     
  0.84375000000000000       0.50000000000000000        0.0000000000000000     
  0.87500000000000000       0.50000000000000000        0.0000000000000000     
  0.75000000000000000       0.53125000000000000        0.0000000000000000     
  0.78125000000000000       0.53125000000000000        0.0000000000000000     
  0.81250000000000000       0.53125000000000000        0.0000000000000000     
  0.84375000000000000       0.53125000000000000        0.0000000000000000     
  0.87500000000000000       0.53125000000000000        0.0000000000000000     
  0.75000000000000000       0.56250000000000000        0.0000000000000000     
  0.78125000000000000       0.56250000000000000        0.0000000000000000     
  0.81250000000000000       0.56250000000000000        0.0000000000000000     
  0.84375000000000000       0.56250000000000000        0.0000000000000000     
  0.87500000000000000       0.56250000000000000        0.0000000000000000     
  0.75000000000000000       0.59375000000000000        0.0000000000000000     
  0.78125000000000000       0.59375000000000000        0.0000000000000000     
  0.81250000000000000       0.59375000000000000        0.0000000000000000     
  0.84375000000000000       0.59375000000000000        0.0000000000000000     
  0.87500000000000000       0.59375000000000000        0.0000000000000000     
  0.75000000000000000       0.62500000000000000        0.0000000000000000     
  0.78125000000000000       0.62500000000000000        0.0000000000000000     
  0.81250000000000000       0.62500000000000000        0.0000000000000000     
  0.84375000000000000       0.62500000000000000        0.0000000000000000     
  0.87500000000000000       0.62500000000000000        0.0000000000000000     
  0.87500000000000000       0.50000000000000000        0.0000000000000000     
  0.90625000000000000       0.50000000000000000        0.0000000000000000     
  0.93750000000000000       0.50000000000000000        0.0000000000000000     
  0.96875000000000000       0.50000000000000000        0.0000000000000000     
   1.0000000000000000       0.50000000000000000        0.0000000000000000     
  0.87500000000000000       0.53125000000000000        0.0000000000000000     
  0.90625000000000000       0.53125000000000000        0.0000000000000000     
  0.93750000000000000       0.53125000000000000        0.0000000000000000     
  0.96875000000000000       0.53125000000000000        0.0000000000000000     
   1.0000000000000000       0.53125000000000000        0.0000000000000000     
  0.87500000000000000       0.56250000000000000        0.0000000000000000     
  0.90625000000000000       0.56250000000000000        0.0000000000000000     
  0.93750000000000000       0.56250000000000000        0.0000000000000000     
  0.96875000000000000       0.56250000000000000        0.0000000000000000     
   1.0000000000000000       0.56250000000000000        0.0000000000000000     
  0.87500000000000000       0.59375000000000000        0.0000000000000000     
  0.90625000000000000       0.59375000000000000        0.0000000000000000     
  0.93750000000000000       0.59375000000000000        0.0000000000000000     
  0.96875000000000000       0.59375000000000000        0.0000000000000000     
   1.0000000000000000       0.59375000000000000        0.0000000000000000     
  0.87500000000000000       0.62500000000000000        0.0000000000000000     
  0.90625000000000000       0.62500000000000000        0.0000000000000000     
  0.93750000000000000       0.62500000000000000        0.0000000000000000     
  0.96875000000000000       0.62500000000000000        0.0000000000000000     
   1.0000000000000000       0.62500000000000000        0.0000000000000000     
   0.0000000000000000       0.62500000000000000        0.0000000000000000     
   3.1250000000000000E-002  0.62500000000000000        0.0000000000000000     
   6.2500000000000000E-002  0.62500000000000000        0.0000000000000000     
   9.3750000000000000E-002  0.62500000000000000        0.0000000000000000     
  0.12500000000000000       0.62500000000000000        0.0000000000000000     
   0.0000000000000000       0.65625000000000000        0.0000000000000000     
   3.1250000000000000E-002  0.65625000000000000        0.0000000000000000     
   6.2500000000000000E-002  0.65625000000000000        0.0000000000000000     
   9.3750000000000000E-002  0.65625000000000000        0.0000000000000000     
  0.12500000000000000       0.65625000000000000        0.0000000000000000     
   0.0000000000000000       0.68750000000000000        0.0000000000000000     
   3.1250000000000000E-002  0.68750000000000000        0.0000000000000000     
   6.2500000000000000E-002  0.68750000000000000        0.0000000000000000     
   9.3750000000000000E-002  0.68750000000000000        0.0000000000000000     
  0.12500000000000000       0.68750000000000000        0.0000000000000000     
   0.0000000000000000       0.71875000000000000        0.0000000000000000     
   3.1250000000000000E-002  0.71875000000000000        0.0000000000000000     
   6.2500000000000000E-002  0.71875000000000000        0.0000000000000000     
   9.3750000000000000E-002  0.71875000000000000        0.0000000000000000     
  0.12500000000000000       0.71875000000000000        0.0000000000000000     
   0.0000000000000000       0.75000000000000000        0.0000000000000000     
   3.1250000000000000E-002  0.75000000000000000        0.0000000000000000     
   6.2500000000000000E-002  0.75000000000000000        0.0000000000000000     
   9.3750000000000000E-002  0.75000000000000000        0.0000000000000000     
  0.12500000000000000       0.75000000000000000        0.0000000000000000     
  0.12500000000000000       0.62500000000000000        0.0000000000000000     
  0.15625000000000000       0.62500000000000000        0.0000000000000000     
  0.18750000000000000       0.62500000000000000        0.0000000000000000     
  0.21875000000000000       0.62500000000000000        0.0000000000000000     
  0.25000000000000000       0.62500000000000000        0.0000000000000000     
  0.12500000000000000       0.65625000000000000        0.0000000000000000     
  0.15625000000000000       0.65625000000000000        0.0000000000000000     
  0.18750000000000000       0.65625000000000000        0.0000000000000000     
  0.21875000000000000       0.65625000000000000        0.0000000000000000     
  0.25000000000000000       0.65625000000000000        0.0000000000000000     
  0.12500000000000000       0.68750000000000000        0.0000000000000000     
  0.15625000000000000       0.68750000000000000        0.0000000000000000     
  0.18750000000000000       0.68750000000000000        0.0000000000000000     
  0.21875000000000000       0.68750000000000000        0.0000000000000000     
  0.25000000000000000       0.68750000000000000        0.0000000000000000     
  0.12500000000000000       0.71875000000000000        0.0000000000000000     
  0.15625000000000000       0.71875000000000000        0.0000000000000000     
  0.18750000000000000       0.71875000000000000        0.0000000000000000     
  0.21875000000000000       0.71875000000000000        0.0000000000000000     
  0.25000000000000000       0.71875000000000000        0.0000000000000000     
  0.12500000000000000       0.75000000000000000        0.0000000000000000     
  0.15625000000000000       0.75000000000000000        0.0000000000000000     
  0.18750000000000000       0.75000000000000000        0.0000000000000000     
  0.21875000000000000       0.75000000000000000        0.0000000000000000     
  0.25000000000000000       0.75000000000000000        0.0000000000000000     
  0.25000000000000000       0.62500000000000000        0.0000000000000000     
  0.28125000000000000       0.62500000000000000        0.0000000000000000     
  0.31250000000000000       0.62500000000000000        0.0000000000000000     
  0.34375000000000000       0.62500000000000000        0.0000000000000000     
  0.37500000000000000       0.62500000000000000        0.0000000000000000     
  0.25000000000000000       0.65625000000000000        0.0000000000000000     
  0.28125000000000000       0.65625000000000000        0.0000000000000000     
  0.31250000000000000       0.65625000000000000        0.0000000000000000     
  0.34375000000000000       0.65625000000000000        0.0000000000000000     
  0.37500000000000000       0.65625000000000000        0.0000000000000000     
  0.25000000000000000       0.68750000000000000        0.0000000000000000     
  0.28125000000000000       0.68750000000000000        0.0000000000000000     
  0.31250000000000000       0.68750000000000000        0.0000000000000000     
  0.34375000000000000       0.68750000000000000        0.0000000000000000     
  0.37500000000000000       0.68750000000000000        0.0000000000000000     
  0.25000000000000000       0.71875000000000000        0.0000000000000000     
  0.28125000000000000       0.71875000000000000        0.0000000000000000     
  0.31250000000000000       0.71875000000000000        0.0000000000000000     
  0.34375000000000000       0.71875000000000000        0.0000000000000000     
  0.37500000000000000       0.71875000000000000        0.0000000000000000     
  0.25000000000000000       0.75000000000000000        0.0000000000000000     
  0.28125000000000000       0.75000000000000000        0.0000000000000000     
  0.31250000000000000       0.75000000000000000        0.0000000000000000     
  0.34375000000000000       0.75000000000000000        0.0000000000000000     
  0.37500000000000000       0.75000000000000000        0.0000000000000000     
  0.37500000000000000       0.62500000000000000        0.0000000000000000     
  0.40625000000000000       0.62500000000000000        0.0000000000000000     
  0.43750000000000000       0.62500000000000000        0.0000000000000000     
  0.46875000000000000       0.62500000000000000        0.0000000000000000     
  0.50000000000000000       0.62500000000000000        0.0000000000000000     
  0.37500000000000000       0.65625000000000000        0.0000000000000000     
  0.40625000000000000       0.65625000000000000        0.0000000000000000     
  0.43750000000000000       0.65625000000000000        0.0000000000000000     
  0.46875000000000000       0.65625000000000000        0.0000000000000000     
  0.50000000000000000       0.65625000000000000        0.0000000000000000     
  0.37500000000000000       0.68750000000000000        0.0000000000000000     
  0.40625000000000000       0.68750000000000000        0.0000000000000000     
  0.43750000000000000       0.68750000000000000        0.0000000000000000     
  0.46875000000000000       0.68750000000000000        0.0000000000000000     
  0.50000000000000000       0.68750000000000000        0.0000000000000000     
  0.37500000000000000       0.71875000000000000        0.0000000000000000     
  0.40625000000000000       0.71875000000000000        0.0000000000000000     
  0.43750000000000000       0.71875000000000000        0.0000000000000000     
  0.46875000000000000       0.71875000000000000        0.0000000000000000     
  0.50000000000000000       0.71875000000000000        0.0000000000000000     
  0.37500000000000000       0.75000000000000000        0.0000000000000000     
  0.40625000000000000       0.75000000000000000        0.0000000000000000     
  0.43750000000000000       0.75000000000000000        0.0000000000000000     
  0.46875000000000000       0.75000000000000000        0.0000000000000000     
  0.50000000000000000       0.75000000000000000        0.0000000000000000     
  0.50000000000000000       0.62500000000000000        0.0000000000000000     
  0.53125000000000000       0.62500000000000000        0.0000000000000000     
  0.56250000000000000       0.62500000000000000        0.0000000000000000     
  0.59375000000000000       0.62500000000000000        0.0000000000000000     
  0.62500000000000000       0.62500000000000000        0.0000000000000000     
  0.50000000000000000       0.65625000000000000        0.0000000000000000     
  0.53125000000000000       0.65625000000000000        0.0000000000000000     
  0.56250000000000000       0.65625000000000000        0.0000000000000000     
  0.59375000000000000       0.65625000000000000        0.0000000000000000     
  0.62500000000000000       0.65625000000000000        0.0000000000000000     
  0.50000000000000000       0.68750000000000000        0.0000000000000000     
  0.53125000000000000       0.68750000000000000        0.0000000000000000     
  0.56250000000000000       0.68750000000000000        0.0000000000000000     
  0.59375000000000000       0.68750000000000000        0.0000000000000000     
  0.62500000000000000       0.68750000000000000        0.0000000000000000     
  0.50000000000000000       0.71875000000000000        0.0000000000000000     
  0.53125000000000000       0.71875000000000000        0.0000000000000000     
  0.56250000000000000       0.71875000000000000        0.0000000000000000     
  0.59375000000000000       0.71875000000000000        0.0000000000000000     
  0.62500000000000000       0.71875000000000000        0.0000000000000000     
  0.50000000000000000       0.75000000000000000        0.0000000000000000     
  0.53125000000000000       0.75000000000000000        0.0000000000000000     
  0.56250000000000000       0.75000000000000000        0.0000000000000000     
  0.59375000000000000       0.75000000000000000        0.0000000000000000     
  0.62500000000000000       0.75000000000000000        0.0000000000000000     
  0.62500000000000000       0.62500000000000000        0.0000000000000000     
  0.65625000000000000       0.62500000000000000        0.0000000000000000     
  0.68750000000000000       0.62500000000000000        0.0000000000000000     
  0.71875000000000000       0.62500000000000000        0.0000000000000000     
  0.75000000000000000       0.62500000000000000        0.0000000000000000     
  0.62500000000000000       0.65625000000000000        0.0000000000000000     
  0.65625000000000000       0.65625000000000000        0.0000000000000000     
  0.68750000000000000       0.65625000000000000        0.0000000000000000     
  0.71875000000000000       0.65625000000000000        0.0000000000000000     
  0.75000000000000000       0.65625000000000000        0.0000000000000000     
  0.62500000000000000       0.68750000000000000        0.0000000000000000     
  0.65625000000000000       0.68750000000000000        0.0000000000000000     
  0.68750000000000000       0.68750000000000000        0.0000000000000000     
  0.71875000000000000       0.68750000000000000        0.0000000000000000     
  0.75000000000000000       0.68750000000000000        0.0000000000000000     
  0.62500000000000000       0.71875000000000000        0.0000000000000000     
  0.65625000000000000       0.71875000000000000        0.0000000000000000     
  0.68750000000000000       0.71875000000000000        0.0000000000000000     
  0.71875000000000000       0.71875000000000000        0.0000000000000000     
  0.75000000000000000       0.71875000000000000        0.0000000000000000     
  0.62500000000000000       0.75000000000000000        0.0000000000000000     
  0.65625000000000000       0.75000000000000000        0.0000000000000000     
  0.68750000000000000       0.75000000000000000        0.0000000000000000     
  0.71875000000000000       0.75000000000000000        0.0000000000000000     
  0.75000000000000000       0.75000000000000000        0.0000000000000000     
  0.75000000000000000       0.62500000000000000        0.0000000000000000     
  0.78125000000000000       0.62500000000000000        0.0000000000000000     
  0.81250000000000000       0.62500000000000000        0.0000000000000000     
  0.84375000000000000       0.62500000000000000        0.0000000000000000     
  0.87500000000000000       0.62500000000000000        0.0000000000000000     
  0.75000000000000000       0.65625000000000000        0.0000000000000000     
  0.78125000000000000       0.65625000000000000        0.0000000000000000     
  0.81250000000000000       0.65625000000000000        0.0000000000000000     
  0.84375000000000000       0.65625000000000000        0.0000000000000000     
  0.87500000000000000       0.65625000000000000        0.0000000000000000     
  0.75000000000000000       0.68750000000000000        0.0000000000000000     
  0.78125000000000000       0.68750000000000000        0.0000000000000000     
  0.81250000000000000       0.68750000000000000        0.0000000000000000     
  0.84375000000000000       0.68750000000000000        0.0000000000000000     
  0.87500000000000000       0.68750000000000000        0.0000000000000000     
  0.75000000000000000       0.71875000000000000        0.0000000000000000     
  0.78125000000000000       0.71875000000000000        0.0000000000000000     
  0.81250000000000000       0.71875000000000000        0.0000000000000000     
  0.84375000000000000       0.71875000000000000        0.0000000000000000     
  0.87500000000000000       0.71875000000000000        0.0000000000000000     
  0.75000000000000000       0.75000000000000000        0.0000000000000000     
  0.78125000000000000       0.75000000000000000        0.0000000000000000     
  0.81250000000000000       0.75000000000000000        0.0000000000000000     
  0.84375000000000000       0.75000000000000000        0.0000000000000000     
  0.87500000000000000       0.75000000000000000        0.0000000000000000     
  0.87500000000000000       0.62500000000000000        0.0000000000000000     
  0.90625000000000000       0.62500000000000000        0.0000000000000000     
  0.93750000000000000       0.62500000000000000        0.0000000000000000     
  0.96875000000000000       0.62500000000000000        0.0000000000000000     
   1.0000000000000000       0.62500000000000000        0.0000000000000000     
  0.87500000000000000       0.65625000000000000        0.0000000000000000     
  0.90625000000000000       0.65625000000000000        0.0000000000000000     
  0.93750000000000000       0.65625000000000000        0.0000000000000000     
  0.96875000000000000       0.65625000000000000        0.0000000000000000     
   1.0000000000000000       0.65625000000000000        0.0000000000000000     
  0.87500000000000000       0.68750000000000000        0.0000000000000000     
  0.90625000000000000       0.68750000000000000        0.0000000000000000     
  0.93750000000000000       0.68750000000000000        0.0000000000000000     
  0.96875000000000000       0.68750000000000000        0.0000000000000000     
   1.0000000000000000       0.68750000000000000        0.0000000000000000     
  0.87500000000000000       0.71875000000000000        0.0000000000000000     
  0.90625000000000000       0.71875000000000000        0.0000000000000000     
  0.93750000000000000       0.71875000000000000        0.0000000000000000     
  0.96875000000000000       0.71875000000000000        0.0000000000000000     
   1.0000000000000000       0.71875000000000000        0.0000000000000000     
  0.87500000000000000       0.75000000000000000        0.0000000000000000     
  0.90625000000000000       0.75000000000000000        0.0000000000000000     
  0.93750000000000000       0.75000000000000000        0.0000000000000000     
  0.96875000000000000       0.75000000000000000        0.0000000000000000     
   1.0000000000000000       0.75000000000000000        0.0000000000000000     
   0.0000000000000000       0.75000000000000000        0.0000000000000000     
   3.1250000000000000E-002  0.75000000000000000        0.0000000000000000     
   6.2500000000000000E-002  0.75000000000000000        0.0000000000000000     
   9.3750000000000000E-002  0.75000000000000000        0.0000000000000000     
  0.12500000000000000       0.75000000000000000        0.0000000000000000     
   0.0000000000000000       0.78125000000000000        0.0000000000000000     
   3.1250000000000000E-002  0.78125000000000000        0.0000000000000000     
   6.2500000000000000E-002  0.78125000000000000        0.0000000000000000     
   9.3750000000000000E-002  0.78125000000000000        0.0000000000000000     
  0.12500000000000000       0.78125000000000000        0.0000000000000000     
   0.0000000000000000       0.81250000000000000        0.0000000000000000     
   3.1250000000000000E-002  0.81250000000000000        0.0000000000000000     
   6.2500000000000000E-002  0.81250000000000000        0.0000000000000000     
   9.3750000000000000E-002  0.81250000000000000        0.0000000000000000     
  0.12500000000000000       0.81250000000000000        0.0000000000000000     
   0.0000000000000000       0.84375000000000000        0.0000000000000000     
   3.1250000000000000E-002  0.84375000000000000        0.0000000000000000     
   6.2500000000000000E-002  0.84375000000000000        0.0000000000000000     
   9.3750000000000000E-002  0.84375000000000000        0.0000000000000000     
  0.12500000000000000       0.84375000000000000        0.0000000000000000     
   0.0000000000000000       0.87500000000000000        0.0000000000000000     
   3.1250000000000000E-002  0.87500000000000000        0.0000000000000000     
   6.2500000000000000E-002  0.87500000000000000        0.0000000000000000     
   9.3750000000000000E-002  0.87500000000000000        0.0000000000000000     
  0.12500000000000000       0.87500000000000000        0.0000000000000000     
  0.12500000000000000       0.75000000000000000        0.0000000000000000     
  0.15625000000000000       0.75000000000000000        0.0000000000000000     
  0.18750000000000000       0.75000000000000000        0.0000000000000000     
  0.21875000000000000       0.75000000000000000        0.0000000000000000     
  0.25000000000000000       0.75000000000000000        0.0000000000000000     
  0.12500000000000000       0.78125000000000000        0.0000000000000000     
  0.15625000000000000       0.78125000000000000        0.0000000000000000     
  0.18750000000000000       0.78125000000000000        0.0000000000000000     
  0.21875000000000000       0.78125000000000000        0.0000000000000000     
  0.25000000000000000       0.78125000000000000        0.0000000000000000     
  0.12500000000000000       0.81250000000000000        0.0000000000000000     
  0.15625000000000000       0.81250000000000000        0.0000000000000000     
  0.18750000000000000       0.81250000000000000        0.0000000000000000     
  0.21875000000000000       0.81250000000000000        0.0000000000000000     
  0.25000000000000000       0.81250000000000000        0.0000000000000000     
  0.12500000000000000       0.84375000000000000        0.0000000000000000     
  0.15625000000000000       0.84375000000000000        0.0000000000000000     
  0.18750000000000000       0.84375000000000000        0.0000000000000000     
  0.21875000000000000       0.84375000000000000        0.0000000000000000     
  0.25000000000000000       0.84375000000000000        0.0000000000000000     
  0.12500000000000000       0.87500000000000000        0.0000000000000000     
  0.15625000000000000       0.87500000000000000        0.0000000000000000     
  0.18750000000000000       0.87500000000000000        0.0000000000000000     
  0.21875000000000000       0.87500000000000000        0.0000000000000000     
  0.25000000000000000       0.87500000000000000        0.0000000000000000     
  0.25000000000000000       0.75000000000000000        0.0000000000000000     
  0.28125000000000000       0.75000000000000000        0.0000000000000000     
  0.31250000000000000       0.75000000000000000        0.0000000000000000     
  0.34375000000000000       0.75000000000000000        0.0000000000000000     
  0.37500000000000000       0.75000000000000000        0.0000000000000000     
  0.25000000000000000       0.78125000000000000        0.0000000000000000     
  0.28125000000000000       0.78125000000000000        0.0000000000000000     
  0.31250000000000000       0.78125000000000000        0.0000000000000000     
  0.34375000000000000       0.78125000000000000        0.0000000000000000     
  0.37500000000000000       0.78125000000000000        0.0000000000000000     
  0.25000000000000000       0.81250000000000000        0.0000000000000000     
  0.28125000000000000       0.81250000000000000        0.0000000000000000     
  0.31250000000000000       0.81250000000000000        0.0000000000000000     
  0.34375000000000000       0.81250000000000000        0.0000000000000000     
  0.37500000000000000       0.81250000000000000        0.0000000000000000     
  0.25000000000000000       0.84375000000000000        0.0000000000000000     
  0.28125000000000000       0.84375000000000000        0.0000000000000000     
  0.31250000000000000       0.84375000000000000        0.0000000000000000     
  0.34375000000000000       0.84375000000000000        0.0000000000000000     
  0.37500000000000000       0.84375000000000000        0.0000000000000000     
  0.25000000000000000       0.87500000000000000        0.0000000000000000     
  0.28125000000000000       0.87500000000000000        0.0000000000000000     
  0.31250000000000000       0.87500000000000000        0.0000000000000000     
  0.34375000000000000       0.87500000000000000        0.0000000000000000     
  0.37500000000000000       0.87500000000000000        0.0000000000000000     
  0.37500000000000000       0.75000000000000000        0.0000000000000000     
  0.40625000000000000       0.75000000000000000        0.0000000000000000     
  0.43750000000000000       0.75000000000000000        0.0000000000000000     
  0.46875000000000000       0.75000000000000000        0.0000000000000000     
  0.50000000000000000       0.75000000000000000        0.0000000000000000     
  0.37500000000000000       0.78125000000000000        0.0000000000000000     
  0.40625000000000000       0.78125000000000000        0.0000000000000000     
  0.43750000000000000       0.78125000000000000        0.0000000000000000     
  0.46875000000000000       0.78125000000000000        0.0000000000000000     
  0.50000000000000000       0.78125000000000000        0.0000000000000000     
  0.37500000000000000       0.81250000000000000        0.0000000000000000     
  0.40625000000000000       0.81250000000000000        0.0000000000000000     
  0.43750000000000000       0.81250000000000000        0.0000000000000000     
  0.46875000000000000       0.81250000000000000        0.0000000000000000     
  0.50000000000000000       0.81250000000000000        0.0000000000000000     
  0.37500000000000000       0.84375000000000000        0.0000000000000000     
  0.40625000000000000       0.84375000000000000        0.0000000000000000     
  0.43750000000000000       0.84375000000000000        0.0000000000000000     
  0.46875000000000000       0.84375000000000000        0.0000000000000000     
  0.50000000000000000       0.84375000000000000        0.0000000000000000     
  0.37500000000000000       0.87500000000000000        0.0000000000000000     
  0.40625000000000000       0.87500000000000000        0.0000000000000000     
  0.43750000000000000       0.87500000000000000        0.0000000000000000     
  0.46875000000000000       0.87500000000000000        0.0000000000000000     
  0.50000000000000000       0.87500000000000000        0.0000000000000000     
  0.50000000000000000       0.75000000000000000        0.0000000000000000     
  0.53125000000000000       0.75000000000000000        0.0000000000000000     
  0.56250000000000000       0.75000000000000000        0.0000000000000000     
  0.59375000000000000       0.75000000000000000        0.0000000000000000     
  0.62500000000000000       0.75000000000000000        0.0000000000000000     
  0.50000000000000000       0.78125000000000000        0.0000000000000000     
  0.53125000000000000       0.78125000000000000        0.0000000000000000     
  0.56250000000000000       0.78125000000000000        0.0000000000000000     
  0.59375000000000000       0.78125000000000000        0.0000000000000000     
  0.62500000000000000       0.78125000000000000        0.0000000000000000     
  0.50000000000000000       0.81250000000000000        0.0000000000000000     
  0.53125000000000000       0.81250000000000000        0.0000000000000000     
  0.56250000000000000       0.81250000000000000        0.0000000000000000     
  0.59375000000000000       0.81250000000000000        0.0000000000000000     
  0.62500000000000000       0.81250000000000000        0.0000000000000000     
  0.50000000000000000       0.84375000000000000        0.0000000000000000     
  0.53125000000000000       0.84375000000000000        0.0000000000000000     
  0.56250000000000000       0.84375000000000000        0.0000000000000000     
  0.59375000000000000       0.84375000000000000        0.0000000000000000     
  0.62500000000000000       0.84375000000000000        0.0000000000000000     
  0.50000000000000000       0.87500000000000000        0.0000000000000000     
  0.53125000000000000       0.87500000000000000        0.0000000000000000     
  0.56250000000000000       0.87500000000000000        0.0000000000000000     
  0.59375000000000000       0.87500000000000000        0.0000000000000000     
  0.62500000000000000       0.87500000000000000        0.0000000000000000     
  0.62500000000000000       0.75000000000000000        0.0000000000000000     
  0.65625000000000000       0.75000000000000000        0.0000000000000000     
  0.68750000000000000       0.75000000000000000        0.0000000000000000     
  0.71875000000000000       0.75000000000000000        0.0000000000000000     
  0.75000000000000000       0.75000000000000000        0.0000000000000000     
  0.62500000000000000       0.78125000000000000        0.0000000000000000     
  0.65625000000000000       0.78125000000000000        0.0000000000000000     
  0.68750000000000000       0.78125000000000000        0.0000000000000000     
  0.71875000000000000       0.78125000000000000        0.0000000000000000     
  0.75000000000000000       0.78125000000000000        0.0000000000000000     
  0.62500000000000000       0.81250000000000000        0.0000000000000000     
  0.65625000000000000       0.81250000000000000        0.0000000000000000     
  0.68750000000000000       0.81250000000000000        0.0000000000000000     
  0.71875000000000000       0.81250000000000000        0.0000000000000000     
  0.75000000000000000       0.81250000000000000        0.0000000000000000     
  0.62500000000000000       0.84375000000000000        0.0000000000000000     
  0.65625000000000000       0.84375000000000000        0.0000000000000000     
  0.68750000000000000       0.84375000000000000        0.0000000000000000     
  0.71875000000000000       0.84375000000000000        0.0000000000000000     
  0.75000000000000000       0.84375000000000000        0.0000000000000000     
  0.62500000000000000       0.87500000000000000        0.0000000000000000     
  0.65625000000000000       0.87500000000000000        0.0000000000000000     
  0.68750000000000000       0.87500000000000000        0.0000000000000000     
  0.71875000000000000       0.87500000000000000        0.0000000000000000     
  0.75000000000000000       0.87500000000000000        0.0000000000000000     
  0.75000000000000000       0.75000000000000000        0.0000000000000000     
  0.78125000000000000       0.75000000000000000        0.0000000000000000     
  0.81250000000000000       0.75000000000000000        0.0000000000000000     
  0.84375000000000000       0.75000000000000000        0.0000000000000000     
  0.87500000000000000       0.75000000000000000        0.0000000000000000     
  0.75000000000000000       0.78125000000000000        0.0000000000000000     
  0.78125000000000000       0.78125000000000000        0.0000000000000000     
  0.81250000000000000       0.78125000000000000        0.0000000000000000     
  0.84375000000000000       0.78125000000000000        0.0000000000000000     
  0.87500000000000000       0.78125000000000000        0.0000000000000000     
  0.75000000000000000       0.81250000000000000        0.0000000000000000     
  0.78125000000000000       0.81250000000000000        0.0000000000000000     
  0.81250000000000000       0.81250000000000000        0.0000000000000000     
  0.84375000000000000       0.81250000000000000        0.0000000000000000     
  0.87500000000000000       0.81250000000000000        0.0000000000000000     
  0.75000000000000000       0.84375000000000000        0.0000000000000000     
  0.78125000000000000       0.84375000000000000        0.0000000000000000     
  0.81250000000000000       0.84375000000000000        0.0000000000000000     
  0.84375000000000000       0.84375000000000000        0.0000000000000000     
  0.87500000000000000       0.84375000000000000        0.0000000000000000     
  0.75000000000000000       0.87500000000000000        0.0000000000000000     
  0.78125000000000000       0.87500000000000000        0.0000000000000000     
  0.81250000000000000       0.87500000000000000        0.0000000000000000     
  0.84375000000000000       0.87500000000000000        0.0000000000000000     
  0.87500000000000000       0.87500000000000000        0.0000000000000000     
  0.87500000000000000       0.75000000000000000        0.0000000000000000     
  0.90625000000000000       0.75000000000000000        0.0000000000000000     
  0.93750000000000000       0.75000000000000000        0.0000000000000000     
  0.96875000000000000       0.75000000000000000        0.0000000000000000     
   1.0000000000000000       0.75000000000000000        0.0000000000000000     
  0.87500000000000000       0.78125000000000000        0.0000000000000000     
  0.90625000000000000       0.78125000000000000        0.0000000000000000     
  0.93750000000000000       0.78125000000000000        0.0000000000000000     
  0.96875000000000000       0.78125000000000000        0.0000000000000000     
   1.0000000000000000       0.78125000000000000        0.0000000000000000     
  0.87500000000000000       0.81250000000000000        0.0000000000000000     
  0.90625000000000000       0.81250000000000000        0.0000000000000000     
  0.93750000000000000       0.81250000000000000        0.0000000000000000     
  0.96875000000000000       0.81250000000000000        0.0000000000000000     
   1.0000000000000000       0.81250000000000000        0.0000000000000000     
  0.87500000000000000       0.84375000000000000        0.0000000000000000     
  0.90625000000000000       0.84375000000000000        0.0000000000000000     
  0.93750000000000000       0.84375000000000000        0.0000000000000000     
  0.96875000000000000       0.84375000000000000        0.0000000000000000     
   1.0000000000000000       0.84375000000000000        0.0000000000000000     
  0.87500000000000000       0.87500000000000000        0.0000000000000000     
  0.90625000000000000       0.87500000000000000        0.0000000000000000     
  0.93750000000000000       0.87500000000000000        0.0000000000000000     
  0.96875000000000000       0.87500000000000000        0.0000000000000000     
   1.0000000000000000       0.87500000000000000        0.0000000000000000     
   0.0000000000000000       0.87500000000000000        0.0000000000000000     
   3.1250000000000000E-002  0.87500000000000000        0.0000000000000000     
   6.2500000000000000E-002  0.87500000000000000        0.0000000000000000     
   9.3750000000000000E-002  0.87500000000000000        0.0000000000000000     
  0.12500000000000000       0.87500000000000000        0.0000000000000000     
   0.0000000000000000       0.90625000000000000        0.0000000000000000     
   3.1250000000000000E-002  0.90625000000000000        0.0000000000000000     
   6.2500000000000000E-002  0.90625000000000000        0.0000000000000000     
   9.3750000000000000E-002  0.90625000000000000        0.0000000000000000     
  0.12500000000000000       0.90625000000000000        0.0000000000000000     
   0.0000000000000000       0.93750000000000000        0.0000000000000000     
   3.1250000000000000E-002  0.93750000000000000        0.0000000000000000     
   6.2500000000000000E-002  0.93750000000000000        0.0000000000000000     
   9.3750000000000000E-002  0.93750000000000000        0.0000000000000000     
  0.12500000000000000       0.93750000000000000        0.0000000000000000     
   0.0000000000000000       0.96875000000000000        0.0000000000000000     
   3.1250000000000000E-002  0.96875000000000000        0.0000000000000000     
   6.2500000000000000E-002  0.96875000000000000        0.0000000000000000     
   9.3750000000000000E-002  0.96875000000000000        0.0000000000000000     
  0.12500000000000000       0.96875000000000000        0.0000000000000000     
   0.0000000000000000        1.0000000000000000        0.0000000000000000     
   3.1250000000000000E-002   1.0000000000000000        0.0000000000000000     
   6.2500000000000000E-002   1.0000000000000000        0.0000000000000000     
   9.3750000000000000E-002   1.0000000000000000        0.0000000000000000     
  0.12500000000000000        1.0000000000000000        0.0000000000000000     
  0.12500000000000000       0.87500000000000000        0.0000000000000000     
  0.15625000000000000       0.87500000000000000        0.0000000000000000     
  0.18750000000000000       0.87500000000000000        0.0000000000000000     
  0.21875000000000000       0.87500000000000000        0.0000000000000000     
  0.25000000000000000       0.87500000000000000        0.0000000000000000     
  0.12500000000000000       0.90625000000000000        0.0000000000000000     
  0.15625000000000000       0.90625000000000000        0.0000000000000000     
  0.18750000000000000       0.90625000000000000        0.0000000000000000     
  0.21875000000000000       0.90625000000000000        0.0000000000000000     
  0.25000000000000000       0.90625000000000000        0.0000000000000000     
  0.12500000000000000       0.93750000000000000        0.0000000000000000     
  0.15625000000000000       0.93750000000000000        0.0000000000000000     
  0.18750000000000000       0.93750000000000000        0.0000000000000000     
  0.21875000000000000       0.93750000000000000        0.0000000000000000     
  0.25000000000000000       0.93750000000000000        0.0000000000000000     
  0.12500000000000000       0.96875000000000000        0.0000000000000000     
  0.15625000000000000       0.96875000000000000        0.0000000000000000     
  0.18750000000000000       0.96875000000000000        0.0000000000000000     
  0.21875000000000000       0.96875000000000000        0.0000000000000000     
  0.25000000000000000       0.96875000000000000        0.0000000000000000     
  0.12500000000000000        1.0000000000000000        0.0000000000000000     
  0.15625000000000000        1.0000000000000000        0.0000000000000000     
  0.18750000000000000        1.0000000000000000        0.0000000000000000     
  0.21875000000000000        1.0000000000000000        0.0000000000000000     
  0.25000000000000000        1.0000000000000000        0.0000000000000000     
  0.25000000000000000       0.87500000000000000        0.0000000000000000     
  0.28125000000000000       0.87500000000000000        0.0000000000000000     
  0.31250000000000000       0.87500000000000000        0.0000000000000000     
  0.34375000000000000       0.87500000000000000        0.0000000000000000     
  0.37500000000000000       0.87500000000000000        0.0000000000000000     
  0.25000000000000000       0.90625000000000000        0.0000000000000000     
  0.28125000000000000       0.90625000000000000        0.0000000000000000     
  0.31250000000000000       0.90625000000000000        0.0000000000000000     
  0.34375000000000000       0.90625000000000000        0.0000000000000000     
  0.37500000000000000       0.90625000000000000        0.0000000000000000     
  0.25000000000000000       0.93750000000000000        0.0000000000000000     
  0.28125000000000000       0.93750000000000000        0.0000000000000000     
  0.31250000000000000       0.93750000000000000        0.0000000000000000     
  0.34375000000000000       0.93750000000000000        0.0000000000000000     
  0.37500000000000000       0.93750000000000000        0.0000000000000000     
  0.25000000000000000       0.96875000000000000        0.0000000000000000     
  0.28125000000000000       0.96875000000000000        0.0000000000000000     
  0.31250000000000000       0.96875000000000000        0.0000000000000000     
  0.34375000000000000       0.96875000000000000        0.0000000000000000     
  0.37500000000000000       0.96875000000000000        0.0000000000000000     
  0.25000000000000000        1.0000000000000000        0.0000000000000000     
  0.28125000000000000        1.0000000000000000        0.0000000000000000     
  0.31250000000000000        1.0000000000000000        0.0000000000000000     
  0.34375000000000000        1.0000000000000000        0.0000000000000000     
  0.37500000000000000        1.0000000000000000        0.0000000000000000     
  0.37500000000000000       0.87500000000000000        0.0000000000000000     
  0.40625000000000000       0.87500000000000000        0.0000000000000000     
  0.43750000000000000       0.87500000000000000        0.0000000000000000     
  0.46875000000000000       0.87500000000000000        0.0000000000000000     
  0.50000000000000000       0.87500000000000000        0.0000000000000000     
  0.37500000000000000       0.90625000000000000        0.0000000000000000     
  0.40625000000000000       0.90625000000000000        0.0000000000000000     
  0.43750000000000000       0.90625000000000000        0.0000000000000000     
  0.46875000000000000       0.90625000000000000        0.0000000000000000     
  0.50000000000000000       0.90625000000000000        0.0000000000000000     
  0.37500000000000000       0.93750000000000000        0.0000000000000000     
  0.40625000000000000       0.93750000000000000        0.0000000000000000     
  0.43750000000000000       0.93750000000000000        0.0000000000000000     
  0.46875000000000000       0.93750000000000000        0.0000000000000000     
  0.50000000000000000       0.93750000000000000        0.0000000000000000     
  0.37500000000000000       0.96875000000000000        0.0000000000000000     
  0.40625000000000000       0.96875000000000000        0.0000000000000000     
  0.43750000000000000       0.96875000000000000        0.0000000000000000     
  0.46875000000000000       0.96875000000000000        0.0000000000000000     
  0.50000000000000000       0.96875000000000000        0.0000000000000000     
  0.37500000000000000        1.0000000000000000        0.0000000000000000     
  0.40625000000000000        1.0000000000000000        0.0000000000000000     
  0.43750000000000000        1.0000000000000000        0.0000000000000000     
  0.46875000000000000        1.0000000000000000        0.0000000000000000     
  0.50000000000000000        1.0000000000000000        0.0000000000000000     
  0.50000000000000000       0.87500000000000000        0.0000000000000000     
  0.53125000000000000       0.87500000000000000        0.0000000000000000     
  0.56250000000000000       0.87500000000000000        0.0000000000000000     
  0.59375000000000000       0.87500000000000000        0.0000000000000000     
  0.62500000000000000       0.87500000000000000        0.0000000000000000     
  0.50000000000000000       0.90625000000000000        0.0000000000000000     
  0.53125000000000000       0.90625000000000000        0.0000000000000000     
  0.56250000000000000       0.90625000000000000        0.0000000000000000     
  0.59375000000000000       0.90625000000000000        0.0000000000000000     
  0.62500000000000000       0.90625000000000000        0.0000000000000000     
  0.50000000000000000       0.93750000000000000        0.0000000000000000     
  0.53125000000000000       0.93750000000000000        0.0000000000000000     
  0.56250000000000000       0.93750000000000000        0.0000000000000000     
  0.59375000000000000       0.93750000000000000        0.0000000000000000     
  0.62500000000000000       0.93750000000000000        0.0000000000000000     
  0.50000000000000000       0.96875000000000000        0.0000000000000000     
  0.53125000000000000       0.96875000000000000        0.0000000000000000     
  0.56250000000000000       0.96875000000000000        0.0000000000000000     
  0.59375000000000000       0.96875000000000000        0.0000000000000000     
  0.62500000000000000       0.96875000000000000        0.0000000000000000     
  0.50000000000000000        1.0000000000000000        0.0000000000000000     
  0.53125000000000000        1.0000000000000000        0.0000000000000000     
  0.56250000000000000        1.0000000000000000        0.0000000000000000     
  0.59375000000000000        1.0000000000000000        0.0000000000000000     
  0.62500000000000000        1.0000000000000000        0.0000000000000000     
  0.62500000000000000       0.87500000000000000        0.0000000000000000     
  0.65625000000000000       0.87500000000000000        0.0000000000000000     
  0.68750000000000000       0.87500000000000000        0.0000000000000000     
  0.71875000000000000       0.87500000000000000        0.0000000000000000     
  0.75000000000000000       0.87500000000000000        0.0000000000000000     
  0.62500000000000000       0.90625000000000000        0.0000000000000000     
  0.65625000000000000       0.90625000000000000        0.0000000000000000     
  0.68750000000000000       0.90625000000000000        0.0000000000000000     
  0.71875000000000000       0.90625000000000000        0.0000000000000000     
  0.75000000000000000       0.90625000000000000        0.0000000000000000     
  0.62500000000000000       0.93750000000000000        0.0000000000000000     
  0.65625000000000000       0.93750000000000000        0.0000000000000000     
  0.68750000000000000       0.93750000000000000        0.0000000000000000     
  0.71875000000000000       0.93750000000000000        0.0000000000000000     
  0.75000000000000000       0.93750000000000000        0.0000000000000000     
  0.62500000000000000       0.96875000000000000        0.0000000000000000     
  0.65625000000000000       0.96875000000000000        0.0000000000000000     
  0.68750000000000000       0.96875000000000000        0.0000000000000000     
  0.71875000000000000       0.96875000000000000        0.0000000000000000     
  0.75000000000000000       0.96875000000000000        0.0000000000000000     
  0.62500000000000000        1.0000000000000000        0.0000000000000000     
  0.65625000000000000        1.0000000000000000        0.0000000000000000     
  0.68750000000000000        1.0000000000000000        0.0000000000000000     
  0.71875000000000000        1.0000000000000000        0.0000000000000000     
  0.75000000000000000        1.0000000000000000        0.0000000000000000     
  0.75000000000000000       0.87500000000000000        0.0000000000000000     
  0.78125000000000000       0.87500000000000000        0.0000000000000000     
  0.81250000000000000       0.87500000000000000        0.0000000000000000     
  0.84375000000000000       0.87500000000000000        0.0000000000000000     
  0.87500000000000000       0.87500000000000000        0.0000000000000000     
  0.75000000000000000       0.90625000000000000        0.0000000000000000     
  0.78125000000000000       0.90625000000000000        0.0000000000000000     
  0.81250000000000000       0.90625000000000000        0.0000000000000000     
  0.84375000000000000       0.90625000000000000        0.0000000000000000     
  0.87500000000000000       0.90625000000000000        0.0000000000000000     
  0.75000000000000000       0.93750000000000000        0.0000000000000000     
  0.78125000000000000       0.93750000000000000        0.0000000000000000     
  0.81250000000000000       0.93750000000000000        0.0000000000000000     
  0.84375000000000000       0.93750000000000000        0.0000000000000000     
  0.87500000000000000       0.93750000000000000        0.0000000000000000     
  0.75000000000000000       0.96875000000000000        0.0000000000000000     
  0.78125000000000000       0.96875000000000000        0.0000000000000000     
  0.81250000000000000       0.96875000000000000        0.0000000000000000     
  0.84375000000000000       0.96875000000000000        0.0000000000000000     
  0.87500000000000000       0.96875000000000000        0.0000000000000000     
  0.75000000000000000        1.0000000000000000        0.0000000000000000     
  0.78125000000000000        1.0000000000000000        0.0000000000000000     
  0.81250000000000000        1.0000000000000000        0.0000000000000000     
  0.84375000000000000        1.0000000000000000        0.0000000000000000     
  0.87500000000000000        1.0000000000000000        0.0000000000000000     
  0.87500000000000000       0.87500000000000000        0.0000000000000000     
  0.90625000000000000       0.87500000000000000        0.0000000000000000     
  0.93750000000000000       0.87500000000000000        0.0000000000000000     
  0.96875000000000000       0.87500000000000000        0.0000000000000000     
   1.0000000000000000       0.87500000000000000        0.0000000000000000     
  0.87500000000000000       0.90625000000000000        0.0000000000000000     
  0.90625000000000000       0.90625000000000000        0.0000000000000000     
  0.93750000000000000       0.90625000000000000        0.0000000000000000     
  0.96875000000000000       0.90625000000000000        0.0000000000000000     
   1.0000000000000000       0.90625000000000000        0.0000000000000000     
  0.87500000000000000       0.93750000000000000        0.0000000000000000     
  0.90625000000000000       0.93750000000000000        0.0000000000000000     
  0.93750000000000000       0.93750000000000000        0.0000000000000000     
  0.96875000000000000       0.93750000000000000        0.0000000000000000     
   1.0000000000000000       0.93750000000000000        0.0000000000000000     
  0.87500000000000000       0.96875000000000000        0.0000000000000000     
  0.90625000000000000       0.96875000000000000        0.0000000000000000     
  0.93750000000000000       0.96875000000000000        0.0000000000000000     
  0.96875000000000000       0.96875000000000000        0.0000000000000000     
   1.0000000000000000       0.96875000000000000        0.0000000000000000     
  0.87500000000000000        1.0000000000000000        0.0000000000000000     
  0.90625000000000000        1.0000000000000000        0.0000000000000000     
  0.93750000000000000        1.0000000000000000        0.0000000000000000     
  0.96875000000000000        1.0000000000000000        0.0000000000000000     
   1.0000000000000000        1.0000000000000000        0.0000000000000000     
 </DataArray>
 </Points>
 <Cells>
 <DataArray  type="Int32"  Name="connectivity"  format="ascii">
           0           1           6           5
           1           2           7           6
           2           3           8           7
           3           4           9           8
           5           6          11          10
           6           7          12          11
           7           8          13          12
           8           9          14          13
          10          11          16          15
          11          12          17          16
          12          13          18          17
          13          14          19          18
          15          16          21          20
          16          17          22          21
          17          18          23          22
          18          19          24          23
          25          26          31          30
          26          27          32          31
          27          28          33          32
          28          29          34          33
          30          31          36          35
          31          32          37          36
          32          33          38          37
          33          34          39          38
          35          36          41          40
          36          37          42          41
          37          38          43          42
          38          39          44          43
          40          41          46          45
          41          42          47          46
          42          43          48          47
          43          44          49          48
          50          51          56          55
          51          52          57          56
          52          53          58          57
          53          54          59          58
          55          56          61          60
          56          57          62          61
          57          58          63          62
          58          59          64          63
          60          61          66          65
          61          62          67          66
          62          63          68          67
          63          64          69          68
          65          66          71          70
          66          67          72          71
          67          68          73          72
          68          69          74          73
          75          76          81          80
          76          77          82          81
          77          78          83          82
          78          79          84          83
          80          81          86          85
          81          82          87          86
          82          83          88          87
          83          84          89          88
          85          86          91          90
          86          87          92          91
          87          88          93          92
          88          89          94          93
          90          91          96          95
          91          92          97          96
          92          93          98          97
          93          94          99          98
         100         101         106         105
         101         102         107         106
         102         103         108         107
         103         104         109         108
         105         106         111         110
         106         107         112         111
         107         108         113         112
         108         109         114         113
         110         111         116         115
         111         112         117         116
         112         113         118         117
         113         114         119         118
         115         116         121         120
         116         117         122         121
         117         118         123         122
         118         119         124         123
         125         126         131         130
         126         127         132         131
         127         128         133         132
         128         129         134         133
         130         131         136         135
         131         132         137         136
         132         133         138         137
         133         134         139         138
         135         136         141         140
         136         137         142         141
         137         138         143         142
         138         139         144         143
         140         141         146         145
         141         142         147         146
         142         143         148         147
         143         144         149         148
         150         151         156         155
         151         152         157         156
         152         153         158         157
         153         154         159         158
         155         156         161         160
         156         157         162         161
         157         158         163         162
         158         159         164         163
         160         161         166         165
         161         162         167         166
         162         163         168         167
         163         164         169         168
         165         166         171         170
         166         167         172         171
         167         168         173         172
         168         169         174         173
         175         176         181         180
         176         177         182         181
         177         178         183         182
         178         179         184         183
         180         181         186         185
         181         182         187         186
         182         183         188         187
         183         184         189         188
         185         186         191         190
         186         187         192         191
         187         188         193         192
         188         189         194         193
         190         191         196         195
         191         192         197         196
         192         193         198         197
         193         194         199         198
         200         201         206         205
         201         202         207         206
         202         203         208         207
         203         204         209         208
         205         206         211         210
         206         207         212         211
         207         208         213         212
         208         209         214         213
         210         211         216         215
         211         212         217         216
         212         213         218         217
         213         214         219         218
         215         216         221         220
         216         217         222         221
         217         218         223         222
         218         219         224         223
         225         226         231         230
         226         227         232         231
         227         228         233         232
         228         229         234         233
         230         231         236         235
         231         232         237         236
         232         233         238         237
         233         234         239         238
         235         236         241         240
         236         237         242         241
         237         238         243         242
         238         239         244         243
         240         241         246         245
         241         242         247         246
         242         243         248         247
         243         244         249         248
         250         251         256         255
         251         252         257         256
         252         253         258         257
         253         254         259         258
         255         256         261         260
         256         257         262         261
         257         258         263         262
         258         259         264         263
         260         261         266         265
         261         262         267         266
         262         263         268         267
         263         264         269         268
         265         266         271         270
         266         267         272         271
         267         268         273         272
         268         269         274         273
         275         276         281         280
         276         277         282         281
         277         278         283         282
         278         279         284         283
         280         281         286         285
         281         282         287         286
         282         283         288         287
         283         284         289         288
         285         286         291         290
         286         287         292         291
         287         288         293         292
         288         289         294         293
         290         291         296         295
         291         292         297         296
         292         293         298         297
         293         294         299         298
         300         301         306         305
         301         302         307         306
         302         303         308         307
         303         304         309         308
         305         306         311         310
         306         307         312         311
         307         308         313         312
         308         309         314         313
         310         311         316         315
         311         312         317         316
         312         313         318         317
         313         314         319         318
         315         316         321         320
         316         317         322         321
         317         318         323         322
         318         319         324         323
         325         326         331         330
         326         327         332         331
         327         328         333         332
         328         329         334         333
         330         331         336         335
         331         332         337         336
         332         333         338         337
         333         334         339         338
         335         336         341         340
         336         337         342         341
         337         338         343         342
         338         339         344         343
         340         341         346         345
         341         342         347         346
         342         343         348         347
         343         344         349         348
         350         351         356         355
         351         352         357         356
         352         353         358         357
         353         354         359         358
         355         356         361         360
         356         357         362         361
         357         358         363         362
         358         359         364         363
         360         361         366         365
         361         362         367         366
         362         363         368         367
         363         364         369         368
         365         366         371         370
         366         367         372         371
         367         368         373         372
         368         369         374         373
         375         376         381         380
         376         377         382         381
         377         378         383         382
         378         379         384         383
         380         381         386         385
         381         382         387         386
         382         383         388         387
         383         384         389         388
         385         386         391         390
         386         387         392         391
         387         388         393         392
         388         389         394         393
         390         391         396         395
         391         392         397         396
         392         393         398         397
         393         394         399         398
         400         401         406         405
         401         402         407         406
         402         403         408         407
         403         404         409         408
         405         406         411         410
         406         407         412         411
         407         408         413         412
         408         409         414         413
         410         411         416         415
         411         412         417         416
         412         413         418         417
         413         414         419         418
         415         416         421         420
         416         417         422         421
         417         418         423         422
         418         419         424         423
         425         426         431         430
         426         427         432         431
         427         428         433         432
         428         429         434         433
         430         431         436         435
         431         432         437         436
         432         433         438         437
         433         434         439         438
         435         436         441         440
         436         437         442         441
         437         438         443         442
         438         439         444         443
         440         441         446         445
         441         442         447         446
         442         443         448         447
         443         444         449         448
         450         451         456         455
         451         452         457         456
         452         453         458         457
         453         454         459         458
         455         456         461         460
         456         457         462         461
         457         458         463         462
         458         459         464         463
         460         461         466         465
         461         462         467         466
         462         463         468         467
         463         464         469         468
         465         466         471         470
         466         467         472         471
         467         468         473         472
         468         469         474         473
         475         476         481         480
         476         477         482         481
         477         478         483         482
         478         479         484         483
         480         481         486         485
         481         482         487         486
         482         483         488         487
         483         484         489         488
         485         486         491         490
         486         487         492         491
         487         488         493         492
         488         489         494         493
         490         491         496         495
         491         492         497         496
         492         493         498         497
         493         494         499         498
         500         501         506         505
         501         502         507         506
         502         503         508         507
         503         504         509         508
         505         506         511         510
         506         507         512         511
         507         508         513         512
         508         509         514         513
         510         511         516         515
         511         512         517         516
         512         513         518         517
         513         514         519         518
         515         516         521         520
         516         517         522         521
         517         518         523         522
         518         519         524         523
         525         526         531         530
         526         527         532         531
         527         528         533         532
         528         529         534         533
         530         531         536         535
         531         532         537         536
         532         533         538         537
         533         534         539         538
         535         536         541         540
         536         537         542         541
         537         538         543         542
         538         539         544         543
         540         541         546         545
         541         542         547         546
         542         543         548         547
         543         544         549         548
         550         551         556         555
         551         552         557         556
         552         553         558         557
         553         554         559         558
         555         556         561         560
         556         557         562         561
         557         558         563         562
         558         559         564         563
         560         561         566         565
         561         562         567         566
         562         563         568         567
         563         564         569         568
         565         566         571         570
         566         567         572         571
         567         568         573         572
         568         569         574         573
         575         576         581         580
         576         577         582         581
         577         578         583         582
         578         579         584         583
         580         581         586         585
         581         582         587         586
         582         583         588         587
         583         584         589         588
         585         586         591         590
         586         587         592         591
         587         588         593         592
         588         589         594         593
         590         591         596         595
         591         592         597         596
         592         593         598         597
         593         594         599         598
         600         601         606         605
         601         602         607         606
         602         603         608         607
         603         604         609         608
         605         606         611         610
         606         607         612         611
         607         608         613         612
         608         609         614         613
         610         611         616         615
         611         612         617         616
         612         613         618         617
         613         614         619         618
         615         616         621         620
         616         617         622         621
         617         618         623         622
         618         619         624         623
         625         626         631         630
         626         627         632         631
         627         628         633         632
         628         629         634         633
         630         631         636         635
         631         632         637         636
         632         633         638         637
         633         634         639         638
         635         636         641         640
         636         637         642         641
         637         638         643         642
         638         639         644         643
         640         641         646         645
         641         642         647         646
         642         643         648         647
         643         644         649         648
         650         651         656         655
         651         652         657         656
         652         653         658         657
         653         654         659         658
         655         656         661         660
         656         657         662         661
         657         658         663         662
         658         659         664         663
         660         661         666         665
         661         662         667         666
         662         663         668         667
         663         664         669         668
         665         666         671         670
         666         667         672         671
         667         668         673         672
         668         669         674         673
         675         676         681         680
         676         677         682         681
         677         678         683         682
         678         679         684         683
         680         681         686         685
         681         682         687         686
         682         683         688         687
         683         684         689         688
         685         686         691         690
         686         687         692         691
         687         688         693         692
         688         689         694         693
         690         691         696         695
         691         692         697         696
         692         693         698         697
         693         694         699         698
         700         701         706         705
         701         702         707         706
         702         703         708         707
         703         704         709         708
         705         706         711         710
         706         707         712         711
         707         708         713         712
         708         709         714         713
         710         711         716         715
         711         712         717         716
         712         713         718         717
         713         714         719         718
         715         716         721         720
         716         717         722         721
         717         718         723         722
         718         719         724         723
         725         726         731         730
         726         727         732         731
         727         728         733         732
         728         729         734         733
         730         731         736         735
         731         732         737         736
         732         733         738         737
         733         734         739         738
         735         736         741         740
         736         737         742         741
         737         738         743         742
         738         739         744         743
         740         741         746         745
         741         742         747         746
         742         743         748         747
         743         744         749         748
         750         751         756         755
         751         752         757         756
         752         753         758         757
         753         754         759         758
         755         756         761         760
         756         757         762         761
         757         758         763         762
         758         759         764         763
         760         761         766         765
         761         762         767         766
         762         763         768         767
         763         764         769         768
         765         766         771         770
         766         767         772         771
         767         768         773         772
         768         769         774         773
         775         776         781         780
         776         777         782         781
         777         778         783         782
         778         779         784         783
         780         781         786         785
         781         782         787         786
         782         783         788         787
         783         784         789         788
         785         786         791         790
         786         787         792         791
         787         788         793         792
         788         789         794         793
         790         791         796         795
         791         792         797         796
         792         793         798         797
         793         794         799         798
         800         801         806         805
         801         802         807         806
         802         803         808         807
         803         804         809         808
         805         806         811         810
         806         807         812         811
         807         808         813         812
         808         809         814         813
         810         811         816         815
         811         812         817         816
         812         813         818         817
         813         814         819         818
         815         816         821         820
         816         817         822         821
         817         818         823         822
         818         819         824         823
         825         826         831         830
         826         827         832         831
         827         828         833         832
         828         829         834         833
         830         831         836         835
         831         832         837         836
         832         833         838         837
         833         834         839         838
         835         836         841         840
         836         837         842         841
         837         838         843         842
         838         839         844         843
         840         841         846         845
         841         842         847         846
         842         843         848         847
         843         844         849         848
         850         851         856         855
         851         852         857         856
         852         853         858         857
         853         854         859         858
         855         856         861         860
         856         857         862         861
         857         858         863         862
         858         859         864         863
         860         861         866         865
         861         862         867         866
         862         863         868         867
         863         864         869         868
         865         866         871         870
         866         867         872         871
         867         868         873         872
         868         869         874         873
         875         876         881         880
         876         877         882         881
         877         878         883         882
         878         879         884         883
         880         881         886         885
         881         882         887         886
         882         883         888         887
         883         884         889         888
         885         886         891         890
         886         887         892         891
         887         888         893         892
         888         889         894         893
         890         891         896         895
         891         892         897         896
         892         893         898         897
         893         894         899         898
         900         901         906         905
         901         902         907         906
         902         903         908         907
         903         904         909         908
         905         906         911         910
         906         907         912         911
         907         908         913         912
         908         909         914         913
         910         911         916         915
         911         912         917         916
         912         913         918         917
         913         914         919         918
         915         916         921         920
         916         917         922         921
         917         918         923         922
         918         919         924         923
         925         926         931         930
         926         927         932         931
         927         928         933         932
         928         929         934         933
         930         931         936         935
         931         932         937         936
         932         933         938         937
         933         934         939         938
         935         936         941         940
         936         937         942         941
         937         938         943         942
         938         939         944         943
         940         941         946         945
         941         942         947         946
         942         943         948         947
         943         944         949         948
         950         951         956         955
         951         952         957         956
         952         953         958         957
         953         954         959         958
         955         956         961         960
         956         957         962         961
         957         958         963         962
         958         959         964         963
         960         961         966         965
         961         962         967         966
         962         963         968         967
         963         964         969         968
         965         966         971         970
         966         967         972         971
         967         968         973         972
         968         969         974         973
         975         976         981         980
         976         977         982         981
         977         978         983         982
         978         979         984         983
         980         981         986         985
         981         982         987         986
         982         983         988         987
         983         984         989         988
         985         986         991         990
         986         987         992         991
         987         988         993         992
         988         989         994         993
         990         991         996         995
         991         992         997         996
         992         993         998         997
         993         994         999         998
        1000        1001        1006        1005
        1001        1002        1007        1006
        1002        1003        1008        1007
        1003        1004        1009        1008
        1005        1006        1011        1010
        1006        1007        1012        1011
        1007        1008        1013        1012
        1008        1009        1014        1013
        1010        1011        1016        1015
        1011        1012        1017        1016
        1012        1013        1018        1017
        1013        1014        1019        1018
        1015        1016        1021        1020
        1016        1017        1022        1021
        1017        1018        1023        1022
        1018        1019        1024        1023
        1025        1026        1031        1030
        1026        1027        1032        1031
        1027        1028        1033        1032
        1028        1029        1034        1033
        1030        1031        1036        1035
        1031        1032        1037        1036
        1032        1033        1038        1037
        1033        1034        1039        1038
        1035        1036        1041        1040
        1036        1037        1042        1041
        1037        1038        1043        1042
        1038        1039        1044        1043
        1040        1041        1046        1045
        1041        1042        1047        1046
        1042        1043        1048        1047
        1043        1044        1049        1048
        1050        1051        1056        1055
        1051        1052        1057        1056
        1052        1053        1058        1057
        1053        1054        1059        1058
        1055        1056        1061        1060
        1056        1057        1062        1061
        1057        1058        1063        1062
        1058        1059        1064        1063
        1060        1061        1066        1065
        1061        1062        1067        1066
        1062        1063        1068        1067
        1063        1064        1069        1068
        1065        1066        1071        1070
        1066        1067        1072        1071
        1067        1068        1073        1072
        1068        1069        1074        1073
        1075        1076        1081        1080
        1076        1077        1082        1081
        1077        1078        1083        1082
        1078        1079        1084        1083
        1080        1081        1086        1085
        1081        1082        1087        1086
        1082        1083        1088        1087
        1083        1084        1089        1088
        1085        1086        1091        1090
        1086        1087        1092        1091
        1087        1088        1093        1092
        1088        1089        1094        1093
        1090        1091        1096        1095
        1091        1092        1097        1096
        1092        1093        1098        1097
        1093        1094        1099        1098
        1100        1101        1106        1105
        1101        1102        1107        1106
        1102        1103        1108        1107
        1103        1104        1109        1108
        1105        1106        1111        1110
        1106        1107        1112        1111
        1107        1108        1113        1112
        1108        1109        1114        1113
        1110        1111        1116        1115
        1111        1112        1117        1116
        1112        1113        1118        1117
        1113        1114        1119        1118
        1115        1116        1121        1120
        1116        1117        1122        1121
        1117        1118        1123        1122
        1118        1119        1124        1123
        1125        1126        1131        1130
        1126        1127        1132        1131
        1127        1128        1133        1132
        1128        1129        1134        1133
        1130        1131        1136        1135
        1131        1132        1137        1136
        1132        1133        1138        1137
        1133        1134        1139        1138
        1135        1136        1141        1140
        1136        1137        1142        1141
        1137        1138        1143        1142
        1138        1139        1144        1143
        1140        1141        1146        1145
        1141        1142        1147        1146
        1142        1143        1148        1147
        1143        1144        1149        1148
        1150        1151        1156        1155
        1151        1152        1157        1156
        1152        1153        1158        1157
        1153        1154        1159        1158
        1155        1156        1161        1160
        1156        1157        1162        1161
        1157        1158        1163        1162
        1158        1159        1164        1163
        1160        1161        1166        1165
        1161        1162        1167        1166
        1162        1163        1168        1167
        1163        1164        1169        1168
        1165        1166        1171        1170
        1166        1167        1172        1171
        1167        1168        1173        1172
        1168        1169        1174        1173
        1175        1176        1181        1180
        1176        1177        1182        1181
        1177        1178        1183        1182
        1178        1179        1184        1183
        1180        1181        1186        1185
        1181        1182        1187        1186
        1182        1183        1188        1187
        1183        1184        1189        1188
        1185        1186        1191        1190
        1186        1187        1192        1191
        1187        1188        1193        1192
        1188        1189        1194        1193
        1190        1191        1196        1195
        1191        1192        1197        1196
        1192        1193        1198        1197
        1193        1194        1199        1198
        1200        1201        1206        1205
        1201        1202        1207        1206
        1202        1203        1208        1207
        1203        1204        1209        1208
        1205        1206        1211        1210
        1206        1207        1212        1211
        1207        1208        1213        1212
        1208        1209        1214        1213
        1210        1211        1216        1215
        1211        1212        1217        1216
        1212        1213        1218        1217
        1213        1214        1219        1218
        1215        1216        1221        1220
        1216        1217        1222        1221
        1217        1218        1223        1222
        1218        1219        1224        1223
        1225        1226        1231        1230
        1226        1227        1232        1231
        1227        1228        1233        1232
        1228        1229        1234        1233
        1230        1231        1236        1235
        1231        1232        1237        1236
        1232        1233        1238        1237
        1233        1234        1239        1238
        1235        1236        1241        1240
        1236        1237        1242        1241
        1237        1238        1243        1242
        1238        1239        1244        1243
        1240        1241        1246        1245
        1241        1242        1247        1246
        1242        1243        1248        1247
        1243        1244        1249        1248
        1250        1251        1256        1255
        1251        1252        1257        1256
        1252        1253        1258        1257
        1253        1254        1259        1258
        1255        1256        1261        1260
        1256        1257        1262        1261
        1257        1258        1263        1262
        1258        1259        1264        1263
        1260        1261        1266        1265
        1261        1262        1267        1266
        1262        1263        1268        1267
        1263        1264        1269        1268
        1265        1266        1271        1270
        1266        1267        1272        1271
        1267        1268        1273        1272
        1268        1269        1274        1273
        1275        1276        1281        1280
        1276        1277        1282        1281
        1277        1278        1283        1282
        1278        1279        1284        1283
        1280        1281        1286        1285
        1281        1282        1287        1286
        1282        1283        1288        1287
        1283        1284        1289        1288
        1285        1286        1291        1290
        1286        1287        1292        1291
        1287        1288        1293        1292
        1288        1289        1294        1293
        1290        1291        1296        1295
        1291        1292        1297        1296
        1292        1293        1298        1297
        1293        1294        1299        1298
        1300        1301        1306        1305
        1301        1302        1307        1306
        1302        1303        1308        1307
        1303        1304        1309        1308
        1305        1306        1311        1310
        1306        1307        1312        1311
        1307        1308        1313        1312
        1308        1309        1314        1313
        1310        1311        1316        1315
        1311        1312        1317        1316
        1312        1313        1318        1317
        1313        1314        1319        1318
        1315        1316        1321        1320
        1316        1317        1322        1321
        1317        1318        1323        1322
        1318        1319        1324        1323
        1325        1326        1331        1330
        1326        1327        1332        1331
        1327        1328        1333        1332
        1328        1329        1334        1333
        1330        1331        1336        1335
        1331        1332        1337        1336
        1332        1333        1338        1337
        1333        1334        1339        1338
        1335        1336        1341        1340
        1336        1337        1342        1341
        1337        1338        1343        1342
        1338        1339        1344        1343
        1340        1341        1346        1345
        1341        1342        1347        1346
        1342        1343        1348        1347
        1343        1344        1349        1348
        1350        1351        1356        1355
        1351        1352        1357        1356
        1352        1353        1358        1357
        1353        1354        1359        1358
        1355        1356        1361        1360
        1356        1357        1362        1361
        1357        1358        1363        1362
        1358        1359        1364        1363
        1360        1361        1366        1365
        1361        1362        1367        1366
        1362        1363        1368        1367
        1363        1364        1369        1368
        1365        1366        1371        1370
        1366        1367        1372        1371
        1367        1368        1373        1372
        1368        1369        1374        1373
        1375        1376        1381        1380
        1376        1377        1382        1381
        1377        1378        1383        1382
        1378        1379        1384        1383
        1380        1381        1386        1385
        1381        1382        1387        1386
        1382        1383        1388        1387
        1383        1384        1389        1388
        1385        1386        1391        1390
        1386        1387        1392        1391
        1387        1388        1393        1392
        1388        1389        1394        1393
        1390        1391        1396        1395
        1391        1392        1397        1396
        1392        1393        1398        1397
        1393        1394        1399        1398
        1400        1401        1406        1405
        1401        1402        1407        1406
        1402        1403        1408        1407
        1403        1404        1409        1408
        1405        1406        1411        1410
        1406        1407        1412        1411
        1407        1408        1413        1412
        1408        1409        1414        1413
        1410        1411        1416        1415
        1411        1412        1417        1416
        1412        1413        1418        1417
        1413        1414        1419        1418
        1415        1416        1421        1420
        1416        1417        1422        1421
        1417        1418        1423        1422
        1418        1419        1424        1423
        1425        1426        1431        1430
        1426        1427        1432        1431
        1427        1428        1433        1432
        1428        1429        1434        1433
        1430        1431        1436        1435
        1431        1432        1437        1436
        1432        1433        1438        1437
        1433        1434        1439        1438
        1435        1436        1441        1440
        1436        1437        1442        1441
        1437        1438        1443        1442
        1438        1439        1444        1443
        1440        1441        1446        1445
        1441        1442        1447        1446
        1442        1443        1448        1447
        1443        1444        1449        1448
        1450        1451        1456        1455
        1451        1452        1457        1456
        1452        1453        1458        1457
        1453        1454        1459        1458
        1455        1456        1461        1460
        1456        1457        1462        1461
        1457        1458        1463        1462
        1458        1459        1464        1463
        1460        1461        1466        1465
        1461        1462        1467        1466
        1462        1463        1468        1467
        1463        1464        1469        1468
        1465        1466        1471        1470
        1466        1467        1472        1471
        1467        1468        1473        1472
        1468        1469        1474        1473
        1475        1476        1481        1480
        1476        1477        1482        1481
        1477        1478        1483        1482
        1478        1479        1484        1483
        1480        1481        1486        1485
        1481        1482        1487        1486
        1482        1483        1488        1487
        1483        1484        1489        1488
        1485        1486        1491        1490
        1486        1487        1492        1491
        1487        1488        1493        1492
        1488        1489        1494        1493
        1490        1491        1496        1495
        1491        1492        1497        1496
        1492        1493        1498        1497
        1493        1494        1499        1498
        1500        1501        1506        1505
        1501        1502        1507        1506
        1502        1503        1508        1507
        1503        1504        1509        1508
        1505        1506        1511        1510
        1506        1507        1512        1511
        1507        1508        1513        1512
        1508        1509        1514        1513
        1510        1511        1516        1515
        1511        1512        1517        1516
        1512        1513        1518        1517
        1513        1514        1519        1518
        1515        1516        1521        1520
        1516        1517        1522        1521
        1517        1518        1523        1522
        1518        1519        1524        1523
        1525        1526        1531        1530
        1526        1527        1532        1531
        1527        1528        1533        1532
        1528        1529        1534        1533
        1530        1531        1536        1535
        1531        1532        1537        1536
        1532        1533        1538        1537
        1533        1534        1539        1538
        1535        1536        1541        1540
        1536        1537        1542        1541
        1537        1538        1543        1542
        1538        1539        1544        1543
        1540        1541        1546        1545
        1541        1542        1547        1546
        1542        1543        1548        1547
        1543        1544        1549        1548
        1550        1551        1556        1555
        1551        1552        1557        1556
        1552        1553        1558        1557
        1553        1554        1559        1558
        1555        1556        1561        1560
        1556        1557        1562        1561
        1557        1558        1563        1562
        1558        1559        1564        1563
        1560        1561        1566        1565
        1561        1562        1567        1566
        1562        1563        1568        1567
        1563        1564        1569        1568
        1565        1566        1571        1570
        1566        1567        1572        1571
        1567        1568        1573        1572
        1568        1569        1574        1573
        1575        1576        1581        1580
        1576        1577        1582        1581
        1577        1578        1583        1582
        1578        1579        1584        1583
        1580        1581        1586        1585
        1581        1582        1587        1586
        1582        1583        1588        1587
        1583        1584        1589        1588
        1585        1586        1591        1590
        1586        1587        1592        1591
        1587        1588        1593        1592
        1588        1589        1594        1593
        1590        1591        1596        1595
        1591        1592        1597        1596
        1592        1593        1598        1597
        1593        1594        1599        1598
 </DataArray>
 <DataArray  type="Int32"  Name="offsets"  format="ascii"> 
           4
           8
          12
          16
          20
          24
          28
          32
          36
          40
          44
          48
          52
          56
          60
          64
          68
          72
          76
          80
          84
          88
          92
          96
         100
         104
         108
         112
         116
         120
         124
         128
         132
         136
         140
         144
         148
         152
         156
         160
         164
         168
         172
         176
         180
         184
         188
         192
         196
         200
         204
         208
         212
         216
         220
         224
         228
         232
         236
         240
         244
         248
         252
         256
         260
         264
         268
         272
         276
         280
         284
         288
         292
         296
         300
         304
         308
         312
         316
         320
         324
         328
         332
         336
         340
         344
         348
         352
         356
         360
         364
         368
         372
         376
         380
         384
         388
         392
         396
         400
         404
         408
         412
         416
         420
         424
         428
         432
         436
         440
         444
         448
         452
         456
         460
         464
         468
         472
         476
         480
         484
         488
         492
         496
         500
         504
         508
         512
         516
         520
         524
         528
         532
         536
         540
         544
         548
         552
         556
         560
         564
         568
         572
         576
         580
         584
         588
         592
         596
         600
         604
         608
         612
         616
         620
         624
         628
         632
         636
         640
         644
         648
         652
         656
         660
         664
         668
         672
         676
         680
         684
         688
         692
         696
         700
         704
         708
         712
         716
         720
         724
         728
         732
         736
         740
         744
         748
         752
         756
         760
         764
         768
         772
         776
         780
         784
         788
         792
         796
         800
         804
         808
         812
         816
         820
         824
         828
         832
         836
         840
         844
         848
         852
         856
         860
         864
         868
         872
         876
         880
         884
         888
         892
         896
         900
         904
         908
         912
         916
         920
         924
         928
         932
         936
         940
         944
         948
         952
         956
         960
         964
         968
         972
         976
         980
         984
         988
         992
         996
        1000
        1004
        1008
        1012
        1016
        1020
        1024
        1028
        1032
        1036
        1040
        1044
        1048
        1052
        1056
        1060
        1064
        1068
        1072
        1076
        1080
        1084
        1088
        1092
        1096
        1100
        1104
        1108
        1112
        1116
        1120
        1124
        1128
        1132
        1136
        1140
        1144
        1148
        1152
        1156
        1160
        1164
        1168
        1172
        1176
        1180
        1184
        1188
        1192
        1196
        1200
        1204
        1208
        1212
        1216
        1220
        1224
        1228
        1232
        1236
        1240
        1244
        1248
        1252
        1256
        1260
        1264
        1268
        1272
        1276
        1280
        1284
        1288
        1292
        1296
        1300
        1304
        1308
        1312
        1316
        1320
        1324
        1328
        1332
        1336
        1340
        1344
        1348
        1352
        1356
        1360
        1364
        1368
        1372
        1376
        1380
        1384
        1388
        1392
        1396
        1400
        1404
        1408
        1412
        1416
        1420
        1424
        1428
        1432
        1436
        1440
        1444
        1448
        1452
        1456
        1460
        1464
        1468
        1472
        1476
        1480
        1484
        1488
        1492
        1496
        1500
        1504
        1508
        1512
        1516
        1520
        1524
        1528
        1532
        1536
        1540
        1544
        1548
        1552
        1556
        1560
        1564
        1568
        1572
        1576
        1580
        1584
        1588
        1592
        1596
        1600
        1604
        1608
        1612
        1616
        1620
        1624
        1628
        1632
        1636
        1640
        1644
        1648
        1652
        1656
        1660
        1664
        1668
        1672
        1676
        1680
        1684
        1688
        1692
        1696
        1700
        1704
        1708
        1712
        1716
        1720
        1724
        1728
        1732
        1736
        1740
        1744
        1748
        1752
        1756
        1760
        1764
        1768
        1772
        1776
        1780
        1784
        1788
        1792
        1796
        1800
        1804
        1808
        1812
        1816
        1820
        1824
        1828
        1832
        1836
        1840
        1844
        1848
        1852
        1856
        1860
        1864
        1868
        1872
        1876
        1880
        1884
        1888
        1892
        1896
        1900
        1904
        1908
        1912
        1916
        1920
        1924
        1928
        1932
        1936
        1940
        1944
        1948
        1952
        1956
        1960
        1964
        1968
        1972
        1976
        1980
        1984
        1988
        1992
        1996
        2000
        2004
        2008
        2012
        2016
        2020
        2024
        2028
        2032
        2036
        2040
        2044
        2048
        2052
        2056
        2060
        2064
        2068
        2072
        2076
        2080
        2084
        2088
        2092
        2096
        2100
        2104
        2108
        2112
        2116
        2120
        2124
        2128
        2132
        2136
        2140
        2144
        2148
        2152
        2156
        2160
        2164
        2168
        2172
        2176
        2180
        2184
        2188
        2192
        2196
        2200
        2204
        2208
        2212
        2216
        2220
        2224
        2228
        2232
        2236
        2240
        2244
        2248
        2252
        2256
        2260
        2264
        2268
        2272
        2276
        2280
        2284
        2288
        2292
        2296
        2300
        2304
        2308
        2312
        2316
        2320
        2324
        2328
        2332
        2336
        2340
        2344
        2348
        2352
        2356
        2360
        2364
        2368
        2372
        2376
        2380
        2384
        2388
        2392
        2396
        2400
        2404
        2408
        2412
        2416
        2420
        2424
        2428
        2432
        2436
        2440
        2444
        2448
        2452
        2456
        2460
        2464
        2468
        2472
        2476
        2480
        2484
        2488
        2492
        2496
        2500
        2504
        2508
        2512
        2516
        2520
        2524
        2528
        2532
        2536
        2540
        2544
        2548
        2552
        2556
        2560
        2564
        2568
        2572
        2576
        2580
        2584
        2588
        2592
        2596
        2600
        2604
        2608
        2612
        2616
        2620
        2624
        2628
        2632
        2636
        2640
        2644
        2648
        2652
        2656
        2660
        2664
        2668
        2672
        2676
        2680
        2684
        2688
        2692
        2696
        2700
        2704
        2708
        2712
        2716
        2720
        2724
        2728
        2732
        2736
        2740
        2744
        2748
        2752
        2756
        2760
        2764
        2768
        2772
        2776
        2780
        2784
        2788
        2792
        2796
        2800
        2804
        2808
        2812
        2816
        2820
        2824
        2828
        2832
        2836
        2840
        2844
        2848
        2852
        2856
        2860
        2864
        2868
        2872
        2876
        2880
        2884
        2888
        2892
        2896
        2900
        2904
        2908
        2912
        2916
        2920
        2924
        2928
        2932
        2936
        2940
        2944
        2948
        2952
        2956
        2960
        2964
        2968
        2972
        2976
        2980
        2984
        2988
        2992
        2996
        3000
        3004
        3008
        3012
        3016
        3020
        3024
        3028
        3032
        3036
        3040
        3044
        3048
        3052
        3056
        3060
        3064
        3068
        3072
        3076
        3080
        3084
        3088
        3092
        3096
        3100
        3104
        3108
        3112
        3116
        3120
        3124
        3128
        3132
        3136
        3140
        3144
        3148
        3152
        3156
        3160
        3164
        3168
        3172
        3176
        3180
        3184
        3188
        3192
        3196
        3200
        3204
        3208
        3212
        3216
        3220
        3224
        3228
        3232
        3236
        3240
        3244
        3248
        3252
        3256
        3260
        3264
        3268
        3272
        3276
        3280
        3284
        3288
        3292
        3296
        3300
        3304
        3308
        3312
        3316
        3320
        3324
        3328
        3332
        3336
        3340
        3344
        3348
        3352
        3356
        3360
        3364
        3368
        3372
        3376
        3380
        3384
        3388
        3392
        3396
        3400
        3404
        3408
        3412
        3416
        3420
        3424
        3428
        3432
        3436
        3440
        3444
        3448
        3452
        3456
        3460
        3464
        3468
        3472
        3476
        3480
        3484
        3488
        3492
        3496
        3500
        3504
        3508
        3512
        3516
        3520
        3524
        3528
        3532
        3536
        3540
        3544
        3548
        3552
        3556
        3560
        3564
        3568
        3572
        3576
        3580
        3584
        3588
        3592
        3596
        3600
        3604
        3608
        3612
        3616
        3620
        3624
        3628
        3632
        3636
        3640
        3644
        3648
        3652
        3656
        3660
        3664
        3668
        3672
        3676
        3680
        3684
        3688
        3692
        3696
        3700
        3704
        3708
        3712
        3716
        3720
        3724
        3728
        3732
        3736
        3740
        3744
        3748
        3752
        3756
        3760
        3764
        3768
        3772
        3776
        3780
        3784
        3788
        3792
        3796
        3800
        3804
        3808
        3812
        3816
        3820
        3824
        3828
        3832
        3836
        3840
        3844
        3848
        3852
        3856
        3860
        3864
        3868
        3872
        3876
        3880
        3884
        3888
        3892
        3896
        3900
        3904
        3908
        3912
        3916
        3920
        3924
        3928
        3932
        3936
        3940
        3944
        3948
        3952
        3956
        3960
        3964
        3968
        3972
        3976
        3980
        3984
        3988
        3992
        3996
        4000
        4004
        4008
        4012
        4016
        4020
        4024
        4028
        4032
        4036
        4040
        4044
        4048
        4052
        4056
        4060
        4064
        4068
        4072
        4076
        4080
        4084
        4088
        4092
        4096
 </DataArray>
 <DataArray  type="UInt8"  Name="types"  format="ascii">
 9
 9
 9
 9
 9
 9
 9
 9
 9
 9
 9
 9
 9
 9
 9
 9
 9
 9
 9
 9
 9
 9
 9
 9
 9
 9
 9
 9
 9
 9
 9
 9
 9
 9
 9
 9
 9
 9
 9
 9
 9
 9
 9
 9
 9
 9
 9
 9
 9
 9
 9
 9
 9
 9
 9
 9
 9
 9
 9
 9
 9
 9
 9
 9
 9
 9
 9
 9
 9
 9
 9
 9
 9
 9
 9
 9
 9
 9
 9
 9
 9
 9
 9
 9
 9
 9
 9
 9
 9
 9
 9
 9
 9
 9
 9
 9
 9
 9
 9
 9
 9
 9
 9
 9
 9
 9
 9
 9
 9
 9
 9
 9
 9
 9
 9
 9
 9
 9
 9
 9
 9
 9
 9
 9
 9
 9
 9
 9
 9
 9
 9
 9
 9
 9
 9
 9
 9
 9
 9
 9
 9
 9
 9
 9
 9
 9
 9
 9
 9
 9
 9
 9
 9
 9
 9
 9
 9
 9
 9
 9
 9
 9
 9
 9
 9
 9
 9
 9
 9
 9
 9
 9
 9
 9
 9
 9
 9
 9
 9
 9
 9
 9
 9
 9
 9
 9
 9
 9
 9
 9
 9
 9
 9
 9
 9
 9
 9
 9
 9
 9
 9
 9
 9
 9
 9
 9
 9
 9
 9
 9
 9
 9
 9
 9
 9
 9
 9
 9
 9
 9
 9
 9
 9
 9
 9
 9
 9
 9
 9
 9
 9
 9
 9
 9
 9
 9
 9
 9
 9
 9
 9
 9
 9
 9
 9
 9
 9
 9
 9
 9
 9
 9
 9
 9
 9
 9
 9
 9
 9
 9
 9
 9
 9
 9
 9
 9
 9
 9
 9
 9
 9
 9
 9
 9
 9
 9
 9
 9
 9
 9
 9
 9
 9
 9
 9
 9
 9
 9
 9
 9
 9
 9
 9
 9
 9
 9
 9
 9
 9
 9
 9
 9
 9
 9
 9
 9
 9
 9
 9
 9
 9
 9
 9
 9
 9
 9
 9
 9
 9
 9
 9
 9
 9
 9
 9
 9
 9
 9
 9
 9
 9
 9
 9
 9
 9
 9
 9
 9
 9
 9
 9
 9
 9
 9
 9
 9
 9
 9
 9
 9
 9
 9
 9
 9
 9
 9
 9
 9
 9
 9
 9
 9
 9
 9
 9
 9
 9
 9
 9
 9
 9
 9
 9
 9
 9
 9
 9
 9
 9
 9
 9
 9
 9
 9
 9
 9
 9
 9
 9
 9
 9
 9
 9
 9
 9
 9
 9
 9
 9
 9
 9
 9
 9
 9
 9
 9
 9
 9
 9
 9
 9
 9
 9
 9
 9
 9
 9
 9
 9
 9
 9
 9
 9
 9
 9
 9
 9
 9
 9
 9
 9
 9
 9
 9
 9
 9
 9
 9
 9
 9
 9
 9
 9
 9
 9
 9
 9
 9
 9
 9
 9
 9
 9
 9
 9
 9
 9
 9
 9
 9
 9
 9
 9
 9
 9
 9
 9
 9
 9
 9
 9
 9
 9
 9
 9
 9
 9
 9
 9
 9
 9
 9
 9
 9
 9
 9
 9
 9
 9
 9
 9
 9
 9
 9
 9
 9
 9
 9
 9
 9
 9
 9
 9
 9
 9
 9
 9
 9
 9
 9
 9
 9
 9
 9
 9
 9
 9
 9
 9
 9
 9
 9
 9
 9
 9
 9
 9
 9
 9
 9
 9
 9
 9
 9
 9
 9
 9
 9
 9
 9
 9
 9
 9
 9
 9
 9
 9
 9
 9
 9
 9
 9
 9
 9
 9
 9
 9
 9
 9
 9
 9
 9
 9
 9
 9
 9
 9
 9
 9
 9
 9
 9
 9
 9
 9
 9
 9
 9
 9
 9
 9
 9
 9
 9
 9
 9
 9
 9
 9
 9
 9
 9
 9
 9
 9
 9
 9
 9
 9
 9
 9
 9
 9
 9
 9
 9
 9
 9
 9
 9
 9
 9
 9
 9
 9
 9
 9
 9
 9
 9
 9
 9
 9
 9
 9
 9
 9
 9
 9
 9
 9
 9
 9
 9
 9
 9
 9
 9
 9
 9
 9
 9
 9
 9
 9
 9
 9
 9
 9
 9
 9
 9
 9
 9
 9
 9
 9
 9
 9
 9
 9
 9
 9
 9
 9
 9
 9
 9
 9
 9
 9
 9
 9
 9
 9
 9
 9
 9
 9
 9
 9
 9
 9
 9
 9
 9
 9
 9
 9
 9
 9
 9
 9
 9
 9
 9
 9
 9
 9
 9
 9
 9
 9
 9
 9
 9
 9
 9
 9
 9
 9
 9
 9
 9
 9
 9
 9
 9
 9
 9
 9
 9
 9
 9
 9
 9
 9
 9
 9
 9
 9
 9
 9
 9
 9
 9
 9
 9
 9
 9
 9
 9
 9
 9
 9
 9
 9
 9
 9
 9
 9
 9
 9
 9
 9
 9
 9
 9
 9
 9
 9
 9
 9
 9
 9
 9
 9
 9
 9
 9
 9
 9
 9
 9
 9
 9
 9
 9
 9
 9
 9
 9
 9
 9
 9
 9
 9
 9
 9
 9
 9
 9
 9
 9
 9
 9
 9
 9
 9
 9
 9
 9
 9
 9
 9
 9
 9
 9
 9
 9
 9
 9
 9
 9
 9
 9
 9
 9
 9
 9
 9
 9
 9
 9
 9
 9
 9
 9
 9
 9
 9
 9
 9
 9
 9
 9
 9
 9
 9
 9
 9
 9
 9
 9
 9
 9
 9
 9
 9
 9
 9
 9
 9
 9
 9
 9
 9
 9
 9
 9
 9
 9
 9
 9
 9
 9
 9
 9
 9
 9
 9
 9
 9
 9
 9
 9
 9
 9
 9
 9
 9
 9
 9
 9
 9
 9
 9
 9
 9
 9
 9
 9
 9
 9
 9
 9
 9
 9
 9
 9
 9
 9
 9
 9
 9
 9
 9
 9
 9
 9
 9
 9
 9
 9
 9
 9
 9
 9
 9
 9
 9
 9
 9
 9
 9
 9
 9
 9
 9
 9
 9
 9
 9
 9
 9
 9
 9
 9
 9
 9
 9
 9
 9
 9
 9
 9
 9
 9
 9
 9
 9
 9
 9
 9
 9
 9
 9
 9
 9
 9
 9
 9
 9
 9
 9
 9
 9
 9
 9
 9
 9
 9
 9
 9
 9
 9
 9
 9
 9
 9
 9
 9
 9
 9
 9
 9
 9
 9
 9
 9
 9
 9
 9
 9
 9
 9
 9
 9
 9
 9
 9
 9
 9
 9
 9
 9
 9
 9
 9
 9
 9
 9
 9
 9
 9
 9
 9
 9
 9
 9
 9
 9
 9
 9
 </DataArray>
 </Cells> 
 <PointData>
 <DataArray  type="Float64" Name="disp" NumberOfComponents="3" format="ascii">
   0.0000000000000000        0.0000000000000000        0.0000000000000000     
   6.0958748067305394E-003   3.7905310260552588E-003   0.0000000000000000     
   1.1665817721787337E-002   7.3240010159229263E-003   0.0000000000000000     
   1.6709828745170387E-002   1.0600409969603002E-002   0.0000000000000000     
   2.1227907876879698E-002   1.3619757887095487E-002   0.0000000000000000     
   0.0000000000000000        0.0000000000000000        0.0000000000000000     
   4.8910599706419866E-003   3.0222289065459170E-003   0.0000000000000000     
   9.5734358143439308E-003   6.0606828364633270E-003   0.0000000000000000     
   1.4047127531105839E-002   9.1153617897522295E-003   0.0000000000000000     
   1.8312135120927706E-002   1.2186265766412626E-002   0.0000000000000000     
   0.0000000000000000        0.0000000000000000        0.0000000000000000     
   3.9534587571692526E-003   2.4252028391030050E-003   0.0000000000000000     
   7.9103846432973766E-003   5.0630645731189689E-003   0.0000000000000000     
   1.1870777658384374E-002   7.9135852020478931E-003   0.0000000000000000     
   1.5834637802430242E-002   1.0976764725889775E-002   0.0000000000000000     
   0.0000000000000000        0.0000000000000000        0.0000000000000000     
   3.2830711663123383E-003   1.9994528237265228E-003   0.0000000000000000     
   6.6766642086476700E-003   4.3311462258898521E-003   0.0000000000000000     
   1.0180779127005997E-002   6.9950802064899890E-003   0.0000000000000000     
   1.3795415921387316E-002   9.9912547655269333E-003   0.0000000000000000     
   0.0000000000000000        0.0000000000000000        0.0000000000000000     
   2.8798971980712445E-003   1.7449788604164704E-003   0.0000000000000000     
   5.8722745103948117E-003   3.8649277947759770E-003   0.0000000000000000     
   8.9771319369707035E-003   6.3598468030785192E-003   0.0000000000000000     
   1.2194469477798916E-002   9.2297358853240981E-003   0.0000000000000000     
   2.1227907876879698E-002   1.3619757887095487E-002   0.0000000000000000     
   2.5432950385149342E-002   1.6612715964233207E-002   0.0000000000000000     
   2.9537851538213384E-002   1.9809955396848995E-002   0.0000000000000000     
   3.3542611336071837E-002   2.3211476184942844E-002   0.0000000000000000     
   3.7447229778724687E-002   2.6817278328514764E-002   0.0000000000000000     
   1.8312135120927706E-002   1.2186265766412626E-002   0.0000000000000000     
   2.2406691738746005E-002   1.5341765564827576E-002   0.0000000000000000     
   2.6369030539497202E-002   1.8650231983380131E-002   0.0000000000000000     
   3.0199151523181308E-002   2.2111665022070296E-002   0.0000000000000000     
   3.3897054689798312E-002   2.5726064680898074E-002   0.0000000000000000     
   1.5834637802430242E-002   1.0976764725889775E-002   0.0000000000000000     
   1.9730202862471281E-002   1.4211406482490307E-002   0.0000000000000000     
   2.3485710625543780E-002   1.7576313809695175E-002   0.0000000000000000     
   2.7101161091647747E-002   2.1071486707504375E-002   0.0000000000000000     
   3.0576554260783168E-002   2.4696925175917917E-002   0.0000000000000000     
   1.3795415921387316E-002   9.9912547655269333E-003   0.0000000000000000     
   1.7403483756325173E-002   1.3221638717221405E-002   0.0000000000000000     
   2.0887891796353118E-002   1.6588200875794122E-002   0.0000000000000000     
   2.4248640041471148E-002   2.0090941241245087E-002   0.0000000000000000     
   2.7485728491679264E-002   2.3729859813574297E-002   0.0000000000000000     
   1.2194469477798916E-002   9.2297358853240981E-003   0.0000000000000000     
   1.5426534420307678E-002   1.2372462269020865E-002   0.0000000000000000     
   1.8575574051925212E-002   1.5685893181676971E-002   0.0000000000000000     
   2.1641588372651521E-002   1.9170028623292423E-002   0.0000000000000000     
   2.4624577382486600E-002   2.2824868593867217E-002   0.0000000000000000     
   3.7447229778724687E-002   2.6817278328514764E-002   0.0000000000000000     
   4.1256145367565097E-002   3.0622667430959861E-002   0.0000000000000000     
   4.4973796603986212E-002   3.4622949095673247E-002   0.0000000000000000     
   4.8600183487988030E-002   3.8818123322654934E-002   0.0000000000000000     
   5.2135306019570560E-002   4.3208190111904909E-002   0.0000000000000000     
   3.3897054689798312E-002   2.5726064680898074E-002   0.0000000000000000     
   3.7485993815097284E-002   2.9522333171608871E-002   0.0000000000000000     
   4.0989222674827297E-002   3.3529372705948093E-002   0.0000000000000000     
   4.4406741268988345E-002   3.7747183283915769E-002   0.0000000000000000     
   4.7738549597580428E-002   4.2175764905511864E-002   0.0000000000000000     
   3.0576554260783168E-002   2.4696925175917917E-002   0.0000000000000000     
   3.3941391175736996E-002   2.8497333113794543E-002   0.0000000000000000     
   3.7225172879296144E-002   3.2517414419993021E-002   0.0000000000000000     
   4.0427899371460622E-002   3.6757169094513334E-002   0.0000000000000000     
   4.3549570652230439E-002   4.1216597137355489E-002   0.0000000000000000     
   2.7485728491679264E-002   2.3729859813574297E-002   0.0000000000000000     
   3.0622337449484220E-002   2.7547667257516888E-002   0.0000000000000000     
   3.3681647217392759E-002   3.1587074237807995E-002   0.0000000000000000     
   3.6663657795404883E-002   3.5848080754447634E-002   0.0000000000000000     
   3.9568369183520587E-002   4.0330686807435769E-002   0.0000000000000000     
   2.4624577382486600E-002   2.2824868593867217E-002   0.0000000000000000     
   2.7528832636338971E-002   2.6673335602775905E-002   0.0000000000000000     
   3.0358645689117145E-002   3.0738352159393051E-002   0.0000000000000000     
   3.3114016540821120E-002   3.5019918263718655E-002   0.0000000000000000     
   3.5794945191450891E-002   3.9518033915752711E-002   0.0000000000000000     
   5.2135306019570560E-002   4.3208190111904909E-002   0.0000000000000000     
   5.5576288476148442E-002   4.7797905933597631E-002   0.0000000000000000     
   5.8920255135136324E-002   5.2592027257907563E-002   0.0000000000000000     
   6.2167205996534192E-002   5.7590554084834690E-002   0.0000000000000000     
   6.5317141060342060E-002   6.2793486414379027E-002   0.0000000000000000     
   4.7738549597580428E-002   4.2175764905511864E-002   0.0000000000000000     
   5.0980270483432955E-002   4.6808603351895850E-002   0.0000000000000000     
   5.4127526749375314E-002   5.1639184404227184E-002   0.0000000000000000     
   5.7180318395407492E-002   5.6667508062505867E-002   0.0000000000000000     
   6.0138645421529524E-002   6.1893574326731877E-002   0.0000000000000000     
   4.3549570652230439E-002   4.1216597137355489E-002   0.0000000000000000     
   4.6585719657147626E-002   4.5883056874681118E-002   0.0000000000000000     
   4.9531879321754235E-002   5.0743906632651867E-002   0.0000000000000000     
   5.2388049646050268E-002   5.5799146411267715E-002   0.0000000000000000     
   5.5154230630035717E-002   6.1048776210528684E-002   0.0000000000000000     
   3.9568369183520587E-002   4.0330686807435769E-002   0.0000000000000000     
   4.2392635997292476E-002   4.5021266501953427E-002   0.0000000000000000     
   4.5133312852273108E-002   4.9906193943181583E-002   0.0000000000000000     
   4.7790399748462498E-002   5.4985469131120256E-002   0.0000000000000000     
   5.0363896685860644E-002   6.0259092065769446E-002   0.0000000000000000     
   3.5794945191450891E-002   3.9518033915752711E-002   0.0000000000000000     
   3.8401019503867491E-002   4.4223232233712766E-002   0.0000000000000000     
   4.0931827340931926E-002   4.9126046335816360E-002   0.0000000000000000     
   4.3387368702644209E-002   5.4226476222063488E-002   0.0000000000000000     
   4.5767643589004321E-002   5.9524521892454163E-002   0.0000000000000000     
   6.5317141060342060E-002   6.2793486414379027E-002   0.0000000000000000     
   6.8374111665768178E-002   6.8187286846516176E-002   0.0000000000000000     
   7.1342169152020782E-002   7.3758417981221763E-002   0.0000000000000000     
   7.4221313519099871E-002   7.9506879818495760E-002   0.0000000000000000     
   7.7011544767005433E-002   8.5432672358338207E-002   0.0000000000000000     
   6.0138645421529524E-002   6.1893574326731877E-002   0.0000000000000000     
   6.3008107003448305E-002   6.7308743664271253E-002   0.0000000000000000     
   6.5794302316870737E-002   7.2904376542489976E-002   0.0000000000000000     
   6.8497231361796848E-002   7.8680472961388095E-002   0.0000000000000000     
   7.1116894138226625E-002   8.4637032920965583E-002   0.0000000000000000     
   5.5154230630035717E-002   6.1048776210528684E-002   0.0000000000000000     
   5.7836277251894386E-002   6.6486673252378878E-002   0.0000000000000000     
   6.0440044489810066E-002   7.2106714758762430E-002   0.0000000000000000     
   6.2965532343782771E-002   7.7908900729679362E-002   0.0000000000000000     
   6.5412740813812473E-002   8.3893231165129603E-002   0.0000000000000000     
   5.0363896685860644E-002   6.0259092065769446E-002   0.0000000000000000     
   5.2858622411106435E-002   6.5721075610839064E-002   0.0000000000000000     
   5.5279395670838762E-002   7.1365432630039097E-002   0.0000000000000000     
   5.7626216465057611E-002   7.7192163123369503E-002   0.0000000000000000     
   5.9899084793762991E-002   8.3201267090830297E-002   0.0000000000000000     
   4.5767643589004321E-002   5.9524521892454163E-002   0.0000000000000000     
   4.8075142481084465E-002   6.5011950739651825E-002   0.0000000000000000     
   5.0312355859956824E-002   7.0680530156319976E-002   0.0000000000000000     
   5.2479283725621391E-002   7.6530260142458575E-002   0.0000000000000000     
   5.4575926078078166E-002   8.2561140698067650E-002   0.0000000000000000     
   7.7011544767005433E-002   8.5432672358338207E-002   0.0000000000000000     
   7.9704784936114853E-002   9.1527779453012659E-002   0.0000000000000000     
   8.2292956066805464E-002   9.7784184954782694E-002   0.0000000000000000     
   8.4776058159077280E-002  0.10420188886364833        0.0000000000000000     
   8.7154091212930301E-002  0.11078089117960957        0.0000000000000000     
   7.1116894138226625E-002   8.4637032920965583E-002   0.0000000000000000     
   7.3644678831766147E-002   9.0763537180647780E-002   0.0000000000000000     
   7.6071973628021511E-002   9.7049466499860029E-002   0.0000000000000000     
   7.8398778526992716E-002  0.10349482087860236        0.0000000000000000     
   8.0625093528679748E-002  0.11009960031687470        0.0000000000000000     
   6.5412740813812473E-002   8.3893231165129603E-002   0.0000000000000000     
   6.7773524357512743E-002   9.0047868607225509E-002   0.0000000000000000     
   7.0039737432497085E-002   9.6360975598079296E-002   0.0000000000000000     
   7.2211380038765524E-002  0.10283255213769099        0.0000000000000000     
   7.4288452176318048E-002  0.10946259822606055        0.0000000000000000     
   5.9899084793762991E-002   8.3201267090830297E-002   0.0000000000000000     
   6.2091321513354621E-002   8.9380773732745861E-002   0.0000000000000000     
   6.4196247480232199E-002   9.5718712249440507E-002   0.0000000000000000     
   6.6213862694395720E-002  0.10221508264091428        0.0000000000000000     
   6.8144167155845203E-002  0.10886988490716716        0.0000000000000000     
   5.4575926078078166E-002   8.2561140698067650E-002   0.0000000000000000     
   5.6598070299291779E-002   8.8762252557208793E-002   0.0000000000000000     
   5.8541503771226827E-002   9.5122676453943650E-002   0.0000000000000000     
   6.0406226493883310E-002  0.10164241238827224        0.0000000000000000     
   6.2192238467261227E-002  0.10832146036019449        0.0000000000000000     
   8.7154091212930301E-002  0.11078089117960957        0.0000000000000000     
   8.9436195476128189E-002  0.11750634643113848        0.0000000000000000     
   9.1631511196434659E-002  0.12436340914670718        0.0000000000000000     
   9.3740038373849699E-002  0.13135207932631565        0.0000000000000000     
   9.5761777008373294E-002  0.13847235696996393        0.0000000000000000     
   8.0625093528679748E-002  0.11009960031687470        0.0000000000000000     
   8.2761846079871124E-002  0.11685056601760273        0.0000000000000000     
   8.4819963627355416E-002  0.12373447918371205        0.0000000000000000     
   8.6799446171132597E-002  0.13075133981520265        0.0000000000000000     
   8.8700293711202666E-002  0.13790114791207453        0.0000000000000000     
   7.4288452176318048E-002  0.10946259822606055        0.0000000000000000     
   7.6281745205506221E-002  0.11623867643302251        0.0000000000000000     
   7.8202050486681635E-002  0.12314834932841119        0.0000000000000000     
   8.0049368019844275E-002  0.13019161691222669        0.0000000000000000     
   8.1823697804994169E-002  0.13736847918446896        0.0000000000000000     
   6.8144167155845203E-002  0.10886988490716716        0.0000000000000000     
   6.9995892853033453E-002  0.11567067767739772        0.0000000000000000     
   7.1777771774413329E-002  0.12260501958080461        0.0000000000000000     
   7.3489803919984761E-002  0.12967291061738778        0.0000000000000000     
   7.5131989289747805E-002  0.13687435078714724        0.0000000000000000     
   6.2192238467261227E-002  0.10832146036019449        0.0000000000000000     
   6.3904289022452876E-002  0.11514656975072850        0.0000000000000000     
   6.5547127490550472E-002  0.12210448994089229        0.0000000000000000     
   6.7120753871554042E-002  0.12919522093068592        0.0000000000000000     
   6.8625168165463601E-002  0.13641876272010933        0.0000000000000000     
   9.5761777008373294E-002  0.13847235696996393        0.0000000000000000     
   9.7687957794395125E-002  0.14571538094811243        0.0000000000000000     
   9.9509811426304814E-002  0.15307229013122159        0.0000000000000000     
  0.10122733790410236       0.16054308451929139        0.0000000000000000     
  0.10284053722778778       0.16812776411232191        0.0000000000000000     
   8.8700293711202666E-002  0.13790114791207453        0.0000000000000000     
   9.0510752317778359E-002  0.14517267156966154        0.0000000000000000     
   9.2219068061072482E-002  0.15255467888329768        0.0000000000000000     
   9.3825240941084992E-002  0.16004716985298281        0.0000000000000000     
   9.5329270957815876E-002  0.16765014447871707        0.0000000000000000     
   8.1823697804994169E-002  0.13736847918446896        0.0000000000000000     
   8.3513262852954753E-002  0.14466695951699091        0.0000000000000000     
   8.5106286174549531E-002  0.15207508128164540        0.0000000000000000     
   8.6602767769778474E-002  0.15959284447843250        0.0000000000000000     
   8.8002707638641597E-002  0.16722024910735211        0.0000000000000000     
   7.5131989289747805E-002  0.13687435078714724        0.0000000000000000     
   7.6695489399924266E-002  0.14419824479010040        0.0000000000000000     
   7.8171465766735934E-002  0.15163349732626480        0.0000000000000000     
   7.9559918390182782E-002  0.15918010839564034        0.0000000000000000     
   8.0860847270264893E-002  0.16683807799822711        0.0000000000000000     
   6.8625168165463601E-002  0.13641876272010933        0.0000000000000000     
   7.0057431958686897E-002  0.14376652738899010        0.0000000000000000     
   7.1414606837631706E-002  0.15122992701715582        0.0000000000000000     
   7.2696692802297971E-002  0.15880896160460645        0.0000000000000000     
   7.3903689852685792E-002  0.16650363115134204        0.0000000000000000     
   0.0000000000000000        0.0000000000000000        0.0000000000000000     
   2.8798971980712445E-003   1.7449788604164704E-003   0.0000000000000000     
   5.8722745103948117E-003   3.8649277947759770E-003   0.0000000000000000     
   8.9771319369707035E-003   6.3598468030785192E-003   0.0000000000000000     
   1.2194469477798916E-002   9.2297358853240981E-003   0.0000000000000000     
   0.0000000000000000        0.0000000000000000        0.0000000000000000     
   2.6101141074002764E-003   1.5891226829566972E-003   0.0000000000000000     
   5.2892751660257534E-003   3.5570969232277495E-003   0.0000000000000000     
   8.0374831758764313E-003   5.9039227208131564E-003   0.0000000000000000     
   1.0854738136952312E-002   8.6296000757129180E-003   0.0000000000000000     
   0.0000000000000000        0.0000000000000000        0.0000000000000000     
   2.3398991492537386E-003   1.4592260251310523E-003   0.0000000000000000     
   4.7197257930274442E-003   3.3003412546955763E-003   0.0000000000000000     
   7.1394799313211146E-003   5.5233456886935733E-003   0.0000000000000000     
   9.5991615641347547E-003   8.1282393271250412E-003   0.0000000000000000     
   0.0000000000000000        0.0000000000000000        0.0000000000000000     
   2.0692523236316325E-003   1.3552888869395360E-003   0.0000000000000000     
   4.1636263913998840E-003   3.0946607891794587E-003   0.0000000000000000     
   6.2831222033047562E-003   5.2181157067197692E-003   0.0000000000000000     
   8.4277397593462457E-003   7.7256536395604643E-003   0.0000000000000000     
   0.0000000000000000        0.0000000000000000        0.0000000000000000     
   1.7981736305339566E-003   1.2773112683821478E-003   0.0000000000000000     
   3.6209769611430737E-003   2.9400555266793959E-003   0.0000000000000000     
   5.4684099918273525E-003   4.9882327748917441E-003   0.0000000000000000     
   7.3404727225867897E-003   7.4218430130191925E-003   0.0000000000000000     
   1.2194469477798916E-002   9.2297358853240981E-003   0.0000000000000000     
   1.5426534420307678E-002   1.2372462269020865E-002   0.0000000000000000     
   1.8575574051925212E-002   1.5685893181676971E-002   0.0000000000000000     
   2.1641588372651521E-002   1.9170028623292423E-002   0.0000000000000000     
   2.4624577382486600E-002   2.2824868593867217E-002   0.0000000000000000     
   1.0854738136952312E-002   8.6296000757129180E-003   0.0000000000000000     
   1.3687668532428776E-002   1.1651804982308923E-002   0.0000000000000000     
   1.6482902845481210E-002   1.4888213434983063E-002   0.0000000000000000     
   1.9240441076109619E-002   1.8338825433735328E-002   0.0000000000000000     
   2.1960283224314002E-002   2.2003640978565730E-002   0.0000000000000000     
   9.5991615641347547E-003   8.1282393271250412E-003   0.0000000000000000     
   1.2075199770698443E-002   1.1047594701505811E-002   0.0000000000000000     
   1.4544023630242261E-002   1.4213984343351709E-002   0.0000000000000000     
   1.7005633142766211E-002   1.7627408252662735E-002   0.0000000000000000     
   1.9460028308270295E-002   2.1287866429438890E-002   0.0000000000000000     
   8.4277397593462457E-003   7.7256536395604643E-003   0.0000000000000000     
   1.0589128135116676E-002   1.0559831426611523E-002   0.0000000000000000     
   1.2758936406208357E-002   1.3663205906782917E-002   0.0000000000000000     
   1.4937164572621293E-002   1.7035777080074643E-002   0.0000000000000000     
   1.7123812634355483E-002   2.0677544946486708E-002   0.0000000000000000     
   7.3404727225867897E-003   7.4218430130191925E-003   0.0000000000000000     
   9.2294536256834758E-003   1.0188515157626067E-002   0.0000000000000000     
   1.1127641173379501E-002   1.3235878125276684E-002   0.0000000000000000     
   1.3035035365674859E-002   1.6563931915971056E-002   0.0000000000000000     
   1.4951636202569556E-002   2.0172676529709173E-002   0.0000000000000000     
   2.4624577382486600E-002   2.2824868593867217E-002   0.0000000000000000     
   2.7528832636338971E-002   2.6673335602775905E-002   0.0000000000000000     
   3.0358645689117145E-002   3.0738352159393051E-002   0.0000000000000000     
   3.3114016540821120E-002   3.5019918263718655E-002   0.0000000000000000     
   3.5794945191450891E-002   3.9518033915752711E-002   0.0000000000000000     
   2.1960283224314002E-002   2.2003640978565730E-002   0.0000000000000000     
   2.4625983476606248E-002   2.5880840467959548E-002   0.0000000000000000     
   2.7221096019498240E-002   2.9968604300402060E-002   0.0000000000000000     
   2.9745620852989988E-002   3.4266932475893276E-002   0.0000000000000000     
   3.2199557977081489E-002   3.8775824994433203E-002   0.0000000000000000     
   1.9460028308270295E-002   2.1287866429438890E-002   0.0000000000000000     
   2.1878896710591046E-002   2.5176684171455757E-002   0.0000000000000000     
   2.4233925933565003E-002   2.9275186776488927E-002   0.0000000000000000     
   2.6525115977192162E-002   3.3583374244538375E-002   0.0000000000000000     
   2.8752466841472528E-002   3.8101246575604125E-002   0.0000000000000000     
   1.7123812634355483E-002   2.0677544946486708E-002   0.0000000000000000     
   1.9287572338293379E-002   2.4560866713264556E-002   0.0000000000000000     
   2.1397135431317434E-002   2.8658099587653623E-002   0.0000000000000000     
   2.3452501913427643E-002   3.2969243569653944E-002   0.0000000000000000     
   2.5453671784624016E-002   3.7494298659265478E-002   0.0000000000000000     
   1.4951636202569556E-002   2.0172676529709173E-002   0.0000000000000000     
   1.6852010359713232E-002   2.4033388093385920E-002   0.0000000000000000     
   1.8710724512755520E-002   2.8117342733896180E-002   0.0000000000000000     
   2.0527778661696427E-002   3.2424540451239964E-002   0.0000000000000000     
   2.2303172806535952E-002   3.6954981245417254E-002   0.0000000000000000     
   3.5794945191450891E-002   3.9518033915752711E-002   0.0000000000000000     
   3.8401019503867491E-002   4.4223232233712766E-002   0.0000000000000000     
   4.0931827340931926E-002   4.9126046335816360E-002   0.0000000000000000     
   4.3387368702644209E-002   5.4226476222063488E-002   0.0000000000000000     
   4.5767643589004321E-002   5.9524521892454163E-002   0.0000000000000000     
   3.2199557977081489E-002   3.8775824994433203E-002   0.0000000000000000     
   3.4584945933508332E-002   4.3490939787610143E-002   0.0000000000000000     
   3.6903823264006125E-002   4.8407934787012392E-002   0.0000000000000000     
   3.9156189968574853E-002   5.3526809992639986E-002   0.0000000000000000     
   4.1342046047214517E-002   5.8847565404492895E-002   0.0000000000000000     
   2.8752466841472528E-002   3.8101246575604125E-002   0.0000000000000000     
   3.0918491042850663E-002   4.2826374881296522E-002   0.0000000000000000     
   3.3025701097771129E-002   4.7756330273225921E-002   0.0000000000000000     
   3.5074097006233929E-002   5.2891112751392320E-002   0.0000000000000000     
   3.7063678768239065E-002   5.8230722315795728E-002   0.0000000000000000     
   2.5453671784624016E-002   3.7494298659265478E-002   0.0000000000000000     
   2.7401654831894478E-002   4.2229537514771917E-002   0.0000000000000000     
   2.9297460842226952E-002   4.7171232794456910E-002   0.0000000000000000     
   3.1141089815621428E-002   5.2319384498320499E-002   0.0000000000000000     
   3.2932541752077923E-002   5.7673992626362650E-002   0.0000000000000000     
   2.2303172806535952E-002   3.6954981245417254E-002   0.0000000000000000     
   2.4034437300639779E-002   4.1700427688036321E-002   0.0000000000000000     
   2.5719102497373580E-002   4.6652642350705396E-002   0.0000000000000000     
   2.7357168396737363E-002   5.1811625233424516E-002   0.0000000000000000     
   2.8948634998731126E-002   5.7177376336193651E-002   0.0000000000000000     
   4.5767643589004321E-002   5.9524521892454163E-002   0.0000000000000000     
   4.8075142481084465E-002   6.5011950739651825E-002   0.0000000000000000     
   5.0312355859956824E-002   7.0680530156319976E-002   0.0000000000000000     
   5.2479283725621391E-002   7.6530260142458575E-002   0.0000000000000000     
   5.4575926078078166E-002   8.2561140698067650E-002   0.0000000000000000     
   4.1342046047214517E-002   5.8847565404492895E-002   0.0000000000000000     
   4.3461479047432749E-002   6.4359102281806843E-002   0.0000000000000000     
   4.5514576516737147E-002   7.0050321883817504E-002   0.0000000000000000     
   4.7501338455127697E-002   7.5921224210524899E-002   0.0000000000000000     
   4.9421764862604418E-002   8.1971809261929027E-002   0.0000000000000000     
   3.7063678768239065E-002   5.8230722315795728E-002   0.0000000000000000     
   3.8993273695755608E-002   6.3762333880293773E-002   0.0000000000000000     
   4.0861709100752631E-002   6.9473122358744144E-002   0.0000000000000000     
   4.2668984983230143E-002   7.5363087751146848E-002   0.0000000000000000     
   4.4415101343188150E-002   8.1432230057501831E-002   0.0000000000000000     
   3.2932541752077923E-002   5.7673992626362650E-002   0.0000000000000000     
   3.4670526426053019E-002   6.3221645535112683E-002   0.0000000000000000     
   3.6353753612003291E-002   6.8948931581099923E-002   0.0000000000000000     
   3.7982223309928731E-002   7.4855850764324397E-002   0.0000000000000000     
   3.9555935519829354E-002   8.0942403084786077E-002   0.0000000000000000     
   2.8948634998731126E-002   5.7177376336193651E-002   0.0000000000000000     
   3.0493237238324995E-002   6.2737037246263519E-002   0.0000000000000000     
   3.1990710050489105E-002   6.8477749550884828E-002   0.0000000000000000     
   3.3441053435223453E-002   7.4399513250057545E-002   0.0000000000000000     
   3.4844267392528036E-002   8.0502328343781737E-002   0.0000000000000000     
   5.4575926078078166E-002   8.2561140698067650E-002   0.0000000000000000     
   5.6598070299291779E-002   8.8762252557208793E-002   0.0000000000000000     
   5.8541503771226827E-002   9.5122676453943650E-002   0.0000000000000000     
   6.0406226493883310E-002  0.10164241238827224        0.0000000000000000     
   6.2192238467261227E-002  0.10832146036019449        0.0000000000000000     
   4.9421764862604418E-002   8.1971809261929027E-002   0.0000000000000000     
   5.1273859085959460E-002   8.8192464562175540E-002   0.0000000000000000     
   5.3055624471984975E-002   9.4573577635410105E-002   0.0000000000000000     
   5.4767061020680963E-002  0.10111514848163272        0.0000000000000000     
   5.6408168732047438E-002  0.10781717710084339        0.0000000000000000     
   4.4415101343188150E-002   8.1432230057501831E-002   0.0000000000000000     
   4.6098776243992889E-002   8.7671569229207241E-002   0.0000000000000000     
   4.7718727749010627E-002   9.4072125217661215E-002   0.0000000000000000     
   4.9274955858241383E-002  0.10063389802286372        0.0000000000000000     
   5.0767460571685130E-002  0.10735688764481477        0.0000000000000000     
   3.9555935519829354E-002   8.0942403084786077E-002   0.0000000000000000     
   4.1072821773392061E-002   8.7199566558303937E-002   0.0000000000000000     
   4.2530813602303805E-002   9.3618319200696978E-002   0.0000000000000000     
   4.3929911006564550E-002  0.10019866101196521        0.0000000000000000     
   4.5270113986174317E-002  0.10694059199210861        0.0000000000000000     
   3.4844267392528036E-002   8.0502328343781737E-002   0.0000000000000000     
   3.6195995674157003E-002   8.6776456549465586E-002   0.0000000000000000     
   3.7491882031864480E-002   9.3212159584517423E-002   0.0000000000000000     
   3.8731926465650476E-002   9.9809437448937180E-002   0.0000000000000000     
   3.9916128975514983E-002  0.10656829014272490        0.0000000000000000     
   6.2192238467261227E-002  0.10832146036019449        0.0000000000000000     
   6.3904289022452876E-002  0.11514656975072850        0.0000000000000000     
   6.5547127490550472E-002  0.12210448994089229        0.0000000000000000     
   6.7120753871554042E-002  0.12919522093068592        0.0000000000000000     
   6.8625168165463601E-002  0.13641876272010933        0.0000000000000000     
   5.6408168732047438E-002  0.10781717710084339        0.0000000000000000     
   5.7980015298378977E-002  0.11466540610876697        0.0000000000000000     
   5.9483668411970135E-002  0.12164557812112829        0.0000000000000000     
   6.0919128072820967E-002  0.12875769313792740        0.0000000000000000     
   6.2286394280931440E-002  0.13600175115916424        0.0000000000000000     
   5.0767460571685130E-002  0.10735688764481477        0.0000000000000000     
   5.2196153265426329E-002  0.11422624020726539        0.0000000000000000     
   5.3560945315549398E-002  0.12122710183396661        0.0000000000000000     
   5.4861836722054351E-002  0.12835947252491844        0.0000000000000000     
   5.6098827484941195E-002  0.13562335228012090        0.0000000000000000     
   4.5270113986174317E-002  0.10694059199210861        0.0000000000000000     
   4.6552702923594917E-002  0.11382907204622375        0.0000000000000000     
   4.7778958201288226E-002  0.12084906107940725        0.0000000000000000     
   4.8948879819254214E-002  0.12800055909165908        0.0000000000000000     
   5.0062467777492896E-002  0.13528356608297926        0.0000000000000000     
   3.9916128975514983E-002  0.10656829014272490        0.0000000000000000     
   4.1049664272884777E-002  0.11347390162564208        0.0000000000000000     
   4.2137707069186639E-002  0.12051145585745021        0.0000000000000000     
   4.3180257364420563E-002  0.12768095283814934        0.0000000000000000     
   4.4177315158586535E-002  0.13498239256773942        0.0000000000000000     
   6.8625168165463601E-002  0.13641876272010933        0.0000000000000000     
   7.0057431958686897E-002  0.14376652738899010        0.0000000000000000     
   7.1414606837631706E-002  0.15122992701715582        0.0000000000000000     
   7.2696692802297971E-002  0.15880896160460645        0.0000000000000000     
   7.3903689852685792E-002  0.16650363115134204        0.0000000000000000     
   6.2286394280931440E-002  0.13600175115916424        0.0000000000000000     
   6.3587889196267344E-002  0.14337170170155436        0.0000000000000000     
   6.4826034978794550E-002  0.15086149428181325        0.0000000000000000     
   6.6000831628513001E-002  0.15847112889994086        0.0000000000000000     
   6.7112279145422726E-002  0.16620060555593727        0.0000000000000000     
   5.6098827484941195E-002  0.13562335228012090        0.0000000000000000     
   5.7275659779690347E-002  0.14301366211568750        0.0000000000000000     
   5.8396075781782214E-002  0.15052532304773172        0.0000000000000000     
   5.9460075491216818E-002  0.15815833507625371        0.0000000000000000     
   6.0467658907994132E-002  0.16591269820125334        0.0000000000000000     
   5.0062467777492896E-002  0.13528356608297926        0.0000000000000000     
   5.1120743708955863E-002  0.14269240863138946        0.0000000000000000     
   5.2124729246594712E-002  0.15022141331491137        0.0000000000000000     
   5.3074424390409422E-002  0.15787058013354494        0.0000000000000000     
   5.3969829140400022E-002  0.16563990908729020        0.0000000000000000     
   4.4177315158586535E-002  0.13498239256773942        0.0000000000000000     
   4.5123140984063906E-002  0.14240794124866038        0.0000000000000000     
   4.6011995373232008E-002  0.14994976508335212        0.0000000000000000     
   4.6843878326090833E-002  0.15760786407181462        0.0000000000000000     
   4.7618789842640397E-002  0.16538223821404791        0.0000000000000000     
   0.0000000000000000        0.0000000000000000        0.0000000000000000     
   1.7981736305339566E-003   1.2773112683821478E-003   0.0000000000000000     
   3.6209769611430737E-003   2.9400555266793959E-003   0.0000000000000000     
   5.4684099918273525E-003   4.9882327748917441E-003   0.0000000000000000     
   7.3404727225867897E-003   7.4218430130191925E-003   0.0000000000000000     
   0.0000000000000000        0.0000000000000000        0.0000000000000000     
   1.5349317201748998E-003   1.2181407562696499E-003   0.0000000000000000     
   3.0991255136320968E-003   2.8219556636211876E-003   0.0000000000000000     
   4.6925813803715905E-003   4.8114447220546138E-003   0.0000000000000000     
   6.3152993203933810E-003   7.1866079315699273E-003   0.0000000000000000     
   0.0000000000000000        0.0000000000000000        0.0000000000000000     
   1.2877952427686500E-003   1.1706249374128039E-003   0.0000000000000000     
   2.6054200602420364E-003   2.7257913964306344E-003   0.0000000000000000     
   3.9528744524201598E-003   4.6654993770534909E-003   0.0000000000000000     
   5.3301584193030200E-003   6.9897488792813739E-003   0.0000000000000000     
   0.0000000000000000        0.0000000000000000        0.0000000000000000     
   1.0567641983152073E-003   1.1347638118116108E-003   0.0000000000000000     
   2.1398606009728938E-003   2.6515627251077365E-003   0.0000000000000000     
   3.2492892079730596E-003   4.5503967398883788E-003   0.0000000000000000     
   4.3850500193157050E-003   6.8312658561535339E-003   0.0000000000000000     
   0.0000000000000000        0.0000000000000000        0.0000000000000000     
   8.4183858681457146E-004   1.1105573794660695E-003   0.0000000000000000     
   1.7024471358246681E-003   2.5992696496524937E-003   0.0000000000000000     
   2.5818256470302894E-003   4.4661368105592732E-003   0.0000000000000000     
   3.4799741204314359E-003   6.7111588621864065E-003   0.0000000000000000     
   7.3404727225867897E-003   7.4218430130191925E-003   0.0000000000000000     
   9.2294536256834758E-003   1.0188515157626067E-002   0.0000000000000000     
   1.1127641173379501E-002   1.3235878125276684E-002   0.0000000000000000     
   1.3035035365674859E-002   1.6563931915971056E-002   0.0000000000000000     
   1.4951636202569556E-002   2.0172676529709173E-002   0.0000000000000000     
   6.3152993203933810E-003   7.1866079315699273E-003   0.0000000000000000     
   7.9545454545934865E-003   9.8979792250171398E-003   0.0000000000000000     
   9.5975859038679202E-003   1.2896092535246264E-002   0.0000000000000000     
   1.1244420668216685E-002   1.6180947862257301E-002   0.0000000000000000     
   1.2895049747639780E-002   1.9752545206050246E-002   0.0000000000000000     
   5.3301584193030200E-003   6.9897488792813739E-003   0.0000000000000000     
   6.7227728340413396E-003   9.6525569592524531E-003   0.0000000000000000     
   8.1162185697858432E-003   1.2607940673104898E-002   0.0000000000000000     
   9.5104956265365317E-003   1.5855900020838708E-002   0.0000000000000000     
   1.0905604004293405E-002   1.9396435002453884E-002   0.0000000000000000     
   4.3850500193157050E-003   6.8312658561535339E-003   0.0000000000000000     
   5.5341357640270403E-003   9.4522483603320055E-003   0.0000000000000000     
   6.6835391711332738E-003   1.2371422538852588E-002   0.0000000000000000     
   7.8332602406344064E-003   1.5588788391715281E-002   0.0000000000000000     
   8.9832989725304388E-003   1.9104345918920091E-002   0.0000000000000000     
   3.4799741204314359E-003   6.7111588621864065E-003   0.0000000000000000     
   4.3886342445505827E-003   9.2970534282557950E-003   0.0000000000000000     
   5.2995477079102044E-003   1.2186538132489332E-002   0.0000000000000000     
   6.2127145105103018E-003   1.5379612974887023E-002   0.0000000000000000     
   7.1281346523508742E-003   1.8876277955448863E-002   0.0000000000000000     
   1.4951636202569556E-002   2.0172676529709173E-002   0.0000000000000000     
   1.6852010359713232E-002   2.4033388093385920E-002   0.0000000000000000     
   1.8710724512755520E-002   2.8117342733896180E-002   0.0000000000000000     
   2.0527778661696427E-002   3.2424540451239964E-002   0.0000000000000000     
   2.2303172806535952E-002   3.6954981245417254E-002   0.0000000000000000     
   1.2895049747639780E-002   1.9752545206050246E-002   0.0000000000000000     
   1.4532934686151293E-002   2.3584494138268814E-002   0.0000000000000000     
   1.6141537027765322E-002   2.7650404230556709E-002   0.0000000000000000     
   1.7720856772481856E-002   3.1950275482913938E-002   0.0000000000000000     
   1.9270893920300906E-002   3.6484107895340498E-002   0.0000000000000000     
   1.0905604004293405E-002   1.9396435002453884E-002   0.0000000000000000     
   1.2291069228908259E-002   2.3204430674362179E-002   0.0000000000000000     
   1.3656416826232882E-002   2.7254772092975332E-002   0.0000000000000000     
   1.5001646796267280E-002   3.1547459258293359E-002   0.0000000000000000     
   1.6326759139011448E-002   3.6082492170316241E-002   0.0000000000000000     
   8.9832989725304388E-003   1.9104345918920091E-002   0.0000000000000000     
   1.0126413987984122E-002   2.2893197701666014E-002   0.0000000000000000     
   1.1255363908158204E-002   2.6930446321152057E-002   0.0000000000000000     
   1.2370148733052691E-002   3.1216091777378222E-002   0.0000000000000000     
   1.3470768462667577E-002   3.5750134070344504E-002   0.0000000000000000     
   7.1281346523508742E-003   1.8876277955448863E-002   0.0000000000000000     
   8.0389689633788824E-003   2.2650795220180327E-002   0.0000000000000000     
   8.9383782735412906E-003   2.6677426915086878E-002   0.0000000000000000     
   9.8263625828380937E-003   3.0956173040168521E-002   0.0000000000000000     
   1.0702921891269295E-002   3.5487033595425252E-002   0.0000000000000000     
   2.2303172806535952E-002   3.6954981245417254E-002   0.0000000000000000     
   2.4034437300639779E-002   4.1700427688036321E-002   0.0000000000000000     
   2.5719102497373580E-002   4.6652642350705396E-002   0.0000000000000000     
   2.7357168396737363E-002   5.1811625233424516E-002   0.0000000000000000     
   2.8948634998731126E-002   5.7177376336193651E-002   0.0000000000000000     
   1.9270893920300906E-002   3.6484107895340498E-002   0.0000000000000000     
   2.0785551304800261E-002   4.1238292083864841E-002   0.0000000000000000     
   2.2258731759557726E-002   4.6199218664515408E-002   0.0000000000000000     
   2.3690435284573288E-002   5.1366887637292226E-002   0.0000000000000000     
   2.5080661879846963E-002   5.6741299002195267E-002   0.0000000000000000     
   1.6326759139011448E-002   3.6082492170316241E-002   0.0000000000000000     
   1.7623709700089633E-002   4.0842377385032602E-002   0.0000000000000000     
   1.8884454325126081E-002   4.5809621458431010E-002   0.0000000000000000     
   2.0108993014120790E-002   5.0984224390511479E-002   0.0000000000000000     
   2.1297325767073761E-002   5.6366186181274015E-002   0.0000000000000000     
   1.3470768462667577E-002   3.5750134070344504E-002   0.0000000000000000     
   1.4548912486507888E-002   4.0512683591539589E-002   0.0000000000000000     
   1.5596270194078648E-002   4.5483850732452182E-002   0.0000000000000000     
   1.6612841585379855E-002   5.0663635493082282E-002   0.0000000000000000     
   1.7598626660411516E-002   5.6052037873429876E-002   0.0000000000000000     
   1.0702921891269295E-002   3.5487033595425252E-002   0.0000000000000000     
   1.1561159664055028E-002   4.0249210703385808E-002   0.0000000000000000     
   1.2394179366415429E-002   4.5221906486578929E-002   0.0000000000000000     
   1.3201980998350493E-002   5.0405120945004621E-002   0.0000000000000000     
   1.3984564559860222E-002   5.5798854078662877E-002   0.0000000000000000     
   2.8948634998731126E-002   5.7177376336193651E-002   0.0000000000000000     
   3.0493237238324995E-002   6.2737037246263519E-002   0.0000000000000000     
   3.1990710050489105E-002   6.8477749550884828E-002   0.0000000000000000     
   3.3441053435223453E-002   7.4399513250057545E-002   0.0000000000000000     
   3.4844267392528036E-002   8.0502328343781737E-002   0.0000000000000000     
   2.5080661879846963E-002   5.6741299002195267E-002   0.0000000000000000     
   2.6430491648522556E-002   6.2310470536761871E-002   0.0000000000000000     
   2.7741004693743899E-002   6.8062420018529385E-002   0.0000000000000000     
   2.9012201015510972E-002   7.3997147447497760E-002   0.0000000000000000     
   3.0244080613823783E-002   8.0114652823667060E-002   0.0000000000000000     
   2.1297325767073761E-002   5.6366186181274015E-002   0.0000000000000000     
   2.2451375172596738E-002   6.1943906929623323E-002   0.0000000000000000     
   2.3573063819301469E-002   6.7705786734464132E-002   0.0000000000000000     
   2.4662391707187946E-002   7.3651825595796430E-002   0.0000000000000000     
   2.5719358836256177E-002   7.9782023513620265E-002   0.0000000000000000     
   1.7598626660411516E-002   5.6052037873429876E-002   0.0000000000000000     
   1.8555887810547528E-002   6.1637346424847854E-002   0.0000000000000000     
   1.9486887427161818E-002   6.7407849698689112E-002   0.0000000000000000     
   2.0391625510254380E-002   7.3363547694953610E-002   0.0000000000000000     
   2.1270102059825213E-002   7.9504440413641367E-002   0.0000000000000000     
   1.3984564559860222E-002   5.5798854078662877E-002   0.0000000000000000     
   1.4744029562374935E-002   6.1390789022435485E-002   0.0000000000000000     
   1.5482475517324953E-002   6.7168608911204269E-002   0.0000000000000000     
   1.6199902424710269E-002   7.3132313744969230E-002   0.0000000000000000     
   1.6896310284530893E-002   7.9281903523730352E-002   0.0000000000000000     
   3.4844267392528036E-002   8.0502328343781737E-002   0.0000000000000000     
   3.6195995674157003E-002   8.6776456549465586E-002   0.0000000000000000     
   3.7491882031864480E-002   9.3212159584517423E-002   0.0000000000000000     
   3.8731926465650476E-002   9.9809437448937180E-002   0.0000000000000000     
   3.9916128975514983E-002  0.10656829014272490        0.0000000000000000     
   3.0244080613823783E-002   8.0114652823667060E-002   0.0000000000000000     
   3.1429975368487170E-002   8.6404286876747449E-002   0.0000000000000000     
   3.2563217159305949E-002   9.2855400336449151E-002   0.0000000000000000     
   3.3643805986280119E-002   9.9467993202772165E-002   0.0000000000000000     
   3.4671741849409694E-002  0.10624206547571649        0.0000000000000000     
   2.5719358836256177E-002   7.9782023513620265E-002   0.0000000000000000     
   2.6736438278582061E-002   8.6085105214204691E-002   0.0000000000000000     
   2.7706103106241494E-002   9.2549795423818831E-002   0.0000000000000000     
   2.8628353319234481E-002   9.9176094142462659E-002   0.0000000000000000     
   2.9503188917561016E-002  0.10596400137013624        0.0000000000000000     
   2.1270102059825213E-002   7.9504440413641367E-002   0.0000000000000000     
   2.2115384404441673E-002   8.5818911561837352E-002   0.0000000000000000     
   2.2920539872671116E-002   9.2295344846626437E-002   0.0000000000000000     
   2.3685568464513539E-002   9.8933740268008732E-002   0.0000000000000000     
   2.4410470179968936E-002  0.10573409782598414        0.0000000000000000     
   1.6896310284530893E-002   7.9281903523730352E-002   0.0000000000000000     
   1.7566813746066008E-002   8.5605705919645378E-002   0.0000000000000000     
   1.8206527458594808E-002   9.2092048604872023E-002   0.0000000000000000     
   1.8815451422117293E-002   9.8740931579410302E-002   0.0000000000000000     
   1.9393585636633466E-002  0.10555235484326020        0.0000000000000000     
   3.9916128975514983E-002  0.10656829014272490        0.0000000000000000     
   4.1049664272884777E-002  0.11347390162564208        0.0000000000000000     
   4.2137707069186639E-002  0.12051145585745021        0.0000000000000000     
   4.3180257364420563E-002  0.12768095283814934        0.0000000000000000     
   4.4177315158586535E-002  0.13498239256773942        0.0000000000000000     
   3.4671741849409694E-002  0.10624206547571649        0.0000000000000000     
   3.5655922378452526E-002  0.11316297311168613        0.0000000000000000     
   3.6605245203166471E-002  0.12021607206708508        0.0000000000000000     
   3.7519710323551551E-002  0.12740136234191335        0.0000000000000000     
   3.8399317739607731E-002  0.13471884393617090        0.0000000000000000     
   2.9503188917561016E-002  0.10596400137013624        0.0000000000000000     
   3.0340362305454817E-002  0.11289853067052176        0.0000000000000000     
   3.1149625887149601E-002  0.11996469560730144        0.0000000000000000     
   3.1930979662645367E-002  0.12716249618047532        0.0000000000000000     
   3.2684423631942114E-002  0.13449193239004339        0.0000000000000000     
   2.4410470179968936E-002  0.10573409782598414        0.0000000000000000     
   2.5102984053891653E-002  0.11268057430214891        0.0000000000000000     
   2.5770849121136020E-002  0.11975732647809932        0.0000000000000000     
   2.6414065381702025E-002  0.12696435435383530        0.0000000000000000     
   2.7032632835589678E-002  0.13430165792935686        0.0000000000000000     
   1.9393585636633466E-002  0.10555235484326020        0.0000000000000000     
   1.9943787623763039E-002  0.11250910400656766        0.0000000000000000     
   2.0468914905125722E-002  0.11959396467947868        0.0000000000000000     
   2.0968967480721516E-002  0.12680693686199318        0.0000000000000000     
   2.1443945350550428E-002  0.13414802055411126        0.0000000000000000     
   4.4177315158586535E-002  0.13498239256773942        0.0000000000000000     
   4.5123140984063906E-002  0.14240794124866038        0.0000000000000000     
   4.6011995373232008E-002  0.14994976508335212        0.0000000000000000     
   4.6843878326090833E-002  0.15760786407181462        0.0000000000000000     
   4.7618789842640397E-002  0.16538223821404791        0.0000000000000000     
   3.8399317739607731E-002  0.13471884393617090        0.0000000000000000     
   3.9231958638778583E-002  0.14215999226369239        0.0000000000000000     
   4.0005524208507670E-002  0.14971628273831242        0.0000000000000000     
   4.0720014448794972E-002  0.15738771536003099        0.0000000000000000     
   4.1375429359640489E-002  0.16517429012884810        0.0000000000000000     
   3.2684423631942114E-002  0.13449193239004339        0.0000000000000000     
   3.3396303706864007E-002  0.14194829397267780        0.0000000000000000     
   3.4052965799235217E-002  0.14952687066505085        0.0000000000000000     
   3.4654409909055744E-002  0.15722766246716244        0.0000000000000000     
   3.5200636036325582E-002  0.16505066937901261        0.0000000000000000     
   2.7032632835589678E-002  0.13430165792935686        0.0000000000000000     
   2.7616176188320157E-002  0.14177284637561663        0.0000000000000000     
   2.8154320145414649E-002  0.14938152886356731        0.0000000000000000     
   2.8647064706873147E-002  0.15712770539320892        0.0000000000000000     
   2.9094409872695657E-002  0.16501137596454138        0.0000000000000000     
   2.1443945350550428E-002  0.13414802055411126        0.0000000000000000     
   2.1891576083147048E-002  0.14163364947250884        0.0000000000000000     
   2.2309587247045969E-002  0.14928025733386188        0.0000000000000000     
   2.2697978842247193E-002  0.15708784413817045        0.0000000000000000     
   2.3056750868750718E-002  0.16505640988543446        0.0000000000000000     
   0.0000000000000000        0.0000000000000000        0.0000000000000000     
   8.4183858681457146E-004   1.1105573794660695E-003   0.0000000000000000     
   1.7024471358246681E-003   2.5992696496524937E-003   0.0000000000000000     
   2.5818256470302894E-003   4.4661368105592732E-003   0.0000000000000000     
   3.4799741204314359E-003   6.7111588621864065E-003   0.0000000000000000     
   0.0000000000000000        0.0000000000000000        0.0000000000000000     
   6.3409569974525164E-004   1.0944520503540589E-003   0.0000000000000000     
   1.2786019107186271E-003   2.5630586709755403E-003   0.0000000000000000     
   1.9335186329201264E-003   4.4058198618644445E-003   0.0000000000000000     
   2.5988458663497496E-003   6.6227356230207724E-003   0.0000000000000000     
   0.0000000000000000        0.0000000000000000        0.0000000000000000     
   4.2461282858575653E-004   1.0828942344534567E-003   0.0000000000000000     
   8.5374717157603872E-004   2.5370762899875102E-003   0.0000000000000000     
   1.2874030289708462E-003   4.3625461666021610E-003   0.0000000000000000     
   1.7255804007701796E-003   6.5593038642974069E-003   0.0000000000000000     
   0.0000000000000000        0.0000000000000000        0.0000000000000000     
   2.1338997333608613E-004   1.0758839317642633E-003   0.0000000000000000     
   4.2788291839690256E-004   2.5213225066884034E-003   0.0000000000000000     
   6.4347883518244909E-004   4.3363157247724212E-003   0.0000000000000000     
   8.6017772369272603E-004   6.5208635860163153E-003   0.0000000000000000     
   0.0000000000000000        0.0000000000000000        0.0000000000000000     
   4.2713399624045548E-007   1.0734211422864784E-003   0.0000000000000000     
   1.0091511812187516E-006   2.5157973210782202E-003   0.0000000000000000     
   1.7460515549349155E-006   4.3271285363752259E-003   0.0000000000000000     
   2.6378351173891369E-006   6.5074147881774933E-003   0.0000000000000000     
   3.4799741204314359E-003   6.7111588621864065E-003   0.0000000000000000     
   4.3886342445505827E-003   9.2970534282557950E-003   0.0000000000000000     
   5.2995477079102044E-003   1.2186538132489332E-002   0.0000000000000000     
   6.2127145105103018E-003   1.5379612974887023E-002   0.0000000000000000     
   7.1281346523508742E-003   1.8876277955448863E-002   0.0000000000000000     
   2.5988458663497496E-003   6.6227356230207724E-003   0.0000000000000000     
   3.2716315155832416E-003   9.1808355103620825E-003   0.0000000000000000     
   3.9489234851963484E-003   1.2047149079805940E-002   0.0000000000000000     
   4.6307217751890692E-003   1.5221676331352340E-002   0.0000000000000000     
   5.3170263855614030E-003   1.8704417265001293E-002   0.0000000000000000     
   1.7255804007701796E-003   6.5593038642974069E-003   0.0000000000000000     
   2.1684908170962851E-003   9.0974579539891340E-003   0.0000000000000000     
   2.6163458080714092E-003   1.1947117006593217E-002   0.0000000000000000     
   3.0691453736955529E-003   1.5108281022109664E-002   0.0000000000000000     
   3.5268895139687153E-003   1.8580950000538467E-002   0.0000000000000000     
   8.6017772369272603E-004   6.5208635860163153E-003   0.0000000000000000     
   1.0792121490897130E-003   9.0469207591369425E-003   0.0000000000000000     
   1.3018146765353890E-003   1.1886441912851169E-002   0.0000000000000000     
   1.5279853060297553E-003   1.5039427047158984E-002   0.0000000000000000     
   1.7577240375728105E-003   1.8505876162060397E-002   0.0000000000000000     
   2.6378351173891369E-006   6.5074147881774933E-003   0.0000000000000000     
   3.7955115635250749E-006   9.0292239258055185E-003   0.0000000000000000     
   5.3300905882870258E-006   1.1865123798579787E-002   0.0000000000000000     
   7.2415721916748911E-006   1.5015114406500305E-002   0.0000000000000000     
   9.5299563736887761E-006   1.8479195749567075E-002   0.0000000000000000     
   7.1281346523508742E-003   1.8876277955448863E-002   0.0000000000000000     
   8.0389689633788824E-003   2.2650795220180327E-002   0.0000000000000000     
   8.9383782735412906E-003   2.6677426915086878E-002   0.0000000000000000     
   9.8263625828380937E-003   3.0956173040168521E-002   0.0000000000000000     
   1.0702921891269295E-002   3.5487033595425252E-002   0.0000000000000000     
   5.3170263855614030E-003   1.8704417265001293E-002   0.0000000000000000     
   6.0006909929885390E-003   2.2468406730106142E-002   0.0000000000000000     
   6.6745692741456584E-003   2.6486679576020238E-002   0.0000000000000000     
   7.3386612290327648E-003   3.0759235802743586E-002   0.0000000000000000     
   7.9929668576498580E-003   3.5286075410276181E-002   0.0000000000000000     
   3.5268895139687153E-003   1.8580950000538467E-002   0.0000000000000000     
   3.9835369147090821E-003   2.2337215731644489E-002   0.0000000000000000     
   4.4330462617348364E-003   2.6349170005192581E-002   0.0000000000000000     
   4.8754175550459805E-003   3.0616812821182740E-002   0.0000000000000000     
   5.3106507946425142E-003   3.5140144179614967E-002   0.0000000000000000     
   1.7577240375728105E-003   1.8505876162060397E-002   0.0000000000000000     
   1.9875067285405144E-003   2.2257222224795384E-002   0.0000000000000000     
   2.2138092363088247E-003   2.6264898202603908E-002   0.0000000000000000     
   2.4366315608777430E-003   3.0528904095485983E-002   0.0000000000000000     
   2.6559737022472667E-003   3.5049239903441602E-002   0.0000000000000000     
   9.5299563736887761E-006   1.8479195749567075E-002   0.0000000000000000     
   1.2600434482835704E-005   2.2228426209558803E-002   0.0000000000000000     
   1.6858197867622345E-005   2.6233864168254215E-002   0.0000000000000000     
   2.2303246528049507E-005   3.0495509625653318E-002   0.0000000000000000     
   2.8935580464115908E-005   3.5013362581756094E-002   0.0000000000000000     
   1.0702921891269295E-002   3.5487033595425252E-002   0.0000000000000000     
   1.1561159664055028E-002   4.0249210703385808E-002   0.0000000000000000     
   1.2394179366415429E-002   4.5221906486578929E-002   0.0000000000000000     
   1.3201980998350493E-002   5.0405120945004621E-002   0.0000000000000000     
   1.3984564559860222E-002   5.5798854078662877E-002   0.0000000000000000     
   7.9929668576498580E-003   3.5286075410276181E-002   0.0000000000000000     
   8.6328335969414541E-003   4.0046277420945658E-002   0.0000000000000000     
   9.2536088838520748E-003   4.5018920857079613E-002   0.0000000000000000     
   9.8552927183817186E-003   5.0204005718678064E-002   0.0000000000000000     
   1.0437885100530390E-002   5.5601532005741014E-002   0.0000000000000000     
   5.3106507946425142E-003   3.5140144179614967E-002   0.0000000000000000     
   5.7363166493775604E-003   3.9898202444593502E-002   0.0000000000000000     
   6.1499857881042435E-003   4.4870025980222578E-002   0.0000000000000000     
   6.5516582108225635E-003   5.0055614786502188E-002   0.0000000000000000     
   6.9413339175325222E-003   5.5454968863432340E-002   0.0000000000000000     
   2.6559737022472667E-003   3.5049239903441602E-002   0.0000000000000000     
   2.8716088213633474E-003   3.9804985774329352E-002   0.0000000000000000     
   3.0833100791719326E-003   4.4775221856007810E-002   0.0000000000000000     
   3.2910774756730213E-003   4.9959948148476978E-002   0.0000000000000000     
   3.4949110108666156E-003   5.5359164651736847E-002   0.0000000000000000     
   2.8935580464115908E-005   3.5013362581756094E-002   0.0000000000000000     
   3.8710112898815039E-005   3.9766627410153209E-002   0.0000000000000000     
   5.3581757055142345E-005   4.4734508484435317E-002   0.0000000000000000     
   7.3550512933093757E-005   4.9917005804602434E-002   0.0000000000000000     
   9.8616380532672585E-005   5.5314119370654537E-002   0.0000000000000000     
   1.3984564559860222E-002   5.5798854078662877E-002   0.0000000000000000     
   1.4744029562374935E-002   6.1390789022435485E-002   0.0000000000000000     
   1.5482475517324953E-002   6.7168608911204269E-002   0.0000000000000000     
   1.6199902424710269E-002   7.3132313744969230E-002   0.0000000000000000     
   1.6896310284530893E-002   7.9281903523730352E-002   0.0000000000000000     
   1.0437885100530390E-002   5.5601532005741014E-002   0.0000000000000000     
   1.1002800568583696E-002   6.1198432500148663E-002   0.0000000000000000     
   1.1551453660827245E-002   6.6981639983781233E-002   0.0000000000000000     
   1.2083844377261038E-002   7.2951154456638731E-002   0.0000000000000000     
   1.2599972717885079E-002   7.9106975918721137E-002   0.0000000000000000     
   6.9413339175325222E-003   5.5454968863432340E-002   0.0000000000000000     
   7.3192009696785498E-003   6.1054474635749867E-002   0.0000000000000000     
   7.6854474287050764E-003   6.6840518528191561E-002   0.0000000000000000     
   8.0400732946121056E-003   7.2813100540757486E-002   0.0000000000000000     
   8.3830785673996329E-003   7.8972220673447585E-002   0.0000000000000000     
   3.4949110108666156E-003   5.5359164651736847E-002   0.0000000000000000     
   3.6932307656594976E-003   6.0958915429239070E-002   0.0000000000000000     
   3.8844568209584489E-003   6.6745244544435298E-002   0.0000000000000000     
   4.0685891767634685E-003   7.2718151997325509E-002   0.0000000000000000     
   4.2456278330745565E-003   7.8877637787909724E-002   0.0000000000000000     
   9.8616380532672585E-005   5.5314119370654537E-002   0.0000000000000000     
   1.2488995652654015E-004   6.0911754880616294E-002   0.0000000000000000     
   1.4848183758735820E-004   6.6695818032512386E-002   0.0000000000000000     
   1.6939202371512826E-004   7.2666308826342799E-002   0.0000000000000000     
   1.8762051490984880E-004   7.8823227262107526E-002   0.0000000000000000     
   1.6896310284530893E-002   7.9281903523730352E-002   0.0000000000000000     
   1.7566813746066008E-002   8.5605705919645378E-002   0.0000000000000000     
   1.8206527458594808E-002   9.2092048604872023E-002   0.0000000000000000     
   1.8815451422117293E-002   9.8740931579410302E-002   0.0000000000000000     
   1.9393585636633466E-002  0.10555235484326020        0.0000000000000000     
   1.2599972717885079E-002   7.9106975918721137E-002   0.0000000000000000     
   1.3097355388440502E-002   8.5437498047523028E-002   0.0000000000000000     
   1.3573509094668446E-002   9.1931114520538995E-002   0.0000000000000000     
   1.4028433836568916E-002   9.8587825337769011E-002   0.0000000000000000     
   1.4462129614141910E-002  0.10540763049921309        0.0000000000000000     
   8.3830785673996329E-003   7.8972220673447585E-002   0.0000000000000000     
   8.7136384165505884E-003   8.5306297705364492E-002   0.0000000000000000     
   9.0309280115479004E-003   9.1803750415610799E-002   0.0000000000000000     
   9.3349473523915653E-003   9.8464578804186464E-002   0.0000000000000000     
   9.6256964390815849E-003  0.10528878287109159        0.0000000000000000     
   4.2456278330745565E-003   7.8877637787909724E-002   0.0000000000000000     
   4.4156628303962707E-003   8.5212104893169729E-002   0.0000000000000000     
   4.5787842092331627E-003   9.1709956290087408E-002   0.0000000000000000     
   4.7349919695852368E-003   9.8371191978662703E-002   0.0000000000000000     
   4.8842861114524886E-003  0.10519581195889564        0.0000000000000000     
   1.8762051490984880E-004   7.8823227262107526E-002   0.0000000000000000     
   2.0342862997754460E-004   8.5154919610938795E-002   0.0000000000000000     
   2.1707768772423892E-004   9.1649732143968862E-002   0.0000000000000000     
   2.2856768814993243E-004   9.8307664861197672E-002   0.0000000000000000     
   2.3789863125462307E-004  0.10512871776262528        0.0000000000000000     
   1.9393585636633466E-002  0.10555235484326020        0.0000000000000000     
   1.9943787623763039E-002  0.11250910400656766        0.0000000000000000     
   2.0468914905125722E-002  0.11959396467947868        0.0000000000000000     
   2.0968967480721516E-002  0.12680693686199318        0.0000000000000000     
   2.1443945350550428E-002  0.13414802055411126        0.0000000000000000     
   1.4462129614141910E-002  0.10540763049921309        0.0000000000000000     
   1.4872856534166078E-002  0.11237188075766237        0.0000000000000000     
   1.5258874703420078E-002  0.11946192686590797        0.0000000000000000     
   1.5620184121903909E-002  0.12667776882394988        0.0000000000000000     
   1.5956784789617567E-002  0.13401940663178810        0.0000000000000000     
   9.6256964390815849E-003  0.10528878287109159        0.0000000000000000     
   9.9002743041979001E-003  0.11225666552931750        0.0000000000000000     
   1.0155779980320459E-002  0.11934852969185566        0.0000000000000000     
   1.0392213467449257E-002  0.12656437535870610        0.0000000000000000     
   1.0609574765584297E-002  0.13390420252986873        0.0000000000000000     
   4.8842861114524886E-003  0.10519581195889564        0.0000000000000000     
   5.0260409338585025E-003  0.11216345832153306        0.0000000000000000     
   5.1596307358268631E-003  0.11925377315732180        0.0000000000000000     
   5.2850555173575668E-003  0.12646675646626182        0.0000000000000000     
   5.4023152784506171E-003  0.13380240824835321        0.0000000000000000     
   2.3789863125462307E-004  0.10512871776262528        0.0000000000000000     
   2.5015642314788486E-004  0.11209225913430901        0.0000000000000000     
   2.7042696993928995E-004  0.11917765726230629        0.0000000000000000     
   2.9871027162883807E-004  0.12638491214661712        0.0000000000000000     
   3.3500632821652915E-004  0.13371402378724151        0.0000000000000000     
   2.1443945350550428E-002  0.13414802055411126        0.0000000000000000     
   2.1891576083147048E-002  0.14163364947250884        0.0000000000000000     
   2.2309587247045969E-002  0.14928025733386188        0.0000000000000000     
   2.2697978842247193E-002  0.15708784413817045        0.0000000000000000     
   2.3056750868750718E-002  0.16505640988543446        0.0000000000000000     
   1.5956784789617567E-002  0.13401940663178810        0.0000000000000000     
   1.6273986655511000E-002  0.14151346777251564        0.0000000000000000     
   1.6577099668534146E-002  0.14918657972922544        0.0000000000000000     
   1.6866123828687012E-002  0.15703874250191752        0.0000000000000000     
   1.7141059135969590E-002  0.16506995609059189        0.0000000000000000     
   1.0609574765584297E-002  0.13390420252986873        0.0000000000000000     
   1.0814891169578341E-002  0.14139506578479816        0.0000000000000000     
   1.1015189974284155E-002  0.14906401970294875        0.0000000000000000     
   1.1210471179701739E-002  0.15691106428432061        0.0000000000000000     
   1.1400734785831096E-002  0.16493619952891370        0.0000000000000000     
   5.4023152784506171E-003  0.13380240824835321        0.0000000000000000     
   5.5142896253490715E-003  0.14127844350935642        0.0000000000000000     
   5.6238581642959950E-003  0.14891257725503190        0.0000000000000000     
   5.7310208952913843E-003  0.15670480948537976        0.0000000000000000     
   5.8357778183352384E-003  0.16465514020039987        0.0000000000000000     
   3.3500632821652915E-004  0.13371402378724151        0.0000000000000000     
   3.7218202282319427E-004  0.14116360094619040        0.0000000000000000     
   4.0310423856966505E-004  0.14873225238547488        0.0000000000000000     
   4.2777297545593866E-004  0.15641997810509489        0.0000000000000000     
   4.4618823348201771E-004  0.16422677810505046        0.0000000000000000     
   0.0000000000000000        0.0000000000000000        0.0000000000000000     
   4.2713399624045548E-007   1.0734211422864784E-003   0.0000000000000000     
   1.0091511812187516E-006   2.5157973210782202E-003   0.0000000000000000     
   1.7460515549349155E-006   4.3271285363752259E-003   0.0000000000000000     
   2.6378351173891369E-006   6.5074147881774933E-003   0.0000000000000000     
   0.0000000000000000        0.0000000000000000        0.0000000000000000     
  -2.1256963468820850E-004   1.0755370910819227E-003   0.0000000000000000     
  -4.2594509979330014E-004   2.5205739755077240E-003   0.0000000000000000     
  -6.4012639531527474E-004   4.3351106532774032E-003   0.0000000000000000     
  -8.5511352125413253E-004   6.5191471243909614E-003   0.0000000000000000     
   0.0000000000000000        0.0000000000000000        0.0000000000000000     
  -4.2389427797168860E-004   1.0822630032124169E-003   0.0000000000000000     
  -8.5205080424894145E-004   2.5357257123276781E-003   0.0000000000000000     
  -1.2844695788317585E-003   4.3603881273457856E-003   0.0000000000000000     
  -1.7211506017201395E-003   6.5562502482667383E-003   0.0000000000000000     
   0.0000000000000000        0.0000000000000000        0.0000000000000000     
  -6.3354679585419984E-004   1.0935988786779608E-003   0.0000000000000000     
  -1.2773079621857049E-003   2.5612525315380848E-003   0.0000000000000000     
  -1.9312834989945156E-003   4.4029609585803722E-003   0.0000000000000000     
  -2.5954734062806325E-003   6.6187241598048233E-003   0.0000000000000000     
   0.0000000000000000        0.0000000000000000        0.0000000000000000     
  -8.4152718833574219E-004   1.1095447174785541E-003   0.0000000000000000     
  -1.7017165736035915E-003   2.5971544331389422E-003   0.0000000000000000     
  -2.5805681558035477E-003   4.4628291469811631E-003   0.0000000000000000     
  -3.4780819349356108E-003   6.7065688590052181E-003   0.0000000000000000     
   2.6378351173891369E-006   6.5074147881774933E-003   0.0000000000000000     
   3.7955115635250749E-006   9.0292239258055185E-003   0.0000000000000000     
   5.3300905882870258E-006   1.1865123798579787E-002   0.0000000000000000     
   7.2415721916748911E-006   1.5015114406500305E-002   0.0000000000000000     
   9.5299563736887761E-006   1.8479195749567075E-002   0.0000000000000000     
  -8.5511352125413253E-004   6.5191471243909614E-003   0.0000000000000000     
  -1.0719373564124987E-003   9.0446370928040955E-003   0.0000000000000000     
  -1.2916287795930004E-003   1.1883534262472503E-002   0.0000000000000000     
  -1.5141877907956364E-003   1.5035838633396189E-002   0.0000000000000000     
  -1.7396143900204070E-003   1.8501550205575142E-002   0.0000000000000000     
  -1.7211506017201395E-003   6.5562502482667383E-003   0.0000000000000000     
  -2.1621647157685801E-003   9.0934298989419262E-003   0.0000000000000000     
  -2.6075827638315768E-003   1.1942044903222740E-002   0.0000000000000000     
  -3.0574047459091284E-003   1.5102095261109181E-002   0.0000000000000000     
  -3.5116306620012350E-003   1.8573580972601245E-002   0.0000000000000000     
  -2.5954734062806325E-003   6.6187241598048233E-003   0.0000000000000000     
  -3.2668865665047191E-003   9.1756023442190107E-003   0.0000000000000000     
  -3.9425318621274423E-003   1.2040655720830497E-002   0.0000000000000000     
  -4.6224092931487996E-003   1.5213884289639294E-002   0.0000000000000000     
  -5.3065188595687934E-003   1.8695288050645395E-002   0.0000000000000000     
  -3.4780819349356108E-003   6.7065688590052181E-003   0.0000000000000000     
  -4.3861029086209148E-003   9.2911544286353454E-003   0.0000000000000000     
  -5.2964760744805958E-003   1.2179366715295778E-002   0.0000000000000000     
  -6.2092014325146518E-003   1.5371205718986522E-002   0.0000000000000000     
  -7.1242789827230838E-003   1.8866671439707570E-002   0.0000000000000000     
   9.5299563736887761E-006   1.8479195749567075E-002   0.0000000000000000     
   1.2600434482835704E-005   2.2228426209558803E-002   0.0000000000000000     
   1.6858197867622345E-005   2.6233864168254215E-002   0.0000000000000000     
   2.2303246528049507E-005   3.0495509625653318E-002   0.0000000000000000     
   2.8935580464115908E-005   3.5013362581756094E-002   0.0000000000000000     
  -1.7396143900204070E-003   1.8501550205575142E-002   0.0000000000000000     
  -1.9636275642726931E-003   2.2251698616575111E-002   0.0000000000000000     
  -2.1819463005578739E-003   2.6257313503961842E-002   0.0000000000000000     
  -2.3945705988759496E-003   3.0518394867735325E-002   0.0000000000000000     
  -2.6015004592269200E-003   3.5034942707895568E-002   0.0000000000000000     
  -3.5116306620012350E-003   1.8573580972601245E-002   0.0000000000000000     
  -3.9636228645348100E-003   2.2327910376484659E-002   0.0000000000000000     
  -4.4067437059367659E-003   2.6336491811545112E-002   0.0000000000000000     
  -4.8409931862071027E-003   3.0599325277782630E-002   0.0000000000000000     
  -5.2663713053458213E-003   3.5116410775197192E-002   0.0000000000000000     
  -5.3065188595687934E-003   1.8695288050645395E-002   0.0000000000000000     
  -5.9873854663035127E-003   2.2457061489287427E-002   0.0000000000000000     
  -6.6575340182690526E-003   2.6471399091004030E-002   0.0000000000000000     
  -7.3169645154654113E-003   3.0738300855795209E-002   0.0000000000000000     
  -7.9656769578925878E-003   3.5257766783660952E-002   0.0000000000000000     
  -7.1242789827230838E-003   1.8866671439707570E-002   0.0000000000000000     
  -8.0349153695788052E-003   2.2639151954983432E-002   0.0000000000000000     
  -8.9343172375547369E-003   2.6662035342338596E-002   0.0000000000000000     
  -9.8224845866508748E-003   3.0935321601773067E-002   0.0000000000000000     
  -1.0699417416867219E-002   3.5459010733286847E-002   0.0000000000000000     
   2.8935580464115908E-005   3.5013362581756094E-002   0.0000000000000000     
   3.8710112898815039E-005   3.9766627410153209E-002   0.0000000000000000     
   5.3581757055142345E-005   4.4734508484435317E-002   0.0000000000000000     
   7.3550512933093757E-005   4.9917005804602434E-002   0.0000000000000000     
   9.8616380532672585E-005   5.5314119370654537E-002   0.0000000000000000     
  -2.6015004592269200E-003   3.5034942707895568E-002   0.0000000000000000     
  -2.7989760897563789E-003   3.9786478894631980E-002   0.0000000000000000     
  -2.9832376986099231E-003   4.4752525298133963E-002   0.0000000000000000     
  -3.1542852857875509E-003   4.9933081918401512E-002   0.0000000000000000     
  -3.3121188512892619E-003   5.5328148755434625E-002   0.0000000000000000     
  -5.2663713053458213E-003   3.5116410775197192E-002   0.0000000000000000     
  -5.6780464003425854E-003   3.9867891770332578E-002   0.0000000000000000     
  -6.0711868081870608E-003   4.4833911729732584E-002   0.0000000000000000     
  -6.4457925288792474E-003   5.0014470653397161E-002   0.0000000000000000     
  -6.8018635624191442E-003   5.5409568541326358E-002   0.0000000000000000     
  -7.9656769578925878E-003   3.5257766783660952E-002   0.0000000000000000     
  -8.5985008188597997E-003   4.0010866037255018E-002   0.0000000000000000     
  -9.2102655716762676E-003   4.4978667779231166E-002   0.0000000000000000     
  -9.8009712163419915E-003   5.0161172009589396E-002   0.0000000000000000     
  -1.0370617752856973E-002   5.5558378728329701E-002   0.0000000000000000     
  -1.0699417416867219E-002   3.5459010733286847E-002   0.0000000000000000     
  -1.1560339345308028E-002   4.0215401695399285E-002   0.0000000000000000     
  -1.2400473989077548E-002   4.5186793446629743E-002   0.0000000000000000     
  -1.3219821348175793E-002   5.0373185986978208E-002   0.0000000000000000     
  -1.4018381422602748E-002   5.5774579316444695E-002   0.0000000000000000     
   9.8616380532672585E-005   5.5314119370654537E-002   0.0000000000000000     
   1.2488995652654015E-004   6.0911754880616294E-002   0.0000000000000000     
   1.4848183758735820E-004   6.6695818032512386E-002   0.0000000000000000     
   1.6939202371512826E-004   7.2666308826342799E-002   0.0000000000000000     
   1.8762051490984880E-004   7.8823227262107526E-002   0.0000000000000000     
  -3.3121188512892619E-003   5.5328148755434625E-002   0.0000000000000000     
  -3.4622928846280419E-003   6.0923468359287566E-002   0.0000000000000000     
  -3.6103618753168748E-003   6.6704783280014571E-002   0.0000000000000000     
  -3.7563258233557603E-003   7.2672093517615666E-002   0.0000000000000000     
  -3.9001847287446975E-003   7.8825399072090810E-002   0.0000000000000000     
  -6.8018635624191442E-003   5.5409568541326358E-002   0.0000000000000000     
  -7.1447891847119674E-003   6.1004531234658904E-002   0.0000000000000000     
  -7.4799586716629328E-003   6.6784684574533598E-002   0.0000000000000000     
  -7.8073720232720422E-003   7.2750028560950419E-002   0.0000000000000000     
  -8.1270292395392903E-003   7.8900563193909395E-002   0.0000000000000000     
  -1.0370617752856973E-002   5.5558378728329701E-002   0.0000000000000000     
  -1.0922598943725239E-002   6.1154943506730307E-002   0.0000000000000000     
  -1.1460308551450820E-002   6.6935521916069426E-002   0.0000000000000000     
  -1.1983746576033717E-002   7.2900113956347087E-002   0.0000000000000000     
  -1.2492913017473928E-002   7.9048719627563241E-002   0.0000000000000000     
  -1.4018381422602748E-002   5.5774579316444695E-002   0.0000000000000000     
  -1.4795722161667853E-002   6.1374705175501802E-002   0.0000000000000000     
  -1.5551411514680532E-002   6.7157295304622111E-002   0.0000000000000000     
  -1.6285449481640790E-002   7.3122349703805628E-002   0.0000000000000000     
  -1.6997836062548614E-002   7.9269868373052388E-002   0.0000000000000000     
   1.8762051490984880E-004   7.8823227262107526E-002   0.0000000000000000     
   2.0342862997754460E-004   8.5154919610938795E-002   0.0000000000000000     
   2.1707768772423892E-004   9.1649732143968862E-002   0.0000000000000000     
   2.2856768814993243E-004   9.8307664861197672E-002   0.0000000000000000     
   2.3789863125462307E-004  0.10512871776262528        0.0000000000000000     
  -3.9001847287446975E-003   7.8825399072090810E-002   0.0000000000000000     
  -4.0416179779321068E-003   8.5153060886386175E-002   0.0000000000000000     
  -4.1803049573664059E-003   9.1643439903447879E-002   0.0000000000000000     
  -4.3162456670475958E-003   9.8296536123275907E-002   0.0000000000000000     
  -4.4494401069756755E-003  0.10511234954587027        0.0000000000000000     
  -8.1270292395392903E-003   7.8900563193909395E-002   0.0000000000000000     
  -8.4380307865592041E-003   8.5224847747226370E-002   0.0000000000000000     
  -8.7394771304263059E-003   9.1711441494717189E-002   0.0000000000000000     
  -9.0313682711405940E-003   9.8360344436381891E-002   0.0000000000000000     
  -9.3137042087020703E-003  0.10517155657222044        0.0000000000000000     
  -1.2492913017473928E-002   7.9048719627563241E-002   0.0000000000000000     
  -1.2985809795903747E-002   8.5370280193459352E-002   0.0000000000000000     
  -1.3460438831455456E-002   9.1853736917776832E-002   0.0000000000000000     
  -1.3916800124129061E-002   9.8499089800515624E-002   0.0000000000000000     
  -1.4354893673924559E-002  0.10530633884167578        0.0000000000000000     
  -1.6997836062548614E-002   7.9269868373052388E-002   0.0000000000000000     
  -1.7684955005965734E-002   8.5589358225085149E-002   0.0000000000000000     
  -1.8343190060453866E-002   9.2070326172626740E-002   0.0000000000000000     
  -1.8972541226013002E-002   9.8712772215677119E-002   0.0000000000000000     
  -1.9573008502643149E-002  0.10551669635423630        0.0000000000000000     
   2.3789863125462307E-004  0.10512871776262528        0.0000000000000000     
   2.5015642314788486E-004  0.11209225913430901        0.0000000000000000     
   2.7042696993928995E-004  0.11917765726230629        0.0000000000000000     
   2.9871027162883807E-004  0.12638491214661712        0.0000000000000000     
   3.3500632821652915E-004  0.13371402378724151        0.0000000000000000     
  -4.4494401069756755E-003  0.10511234954587027        0.0000000000000000     
  -4.5696761383634196E-003  0.11207066937798123        0.0000000000000000     
  -4.6667416224236051E-003  0.11915128482635903        0.0000000000000000     
  -4.7406365591562303E-003  0.12635419589100369        0.0000000000000000     
  -4.7913609485612978E-003  0.13367940257191518        0.0000000000000000     
  -9.3137042087020703E-003  0.10517155657222044        0.0000000000000000     
  -9.5757536611048785E-003  0.11212629046288554        0.0000000000000000     
  -9.8067853463431696E-003  0.11920575866902980        0.0000000000000000     
  -1.0006799264416942E-002  0.12640996119065326        0.0000000000000000     
  -1.0175795415326197E-002  0.13373889802775590        0.0000000000000000     
  -1.4354893673924559E-002  0.10530633884167578        0.0000000000000000     
  -1.4768076145076492E-002  0.11225912238902191        0.0000000000000000     
  -1.5149704201819405E-002  0.11934107879031859        0.0000000000000000     
  -1.5499777844153297E-002  0.12655220804556586        0.0000000000000000     
  -1.5818297072078165E-002  0.13389251015476364        0.0000000000000000     
  -1.9573008502643149E-002  0.10551669635423630        0.0000000000000000     
  -2.0146643590278263E-002  0.11246916515639038        0.0000000000000000     
  -2.0695498188852308E-002  0.11955724519022543        0.0000000000000000     
  -2.1219572298365290E-002  0.12678093645574146        0.0000000000000000     
  -2.1718865918817207E-002  0.13414023895293839        0.0000000000000000     
   3.3500632821652915E-004  0.13371402378724151        0.0000000000000000     
   3.7218202282319427E-004  0.14116360094619040        0.0000000000000000     
   4.0310423856966505E-004  0.14873225238547488        0.0000000000000000     
   4.2777297545593866E-004  0.15641997810509489        0.0000000000000000     
   4.4618823348201771E-004  0.16422677810505046        0.0000000000000000     
  -4.7913609485612978E-003  0.13367940257191518        0.0000000000000000     
  -4.8351616840219876E-003  0.14110667308198818        0.0000000000000000     
  -4.8882856589214825E-003  0.14861577563411721        0.0000000000000000     
  -4.9507328732597815E-003  0.15620671022830232        0.0000000000000000     
  -5.0225033270368882E-003  0.16387947686454354        0.0000000000000000     
  -1.0175795415326197E-002  0.13373889802775590        0.0000000000000000     
  -1.0331471541209164E-002  0.14116379490343769        0.0000000000000000     
  -1.0491525384204088E-002  0.14865587754079851        0.0000000000000000     
  -1.0655956944310969E-002  0.15621514593983837        0.0000000000000000     
  -1.0824766221529798E-002  0.16384160010055726        0.0000000000000000     
  -1.5818297072078165E-002  0.13389251015476364        0.0000000000000000     
  -1.6116747548738340E-002  0.14133496641053897        0.0000000000000000     
  -1.6406614937278161E-002  0.14885255810551873        0.0000000000000000     
  -1.6687899237697618E-002  0.15644528523970297        0.0000000000000000     
  -1.6960600449996713E-002  0.16411314781309161        0.0000000000000000     
  -2.1718865918817207E-002  0.13414023895293839        0.0000000000000000     
  -2.2190989706609515E-002  0.14162018760329201        0.0000000000000000     
  -2.2633554318143692E-002  0.14920581732827792        0.0000000000000000     
  -2.3046559753419727E-002  0.15689712812789608        0.0000000000000000     
  -2.3430006012437631E-002  0.16469412000214656        0.0000000000000000     
   0.0000000000000000        0.0000000000000000        0.0000000000000000     
  -8.4152718833574219E-004   1.1095447174785541E-003   0.0000000000000000     
  -1.7017165736035915E-003   2.5971544331389422E-003   0.0000000000000000     
  -2.5805681558035477E-003   4.4628291469811631E-003   0.0000000000000000     
  -3.4780819349356108E-003   6.7065688590052181E-003   0.0000000000000000     
   0.0000000000000000        0.0000000000000000        0.0000000000000000     
  -1.0566935387194378E-003   1.1336579810716299E-003   0.0000000000000000     
  -2.1397052190659255E-003   2.6492859205839532E-003   0.0000000000000000     
  -3.2490350410394630E-003   4.5468838185369707E-003   0.0000000000000000     
  -4.3846830046400508E-003   6.8264516749306807E-003   0.0000000000000000     
   0.0000000000000000        0.0000000000000000        0.0000000000000000     
  -1.2879039303084084E-003   1.1694961309146208E-003   0.0000000000000000     
  -2.6057024791360322E-003   2.7235014973268227E-003   0.0000000000000000     
  -3.9533956464828726E-003   4.6620160992366065E-003   0.0000000000000000     
  -5.3309834323489284E-003   6.9850399366439700E-003   0.0000000000000000     
   0.0000000000000000        0.0000000000000000        0.0000000000000000     
  -1.5351583631026545E-003   1.2170591670075265E-003   0.0000000000000000     
  -3.0997083538139136E-003   2.8198011633675502E-003   0.0000000000000000     
  -4.6936499721337765E-003   4.8082259890800715E-003   0.0000000000000000     
  -6.3169832180622436E-003   7.1823336441450888E-003   0.0000000000000000     
   0.0000000000000000        0.0000000000000000        0.0000000000000000     
  -1.7984568371021757E-003   1.2763470893503472E-003   0.0000000000000000     
  -3.6217228430995667E-003   2.9381849187061354E-003   0.0000000000000000     
  -5.4697980179921734E-003   4.9855134880673647E-003   0.0000000000000000     
  -7.3426823617799963E-003   7.4183327974340334E-003   0.0000000000000000     
  -3.4780819349356108E-003   6.7065688590052181E-003   0.0000000000000000     
  -4.3861029086209148E-003   9.2911544286353454E-003   0.0000000000000000     
  -5.2964760744805958E-003   1.2179366715295778E-002   0.0000000000000000     
  -6.2092014325146518E-003   1.5371205718986522E-002   0.0000000000000000     
  -7.1242789827230838E-003   1.8866671439707570E-002   0.0000000000000000     
  -4.3846830046400508E-003   6.8264516749306807E-003   0.0000000000000000     
  -5.5338642172094200E-003   9.4461570789515503E-003   0.0000000000000000     
  -6.6837937860893060E-003   1.2364167619786051E-002   0.0000000000000000     
  -7.8344717112797044E-003   1.5580483297434181E-002   0.0000000000000000     
  -8.9858979927806178E-003   1.9095104111895939E-002   0.0000000000000000     
  -5.3309834323489284E-003   6.9850399366439700E-003   0.0000000000000000     
  -6.7242209673624874E-003   9.6466812219282508E-003   0.0000000000000000     
  -8.1188633821518384E-003   1.2601048167468791E-002   0.0000000000000000     
  -9.5149106767169790E-003   1.5848140773265584E-002   0.0000000000000000     
  -1.0912362851057910E-002   1.9387959039318631E-002   0.0000000000000000     
  -6.3169832180622436E-003   7.1823336441450888E-003   0.0000000000000000     
  -7.9571731590801151E-003   9.8927268575654467E-003   0.0000000000000000     
  -9.6016848626681930E-003   1.2890008358343997E-002   0.0000000000000000     
  -1.1250518328826476E-002   1.6174178146480735E-002   0.0000000000000000     
  -1.2903673557554965E-002   1.9745236221975659E-002   0.0000000000000000     
  -7.3426823617799963E-003   7.4183327974340334E-003   0.0000000000000000     
  -9.2327207923623041E-003   1.0184293985863138E-002   0.0000000000000000     
  -1.1132258227638371E-002   1.3231048192411670E-002   0.0000000000000000     
  -1.3041294667608193E-002   1.6558595417079630E-002   0.0000000000000000     
  -1.4959830112271772E-002   2.0166935659867012E-002   0.0000000000000000     
  -7.1242789827230838E-003   1.8866671439707570E-002   0.0000000000000000     
  -8.0349153695788052E-003   2.2639151954983432E-002   0.0000000000000000     
  -8.9343172375547369E-003   2.6662035342338596E-002   0.0000000000000000     
  -9.8224845866508748E-003   3.0935321601773067E-002   0.0000000000000000     
  -1.0699417416867219E-002   3.5459010733286847E-002   0.0000000000000000     
  -8.9858979927806178E-003   1.9095104111895939E-002   0.0000000000000000     
  -1.0131231700384878E-002   2.2882336492957050E-002   0.0000000000000000     
  -1.1263631903885317E-002   2.6916486870403239E-002   0.0000000000000000     
  -1.2383098603281932E-002   3.1197555244234502E-002   0.0000000000000000     
  -1.3489631798574729E-002   3.5725541614450851E-002   0.0000000000000000     
  -1.0912362851057910E-002   1.9387959039318631E-002   0.0000000000000000     
  -1.2301353584745919E-002   2.3194769822592661E-002   0.0000000000000000     
  -1.3672016557352295E-002   2.7242839980052388E-002   0.0000000000000000     
  -1.5024351768877026E-002   3.1532169511697815E-002   0.0000000000000000     
  -1.6358359219320124E-002   3.6062758417528942E-002   0.0000000000000000     
  -1.2903673557554965E-002   1.9745236221975659E-002   0.0000000000000000     
  -1.4545281022661933E-002   2.3576451943890263E-002   0.0000000000000000     
  -1.6159471197955667E-002   2.7641094671286046E-002   0.0000000000000000     
  -1.7746244083436166E-002   3.1939164404162994E-002   0.0000000000000000     
  -1.9305599679103416E-002   3.6470661142521121E-002   0.0000000000000000     
  -1.4959830112271772E-002   2.0166935659867012E-002   0.0000000000000000     
  -1.6863014014132916E-002   2.4027382856849862E-002   0.0000000000000000     
  -1.8725995825695438E-002   2.8111250944104205E-002   0.0000000000000000     
  -2.0548775546959327E-002   3.2418539921630032E-002   0.0000000000000000     
  -2.2331353177924593E-002   3.6949249789427367E-002   0.0000000000000000     
  -1.0699417416867219E-002   3.5459010733286847E-002   0.0000000000000000     
  -1.1560339345308028E-002   4.0215401695399285E-002   0.0000000000000000     
  -1.2400473989077548E-002   4.5186793446629743E-002   0.0000000000000000     
  -1.3219821348175793E-002   5.0373185986978208E-002   0.0000000000000000     
  -1.4018381422602748E-002   5.5774579316444695E-002   0.0000000000000000     
  -1.3489631798574729E-002   3.5725541614450851E-002   0.0000000000000000     
  -1.4579222117373461E-002   4.0484422582630443E-002   0.0000000000000000     
  -1.5647860187287897E-002   4.5458174750351438E-002   0.0000000000000000     
  -1.6695546008318032E-002   5.0646798117613842E-002   0.0000000000000000     
  -1.7722279580463865E-002   5.6050292684417649E-002   0.0000000000000000     
  -1.6358359219320124E-002   3.6062758417528942E-002   0.0000000000000000     
  -1.7670809272742311E-002   4.0820852536813550E-002   0.0000000000000000     
  -1.8958472293204309E-002   4.5792697708819413E-002   0.0000000000000000     
  -2.0221348280706111E-002   5.0978293933546519E-002   0.0000000000000000     
  -2.1459437235247722E-002   5.6377641210994901E-002   0.0000000000000000     
  -1.9305599679103416E-002   3.6470661142521121E-002   0.0000000000000000     
  -2.0835100811414573E-002   4.1224691557948605E-002   0.0000000000000000     
  -2.2332310306826780E-002   4.6190362322033655E-002   0.0000000000000000     
  -2.3797228165340030E-002   5.1367673434776273E-002   0.0000000000000000     
  -2.5229854386954329E-002   5.6756624896176458E-002   0.0000000000000000     
  -2.2331353177924593E-002   3.6949249789427367E-002   0.0000000000000000     
  -2.4072096733390252E-002   4.1695939646035615E-002   0.0000000000000000     
  -2.5769374228155315E-002   4.6651168589994185E-002   0.0000000000000000     
  -2.7423185662219789E-002   5.1814936621303084E-002   0.0000000000000000     
  -2.9033531035583666E-002   5.7187243739962312E-002   0.0000000000000000     
  -1.4018381422602748E-002   5.5774579316444695E-002   0.0000000000000000     
  -1.4795722161667853E-002   6.1374705175501802E-002   0.0000000000000000     
  -1.5551411514680532E-002   6.7157295304622111E-002   0.0000000000000000     
  -1.6285449481640790E-002   7.3122349703805628E-002   0.0000000000000000     
  -1.6997836062548614E-002   7.9269868373052388E-002   0.0000000000000000     
  -1.7722279580463865E-002   5.6050292684417649E-002   0.0000000000000000     
  -1.8724018003097226E-002   6.1651769804924261E-002   0.0000000000000000     
  -1.9696718375589919E-002   6.7434340833295109E-002   0.0000000000000000     
  -2.0640380697941961E-002   7.3398005769530178E-002   0.0000000000000000     
  -2.1555004970153332E-002   7.9542764613629469E-002   0.0000000000000000     
  -2.1459437235247722E-002   5.6377641210994901E-002   0.0000000000000000     
  -2.2667345632570762E-002   6.1974090958948673E-002   0.0000000000000000     
  -2.3839679948416827E-002   6.7750994595191960E-002   0.0000000000000000     
  -2.4976440182785931E-002   7.3708352119724804E-002   0.0000000000000000     
  -2.6077626335678061E-002   7.9846163532547171E-002   0.0000000000000000     
  -2.5229854386954329E-002   5.6756624896176458E-002   0.0000000000000000     
  -2.6625705050088471E-002   6.2341668637574982E-002   0.0000000000000000     
  -2.7980296233161259E-002   6.8107256590312651E-002   0.0000000000000000     
  -2.9293627936172715E-002   7.4053388754389479E-002   0.0000000000000000     
  -3.0565700159122813E-002   8.0180065129805439E-002   0.0000000000000000     
  -2.9033531035583666E-002   5.7187243739962312E-002   0.0000000000000000     
  -3.0599096255650347E-002   6.2754502840803222E-002   0.0000000000000000     
  -3.2118567229823224E-002   6.8503126818657195E-002   0.0000000000000000     
  -3.3591943958102298E-002   7.4433115673524244E-002   0.0000000000000000     
  -3.5019226440487571E-002   8.0544469405404329E-002   0.0000000000000000     
  -1.6997836062548614E-002   7.9269868373052388E-002   0.0000000000000000     
  -1.7684955005965734E-002   8.5589358225085149E-002   0.0000000000000000     
  -1.8343190060453866E-002   9.2070326172626740E-002   0.0000000000000000     
  -1.8972541226013002E-002   9.8712772215677119E-002   0.0000000000000000     
  -1.9573008502643149E-002  0.10551669635423630        0.0000000000000000     
  -2.1555004970153332E-002   7.9542764613629469E-002   0.0000000000000000     
  -2.2435404839599857E-002   8.5858539511335985E-002   0.0000000000000000     
  -2.3276393953657357E-002   9.2335252608392718E-002   0.0000000000000000     
  -2.4077972312325824E-002   9.8972903904799667E-002   0.0000000000000000     
  -2.4840139915605252E-002  0.10577149340055683        0.0000000000000000     
  -2.6077626335678061E-002   7.9846163532547171E-002   0.0000000000000000     
  -2.7137097719660816E-002   8.6154281721444070E-002   0.0000000000000000     
  -2.8148713647301770E-002   9.2622559574200541E-002   0.0000000000000000     
  -2.9112474118600934E-002   9.9250997090816570E-002   0.0000000000000000     
  -3.0028379133558294E-002  0.10603959427129214        0.0000000000000000     
  -3.0565700159122813E-002   8.0180065129805439E-002   0.0000000000000000     
  -3.1790033646148602E-002   8.6476584855409391E-002   0.0000000000000000     
  -3.2960149141387104E-002   9.2932247070050197E-002   0.0000000000000000     
  -3.4076046644838341E-002   9.9547051773727815E-002   0.0000000000000000     
  -3.5137726156502284E-002  0.10632099896644229        0.0000000000000000     
  -3.5019226440487571E-002   8.0544469405404329E-002   0.0000000000000000     
  -3.6394212619063213E-002   8.6825448913231962E-002   0.0000000000000000     
  -3.7710700435913368E-002   9.3264315095941686E-002   0.0000000000000000     
  -3.8968689891038022E-002   9.9861067953533431E-002   0.0000000000000000     
  -4.0168180984437210E-002  0.10661570748600727        0.0000000000000000     
  -1.9573008502643149E-002  0.10551669635423630        0.0000000000000000     
  -2.0146643590278263E-002  0.11246916515639038        0.0000000000000000     
  -2.0695498188852308E-002  0.11955724519022543        0.0000000000000000     
  -2.1219572298365290E-002  0.12678093645574146        0.0000000000000000     
  -2.1718865918817207E-002  0.13414023895293839        0.0000000000000000     
  -2.4840139915605252E-002  0.10577149340055683        0.0000000000000000     
  -2.5573501531233864E-002  0.11272132444611634        0.0000000000000000     
  -2.6288661926949879E-002  0.11981270039193034        0.0000000000000000     
  -2.6985621102753293E-002  0.12704562123799884        0.0000000000000000     
  -2.7664379058644103E-002  0.13442008698432181        0.0000000000000000     
  -3.0028379133558294E-002  0.10603959427129214        0.0000000000000000     
  -3.0910695502466980E-002  0.11298050593932513        0.0000000000000000     
  -3.1773690035620104E-002  0.12006588691861338        0.0000000000000000     
  -3.2617362733017664E-002  0.12729573720915685        0.0000000000000000     
  -3.3441713594659660E-002  0.13467005681095556        0.0000000000000000     
  -3.5137726156502284E-002  0.10632099896644229        0.0000000000000000     
  -3.6158225503977612E-002  0.11324670963601680        0.0000000000000000     
  -3.7150582514862987E-002  0.12031680477027451        0.0000000000000000     
  -3.8114797189158382E-002  0.12753128436921549        0.0000000000000000     
  -3.9050869526863853E-002  0.13489014843283964        0.0000000000000000     
  -4.0168180984437210E-002  0.10661570748600727        0.0000000000000000     
  -4.1316091535765757E-002  0.11351993553619133        0.0000000000000000     
  -4.2419339364678517E-002  0.12056545394691381        0.0000000000000000     
  -4.3477924471175503E-002  0.12775226271817472        0.0000000000000000     
  -4.4491846855256700E-002  0.13508036184997402        0.0000000000000000     
  -2.1718865918817207E-002  0.13414023895293839        0.0000000000000000     
  -2.2190989706609515E-002  0.14162018760329201        0.0000000000000000     
  -2.2633554318143692E-002  0.14920581732827792        0.0000000000000000     
  -2.3046559753419727E-002  0.15689712812789608        0.0000000000000000     
  -2.3430006012437631E-002  0.16469412000214656        0.0000000000000000     
  -2.7664379058644103E-002  0.13442008698432181        0.0000000000000000     
  -2.8308906206887696E-002  0.14193295670475542        0.0000000000000000     
  -2.8903172959749448E-002  0.14958108947315571        0.0000000000000000     
  -2.9447179317229351E-002  0.15736448528952268        0.0000000000000000     
  -2.9940925279327419E-002  0.16528314415385637        0.0000000000000000     
  -3.3441713594659660E-002  0.13467005681095556        0.0000000000000000     
  -3.4225205241637892E-002  0.14218677193798782        0.0000000000000000     
  -3.4946300295044190E-002  0.14984380880423182        0.0000000000000000     
  -3.5604998754878540E-002  0.15764116740968762        0.0000000000000000     
  -3.6201300621140943E-002  0.16557884775435516        0.0000000000000000     
  -3.9050869526863853E-002  0.13489014843283964        0.0000000000000000     
  -3.9939886810860102E-002  0.14238163330298920        0.0000000000000000     
  -4.0762936324027908E-002  0.14999397532150624        0.0000000000000000     
  -4.1520018066367279E-002  0.15772717448839088        0.0000000000000000     
  -4.2211132037878206E-002  0.16558123080364298        0.0000000000000000     
  -4.4491846855256700E-002  0.13508036184997402        0.0000000000000000     
  -4.5452950914554327E-002  0.14251754079975953        0.0000000000000000     
  -4.6353081046700627E-002  0.15003158902497901        0.0000000000000000     
  -4.7192237251695579E-002  0.15762250652563245        0.0000000000000000     
  -4.7970419529539197E-002  0.16529029330171985        0.0000000000000000     
   0.0000000000000000        0.0000000000000000        0.0000000000000000     
  -1.7984568371021757E-003   1.2763470893503472E-003   0.0000000000000000     
  -3.6217228430995667E-003   2.9381849187061354E-003   0.0000000000000000     
  -5.4697980179921734E-003   4.9855134880673647E-003   0.0000000000000000     
  -7.3426823617799963E-003   7.4183327974340334E-003   0.0000000000000000     
   0.0000000000000000        0.0000000000000000        0.0000000000000000     
  -2.0695609573817535E-003   1.3544791294527532E-003   0.0000000000000000     
  -4.1644459870883305E-003   3.0931360074633544E-003   0.0000000000000000     
  -6.2846550891197325E-003   5.2159706340318031E-003   0.0000000000000000     
  -8.4301882634759562E-003   7.7229830091580989E-003   0.0000000000000000     
   0.0000000000000000        0.0000000000000000        0.0000000000000000     
  -2.3402323290161705E-003   1.4585745188244155E-003   0.0000000000000000     
  -4.7205778258755434E-003   3.2991376737599829E-003   0.0000000000000000     
  -7.1410364905781188E-003   5.5216894648067024E-003   0.0000000000000000     
  -9.6016083231238968E-003   8.1262298919645738E-003   0.0000000000000000     
   0.0000000000000000        0.0000000000000000        0.0000000000000000     
  -2.6104709520054260E-003   1.5886332574653332E-003   0.0000000000000000     
  -5.2901183594612029E-003   3.5561899175960208E-003   0.0000000000000000     
  -8.0389422223673315E-003   5.9026699803920628E-003   0.0000000000000000     
  -1.0856942540723813E-002   8.6280734458534600E-003   0.0000000000000000     
   0.0000000000000000        0.0000000000000000        0.0000000000000000     
  -2.8802768263495203E-003   1.7446553453755070E-003   0.0000000000000000     
  -5.8730675878453124E-003   3.8642927389714687E-003   0.0000000000000000     
  -8.9783722844873765E-003   6.3589121807878851E-003   0.0000000000000000     
  -1.2196190916275711E-002   9.2285136708247541E-003   0.0000000000000000     
  -7.3426823617799963E-003   7.4183327974340334E-003   0.0000000000000000     
  -9.2327207923623041E-003   1.0184293985863138E-002   0.0000000000000000     
  -1.1132258227638371E-002   1.3231048192411670E-002   0.0000000000000000     
  -1.3041294667608193E-002   1.6558595417079630E-002   0.0000000000000000     
  -1.4959830112271772E-002   2.0166935659867012E-002   0.0000000000000000     
  -8.4301882634759562E-003   7.7229830091580989E-003   0.0000000000000000     
  -1.0592610877277130E-002   1.0556708187313019E-002   0.0000000000000000     
  -1.2763488297643382E-002   1.3659681222967342E-002   0.0000000000000000     
  -1.4942820524574711E-002   1.7031902116121066E-002   0.0000000000000000     
  -1.7130607558071116E-002   2.0673370866774191E-002   0.0000000000000000     
  -9.6016083231238968E-003   8.1262298919645738E-003   0.0000000000000000     
  -1.2078590423892673E-002   1.1045295042406792E-002   0.0000000000000000     
  -1.4548279893264246E-002   1.4211421003306546E-002   0.0000000000000000     
  -1.7010676731238607E-002   1.7624607774663844E-002   0.0000000000000000     
  -1.9465780937815771E-002   2.1284855356478678E-002   0.0000000000000000     
  -1.0856942540723813E-002   8.6280734458534600E-003   0.0000000000000000     
  -1.3690659432208927E-002   1.1650054551144453E-002   0.0000000000000000     
  -1.6486633014500950E-002   1.4886267533429285E-002   0.0000000000000000     
  -1.9244863287599893E-002   1.8336712392707958E-002   0.0000000000000000     
  -2.1965350251505741E-002   2.2001389128980468E-002   0.0000000000000000     
  -1.2196190916275711E-002   9.2285136708247541E-003   0.0000000000000000     
  -1.5428817902225892E-002   1.2370986713526006E-002   0.0000000000000000     
  -1.8578547661353507E-002   1.5684220813335557E-002   0.0000000000000000     
  -2.1645380193658546E-002   1.9168215970253415E-002   0.0000000000000000     
  -2.4629315499141019E-002   2.2822972184279578E-002   0.0000000000000000     
  -1.4959830112271772E-002   2.0166935659867012E-002   0.0000000000000000     
  -1.6863014014132916E-002   2.4027382856849862E-002   0.0000000000000000     
  -1.8725995825695438E-002   2.8111250944104205E-002   0.0000000000000000     
  -2.0548775546959327E-002   3.2418539921630032E-002   0.0000000000000000     
  -2.2331353177924593E-002   3.6949249789427367E-002   0.0000000000000000     
  -1.7130607558071116E-002   2.0673370866774191E-002   0.0000000000000000     
  -1.9295929541469161E-002   2.4556800443306326E-002   0.0000000000000000     
  -2.1407866618105419E-002   2.8654903814097070E-002   0.0000000000000000     
  -2.3466418787979879E-002   3.2967680979146444E-002   0.0000000000000000     
  -2.5471586051092548E-002   3.7495131938454426E-002   0.0000000000000000     
  -1.9465780937815771E-002   2.1284855356478678E-002   0.0000000000000000     
  -2.1885404586980964E-002   2.5173942585094519E-002   0.0000000000000000     
  -2.4241359752719432E-002   2.9273648296854859E-002   0.0000000000000000     
  -2.6533646435031161E-002   3.3583972491759692E-002   0.0000000000000000     
  -2.8762264633916158E-002   3.8104915169809003E-002   0.0000000000000000     
  -2.1965350251505741E-002   2.2001389128980468E-002   0.0000000000000000     
  -2.4631439150668327E-002   2.5878809282214456E-002   0.0000000000000000     
  -2.7226475229537472E-002   2.9967484392377564E-002   0.0000000000000000     
  -2.9750458488113175E-002   3.4267414459469778E-002   0.0000000000000000     
  -3.2203388926395425E-002   3.8778599483491105E-002   0.0000000000000000     
  -2.4629315499141019E-002   2.2822972184279578E-002   0.0000000000000000     
  -2.7534033232531240E-002   2.6671400534666136E-002   0.0000000000000000     
  -3.0363213048559538E-002   3.0736412100665179E-002   0.0000000000000000     
  -3.3116854947225917E-002   3.5018006882276714E-002   0.0000000000000000     
  -3.5794958928530365E-002   3.9516184879500732E-002   0.0000000000000000     
  -2.2331353177924593E-002   3.6949249789427367E-002   0.0000000000000000     
  -2.4072096733390252E-002   4.1695939646035615E-002   0.0000000000000000     
  -2.5769374228155315E-002   4.6651168589994185E-002   0.0000000000000000     
  -2.7423185662219789E-002   5.1814936621303084E-002   0.0000000000000000     
  -2.9033531035583666E-002   5.7187243739962312E-002   0.0000000000000000     
  -2.5471586051092548E-002   3.7495131938454426E-002   0.0000000000000000     
  -2.7422395258517768E-002   4.2232482097328335E-002   0.0000000000000000     
  -2.9317873261329872E-002   4.7174956861075458E-002   0.0000000000000000     
  -3.1158020059528883E-002   5.2322556229695817E-002   0.0000000000000000     
  -3.2942835653114781E-002   5.7675280203189391E-002   0.0000000000000000     
  -2.8762264633916158E-002   3.8104915169809003E-002   0.0000000000000000     
  -3.0926594606645545E-002   4.2832204208080531E-002   0.0000000000000000     
  -3.3026016610490427E-002   4.7761567483651984E-002   0.0000000000000000     
  -3.5060530645450810E-002   5.2893004996523343E-002   0.0000000000000000     
  -3.7030136711526711E-002   5.8226516746694636E-002   0.0000000000000000     
  -3.2203388926395425E-002   3.8778599483491105E-002   0.0000000000000000     
  -3.4584694777773588E-002   4.3495105978292203E-002   0.0000000000000000     
  -3.6893804275636981E-002   4.8411000457723730E-002   0.0000000000000000     
  -3.9130717419985597E-002   5.3526282921785670E-002   0.0000000000000000     
  -4.1295434210819451E-002   5.8840953370478025E-002   0.0000000000000000     
  -3.5794958928530365E-002   3.9516184879500732E-002   0.0000000000000000     
  -3.8396695771901898E-002   4.4221187407963360E-002   0.0000000000000000     
  -4.0921236256769501E-002   4.9123255783290708E-002   0.0000000000000000     
  -4.3368580383133216E-002   5.4222390005482776E-002   0.0000000000000000     
  -4.5738728150993009E-002   5.9518590074539579E-002   0.0000000000000000     
  -2.9033531035583666E-002   5.7187243739962312E-002   0.0000000000000000     
  -3.0599096255650347E-002   6.2754502840803222E-002   0.0000000000000000     
  -3.2118567229823224E-002   6.8503126818657195E-002   0.0000000000000000     
  -3.3591943958102298E-002   7.4433115673524244E-002   0.0000000000000000     
  -3.5019226440487571E-002   8.0544469405404329E-002   0.0000000000000000     
  -3.2942835653114781E-002   5.7675280203189391E-002   0.0000000000000000     
  -3.4674645769564437E-002   6.3221723330649293E-002   0.0000000000000000     
  -3.6355776136354705E-002   6.8950480161168615E-002   0.0000000000000000     
  -3.7986226753485612E-002   7.4861550694747370E-002   0.0000000000000000     
  -3.9565997620957132E-002   8.0954934931385558E-002   0.0000000000000000     
  -3.7030136711526711E-002   5.8226516746694636E-002   0.0000000000000000     
  -3.8939480112138783E-002   6.3752459869129086E-002   0.0000000000000000     
  -4.0793206150707736E-002   6.9461191498789931E-002   0.0000000000000000     
  -4.2591314827233558E-002   7.5352711635677180E-002   0.0000000000000000     
  -4.4333806141716253E-002   8.1427020279790832E-002   0.0000000000000000     
  -4.1295434210819451E-002   5.8840953370478025E-002   0.0000000000000000     
  -4.3393599283373392E-002   6.4346712456242600E-002   0.0000000000000000     
  -4.5430857272882291E-002   7.0035260831521132E-002   0.0000000000000000     
  -4.7407208179346134E-002   7.5906598496313663E-002   0.0000000000000000     
  -4.9322652002764936E-002   8.1960725450620178E-002   0.0000000000000000     
  -4.5738728150993009E-002   5.9518590074539579E-002   0.0000000000000000     
  -4.8037003283268265E-002   6.5004481091989821E-002   0.0000000000000000     
  -5.0268729502878383E-002   7.0672688159362229E-002   0.0000000000000000     
  -5.2433906809823363E-002   7.6523211276656830E-002   0.0000000000000000     
  -5.4532535204103186E-002   8.2556050443873596E-002   0.0000000000000000     
  -3.5019226440487571E-002   8.0544469405404329E-002   0.0000000000000000     
  -3.6394212619063213E-002   8.6825448913231962E-002   0.0000000000000000     
  -3.7710700435913368E-002   9.3264315095941686E-002   0.0000000000000000     
  -3.8968689891038022E-002   9.9861067953533431E-002   0.0000000000000000     
  -4.0168180984437210E-002  0.10661570748600727        0.0000000000000000     
  -3.9565997620957132E-002   8.0954934931385558E-002   0.0000000000000000     
  -4.1089261039150941E-002   8.7217846421869555E-002   0.0000000000000000     
  -4.2550189308448685E-002   9.3637498716985804E-002   0.0000000000000000     
  -4.3948782428850398E-002  0.10021389181673433        0.0000000000000000     
  -4.5285040400356052E-002  0.10694702572111510        0.0000000000000000     
  -4.4333806141716253E-002   8.1427020279790832E-002   0.0000000000000000     
  -4.6014805307158069E-002   8.7670749908279888E-002   0.0000000000000000     
  -4.7628437536561263E-002   9.4070532998293419E-002   0.0000000000000000     
  -4.9174702829925844E-002  0.10062636954983140        0.0000000000000000     
  -5.0653601187251790E-002  0.10733825956289385        0.0000000000000000     
  -4.9322652002764936E-002   8.1960725450620178E-002   0.0000000000000000     
  -5.1170845423084609E-002   8.8184159372463003E-002   0.0000000000000000     
  -5.2945445120251074E-002   9.4563417939864489E-002   0.0000000000000000     
  -5.4646451094264352E-002  0.10109850115282468        0.0000000000000000     
  -5.6273863345124436E-002  0.10778940901134350        0.0000000000000000     
  -5.4532535204103186E-002   8.2556050443873596E-002   0.0000000000000000     
  -5.6557381386930554E-002   8.8758074814418886E-002   0.0000000000000000     
  -5.8501212059518137E-002   9.5116153541699069E-002   0.0000000000000000     
  -6.0364027221865943E-002  0.10163028662571413        0.0000000000000000     
  -6.2145826873973964E-002  0.10830047406646406        0.0000000000000000     
  -4.0168180984437210E-002  0.10661570748600727        0.0000000000000000     
  -4.1316091535765757E-002  0.11351993553619133        0.0000000000000000     
  -4.2419339364678517E-002  0.12056545394691381        0.0000000000000000     
  -4.3477924471175503E-002  0.12775226271817472        0.0000000000000000     
  -4.4491846855256700E-002  0.13508036184997402        0.0000000000000000     
  -4.5285040400356052E-002  0.10694702572111510        0.0000000000000000     
  -4.6559160212976659E-002  0.11382725347570681        0.0000000000000000     
  -4.7771338856723231E-002  0.12084492812608814        0.0000000000000000     
  -4.8921576331595752E-002  0.12800004967225911        0.0000000000000000     
  -5.0009872637594252E-002  0.13529261811421975        0.0000000000000000     
  -5.0653601187251790E-002  0.10733825956289385        0.0000000000000000     
  -5.2062298150755575E-002  0.11419573329042133        0.0000000000000000     
  -5.3397959262653637E-002  0.12118832098535447        0.0000000000000000     
  -5.4660584522945976E-002  0.12831602264769329        0.0000000000000000     
  -5.5850173931632587E-002  0.13557883827743775        0.0000000000000000     
  -5.6273863345124436E-002  0.10778940901134350        0.0000000000000000     
  -5.7825505349102489E-002  0.11462537498033490        0.0000000000000000     
  -5.9299200582469722E-002  0.12159563252471280        0.0000000000000000     
  -6.0694949045226126E-002  0.12870018164447722        0.0000000000000000     
  -6.2012750737371690E-002  0.13593902233962810        0.0000000000000000     
  -6.2145826873973964E-002  0.10830047406646406        0.0000000000000000     
  -6.3848781808017424E-002  0.11511617854544751        0.0000000000000000     
  -6.5475062816171506E-002  0.12206686274416312        0.0000000000000000     
  -6.7024669898436223E-002  0.12915252666261087        0.0000000000000000     
  -6.8497603054811576E-002  0.13637317030079077        0.0000000000000000     
  -4.4491846855256700E-002  0.13508036184997402        0.0000000000000000     
  -4.5452950914554327E-002  0.14251754079975953        0.0000000000000000     
  -4.6353081046700627E-002  0.15003158902497901        0.0000000000000000     
  -4.7192237251695579E-002  0.15762250652563245        0.0000000000000000     
  -4.7970419529539197E-002  0.16529029330171985        0.0000000000000000     
  -5.0009872637594252E-002  0.13529261811421975        0.0000000000000000     
  -5.1039917193990210E-002  0.14267051841825221        0.0000000000000000     
  -5.2015399420055120E-002  0.15008163555063872        0.0000000000000000     
  -5.2936319315789009E-002  0.15752596951137934        0.0000000000000000     
  -5.3802676881191856E-002  0.16500352030047394        0.0000000000000000     
  -5.5850173931632587E-002  0.13557883827743775        0.0000000000000000     
  -5.6976305290437373E-002  0.14291659014842048        0.0000000000000000     
  -5.8048556401084223E-002  0.15026910053447395        0.0000000000000000     
  -5.9066927263573141E-002  0.15763636943559828        0.0000000000000000     
  -6.0031417877904107E-002  0.16501839685179343        0.0000000000000000     
  -6.2012750737371690E-002  0.13593902233962810        0.0000000000000000     
  -6.3262115203895838E-002  0.14325575599026438        0.0000000000000000     
  -6.4452551989787915E-002  0.15059398397648482        0.0000000000000000     
  -6.5584061095047969E-002  0.15795370629828948        0.0000000000000000     
  -6.6656642519675957E-002  0.16533492295567831        0.0000000000000000     
  -6.8497603054811576E-002  0.13637317030079077        0.0000000000000000     
  -6.9897346934365556E-002  0.14368801594378386        0.0000000000000000     
  -7.1227386186166197E-002  0.15105628587667122        0.0000000000000000     
  -7.2487720810213471E-002  0.15847798009945277        0.0000000000000000     
  -7.3678350806507392E-002  0.16595309861212862        0.0000000000000000     
   0.0000000000000000        0.0000000000000000        0.0000000000000000     
  -2.8802768263495203E-003   1.7446553453755070E-003   0.0000000000000000     
  -5.8730675878453124E-003   3.8642927389714687E-003   0.0000000000000000     
  -8.9783722844873765E-003   6.3589121807878851E-003   0.0000000000000000     
  -1.2196190916275711E-002   9.2285136708247541E-003   0.0000000000000000     
   0.0000000000000000        0.0000000000000000        0.0000000000000000     
  -3.2834355919642163E-003   1.9992346977879267E-003   0.0000000000000000     
  -6.6773549232930956E-003   4.3306918317579943E-003   0.0000000000000000     
  -1.0181757993986639E-002   6.9943714019102023E-003   0.0000000000000000     
  -1.3796644804044847E-002   9.9902734082445502E-003   0.0000000000000000     
   0.0000000000000000        0.0000000000000000        0.0000000000000000     
  -3.9537328887652773E-003   2.4249652299355830E-003   0.0000000000000000     
  -7.9109097780697829E-003   5.0626328898272658E-003   0.0000000000000000     
  -1.1871530667913516E-002   7.9130029796750500E-003   0.0000000000000000     
  -1.5835595558296479E-002   1.0976075499478934E-002   0.0000000000000000     
   0.0000000000000000        0.0000000000000000        0.0000000000000000     
  -4.8911687167527028E-003   3.0218469418184747E-003   0.0000000000000000     
  -9.5737321521753745E-003   6.0601159131792835E-003   0.0000000000000000     
  -1.4047690306268009E-002   9.1148069140824274E-003   0.0000000000000000     
  -1.8313043179030611E-002   1.2185919944527904E-002   0.0000000000000000     
   0.0000000000000000        0.0000000000000000        0.0000000000000000     
  -6.0957430759264949E-003   3.7898798334366022E-003   0.0000000000000000     
  -1.1665822045609868E-002   7.3231409018140467E-003   0.0000000000000000     
  -1.6710236909050116E-002   1.0599783205132333E-002   0.0000000000000000     
  -2.1228987666247243E-002   1.3619806743391461E-002   0.0000000000000000     
  -1.2196190916275711E-002   9.2285136708247541E-003   0.0000000000000000     
  -1.5428817902225892E-002   1.2370986713526006E-002   0.0000000000000000     
  -1.8578547661353507E-002   1.5684220813335557E-002   0.0000000000000000     
  -2.1645380193658546E-002   1.9168215970253415E-002   0.0000000000000000     
  -2.4629315499141019E-002   2.2822972184279578E-002   0.0000000000000000     
  -1.3796644804044847E-002   9.9902734082445502E-003   0.0000000000000000     
  -1.7405074760700138E-002   1.3220389946106609E-002   0.0000000000000000     
  -2.0890107271184944E-002   1.6586713110841946E-002   0.0000000000000000     
  -2.4251742335499260E-002   2.0089242902450559E-002   0.0000000000000000     
  -2.7489979953643089E-002   2.3727979320932454E-002   0.0000000000000000     
  -1.5835595558296479E-002   1.0976075499478934E-002   0.0000000000000000     
  -1.9731438934388223E-002   1.4210562665441422E-002   0.0000000000000000     
  -2.3487395281358292E-002   1.7575176693765023E-002   0.0000000000000000     
  -2.7103464599206692E-002   2.1069917584449739E-002   0.0000000000000000     
  -3.0579646887933420E-002   2.4694785337495556E-002   0.0000000000000000     
  -1.8313043179030611E-002   1.2185919944527904E-002   0.0000000000000000     
  -2.2407910423290135E-002   1.5341504871530447E-002   0.0000000000000000     
  -2.6370411691873544E-002   1.8649611562104793E-002   0.0000000000000000     
  -3.0200546984780838E-002   2.2110240016250941E-002   0.0000000000000000     
  -3.3898316302012017E-002   2.5723390233968888E-002   0.0000000000000000     
  -2.1228987666247243E-002   1.3619806743391461E-002   0.0000000000000000     
  -2.5434489227405894E-002   1.6613216564373687E-002   0.0000000000000000     
  -2.9539156502730715E-002   1.9810017715861258E-002   0.0000000000000000     
  -3.3542989492221717E-002   2.3210210197854179E-002   0.0000000000000000     
  -3.7445988195878882E-002   2.6813794010352450E-002   0.0000000000000000     
  -2.4629315499141019E-002   2.2822972184279578E-002   0.0000000000000000     
  -2.7534033232531240E-002   2.6671400534666136E-002   0.0000000000000000     
  -3.0363213048559538E-002   3.0736412100665179E-002   0.0000000000000000     
  -3.3116854947225917E-002   3.5018006882276714E-002   0.0000000000000000     
  -3.5794958928530365E-002   3.9516184879500732E-002   0.0000000000000000     
  -2.7489979953643089E-002   2.3727979320932454E-002   0.0000000000000000     
  -3.0627175970346282E-002   2.7545338845193910E-002   0.0000000000000000     
  -3.3685686230338685E-002   3.1583737954141218E-002   0.0000000000000000     
  -3.6665510733620323E-002   3.5843176647774359E-002   0.0000000000000000     
  -3.9566649480191174E-002   4.0323654926093369E-002   0.0000000000000000     
  -3.0579646887933420E-002   2.4694785337495556E-002   0.0000000000000000     
  -3.3944856501890011E-002   2.8494246716542149E-002   0.0000000000000000     
  -3.7228007795427981E-002   3.2512768485229167E-002   0.0000000000000000     
  -4.0429100768547339E-002   3.6750350643556612E-002   0.0000000000000000     
  -4.3548135421248059E-002   4.1206993191524474E-002   0.0000000000000000     
  -3.3898316302012017E-002   2.5723390233968888E-002   0.0000000000000000     
  -3.7487074827162431E-002   2.9518124148710849E-002   0.0000000000000000     
  -4.0990177743827398E-002   3.3523503693929042E-002   0.0000000000000000     
  -4.4407625052006940E-002   3.7739528869623444E-002   0.0000000000000000     
  -4.7739416751701055E-002   4.2166199675794068E-002   0.0000000000000000     
  -3.7445988195878882E-002   2.6813794010352450E-002   0.0000000000000000     
  -4.1253830946163528E-002   3.0616971141700013E-002   0.0000000000000000     
  -4.4972196075536951E-002   3.4615943580240824E-002   0.0000000000000000     
  -4.8601083583999158E-002   3.8810711325974863E-002   0.0000000000000000     
  -5.2140493471550135E-002   4.3201274378902157E-002   0.0000000000000000     
  -3.5794958928530365E-002   3.9516184879500732E-002   0.0000000000000000     
  -3.8396695771901898E-002   4.4221187407963360E-002   0.0000000000000000     
  -4.0921236256769501E-002   4.9123255783290708E-002   0.0000000000000000     
  -4.3368580383133216E-002   5.4222390005482776E-002   0.0000000000000000     
  -4.5738728150993009E-002   5.9518590074539579E-002   0.0000000000000000     
  -3.9566649480191174E-002   4.0323654926093369E-002   0.0000000000000000     
  -4.2387722632131766E-002   4.5012614376729300E-002   0.0000000000000000     
  -4.5127350351522648E-002   4.9897496587313281E-002   0.0000000000000000     
  -4.7785532638363812E-002   5.4978301557845298E-002   0.0000000000000000     
  -5.0362269492655265E-002   6.0255029288325351E-002   0.0000000000000000     
  -4.3548135421248059E-002   4.1206993191524474E-002   0.0000000000000000     
  -4.6582900401564507E-002   4.5871552764225346E-002   0.0000000000000000     
  -4.9531184357531004E-002   5.0732885996751791E-002   0.0000000000000000     
  -5.2392987289147534E-002   5.5790992889103816E-002   0.0000000000000000     
  -5.5168309196414106E-002   6.1045873441281415E-002   0.0000000000000000     
  -4.7739416751701055E-002   4.2166199675794068E-002   0.0000000000000000     
  -5.0982229080200135E-002   4.6798002570451490E-002   0.0000000000000000     
  -5.4132738274794562E-002   5.1629424011606244E-002   0.0000000000000000     
  -5.7190944335484363E-002   5.6660463999258337E-002   0.0000000000000000     
  -6.0156847262269539E-002   6.1891122533407769E-002   0.0000000000000000     
  -5.2140493471550135E-002   4.3201274378902157E-002   0.0000000000000000     
  -5.5585708668038622E-002   4.7791963795407719E-002   0.0000000000000000     
  -5.8932012103313364E-002   5.2587110631876627E-002   0.0000000000000000     
  -6.2179403777374333E-002   5.7586714888308854E-002   0.0000000000000000     
  -6.5327883690221550E-002   6.2790776564704415E-002   0.0000000000000000     
  -4.5738728150993009E-002   5.9518590074539579E-002   0.0000000000000000     
  -4.8037003283268265E-002   6.5004481091989821E-002   0.0000000000000000     
  -5.0268729502878383E-002   7.0672688159362229E-002   0.0000000000000000     
  -5.2433906809823363E-002   7.6523211276656830E-002   0.0000000000000000     
  -5.4532535204103186E-002   8.2556050443873596E-002   0.0000000000000000     
  -5.0362269492655265E-002   6.0255029288325351E-002   0.0000000000000000     
  -5.2862156699601717E-002   6.5720480808615506E-002   0.0000000000000000     
  -5.5289790044407906E-002   7.1367457148577881E-002   0.0000000000000000     
  -5.7645169527073818E-002   7.7195958308212451E-002   0.0000000000000000     
  -5.9928295147599460E-002   8.3205984287519241E-002   0.0000000000000000     
  -5.5168309196414106E-002   6.1045873441281415E-002   0.0000000000000000     
  -5.7861524120152059E-002   6.6489426638364435E-002   0.0000000000000000     
  -6.0477006101182736E-002   7.2113551465432774E-002   0.0000000000000000     
  -6.3014755139506121E-002   7.7918247922486375E-002   0.0000000000000000     
  -6.5474771235122242E-002   8.3903516009525295E-002   0.0000000000000000     
  -6.0156847262269539E-002   6.1891122533407769E-002   0.0000000000000000     
  -6.3035105544919284E-002   6.7311318581236596E-002   0.0000000000000000     
  -6.5830377673202850E-002   7.2910971109926864E-002   0.0000000000000000     
  -6.8542663647120278E-002   7.8690080119478548E-002   0.0000000000000000     
  -7.1171963466671512E-002   8.4648645609891715E-002   0.0000000000000000     
  -6.5327883690221550E-002   6.2790776564704415E-002   0.0000000000000000     
  -6.8382900973903413E-002   6.8186156637231973E-002   0.0000000000000000     
  -7.1349904760468319E-002   7.3759716082060167E-002   0.0000000000000000     
  -7.4228895049916283E-002   7.9511454899189024E-002   0.0000000000000000     
  -7.7019871842247289E-002   8.5441373088618544E-002   0.0000000000000000     
  -5.4532535204103186E-002   8.2556050443873596E-002   0.0000000000000000     
  -5.6557381386930554E-002   8.8758074814418886E-002   0.0000000000000000     
  -5.8501212059518137E-002   9.5116153541699069E-002   0.0000000000000000     
  -6.0364027221865943E-002  0.10163028662571413        0.0000000000000000     
  -6.2145826873973964E-002  0.10830047406646406        0.0000000000000000     
  -5.9928295147599460E-002   8.3205984287519241E-002   0.0000000000000000     
  -6.2131087413247917E-002   8.9384991735681041E-002   0.0000000000000000     
  -6.4245466831282252E-002   9.5720437301880679E-002   0.0000000000000000     
  -6.6271433401702481E-002  0.10221232098611817        0.0000000000000000     
  -6.8208987124508597E-002  0.10886064278839347        0.0000000000000000     
  -6.5474771235122242E-002   8.3903516009525295E-002   0.0000000000000000     
  -6.7848637716588736E-002   9.0057405637782972E-002   0.0000000000000000     
  -7.0127937912463273E-002   9.6367966718492931E-002   0.0000000000000000     
  -7.2312671822745880E-002  0.10283519925165514        0.0000000000000000     
  -7.4402839447436475E-002  0.10945910323726965        0.0000000000000000     
  -7.1171963466671512E-002   8.4648645609891715E-002   0.0000000000000000     
  -7.3710032296952999E-002   9.0775316520724667E-002   0.0000000000000000     
  -7.6148625303061199E-002   9.7058741791535785E-002   0.0000000000000000     
  -7.8487742484996056E-002  0.10349892142232510        0.0000000000000000     
  -8.0727383842757641E-002  0.11009585541309255        0.0000000000000000     
  -7.7019871842247289E-002   8.5441373088618544E-002   0.0000000000000000     
  -7.9715271154340739E-002   9.1538724384506137E-002   0.0000000000000000     
  -8.2307529003076016E-002   9.7792762521009297E-002   0.0000000000000000     
  -8.4796645388453121E-002  0.10420348749812799        0.0000000000000000     
  -8.7182620310472053E-002  0.11077089931586223        0.0000000000000000     
  -6.2145826873973964E-002  0.10830047406646406        0.0000000000000000     
  -6.3848781808017424E-002  0.11511617854544751        0.0000000000000000     
  -6.5475062816171506E-002  0.12206686274416312        0.0000000000000000     
  -6.7024669898436223E-002  0.12915252666261087        0.0000000000000000     
  -6.8497603054811576E-002  0.13637317030079077        0.0000000000000000     
  -6.8208987124508597E-002  0.10886064278839347        0.0000000000000000     
  -7.0065171675507659E-002  0.11565528686959642        0.0000000000000000     
  -7.1847030730506800E-002  0.12258613739061684        0.0000000000000000     
  -7.3554564289505964E-002  0.12965319435145467        0.0000000000000000     
  -7.5187772352505206E-002  0.13685645775210992        0.0000000000000000     
  -7.4402839447436475E-002  0.10945910323726965        0.0000000000000000     
  -7.6407719099580523E-002  0.11622984283661886        0.0000000000000000     
  -7.8336589092223394E-002  0.12313758221098528        0.0000000000000000     
  -8.0189449425365059E-002  0.13018232136036889        0.0000000000000000     
  -8.1966300099005587E-002  0.13736406028476972        0.0000000000000000     
  -8.0727383842757641E-002  0.11009585541309255        0.0000000000000000     
  -8.2876424080236002E-002  0.11683984644651482        0.0000000000000000     
  -8.4943737901321287E-002  0.12372119720526852        0.0000000000000000     
  -8.6929325306013522E-002  0.13073990768935362        0.0000000000000000     
  -8.8833186294312680E-002  0.13789597789877017        0.0000000000000000     
  -8.7182620310472053E-002  0.11077089931586223        0.0000000000000000     
  -8.9471286617474111E-002  0.11748529769928430        0.0000000000000000     
  -9.1668477157800535E-002  0.12433698237346649        0.0000000000000000     
  -9.3774191931451339E-002  0.13132595333840880        0.0000000000000000     
  -9.5788430938426511E-002  0.13845221059411122        0.0000000000000000     
  -6.8497603054811576E-002  0.13637317030079077        0.0000000000000000     
  -6.9897346934365556E-002  0.14368801594378386        0.0000000000000000     
  -7.1227386186166197E-002  0.15105628587667122        0.0000000000000000     
  -7.2487720810213471E-002  0.15847798009945277        0.0000000000000000     
  -7.3678350806507392E-002  0.16595309861212862        0.0000000000000000     
  -7.5187772352505206E-002  0.13685645775210992        0.0000000000000000     
  -7.6742748837608829E-002  0.14417209687037325        0.0000000000000000     
  -7.8215587662921152E-002  0.15157628098403533        0.0000000000000000     
  -7.9606288828442187E-002  0.15906901009309610        0.0000000000000000     
  -8.0914852334171936E-002  0.16665028419755559        0.0000000000000000     
  -8.1966300099005587E-002  0.13736406028476972        0.0000000000000000     
  -8.3659069269387862E-002  0.14466672563142680        0.0000000000000000     
  -8.5259685092754861E-002  0.15207424404757933        0.0000000000000000     
  -8.6768147569106599E-002  0.15958661553322720        0.0000000000000000     
  -8.8184456698443048E-002  0.16720384008837050        0.0000000000000000     
  -8.8833186294312680E-002  0.13789597789877017        0.0000000000000000     
  -9.0646308229702627E-002  0.14517190222694454        0.0000000000000000     
  -9.2359678475667312E-002  0.15255017506730320        0.0000000000000000     
  -9.3973297032206679E-002  0.16003079641984616        0.0000000000000000     
  -9.5487163899320784E-002  0.16761376628457336        0.0000000000000000     
  -9.5788430938426511E-002  0.13845221059411122        0.0000000000000000     
  -9.7704465718553207E-002  0.14568762665692642        0.0000000000000000     
  -9.9515567811658531E-002  0.15300407404320698        0.0000000000000000     
 -0.10122173721774248       0.16040155275295290        0.0000000000000000     
 -0.10282297393680509       0.16788006278616419        0.0000000000000000     
 </DataArray>
 <DataArray  type="Float64" Name="stress" NumberOfComponents="3" format="ascii">
   13416455214.208164        4024936564.2624493        2894076217.2177634     
   11766280757.234428        1890319147.7286196        1715873620.1095378     
   10313409817.244328        413380121.14023685        810751160.22058535     
   9057842394.2378578       -405880515.50270081        178708837.55090725     
   7999578488.2150240       -567462762.20019150       -180253347.89949840     
   10539749346.697859        3161924804.0093575        2225809030.0505872     
   9667344905.4153004        1589488412.1504264        1446744659.7792144     
   8943599079.6898460        512580738.81515455        863150697.12603867     
   8368511869.5214863       -68798215.996458530        475027142.09105921     
   7942083274.9102201       -154648452.28441620        282373994.67427647     
   8337705901.0598316        2501311770.3179493        1712398812.2928185     
   8021329390.8939524        1424533777.7615671        1275720283.8606722     
   7804966594.8586321        681134832.30705452        956902433.44564617     
   7688617512.9538765        271114933.95441103        755945261.04774106     
   7672282145.1796789        194474082.70363712        672848766.66695392     
   6810324877.2940836        2043097463.1882250        1353845563.9444573     
   6828234213.6703749        1395455244.5620394        1202800492.3539121     
   6897512362.7506924        919042401.61593485        1092006369.1794100     
   7018159324.5350323        613858934.34991145        1021463194.4209517     
   7190175099.0233955        479904842.76396799        991170968.07853532     
   5957606275.4006147        1787281882.6201844        1150149285.0055034     
   6088059373.7445717        1502252812.5518441        1227985285.2589328     
   6221236383.3660192        1226303446.7417965        1268462504.3273289     
   6357137304.2649536        959433785.19004130        1271580942.2106912     
   6495762136.4413748        701643827.89657760        1237340598.9090207     
   7999578488.2150240       -567462762.20019150       -180253347.89949840     
   7917569434.6230822       -199921600.85752249       -78309988.867119506     
   7794024085.3513889        29165241.552651405       -9002902.7023295742     
   7628942440.3999472        119797765.03032589        27667910.594859153     
   7422324499.7687569        71975969.575501442        31702451.024457645     
   7942083274.9102201       -154648452.28441620        282373994.67427647     
   7739607111.0821552        16625030.851462841        281065364.04533499     
   7513706171.3819656        109815927.74692154        265018539.53469104     
   7264380455.8096504        124924238.40196419        234233521.14234570     
   6991629964.3652115        61949962.816592693        188710308.86829883     
   7672282145.1796789        194474082.70363712        672848766.66695392     
   7400476239.6466122        184821098.19205952        589418252.81891739     
   7123357078.0490484        157457260.13214397        509147624.07507175     
   6840924660.3869801        112382568.52389121        432036880.43541718     
   6553178986.6604099        49597023.367301464        358086021.89995313     
   7190175099.0233955        479904842.76396799        991170968.07853532     
   6900176820.3164539        304666601.16427255        846748677.45363128     
   6622976805.3526325        172089238.70831895        723384350.91881132     
   6358575054.1319361        82172755.396106243        621077988.47407472     
   6106971566.6543579        34917151.227635384        539829590.11942220     
   6495762136.4413748        701643827.89657760        1237340598.9090207     
   6238708853.0916748        376161539.76810050        1053056637.9494783     
   6012565353.2927227        153711863.47544432        907728720.06591105     
   5817331637.0445175        34294799.018610716        801356845.25832057     
   5653007704.3470564        17910346.397596598        733941013.52670753     
   7422324499.7687569        71975969.575501442        31702451.024457645     
   7219797108.5959682       -19023478.850318909        14702307.365665169     
   7029528111.2511597       -69161614.516205788        2135593.7536488227     
   6851517507.7343330       -78438437.422156334       -5997689.8115814673     
   6685765298.0454769       -46853947.568195343       -9697543.3300292231     
   6991629964.3652115        61949962.816592693        188710308.86829883     
   6809214266.2463903        2443335.3952159882        180389107.65117157     
   6634641284.7686939       -30920903.222414494        175837435.42775369     
   6467911019.9321213       -38142753.036298037        175055292.19803602     
   6309023471.7366695       -19222214.046446323        178042677.96203527     
   6553178986.6604099        49597023.367301464        358086021.89995313     
   6388978121.4439182        21014158.904877186        353292139.73983109     
   6228204295.6816950        3854759.2900140285        351603885.52033842     
   6070857509.3737373       -1881175.4772899151        353021259.24148279     
   5916937762.5200500        3806354.6029615402        357544260.90325534     
   6106971566.6543579        34917151.227635384        539829590.11942220     
   5959088674.1885529        36688991.678672791        533411403.63163888     
   5810217143.9901628        35165373.021085978        529434944.03141057     
   5660356976.0591841        30346295.254868031        527900211.31874055     
   5509508170.3956137        22231758.380023003        528807205.49363214     
   5653007704.3470564        17910346.397596598        733941013.52670753     
   5519545924.4802980        49467833.716603756        720746899.32659602     
   5380679829.6940975        63010937.970793486        709330610.96096563     
   5236409419.9884501        58539659.160175323        699692148.42982137     
   5086734695.3633623        36053997.284738541        691831511.73316145     
   6685765298.0454769       -46853947.568195343       -9697543.3300292231     
   6511374841.5281687       -7254364.7165269852       -3568986.7785223024     
   6331719332.0924931        14795041.740577936        3733078.7354190340     
   6146798769.7384472        19294271.803114653        12208653.211796388     
   5956613154.4660292        6243325.4710848331        21857736.650606237     
   6309023471.7366695       -19222214.046446323        178042677.96203527     
   6134001688.7418957        1945410.0627124310        174591020.20228025     
   5955810170.7933216        12547250.992528200        173733746.66877237     
   5774448917.8909435        12583308.742989540        175470857.36151442     
   5589917930.0347519        2053583.3140966892        179802352.28050524     
   5916937762.5200500        3806354.6029615402        357544260.90325534     
   5745344296.6587086        7759913.0528752804        346956926.45756376     
   5572676413.8081322        8132081.5386638641        340384851.50193095     
   5398934113.9683161        4922860.0603175163        337828036.03636545     
   5224117397.1392565       -1867751.3821575642        339286480.06086177     
   5509508170.3956137        22231758.380023003        528807205.49363214     
   5345402665.2786055        10189144.253964186        513528731.98732960     
   5182318061.1369247        1549533.3789956570        503686393.23490089     
   5020254357.9705744       -3687074.2448840141        499280189.23635721     
   4859211555.7795429       -5520678.6176805496        500310119.99168295     
   5086734695.3633623        36053997.284738541        691831511.73316145     
   4934176794.6015892        9233103.6659832001        674306436.79157484     
   4784735112.7797031       -7200393.4864752293        663638371.86767852     
   4638409649.8977118       -13246494.172623396        659827316.96147597     
   4495200405.9556122       -8905198.3924651146        662873272.07296836     
   5956613154.4660292        6243325.4710848331        21857736.650606237     
   5782112018.8757668       -6383163.7859761715        14306706.992122365     
   5610053373.4590158       -10868019.131338835        11169339.171743017     
   5440437218.2157955       -7211240.5649292469        12445633.189472038     
   5273263553.1460953        4587171.9132153988        18135589.045296621     
   5589917930.0347519        2053583.3140966892        179802352.28050524     
   5428191103.7538757       -4131719.2456338406        174634265.31113183     
   5267987753.7871704       -5238767.4247987270        173392480.58073246     
   5109307880.1346407       -1267561.2233605385        176076998.08929098     
   4952151482.7962856        7781899.3586320877        182687817.83681297     
   5224117397.1392565       -1867751.3821575642        339286480.06086177     
   5073772424.1702299       -2029604.0438206196        335429152.94469976     
   4924031913.6560307       -176581.85604619980        335010768.46836179     
   4774895865.5966578        3691315.1811461449        338031326.63185704     
   4626364279.9921160        9574087.0677709579        344490827.43517470     
   4859211555.7795429       -5520678.6176805496        500310119.99168295     
   4718855980.1248245       -76818.180527448654        496691369.89282548     
   4578185853.0655966        4318537.5749044418        496024202.83465469     
   4437201174.6018448        7665388.6486036777        498308618.81716514     
   4295901944.7335787        9963735.0405840874        503544617.84037465     
   4495200405.9556122       -8905198.3924651146        662873272.07296836     
   4363441771.6176729        1726638.3442447186        658420916.15550590     
   4230449572.0158734        8246590.8680856228        656432783.67959082     
   4096223807.1502032        10654659.179024220        656908874.64523017     
   3960764477.0206718        8950843.2770798206        659849189.05241764     
   5273263553.1460953        4587171.9132153988        18135589.045296621     
   5072485795.1982317        7769824.6340048313        15636464.363744106     
   4870231789.7841816        6031652.4674837589        16023983.929195009     
   4666501536.9039183       -627344.58639383316        19298147.741665341     
   4461295036.5574627       -12207166.527602434        25458955.801137805     
   4952151482.7962856        7781899.3586320877        182687817.83681297     
   4758969216.0619745        6976352.8629336357        177663877.03101611     
   4564891662.2933159        3186516.2527348995        176516331.19243380     
   4369918821.4903097       -3587610.4719479084        179245180.32107952     
   4174050693.6529455       -13346027.311165094        185850424.41693088     
   4626364279.9921160        9574087.0677709579        344490827.43517470     
   4443605363.6719475        5628699.1157317162        337619857.67562616     
   4260532120.7492828        635555.82204294205        335615033.60350233     
   4077144551.2241259       -5405342.8132874966        338476355.21881121     
   3893442655.0964699       -12493996.790292263        346203822.52154577     
   4295901944.7335787        9963735.0405840874        503544617.84037465     
   4126394238.0281539        3726863.3924067020        495504406.29756802     
   3957153165.1520839       -1621228.8245921135        493320091.16239774     
   3788178726.1053729       -6080541.6103980541        496991672.43486547     
   3619470920.8880072       -9651074.9650402069        506519150.11497581     
   3960764477.0206718        8950843.2770798206        659849189.05241764     
   3807335839.1305914        1270845.6929442883        651317522.89684820     
   3654754795.5017147       -3583837.6871817112        649631503.86912167     
   3503021346.1340475       -5613206.8632812500        654791131.96924841     
   3352135491.0275846       -4817261.8353662491        666796407.19722188     
   4461295036.5574627       -12207166.527602434        25458955.801137805     
   4294453963.9872713       -12897400.589739084        14610702.532177247     
   4128680321.0016356       -10029536.036680937        10708921.334110584     
   3963974107.6005664       -3603572.8684020042        13753612.206916040     
   3800335323.7840548        6380488.9150609970        23744775.150607705     
   4174050693.6529455       -13346027.311165094        185850424.41693088     
   4024160807.9903879       -9714955.7942223549        177389020.14105850     
   3874899846.0898447       -3987471.7371981144        174023293.97423071     
   3726267807.9513488        3836424.8599743843        175753245.91645136     
   3578264693.5748973        13756733.997283936        182578875.96772304     
   3893442655.0964699       -12493996.790292263        346203822.52154577     
   3755215973.5934224       -6128014.5187649727        339617677.11247653     
   3617179710.0298882        872694.21781706810        336276415.85062176     
   3479333864.4058771        8508129.4194815159        336180038.73598504     
   3341678436.7213902        16778291.086211920        339328545.76854366     
   3619470920.8880072       -9651074.9650402069        506519150.11497581     
   3487619460.7963920       -2136576.7633163929        501296673.44643515     
   3355519912.8217778        4550961.8284082413        497468286.96327621     
   3223172276.9641519        10411540.810115814        495033990.66549206     
   3090576553.2235370        15445160.181830883        493993784.55309564     
   3352135491.0275846       -4817261.8353662491        666796407.19722188     
   3221371269.5992985        2259357.4721101522        662426009.14293563     
   3089920454.4654961        7047331.0945267677        657598907.31219995     
   2957783045.6261663        9546659.0318582058        652315101.70500493     
   2824959043.0813198        9757341.2841376066        646574592.32135963     
   3800335323.7840548        6380488.9150609970        23744775.150607705     
   3598744186.1558914        2103816.4721529484        24297672.454532702     
   3394189996.0313787       -12049697.625243187        25201979.817217439     
   3186672753.4104948       -36080053.377199173        26457697.238683060     
   2976192458.2932715       -69987250.783652544        28064824.718873829     
   3578264693.5748973        13756733.997283936        182578875.96772304     
   3380305498.5846496        7607075.6987311840        176800995.61210859     
   3181003219.4466047       -3019529.7591359615        173897734.73206258     
   2980357856.1607647       -18123082.376326919        173869093.32755873     
   2778369408.7271214       -37703582.152871609        176715071.39864248     
   3341678436.7213902        16778291.086211920        339328545.76854366     
   3154560354.1313567        10918397.860694289        329109850.82670617     
   2967719155.7420840        5981451.9710680246        324288984.77724993     
   2781154841.5535631        1967453.4172842503        324865947.62013477     
   2594867411.5658236       -1123597.8005949259        330840739.35538781     
   3090576553.2235370        15445160.181830883        493993784.55309564     
   2921508752.7960081        12037782.958053827        481224238.09835470     
   2754337804.9177942        14953247.565330863        476375729.95277625     
   2589063709.5889158        24191554.003691435        479448260.11637175     
   2425686466.8093266        39752702.273088574        490441828.58912635     
   2824959043.0813198        9757341.2841376066        646574592.32135963     
   2681150694.5786004        10965230.990779161        633144157.42702913     
   2540859166.9737515        23895857.023671865        630157970.25866938     
   2404084460.2667756        48549219.382828474        637616030.81627548     
   2270826574.4576869        84925318.068242311        655518339.09985948     
   5957606275.4006147        1787281882.6201844        1150149285.0055034     
   6088059373.7445717        1502252812.5518441        1227985285.2589328     
   6221236383.3660192        1226303446.7417965        1268462504.3273289     
   6357137304.2649536        959433785.19004130        1271580942.2106912     
   6495762136.4413748        701643827.89657760        1237340598.9090207     
   5434213201.1344376        1630263960.3403311        1033622329.3288763     
   5489458618.4862890        1372514863.6718855        1114005738.2437823     
   5546893826.5867634        1122065069.4988449        1167600487.5652027     
   5606518825.4358578        878914577.82120872        1194406577.2931378     
   5668333615.0335741        643063388.63897777        1194424007.4275873     
   4894808760.2505617        1468442628.0751686        936577050.76749516     
   4905046844.0147295        1247033609.0279438        1018884727.7268673     
   4916940597.9986534        1031143490.7132368        1084973866.6843021     
   4930490022.2023325        820772273.13104761        1134844467.6397986     
   4945695116.6257648        615919956.28137529        1168496530.5933580     
   4339392952.7489882        1301817885.8246965        859013449.32136059     
   4334824050.3298950        1125809048.6200199        942622253.70818841     
   4331376697.6016893        953538710.38497281        1020582641.6846260     
   4329050894.5643740        785006871.11955643        1092894613.2506738     
   4327846641.2179480        620213530.82376969        1159558168.4063323     
   3767965778.6297169        1130389733.5889151        800931524.99047196     
   3778790237.4317846        1008841182.4481132        885218316.18774474     
   3790202125.3958750        889250728.51405382        974426812.56617522     
   3802201442.5219884        771618371.78673673        1068557014.1257639     
   3814788188.8101254        655944112.26616323        1167608920.8665113     
   6495762136.4413748        701643827.89657760        1237340598.9090207     
   6238708853.0916748        376161539.76810050        1053056637.9494783     
   6012565353.2927227        153711863.47544432        907728720.06591105     
   5817331637.0445175        34294799.018610716        801356845.25832057     
   5653007704.3470564        17910346.397596598        733941013.52670753     
   5668333615.0335741        643063388.63897777        1194424007.4275873     
   5518105781.0367155        383558869.49656200        1073456754.3363341     
   5392035051.0944357        204578030.53607416        980481241.75142860     
   5290121425.2067337        106120871.75751925        915497469.67287099     
   5212364903.3736153        88187393.160895109        878505438.10066187     
   4945695116.6257648        615919956.28137529        1168496530.5933580     
   4870966153.2113791        412995232.49391055        1102967859.2915323     
   4813641614.3554058        268085257.23448324        1054466625.9264253     
   4773721500.0578432        181190030.50309610        1022992830.4980378     
   4751205810.3186922        152309552.29974675        1008546473.0063695     
   4327846641.2179480        620213530.82376969        1159558168.4063323     
   4297289969.6156683        464470628.76014590        1141589952.8150718     
   4277385043.0756335        344233543.57066917        1129684872.5909026     
   4268131861.5978408        259502275.25534010        1123842927.7338233     
   4269530425.1822939        210276823.81415629        1124064118.2438352     
   3814788188.8101254        655944112.26616323        1167608920.8665113     
   3797077230.2495832        537985058.29527068        1189323034.9069543     
   3783265337.2551169        433022889.54463100        1206135981.7448587     
   3773352509.8267279        341057606.01425040        1218047761.3802257     
   3767338747.9644170        262089207.70412385        1225058373.8130555     
   5653007704.3470564        17910346.397596598        733941013.52670753     
   5519545924.4802980        49467833.716603756        720746899.32659602     
   5380679829.6940975        63010937.970793486        709330610.96096563     
   5236409419.9884501        58539659.160175323        699692148.42982137     
   5086734695.3633623        36053997.284738541        691831511.73316145     
   5212364903.3736153        88187393.160895109        878505438.10066187     
   5076202935.3369970        86075506.533759117        854779346.24802899     
   4937868407.7494526        76721754.736869812        834968216.26397514     
   4797361320.6109829        60126137.770228863        819072048.14850044     
   4654681673.9215879        36288655.633834124        807090841.90160429     
   4751205810.3186922        152309552.29974675        1008546473.0063695     
   4618449757.0667696        118360122.61283827        978058784.76448870     
   4486752899.6324425        87941345.651235819        953623194.42528200     
   4356115238.0157032        61053221.414938927        935239701.98874795     
   4226536772.2165589        37695749.903947353        922908307.45488703     
   4269530425.1822939        210276823.81415629        1124064118.2438352     
   4146286389.6696229        146321681.95384073        1090585214.8759766     
   4027333305.3430648        96669710.713888645        1065295545.4448853     
   3912671172.2026153        61320910.094306231        1048195109.9505630     
   3802299990.2482729        40275280.095084906        1039283908.3930072     
   3767338747.9644170        262089207.70412385        1225058373.8130555     
   3659712833.1455550        169960184.55676663        1192358636.5824895     
   3559609624.8813214        102906849.92483699        1169985269.3227868     
   3467029123.1717138        60929203.808329821        1157938272.0339470     
   3381971328.0167360        44027246.207250476        1156217644.7159705     
   5086734695.3633623        36053997.284738541        691831511.73316145     
   4934176794.6015892        9233103.6659832001        674306436.79157484     
   4784735112.7797031       -7200393.4864752293        663638371.86767852     
   4638409649.8977118       -13246494.172623396        659827316.96147597     
   4495200405.9556122       -8905198.3924651146        662873272.07296836     
   4654681673.9215879        36288655.633834124        807090841.90160429     
   4520659074.6722746        15214664.082084894        793691568.57687259     
   4388918733.6679239        1748200.0135531425        786367001.30549395     
   4259460650.9085407       -4110736.5717606544        785117140.08746600     
   4132284826.3941202       -2362145.6738610268        789941984.92278826     
   4226536772.2165589        37695749.903947353        922908307.45488703     
   4108814320.2958755        21698114.164067268        912661881.60293186     
   3992540165.9252295        10528136.924310446        907707857.83998585     
   3877714309.1046200        4185818.1846785545        908046236.16604948     
   3764336749.8340497        2671157.9451727867        913677016.58112550     
   3802299990.2482729        40275280.095084906        1039283908.3930072     
   3698642531.4723902        28683453.911921740        1031217375.8697460     
   3595599409.5516133        19139417.245790243        1027660941.4711511     
   3493170624.4859514        11643170.096697092        1028614605.1972276     
   3391356176.2753944        6194712.4646294117        1034078367.0479703     
   3381971328.0167360        44027246.207250476        1156217644.7159705     
   3290143708.2018166        36170683.325649738        1149358051.3773203     
   3198096464.5470800        27582040.977993965        1146226252.1989944     
   3105829597.0525274        18261319.164281249        1146822247.1809976     
   3013343105.7181568        8208517.8845127821        1151146036.3233318     
   4495200405.9556122       -8905198.3924651146        662873272.07296836     
   4363441771.6176729        1726638.3442447186        658420916.15550590     
   4230449572.0158734        8246590.8680856228        656432783.67959082     
   4096223807.1502032        10654659.179024220        656908874.64523017     
   3960764477.0206718        8950843.2770798206        659849189.05241764     
   4132284826.3941202       -2362145.6738610268        789941984.92278826     
   4006307247.5237298        2259989.2733941078        783096994.70612204     
   3879705039.2146344        4800026.0916144848        779621601.05127800     
   3752478201.4668188        5257964.7807836533        779515803.95825863     
   3624626734.2802930        3633805.3409047127        782779603.42706358     
   3764336749.8340497        2671157.9451727867        913677016.58112550     
   3646727006.7748494        2059625.2060658932        905149817.19459724     
   3529101570.1020870        1395780.4217572212        900897587.49016535     
   3411460439.8157644        679623.59223985672        900920327.46782959     
   3293803615.9158821       -88845.282473802567        905218037.12759280     
   3391356176.2753944        6194712.4646294117        1034078367.0479703     
   3284701049.3710189        1125546.1422474384        1024579383.6209278     
   3178639164.6782389       -1966146.1414883137        1020260742.9962538     
   3073170522.1970458       -3080364.3865952492        1021122445.1739495     
   2968295121.9274454       -2217108.5930629969        1027164490.1540141     
   3013343105.7181568        8208517.8845127821        1151146036.3233318     
   2920229375.3122487       -542247.91804504395        1141385693.9851153     
   2828317822.9430790       -5285753.5981329679        1137711067.5695412     
   2737608448.6106544       -6021999.1557401419        1140122157.0766110     
   2648101252.3149757       -2750984.5908657312        1148618962.5063245     
   3960764477.0206718        8950843.2770798206        659849189.05241764     
   3807335839.1305914        1270845.6929442883        651317522.89684820     
   3654754795.5017147       -3583837.6871817112        649631503.86912167     
   3503021346.1340475       -5613206.8632812500        654791131.96924841     
   3352135491.0275846       -4817261.8353662491        666796407.19722188     
   3624626734.2802930        3633805.3409047127        782779603.42706358     
   3488338930.2647128       -554315.80207657814        776298209.79035270     
   3352653957.4541836       -2732999.5948879719        775350608.21206152     
   3217571815.8486967       -2902246.0375504494        779936798.69218898     
   3083092505.4482660       -1062055.1300423145        790056781.23074818     
   3293803615.9158821       -88845.282473802567        905218037.12759280     
   3170908488.4335909       -1909537.1866619587        900501359.11089075     
   3048371429.1001902       -2536668.5945398808        900006618.08318424     
   2926192437.9156818       -1970239.5061157942        903733814.04448056     
   2804371514.8800669       -210249.92138111591        911682946.99477065     
   2968295121.9274454       -2217108.5930629969        1027164490.1540141     
   2855044513.6372252       -2794818.4608249664        1023926970.8584737     
   2741907210.4397430       -2994844.6861261129        1023599533.4825035     
   2628883212.3349915       -2817187.2689877748        1026182178.0261053     
   2515972519.3229833       -2261846.2093793154        1031674904.4892876     
   2648101252.3149757       -2750984.5908657312        1148618962.5063245     
   2540747005.8756132       -3210159.6245650053        1146575045.0330918     
   2433261301.4728389       -4107527.8696470261        1146129354.4100106     
   2325644139.1066360       -5443089.3261562586        1147281890.6370747     
   2217895518.7770147       -7216843.9940528870        1150032653.7142904     
   3352135491.0275846       -4817261.8353662491        666796407.19722188     
   3221371269.5992985        2259357.4721101522        662426009.14293563     
   3089920454.4654961        7047331.0945267677        657598907.31219995     
   2957783045.6261663        9546659.0318582058        652315101.70500493     
   2824959043.0813198        9757341.2841376066        646574592.32135963     
   3083092505.4482660       -1062055.1300423145        790056781.23074818     
   2953214048.5806875        2447852.8496299982        782867174.12616277     
   2822923613.9227686        4584501.5281728506        777638715.38191330     
   2692221201.4745073        5347890.9055800438        774371404.99799609     
   2561106811.2359128        4738020.9818665981        773065242.97441804     
   2804371514.8800669       -210249.92138111591        911682946.99477065     
   2682286971.5354404        1805391.4191510677        901994516.07426357     
   2560065066.3156614        3363159.8424959183        896685085.65088248     
   2437705799.2207241        4463055.3486545086        895754655.72462344     
   2315209170.2506289        5105077.9376280308        899203226.29548860     
   2515972519.3229833       -2261846.2093793154        1031674904.4892876     
   2408590038.4635663        331973.18068623543        1019808034.9872367     
   2301344811.6441717        3383306.0375070572        1014738018.1191026     
   2194236838.8648071        6892152.3610872030        1016464853.8848789     
   2087266120.1254699        10858512.151429296        1024988542.2845721     
   2217895518.7770147       -7216843.9940528870        1150032653.7142904     
   2132123249.3650587       -1972401.8657685518        1136307730.8650830     
   2046762849.9083073        4644940.1132060289        1131797512.7865787     
   1961814320.4067705        12635181.942893028        1136501999.4787712     
   1877277660.8604419        21998323.623272896        1150421190.9416652     
   2824959043.0813198        9757341.2841376066        646574592.32135963     
   2681150694.5786004        10965230.990779161        633144157.42702913     
   2540859166.9737515        23895857.023671865        630157970.25866938     
   2404084460.2667756        48549219.382828474        637616030.81627548     
   2270826574.4576869        84925318.068242311        655518339.09985948     
   2561106811.2359128        4738020.9818665981        773065242.97441804     
   2440911946.4147511        9522921.5538849831        767250809.96397829     
   2322526144.7930584        20338032.790796638        768330883.39829421     
   2205949406.3708358        37183354.692603230        776305463.27737367     
   2091181731.1480756        60058887.259292960        791174549.60121036     
   2315209170.2506289        5105077.9376280308        899203226.29548860     
   2208485671.1647182        10424353.991137266        899012411.18745530     
   2101863477.5798628        16081315.048170209        902166361.24297369     
   1995342589.4960632        22075961.108732939        908665076.46204412     
   1888923006.9133236        28408292.172814727        918508556.84466004     
   2087266120.1254699        10858512.151429296        1024988542.2845721     
   1983871868.8284919        13669528.302537441        1028428961.0974712     
   1878871165.3341565        11125703.795784116        1031664403.7927138     
   1772264009.6424770        3227038.6312026978        1034694870.3702899     
   1664050401.7534354       -10026467.191207886        1037520360.8302145     
   1877277660.8604419        21998323.623272896        1150421190.9416652     
   1767070539.4060783        19258444.488074780        1155500459.6940229     
   1653549208.0559504        5471199.0336521864        1156825011.0475094     
   1536713666.8100672       -19363412.739951670        1154394845.0021284     
   1416563915.6684165       -55245390.832776308        1148209961.5578666     
   3767965778.6297169        1130389733.5889151        800931524.99047196     
   3778790237.4317846        1008841182.4481132        885218316.18774474     
   3790202125.3958750        889250728.51405382        974426812.56617522     
   3802201442.5219884        771618371.78673673        1068557014.1257639     
   3814788188.8101254        655944112.26616323        1167608920.8665113     
   3207667376.2470360        962300212.87411070        757147333.46119809     
   3235642670.0743318        868273923.29172969        853505455.70063281     
   3263335828.8760219        773307183.62399590        951783531.64945006     
   3290746852.6521063        677399993.87090921        1051981561.3076481     
   3317875741.4025855        580552354.03246975        1154099544.6752291     
   2685637883.9552317        805691365.18656945        722476930.41990709     
   2722187580.0312524        736614407.32965815        829891892.14927065     
   2757585576.8940392        663698452.09529889        936225056.11624038     
   2791831874.5435905        586943499.48349130        1041476422.3208157     
   2824926472.9799085        506349549.49423546        1145645990.7629964     
   2201877301.7543049        660563190.52629149        696920315.86659920     
   2238424967.3025479        613862634.56189919        814377625.53365839     
   2272951369.4499273        560424533.92796326        927751385.96654701     
   2305456508.1964436        500248888.62448370        1037041597.1652654     
   2335940383.5420966        433335698.65146053        1142248259.1298134     
   1756385629.6442566        526915688.89327699        680477489.80127430     
   1784354831.8882170        500018604.98845214        806962655.85379553     
   1809433206.5436857        463485429.12198877        926362521.20036995     
   1831620753.6106632        417316161.29388654        1038677085.8409982     
   1850917473.0891488        361510801.50414503        1143906349.7756798     
   3814788188.8101254        655944112.26616323        1167608920.8665113     
   3797077230.2495832        537985058.29527068        1189323034.9069543     
   3783265337.2551169        433022889.54463100        1206135981.7448587     
   3773352509.8267279        341057606.01425040        1218047761.3802257     
   3767338747.9644170        262089207.70412385        1225058373.8130555     
   3317875741.4025855        580552354.03246975        1154099544.6752291     
   3293010064.8395138        473383149.01318681        1182573715.2126276     
   3271905735.0030727        378751766.41600537        1207955458.5771704     
   3254562751.8932629        296658206.24092698        1230244774.7688565     
   3240981115.5100837        227102468.48795116        1249441663.7876868     
   2824926472.9799085        506349549.49423546        1145645990.7629964     
   2798073907.0705414        411520542.02343208        1180719545.8179979     
   2774844969.0483589        328770294.17657781        1214509413.7298245     
   2755239658.9133620        258098805.95367277        1247015594.4984772     
   2739257976.6655488        199506077.35471690        1278238088.1239548     
   2335940383.5420966        433335698.65146053        1142248259.1298134     
   2312268756.9426675        352397237.32600731        1183760526.7230635     
   2292083039.3909779        283078472.82635003        1225797847.2028205     
   2275383230.8870254        225379405.15248775        1268360220.5690846     
   2262169331.4308128        179300034.30442190        1311447646.8218565     
   1850917473.0891488        361510801.50414503        1143906349.7756798     
   1835594614.4558914        296013234.92091131        1191696657.9278247     
   1823619946.0309267        241676302.36532211        1241820758.9961588     
   1814993467.8142540        198500003.83737260        1294278652.9806814     
   1809715179.8058755        166484339.33706862        1349070339.8813937     
   3767338747.9644170        262089207.70412385        1225058373.8130555     
   3659712833.1455550        169960184.55676663        1192358636.5824895     
   3559609624.8813214        102906849.92483699        1169985269.3227868     
   3467029123.1717138        60929203.808329821        1157938272.0339470     
   3381971328.0167360        44027246.207250476        1156217644.7159705     
   3240981115.5100837        227102468.48795116        1249441663.7876868     
   3162514343.1227279        152955180.67402601        1232092760.7513211     
   3090093250.8704786        98960159.977128744        1222697966.0759966     
   3023717838.7533417        65117406.397264719        1221257279.7617126     
   2963388106.7713103        51426919.934427500        1227770701.8084736     
   2739257976.6655488        199506077.35471690        1278238088.1239548     
   2683172456.3959236        141307157.78009069        1274516821.7923484     
   2631655589.8418894        98337083.924100399        1276377402.2119625     
   2584707377.0034437        70595855.786740661        1283819829.3827984     
   2542327817.8805895        58083473.368015885        1296844103.3048539     
   2262169331.4308128        179300034.30442190        1311447646.8218565     
   2221687172.9651461        135016115.87496483        1319630819.7055714     
   2184296641.7955494        101037621.76574361        1331023577.7306867     
   2149997737.9220266        77364551.976764083        1345625920.8972027     
   2118790461.3445718        63996906.508017063        1363437849.2051184     
   1809715179.8058755        166484339.33706862        1349070339.8813937     
   1778058492.8303926        134082054.95864558        1367434754.4909916     
   1748016406.7314620        107061773.50206393        1386636492.6321692     
   1719588921.5090837        85423494.967325747        1406675554.3049252     
   1692776037.1632578        69167219.354425848        1427551939.5092604     
   3381971328.0167360        44027246.207250476        1156217644.7159705     
   3290143708.2018166        36170683.325649738        1149358051.3773203     
   3198096464.5470800        27582040.977993965        1146226252.1989944     
   3105829597.0525274        18261319.164281249        1146822247.1809976     
   3013343105.7181568        8208517.8845127821        1151146036.3233318     
   2963388106.7713103        51426919.934427500        1227770701.8084736     
   2880445976.2873344        40405502.002633572        1220079939.1845322     
   2797690773.1945963        30007175.374959469        1216226725.3587289     
   2715122497.4930968        20231940.051417708        1216211060.3310559     
   2632741149.1828303        11079796.031991839        1220032944.1015215     
   2542327817.8805895        58083473.368015885        1296844103.3048539     
   2468584761.4070058        43991275.789860129        1288796481.1651888     
   2395435183.5557132        31877340.286008239        1284696162.4614675     
   2322879084.3267126        21741666.856464624        1284543147.1936874     
   2250916463.7200055        13584255.501227260        1288337435.3618479     
   2118790461.3445718        63996906.508017063        1363437849.2051184     
   2054560063.5608277        46928004.687333584        1355507677.3192918     
   1991329695.6304295        33192535.711136937        1351634563.5072141     
   1929099357.5533800        22790499.579431295        1351818507.7688861     
   1867869049.3296723        15721896.292204142        1356059510.1043062     
   1692776037.1632578        69167219.354425848        1427551939.5092604     
   1638371882.7488046        49215688.695055783        1420213527.6468368     
   1585374309.4187477        33952761.650343776        1417041928.4959681     
   1533783317.1730936        23378438.220306277        1418037142.0566561     
   1483598906.0118406        17492718.404937863        1423199168.3288975     
   3013343105.7181568        8208517.8845127821        1151146036.3233318     
   2920229375.3122487       -542247.91804504395        1141385693.9851153     
   2828317822.9430790       -5285753.5981329679        1137711067.5695412     
   2737608448.6106544       -6021999.1557401419        1140122157.0766110     
   2648101252.3149757       -2750984.5908657312        1148618962.5063245     
   2632741149.1828303        11079796.031991839        1220032944.1015215     
   2555502824.3392057        5245743.3271749020        1210803304.8390830     
   2479248023.2744141        2690103.2184653282        1207026712.4485865     
   2403976745.9884567        3412875.7058702707        1208703166.9300342     
   2329688992.4813318        7414060.7893894911        1215832668.2834218     
   2250916463.7200055        13584255.501227260        1288337435.3618479     
   2187745918.5795188        10124628.136401534        1279383402.5409586     
   2125340242.9599566        9214565.8413211107        1275249747.5413120     
   2063699436.8613217        10854068.615997910        1275936470.3629060     
   2002823500.2836106        15043136.460423112        1281443571.0057456     
   1867869049.3296723        15721896.292204142        1356059510.1043062     
   1816958658.0331829        14094406.509633541        1347125987.0907404     
   1766594481.9997077        14287634.270440102        1342380172.8477159     
   1716776521.2292511        16301579.574642420        1341822067.3752339     
   1667504775.7218103        20136242.422232091        1345451670.6732934     
   1483598906.0118406        17492718.404937863        1423199168.3288975     
   1443141042.7002017        17155078.446870267        1414031058.4884295     
   1403010740.3936696        17909308.505826652        1408417988.3678014     
   1363207999.0922449        19755408.581806362        1406359957.9670131     
   1323732818.7959294        22693378.674816906        1407856967.2860675     
   2648101252.3149757       -2750984.5908657312        1148618962.5063245     
   2540747005.8756132       -3210159.6245650053        1146575045.0330918     
   2433261301.4728389       -4107527.8696470261        1146129354.4100106     
   2325644139.1066360       -5443089.3261562586        1147281890.6370747     
   2217895518.7770147       -7216843.9940528870        1150032653.7142904     
   2329688992.4813318        7414060.7893894911        1215832668.2834218     
   2227760328.6898160        4630816.7564696074        1211516350.9687955     
   2125842323.9560909        1883102.9161797762        1210311655.5329480     
   2023934978.2801566       -829080.73147451878        1212218581.9758847     
   1922038291.6620078       -3505734.1865090132        1217237130.2976065     
   2002823500.2836106        15043136.460423112        1281443571.0057456     
   1910644404.9360366        11233019.167106032        1275020657.0411303     
   1818618085.6674583        7932155.4704515934        1273222759.9839325     
   1726744542.4778771        5140545.3704571724        1276049879.8341494     
   1635023775.3672991        2858188.8671293259        1283502016.5917845     
   1667504775.7218103        20136242.422232091        1345451670.6732934     
   1589399234.6142688        16596447.607349396        1337087963.2501056     
   1511588586.6069350        14039629.793154478        1334862667.7629659     
   1434072831.6998103        12465788.979657710        1338775784.2118793     
   1356851969.8928919        11874925.166849077        1348827312.5968359     
   1323732818.7959294        22693378.674816906        1407856967.2860675     
   1264024817.7245178        20721102.077192903        1397718269.5957167     
   1204753826.7745199        20205525.884283066        1395231378.8700471     
   1145919845.9459465        21146650.096117437        1400396295.1090634     
   1087522875.2387867        23544474.712669432        1413213018.3127611     
   2217895518.7770147       -7216843.9940528870        1150032653.7142904     
   2132123249.3650587       -1972401.8657685518        1136307730.8650830     
   2046762849.9083073        4644940.1132060289        1131797512.7865787     
   1961814320.4067705        12635181.942893028        1136501999.4787712     
   1877277660.8604419        21998323.623272896        1150421190.9416652     
   1922038291.6620078       -3505734.1865090132        1217237130.2976065     
   1857644378.6064396        4937196.6664346457        1205429399.6081109     
   1793153269.5079248        13056140.709558964        1200113740.8702157     
   1728564964.3664742        20851097.942893267        1201290154.0839264     
   1663879463.1820886        28322068.366448104        1208958639.2492383     
   1635023775.3672991        2858188.8671293259        1283502016.5917845     
   1584229267.7564046        12165923.171204805        1273017567.7308321     
   1532828498.1044211        19452784.004982293        1266302558.0023782     
   1480821466.4113455        24718771.368457258        1263356987.4064281     
   1428208172.6771858        27963885.261650145        1264180855.9429824     
   1356851969.8928919        11874925.166849077        1348827312.5968359     
   1311877916.8149602        19713777.648546159        1339072235.2332513     
   1265788535.6977928        23834869.999458134        1330363964.1830633     
   1218583826.5413859        24238202.219571948        1322702499.4462824     
   1170263789.3457408        20923774.308890224        1316087841.0229020     
   1087522875.2387867        23544474.712669432        1413213018.3127611     
   1040590325.7821095        27580760.098487377        1403593402.1153646     
   992033382.28804278        26202398.693002522        1392297959.4122703     
   941852044.75658822        19409390.496226370        1379326690.2034812     
   890046313.18775249        7201735.5081773996        1364679594.4889972     
   1877277660.8604419        21998323.623272896        1150421190.9416652     
   1767070539.4060783        19258444.488074780        1155500459.6940229     
   1653549208.0559504        5471199.0336521864        1156825011.0475094     
   1536713666.8100672       -19363412.739951670        1154394845.0021284     
   1416563915.6684165       -55245390.832776308        1148209961.5578666     
   1663879463.1820886        28322068.366448104        1208958639.2492383     
   1548988785.3417263        23435250.659281731        1207606716.9015191     
   1435978005.6538067        24814760.126935661        1206902223.6338959     
   1324847124.1183422        32460596.769420266        1206845159.4463642     
   1215596140.7353129        46372760.586723745        1207435524.3389375     
   1428208172.6771858        27963885.261650145        1264180855.9429824     
   1321211499.8192995        24703397.393066227        1262457535.2181039     
   1221288833.1620646        45022930.193329334        1265783790.0522809     
   1128440172.7054877        88922483.662448287        1274159620.4455214     
   1042665518.4495701        156402057.80043212        1287585026.3978152     
   1170263789.3457408        20923774.308890224        1316087841.0229020     
   1083738682.8388016        23062884.689432740        1320052914.6437681     
   1009481690.5807232        66095709.232848376        1333469710.3026605     
   947492812.57151294        150022247.93914607        1356338227.9995730     
   897772048.81116581        274842500.80834186        1388658467.7345183     
   890046313.18775249        7201735.5081773996        1364679594.4889972     
   836570334.40023124        18513712.548377603        1380392855.1785169     
   800556577.90978563        88033097.245489419        1409959984.3850338     
   782005043.71641016        215759889.59950230        1453380982.1085403     
   780915731.82011580        401694089.61045802        1510655848.3490322     
   1756385629.6442566        526915688.89327699        680477489.80127430     
   1784354831.8882170        500018604.98845214        806962655.85379553     
   1809433206.5436857        463485429.12198877        926362521.20036995     
   1831620753.6106632        417316161.29388654        1038677085.8409982     
   1850917473.0891488        361510801.50414503        1143906349.7756798     
   1326889728.2767961        398066918.48303884        670061365.08579504     
   1340099833.5453291        375473330.85149050        792307537.01417553     
   1351136624.4663346        345635362.06151617        909292743.60434103     
   1360000101.0398121        308553012.11311573        1021016984.8562912     
   1366690263.2657616        264226281.00628969        1127480260.7700260     
   891116458.30363512        267334937.49109057        662584854.58202469     
   894779853.36168790        250608562.16230261        781429131.16738880     
   896987447.31317675        229029516.47830158        896836777.78226912     
   897739240.15810144        202597800.43908745        1008807794.4266660     
   897035231.89646220        171313414.04466012        1117342181.1005785     
   449065819.72477400        134719745.91743222        658047958.28996301     
   448394891.33729309        125424298.92088871        774327438.31343544     
   446985675.08421201        113667892.37234490        888994623.73415542     
   444838170.96553081        99450526.271800965        1002049514.5521237     
   441952378.98124963        82772200.619256809        1113492110.7673385     
   737812.54021235544        221343.76206370661        656450676.20960987     
   944947.47214460955       -79458.872751306219        771002458.45231521     
   1131307.7794407012       -449510.25635361444        885766281.45999932     
   1296893.4621004846       -888810.38874331384        1000742145.2326624     
   1441704.5201242254       -1397359.2699201684        1115930049.7703049     
   1850917473.0891488        361510801.50414503        1143906349.7756798     
   1835594614.4558914        296013234.92091131        1191696657.9278247     
   1823619946.0309267        241676302.36532211        1241820758.9961588     
   1814993467.8142540        198500003.83737260        1294278652.9806814     
   1809715179.8058755        166484339.33706862        1349070339.8813937     
   1366690263.2657616        264226281.00628969        1127480260.7700260     
   1361089030.2241061        216715053.77123797        1183115087.7529371     
   1357992708.7511134        177553531.76506504        1239743601.6559258     
   1357401298.8467846        146741714.98777205        1297365802.4789917     
   1359314800.5111201        124279603.43935907        1355981690.2221360     
   897035231.89646220        171313414.04466012        1117342181.1005785     
   897326750.17180312        140639863.87540755        1179837701.8346887     
   899279901.37617886        115505090.13627237        1241986803.4927652     
   902894685.50958931        95909092.827252865        1303789486.0748076     
   908171102.57203567        81851871.948351324        1365245749.5808165     
   441952378.98124963        82772200.619256809        1113492110.7673385     
   444307774.29898351        67787665.233423203        1181864500.1730804     
   447481523.90612382        55530977.478943959        1248550364.5066779     
   451473627.80266994        46002137.355817989        1313549703.7681301     
   456284085.98862225        39201144.864045456        1376862517.9574366     
   1441704.5201242254       -1397359.2699201684        1115930049.7703049     
   2032102.6056470778       -1841542.1547167092        1189195482.7681122     
   2597576.3409471801       -2368806.2069221549        1259434284.6976628     
   3138125.7260244396       -2979151.4265369494        1326646455.5589573     
   3653750.7608792856       -3672577.8135601329        1390831995.3519948     
   1809715179.8058755        166484339.33706862        1349070339.8813937     
   1778058492.8303926        134082054.95864558        1367434754.4909916     
   1748016406.7314620        107061773.50206393        1386636492.6321692     
   1719588921.5090837        85423494.967325747        1406675554.3049252     
   1692776037.1632578        69167219.354425848        1427551939.5092604     
   1359314800.5111201        124279603.43935907        1355981690.2221360     
   1332890417.9588623        98830816.393257260        1376060404.5596845     
   1307597183.0251646        77152521.409023523        1397721991.6914446     
   1283435095.7100289        59244718.486661792        1420966451.6174166     
   1260404156.0134516        45107407.626162648        1445793784.3376005     
   908171102.57203567        81851871.948351324        1365245749.5808165     
   889109165.19338214        63995624.459684700        1386474734.8453238     
   870694922.17529678        48298358.172912657        1410032142.1666768     
   852928373.51778007        34760073.088035405        1435917971.5448732     
   835809519.22083199        23380769.205052108        1464132222.9799151     
   456284085.98862225        39201144.864045456        1376862517.9574366     
   446714734.53395140        29576479.157925740        1398677745.3479135     
   437309624.18185800        20499283.793730080        1423566944.0578668     
   428068754.93234026        11969558.771453366        1451530114.0872982     
   418992126.78539920        3987304.0910992473        1482567255.4362061     
   3653750.7608792856       -3672577.8135601329        1390831995.3519948     
   5707125.9805711480       -4426619.5120170163        1412669436.0674493     
   7441289.0448471559       -6244701.7285263967        1438326397.3650138     
   8856239.9537079521       -9126824.4630865697        1467802879.2446890     
   9951978.7071530335       -13072987.715699304        1501098881.7064743     
   1692776037.1632578        69167219.354425848        1427551939.5092604     
   1638371882.7488046        49215688.695055783        1420213527.6468368     
   1585374309.4187477        33952761.650343776        1417041928.4959681     
   1533783317.1730936        23378438.220306277        1418037142.0566561     
   1483598906.0118406        17492718.404937863        1423199168.3288975     
   1260404156.0134516        45107407.626162648        1445793784.3376005     
   1218819743.5405974        28677994.621559620        1442954744.1695871     
   1178262825.0022237        15673561.398559511        1444997434.8632236     
   1138733400.3983316        6094107.9571627378        1451921856.4185114     
   1100231469.7289205       -60365.702632665634        1463728008.8354526     
   835809519.22083199        23380769.205052108        1464132222.9799151     
   809087471.97556639        11086260.841019988        1465350286.1647384     
   783013831.51486123        953108.42552351952        1472164998.3613083     
   757588597.83871651       -7018688.0414368510        1484576359.5696251     
   732811770.94713354       -12829128.559861481        1502584369.7896886     
   418992126.78539920        3987304.0910992473        1482567255.4362061     
   409175068.05370742       -3559512.6465698183        1487400153.6322944     
   399627328.95665890       -10208597.268762708        1498544618.9902239     
   390348909.49424922       -15959949.775492057        1516000651.5099964     
   381339809.66648161       -20813570.166748181        1539768251.1916082     
   9951978.7071530335       -13072987.715699304        1501098881.7064743     
   19082531.775022745       -15259325.841207389        1509104346.5722525     
   28103317.327615716       -17811555.684305318        1524136296.7499681     
   37014335.364928618       -20729677.245003454        1546194732.2396221     
   45815585.886962257       -24013690.523298435        1575279653.0412121     
   1483598906.0118406        17492718.404937863        1423199168.3288975     
   1443141042.7002017        17155078.446870267        1414031058.4884295     
   1403010740.3936696        17909308.505826652        1408417988.3678014     
   1363207999.0922449        19755408.581806362        1406359957.9670131     
   1323732818.7959294        22693378.674816906        1407856967.2860675     
   1100231469.7289205       -60365.702632665634        1463728008.8354526     
   1068315686.2851861       -2367105.3326452374        1460410849.9731083     
   1036606622.0028489       -3984781.0913375020        1460563889.6751449     
   1005104276.8819101       -4913392.9786996841        1464187127.9415612     
   973808650.92236483       -5152940.9947530031        1471280564.7723618     
   732811770.94713354       -12829128.559861481        1502584369.7896886     
   709195664.06998825       -17177688.852214634        1504977179.7544754     
   685665434.51052976       -21239991.418944895        1510755347.1281819     
   662221082.26875532       -25016036.260063440        1519918871.9108093     
   638862607.34466696       -28505823.375559568        1532467754.1023540     
   381339809.66648161       -20813570.166748181        1539768251.1916082     
   365780976.05460715       -27276672.111838564        1547730047.8325315     
   350187177.91670978       -33856322.477005675        1558992360.7269115     
   334558415.25278521       -40552521.262264326        1573555189.8747494     
   318894688.06283450       -47365268.467608213        1591418535.2760487     
   45815585.886962257       -24013690.523298435        1575279653.0412121     
   38071622.239042908       -32664055.111518279        1588669454.2072721     
   30171852.221388124       -41833774.265521541        1605274930.4713309     
   22116275.833995704       -51522847.985317938        1625096081.8333874     
   13904893.076868281       -61731276.270896994        1648132908.2934401     
   1323732818.7959294        22693378.674816906        1407856967.2860675     
   1264024817.7245178        20721102.077192903        1397718269.5957167     
   1204753826.7745199        20205525.884283066        1395231378.8700471     
   1145919845.9459465        21146650.096117437        1400396295.1090634     
   1087522875.2387867        23544474.712669432        1413213018.3127611     
   973808650.92236483       -5152940.9947530031        1471280564.7723618     
   932269621.97707415       -7750999.1165346503        1466201823.6193619     
   890994979.88575900       -9467767.7250657082        1467591819.0273499     
   849984724.64842093       -10303246.820340216        1475450550.9963233     
   809238856.26506269       -10257436.402346909        1489778019.5262764     
   638862607.34466696       -28505823.375559568        1532467754.1023540     
   612112349.37207556       -32743723.367534578        1532247575.6746938     
   585453854.98602080       -36675744.737717718        1537313063.4043236     
   558887124.18650293       -40301887.486112297        1547664217.2912414     
   532412156.97352546       -43622151.612705559        1563301037.3354490     
   318894688.06283450       -47365268.467608213        1591418535.2760487     
   303552999.90952277       -54257070.675797760        1595855525.7617145     
   288130452.07530743       -61418405.153665543        1604395112.0009699     
   272627044.56019264       -68849271.901198685        1617037293.9938219     
   257042777.36417437       -76549670.918409228        1633782071.7402611     
   13904893.076868281       -61731276.270896994        1648132908.2934401     
   6591573.5894157887       -72291041.041328907        1657025673.8804195     
  -975228.84637521952       -83695748.972889215        1668837964.8172925     
  -8795514.2305151522       -95945400.065613106        1683569781.1040592     
  -16869282.562991478       -109039994.31945728        1701221122.7407217     
   1087522875.2387867        23544474.712669432        1413213018.3127611     
   1040590325.7821095        27580760.098487377        1403593402.1153646     
   992033382.28804278        26202398.693002522        1392297959.4122703     
   941852044.75658822        19409390.496226370        1379326690.2034812     
   890046313.18775249        7201735.5081773996        1364679594.4889972     
   809238856.26506269       -10257436.402346909        1489778019.5262764     
   760629675.00988591       -14152035.657183021        1480904509.7094390     
   710713415.15702820       -22403563.570958227        1474247313.7780585     
   659490076.70648396       -35012020.143685818        1469806431.7321415     
   606959659.65826321       -51977405.375334531        1467581863.5716867     
   532412156.97352546       -43622151.612705559        1563301037.3354490     
   493246745.03744453       -52111515.172916263        1555543835.2454808     
   453091569.94338691       -63900089.259716064        1553895087.4321375     
   411946631.69135195       -78987873.873106152        1558354793.8954136     
   369811930.28133887       -97374869.013091996        1568922954.6353095     
   257042777.36417437       -76549670.918409228        1633782071.7402611     
   238441535.86478803       -86297678.448705330        1627511378.7234955     
   219167846.64712629       -98287178.373251796        1631241280.3745062     
   199221709.71119398       -112518170.69203439        1644971776.6932991     
   178603125.05698454       -128990655.40507433        1668702867.6798716     
  -16869282.562991478       -109039994.31945728        1701221122.7407217     
  -3785952.5080928802       -116710525.48457836        1696807140.1434760     
   8942245.2682411522       -125564830.91157991        1706285892.6051686     
   21315310.766006291       -135602910.60047778        1729657380.1257970     
   33333243.985200927       -146824764.55127877        1766921602.7053649     
   890046313.18775249        7201735.5081773996        1364679594.4889972     
   836570334.40023124        18513712.548377603        1380392855.1785169     
   800556577.90978563        88033097.245489419        1409959984.3850338     
   782005043.71641016        215759889.59950230        1453380982.1085403     
   780915731.82011580        401694089.61045802        1510655848.3490322     
   606959659.65826321       -51977405.375334531        1467581863.5716867     
   578890309.55959535       -55373247.334404767        1510334098.6591897     
   556236536.86372256       -40717164.617495626        1562170137.8363402     
   538998341.57062721       -8009157.2246588469        1623089981.1031365     
   527175723.68031996        42750774.844139829        1693093628.4595931     
   369811930.28133887       -97374869.013091996        1568922954.6353095     
   353520453.36484551       -119567156.62339799        1624659745.0774519     
   330597908.95684588       -163863002.53872514        1684710275.1819019     
   301044297.05734187       -230262406.75907078        1749074544.9486587     
   264859617.66633236       -318765369.28442925        1817752554.3777273     
   178603125.05698454       -128990655.40507433        1668702867.6798716     
   160460765.81597239       -174068015.31863320        1723369794.4333148     
   123640694.18916123       -281404416.51819021        1777580396.4217260     
   68142910.176555037       -450999859.00373316        1831334673.6451070     
  -6032586.2218476236       -682854342.77525938        1884632626.1034462     
   33333243.985200927       -146824764.55127877        1766921602.7053649     
  -288753.08702518046       -218875823.42011571        1806464246.7267766     
  -64635107.439341620       -393341406.55591905        1840780501.5558062     
  -159705819.07173800       -670221513.95865524        1869870367.1924639     
  -285500887.98422015       -1049516145.6283473        1893733843.6367509     
   737812.54021235544        221343.76206370661        656450676.20960987     
   944947.47214460955       -79458.872751306219        771002458.45231521     
   1131307.7794407012       -449510.25635361444        885766281.45999932     
   1296893.4621004846       -888810.38874331384        1000742145.2326624     
   1441704.5201242254       -1397359.2699201684        1115930049.7703049     
  -447648463.07818973       -134294538.92345691        657812082.02583396     
  -446550373.46692079       -125476925.55117545        774000946.53777039     
  -444741882.99136209       -114291309.29792826        888558870.19027221     
  -442222991.65151393       -100737690.16371602        1001485852.9833394     
  -438993699.44737571       -84816068.148537487        1112781894.9169722     
  -889873906.95857191       -266962172.08757156        662151249.42350328     
  -893150524.45200539       -250605841.24340522        780830234.27508450     
  -894985565.59222305       -229444255.88852045        896035296.64281774     
  -895379030.37922561       -203477416.02291754        1007766436.5267022     
  -894330918.81301236       -172705321.64659607        1116023653.9267385     
  -1325938519.1009345       -397781555.73028034        669468178.40261817     
  -1338855505.4831090       -375466205.94944084        791490321.66425765     
  -1349599740.0231426       -345908350.02813035        908195560.81763494     
  -1358171222.7210348       -309107987.96634829        1019583895.8627506     
  -1364569953.5767856       -265065119.76409557        1125655326.7996042     
  -1755842299.5052772       -526752689.85158312        679762868.96317840     
  -1783665316.5602326       -500058019.66928232        805981208.70528948     
  -1808584406.2841203       -463683591.71675730        925039662.71472514     
  -1830599568.6769414       -417629405.99400854        1036938230.9914852     
  -1849710803.7386944       -361895462.50103539        1141676913.5355697     
   1441704.5201242254       -1397359.2699201684        1115930049.7703049     
   2032102.6056470778       -1841542.1547167092        1189195482.7681122     
   2597576.3409471801       -2368806.2069221549        1259434284.6976628     
   3138125.7260244396       -2979151.4265369494        1326646455.5589573     
   3653750.7608792856       -3672577.8135601329        1390831995.3519948     
  -438993699.44737571       -84816068.148537487        1112781894.9169722     
  -440179481.03519481       -70416110.099605247        1180957628.5844078     
  -442205647.11059535       -58817433.675944507        1247368130.2789760     
  -445072197.67357647       -50020038.877552643        1312013400.0006771     
  -448779132.72413945       -44023925.704433709        1374893437.7495122     
  -894330918.81301236       -172705321.64659607        1116023653.9267385     
  -893688882.65877414       -142380023.43931538        1178158318.1035507     
  -894702691.12947607       -117574207.31516749        1239789149.4028854     
  -897372344.22511721       -98287873.274152011        1300916147.8247423     
  -901697841.94569874       -84521021.316269934        1361539313.3691230     
  -1364569953.5767856       -265065119.76409557        1125655326.7996042     
  -1358496102.2650909       -217733282.17384678        1180797551.3255410     
  -1354893555.7156949       -178639127.12459219        1236697342.0693903     
  -1353762313.9285972       -147782654.61633182        1293354699.0311522     
  -1355102376.9037983       -125163864.64906800        1350769622.2108262     
  -1849710803.7386944       -361895462.50103539        1141676913.5355697     
  -1834601139.8541453       -296475886.30319929        1188875328.2503796     
  -1822778240.8692524       -242012193.10421878        1238092708.2784915     
  -1814242106.7840168       -198504382.90409464        1289329053.6199059     
  -1808992737.5984383       -165952455.70282853        1342584364.2746220     
   3653750.7608792856       -3672577.8135601329        1390831995.3519948     
   5707125.9805711480       -4426619.5120170163        1412669436.0674493     
   7441289.0448471559       -6244701.7285263967        1438326397.3650138     
   8856239.9537079521       -9126824.4630865697        1467802879.2446890     
   9951978.7071530335       -13072987.715699304        1501098881.7064743     
  -448779132.72413945       -44023925.704433709        1374893437.7495122     
  -435150762.68277228       -35040428.556015030        1395522461.3054976     
  -422141265.88060111       -28119842.204916924        1418988682.1006138     
  -409750642.31762797       -23262166.651146188        1445292100.1348608     
  -397978891.99385196       -20467401.894697443        1474432715.4082365     
  -901697841.94569874       -84521021.316269934        1361539313.3691230     
  -879301115.20545375       -66641976.757814556        1380610315.1678941     
  -857822922.78818727       -51824713.275953948        1401536190.8628159     
  -837263264.69389904       -40069230.870687217        1424316940.4538898     
  -817622140.92258835       -31375529.542012542        1448952563.9411147     
  -1355102376.9037983       -125163864.64906800        1350769622.2108262     
  -1326743931.5874743       -99231264.117416620        1367932997.6546376     
  -1299603681.6779094       -77359314.941627443        1385968923.6516216     
  -1273681627.1751046       -59548017.121707380        1404877400.2017777     
  -1248977768.0790586       -45797370.657647312        1424658427.3051054     
  -1808992737.5984383       -165952455.70282853        1342584364.2746220     
  -1777479211.8288326       -132808290.63481885        1357490508.7657297     
  -1747483542.5497689       -104723647.20194584        1372286880.4670305     
  -1719005729.7612448       -81698525.404207945        1386973479.3785238     
  -1692045773.4632618       -63732925.241604567        1401550305.5002098     
   9951978.7071530335       -13072987.715699304        1501098881.7064743     
   19082531.775022745       -15259325.841207389        1509104346.5722525     
   28103317.327615716       -17811555.684305318        1524136296.7499681     
   37014335.364928618       -20729677.245003454        1546194732.2396221     
   45815585.886962257       -24013690.523298435        1575279653.0412121     
  -397978891.99385196       -20467401.894697443        1474432715.4082365     
  -370663312.17145312       -13985207.879231527        1477228089.9681175     
  -343372190.70803845       -7584541.7270462811        1484985030.8408587     
  -316105527.60360771       -1265403.4381395429        1497703538.0264590     
  -288863322.85815799        4972206.9874961227        1515383611.5249207     
  -817622140.92258835       -31375529.542012542        1448952563.9411147     
  -778021302.91445553       -17994733.956218630        1446637375.5441093     
  -738359614.10901022       -4411102.3793825209        1447218834.4608867     
  -698637074.50625181        9375365.1884970069        1450696940.6914465     
  -658853684.10617995        23364668.747420967        1457071694.2357893     
  -1248977768.0790586       -45797370.657647312        1424658427.3051054     
  -1202991440.4539833       -27287904.072163343        1417332203.3002257     
  -1156858952.8752985       -8291237.6413104534        1410837707.6100512     
  -1110580305.3430059        11192628.634900630        1405174940.2345815     
  -1064155497.8571039        31163694.756474853        1400343901.1738191     
  -1692045773.4632618       -63732925.241604567        1401550305.5002098     
  -1645573724.7900355       -41864718.227060795        1389312573.2364671     
  -1598870207.0069056       -19224947.512837529        1375841650.2883534     
  -1551935220.1138711        4186386.9010674953        1361137536.6558676     
  -1504768764.1109319        28369285.014655769        1345200232.3390090     
   45815585.886962257       -24013690.523298435        1575279653.0412121     
   38071622.239042908       -32664055.111518279        1588669454.2072721     
   30171852.221388124       -41833774.265521541        1605274930.4713309     
   22116275.833995704       -51522847.985317938        1625096081.8333874     
   13904893.076868281       -61731276.270896994        1648132908.2934401     
  -288863322.85815799        4972206.9874961227        1515383611.5249207     
  -285267816.59586465        3484954.9021441638        1516414295.3876100     
  -282063798.98516333        692740.64481757581        1521298947.3518028     
  -279251270.02605832       -3404435.7844951451        1530037567.4175017     
  -276830229.71854168       -8806574.3857693523        1542630155.5847015     
  -658853684.10617995        23364668.747420967        1457071694.2357893     
  -642095013.63794231        29587637.453653544        1445468298.1329410     
  -625963514.10315406        33720036.381719708        1438357163.1351039     
  -610459185.50181687        35761865.531617910        1435738289.2422760     
  -595582027.83392596        35713124.903359294        1437611676.4544609     
  -1064155497.8571039        31163694.756474853        1400343901.1738191     
  -1032409968.8871894        45643992.543012977        1375831462.4432673     
  -1001527293.1325799        57248112.945197225        1356449577.8212337     
  -971507470.59327817        65976055.963022649        1342198247.3077159     
  -942350501.26928079        71827821.596501827        1333077470.9027143     
  -1504768764.1109319        28369285.014655769        1345200232.3390090     
  -1456212682.3436060        51654020.170220912        1307503788.3185885     
  -1408755136.0734441        71276970.335239530        1275576191.4101908     
  -1362396125.3004475        87238135.509708166        1249417441.6138179     
  -1317135650.0246086        99537515.693649054        1229027538.9294653     
   13904893.076868281       -61731276.270896994        1648132908.2934401     
   6591573.5894157887       -72291041.041328907        1657025673.8804195     
  -975228.84637521952       -83695748.972889215        1668837964.8172925     
  -8795514.2305151522       -95945400.065613106        1683569781.1040592     
  -16869282.562991478       -109039994.31945728        1701221122.7407217     
  -276830229.71854168       -8806574.3857693523        1542630155.5847015     
  -273380347.50112724       -14883093.414290830        1542122368.5490346     
  -270187130.25862527       -21815162.359187290        1545939846.9190824     
  -267250577.99103794       -29602781.220466278        1554082590.6948481     
  -264570690.69836909       -38245949.998138882        1566550599.8763275     
  -595582027.83392596        35713124.903359294        1437611676.4544609     
  -577352543.75215280        35324771.664603293        1427699624.4318113     
  -559382906.67186689        34070261.754223853        1423518577.8706973     
  -541673116.59307063        31949595.172210932        1425068536.7711213     
  -524223173.51576126        28962771.918575138        1432349501.1330817     
  -942350501.26928079        71827821.596501827        1333077470.9027143     
  -905325015.16365921        78332554.195357740        1313757441.5287480     
  -868562558.08610332        83960523.367331564        1301574157.6721401     
  -832063130.03660405        88711729.112446249        1296527619.3328896     
  -795826731.01516783        92586171.430688143        1298617826.5109966     
  -1317135650.0246086        99537515.693649054        1229027538.9294653     
  -1257297761.7356529        114140254.17795599        1200295819.8398461     
  -1197726084.5013311        127855622.48014683        1180106586.3234053     
  -1138420618.3216410        140683620.60023427        1168459838.3801455     
  -1079381363.1965902        152624248.53818977        1165355576.0100653     
  -16869282.562991478       -109039994.31945728        1701221122.7407217     
  -3785952.5080928802       -116710525.48457836        1696807140.1434760     
   8942245.2682411522       -125564830.91157991        1706285892.6051686     
   21315310.766006291       -135602910.60047778        1729657380.1257970     
   33333243.985200927       -146824764.55127877        1766921602.7053649     
  -264570690.69836909       -38245949.998138882        1566550599.8763275     
  -218470804.61535698       -32871165.951145746        1555578533.9948335     
  -171460218.48871323       -24460715.092047799        1553100626.4886167     
  -123538932.31843640       -13014597.420839183        1559116877.3576798     
  -74706946.104524016        1467187.0624879077        1573627286.6020174     
  -524223173.51576126        28962771.918575138        1432349501.1330817     
  -460531236.21509695        42755519.734532416        1416296156.3432457     
  -394662766.54859948        63803375.436603934        1403338393.2450225     
  -326617764.51626742        92106339.024789378        1393476211.8384180     
  -256396230.11810446        127664410.49907795        1386709612.1234286     
  -795826731.01516783        92586171.430688143        1298617826.5109966     
  -729967247.30731237        110169531.57246712        1278960007.1887114     
  -660665398.91141725        139227440.67437825        1256999192.8743842     
  -587921185.82749140        179759898.73639014        1232735383.5680149     
  -511734608.05552804        231766905.75852835        1206168579.2695956     
  -1079381363.1965902        152624248.53818977        1165355576.0100653     
  -1026778837.8919939        169370869.56267536        1143570086.5312350     
  -969468115.57716477        201811480.62127537        1114083025.3767014     
  -907449196.25210106        249946081.71399152        1076894392.5464644     
  -840722079.91680527        313774672.84080935        1032004188.0405242     
   33333243.985200927       -146824764.55127877        1766921602.7053649     
  -288753.08702518046       -218875823.42011571        1806464246.7267766     
  -64635107.439341620       -393341406.55591905        1840780501.5558062     
  -159705819.07173800       -670221513.95865524        1869870367.1924639     
  -285500887.98422015       -1049516145.6283473        1893733843.6367509     
  -74706946.104524016        1467187.0624879077        1573627286.6020174     
  -102188859.62479508       -30470458.930060927        1562850276.2472551     
  -146092633.99459326       -117147641.08770087        1552765854.8456905     
  -206418269.21392810       -258564359.41046065        1543374022.3973250     
  -283165765.28278947       -454720613.89831299        1534674778.9021556     
  -256396230.11810446        127664410.49907795        1386709612.1234286     
  -260826693.95620787        140913587.22190267        1342299193.2281451     
  -267376522.21329033        147098215.88146281        1304500341.4316273     
  -276045714.88935173        146218296.47776034        1273313056.7338786     
  -286834271.98438656        138273829.01081294        1248737339.1349041     
  -511734608.05552804        231766905.75852835        1206168579.2695956     
  -476202256.08126575        295276315.03576523        1144810997.6694353     
  -428486772.09542644        399396164.35158527        1095983961.3136139     
  -368588156.09800476        544126453.70601761        1059687470.2021338     
  -296506408.08900869        729467183.09903133        1035921524.3349967     
  -840722079.91680527        313774672.84080935        1032004188.0405242     
  -748315545.99996376        432617724.51154232        970385689.57112896     
  -629423383.64099264        639746204.32270694        927216714.49165034     
  -484045592.83989447        935160112.27429259        902497262.80208540     
  -312182173.59665841        1318859448.3663414        896227334.50243080     
  -1755842299.5052772       -526752689.85158312        679762868.96317840     
  -1783665316.5602326       -500058019.66928232        805981208.70528948     
  -1808584406.2841203       -463683591.71675730        925039662.71472514     
  -1830599568.6769414       -417629405.99400854        1036938230.9914852     
  -1849710803.7386944       -361895462.50103539        1141676913.5355697     
  -2201743053.1641235       -660522915.94923711        696127755.21325529     
  -2238297805.7513199       -613935984.82677197        813381850.56416774     
  -2272813063.4517741       -560550737.41516650        926488590.25214720     
  -2305288826.2654872       -500367173.71442091        1035447974.2771943     
  -2335725094.1924562       -433385293.72453403        1140260002.6393094     
  -2685798585.0699968       -805739575.52099895        721655271.26092088     
  -2722477844.4187393       -736678214.82716107        828936617.70225453     
  -2757982041.3250656       -663699979.32526684        935083138.55039907     
  -2792311175.7889748       -586804869.01531577        1040094833.8053540     
  -2825465247.8104663       -505992883.89730835        1143971703.4671202     
  -3208008895.2228975       -962402668.56686926        756345417.10617447     
  -3236205432.5624919       -868284709.67045021        852645510.11955070     
  -3264091339.9039946       -773131317.44705832        950823307.60948050     
  -3291666617.2474055       -676942491.89669359        1050878809.5759643     
  -3318931264.5927238       -579718233.01935601        1152812016.0190024     
  -3768373983.6228237       -1130512195.0868471        800198192.74901676     
  -3779480570.1825757       -1008755469.3566388        884508527.81605589     
  -3791140959.1885605       -888844751.78054118        973709097.42939198     
  -3803355150.6407785       -770780042.35855424        1067799901.5890250     
  -3816123144.5392289       -654561341.09067845        1166780940.2949555     
  -1849710803.7386944       -361895462.50103539        1141676913.5355697     
  -1834601139.8541453       -296475886.30319929        1188875328.2503796     
  -1822778240.8692524       -242012193.10421878        1238092708.2784915     
  -1814242106.7840168       -198504382.90409464        1289329053.6199059     
  -1808992737.5984383       -165952455.70282853        1342584364.2746220     
  -2335725094.1924562       -433385293.72453403        1140260002.6393094     
  -2312917179.9153037       -352569432.41339803        1181389988.7189415     
  -2293559270.4193902       -283253587.03972495        1222869751.6842043     
  -2277651365.7047148       -225437757.60351396        1264699291.5350990     
  -2265193465.7712784       -179121944.10476589        1306878608.2716238     
  -2825465247.8104663       -505992883.89730835        1143971703.4671202     
  -2799728192.9340558       -411211470.41087544        1178842814.3830616     
  -2777604382.7204657       -328474205.80051172        1212394513.7569637     
  -2759093817.1696959       -257781090.06621730        1244626801.5888267     
  -2744196496.2817478       -199132123.20799327        1275539677.8786490     
  -3318931264.5927238       -579718233.01935601        1152812016.0190024     
  -3295034178.9104009       -472402000.29563129        1181233805.2427411     
  -3274913577.7724795       -377674049.38658118        1206666994.4967699     
  -3258569461.1789618       -295534380.29220760        1229111583.7810879     
  -3246001829.1298466       -225982993.01250994        1248567573.0956957     
  -3816123144.5392289       -654561341.09067845        1166780940.2949555     
  -3798835137.8443389       -536141022.06766379        1188562961.2979798     
  -3785486855.5754318       -430853117.79793084        1205687193.9036224     
  -3776078297.7325101       -338697628.28148043        1218153638.1118841     
  -3770609464.3155737       -259674553.51831412        1225962293.9227645     
  -1808992737.5984383       -165952455.70282853        1342584364.2746220     
  -1777479211.8288326       -132808290.63481885        1357490508.7657297     
  -1747483542.5497689       -104723647.20194584        1372286880.4670305     
  -1719005729.7612448       -81698525.404207945        1386973479.3785238     
  -1692045773.4632618       -63732925.241604567        1401550305.5002098     
  -2265193465.7712784       -179121944.10476589        1306878608.2716238     
  -2227040229.4385200       -134718915.92669952        1312594908.3102226     
  -2191780759.4720893       -99961775.636388898        1320930251.6233487     
  -2159415055.8719878       -74850523.233841062        1331884638.2110007     
  -2129943118.6382124       -59385158.719051480        1345458068.0731804     
  -2744196496.2817478       -199132123.20799327        1275539677.8786490     
  -2691606932.0591650       -141131246.72186458        1270460905.2763193     
  -2643287044.0786991       -97362624.376119733        1270729992.0128512     
  -2599236832.3403487       -67826256.170760393        1276346938.0882449     
  -2559456296.8441119       -52522142.105783582        1287311743.5025005     
  -3246001829.1298466       -225982993.01250994        1248567573.0956957     
  -3171179319.6907716       -152045283.02032042        1231088499.6640198     
  -3102002396.3695984       -96926193.421136975        1221686101.6355388     
  -3038471059.1663284       -60625724.214965224        1220360379.0102551     
  -2980585308.0809622       -43143875.401801348        1227111331.7881672     
  -3770609464.3155737       -259674553.51831412        1225962293.9227645     
  -3665757392.3333349       -167461024.82206082        1194477691.4733231     
  -3567926816.3447866       -98652482.771441221        1173798580.4914124     
  -3477117736.3499279       -53248927.366456032        1163924960.9770322     
  -3393330152.3487592       -31250358.607100725        1164856832.9301829     
  -1692045773.4632618       -63732925.241604567        1401550305.5002098     
  -1645573724.7900355       -41864718.227060795        1389312573.2364671     
  -1598870207.0069056       -19224947.512837529        1375841650.2883534     
  -1551935220.1138711        4186386.9010674953        1361137536.6558676     
  -1504768764.1109319        28369285.014655769        1345200232.3390090     
  -2129943118.6382124       -59385158.719051480        1345458068.0731804     
  -2085197154.7663007       -44326338.672197461        1337414107.7414019     
  -2040846711.8639152       -30585921.857093096        1330846977.5470662     
  -1996891789.9310520       -18163908.273732185        1325756677.4901731     
  -1953332388.9677131       -7060297.9221189022        1322143207.5707211     
  -2559456296.8441119       -52522142.105783582        1287311743.5025005     
  -2508693501.1397591       -41949834.036491036        1282730066.6766849     
  -2458953216.4843593       -34785896.130373955        1282335240.8101277     
  -2410235442.8779130       -31030328.387435198        1286127265.9028265     
  -2362540180.3204179       -30683130.807669640        1294106141.9547839     
  -2980585308.0809622       -43143875.401801348        1227111331.7881672     
  -2916062763.9104123       -34735204.319945931        1225260450.0423155     
  -2853189720.8682427       -31824870.332689047        1230306440.0775359     
  -2791966178.9544563       -34412873.440041304        1242249301.8938293     
  -2732392138.1690507       -42499213.642001033        1261089035.4911926     
  -3393330152.3487592       -31250358.607100725        1164856832.9301829     
  -3307304943.0782571       -22682449.522553802        1165005257.8382950     
  -3223556225.0155635       -21702844.464035511        1174760575.3492935     
  -3142083998.1606822       -28311543.431556702        1194122785.4631801     
  -3062888262.5136075       -42508546.425106287        1223091888.1799502     
  -1504768764.1109319        28369285.014655769        1345200232.3390090     
  -1456212682.3436060        51654020.170220912        1307503788.3185885     
  -1408755136.0734441        71276970.335239530        1275576191.4101908     
  -1362396125.3004475        87238135.509708166        1249417441.6138179     
  -1317135650.0246086        99537515.693649054        1229027538.9294653     
  -1953332388.9677131       -7060297.9221189022        1322143207.5707211     
  -1893228722.7344086        7441735.2886700630        1296895265.7136831     
  -1833761309.1943133        19822926.188764095        1276788011.3980141     
  -1774930148.3474276        30083274.778158426        1261821444.6237137     
  -1716735240.1937521        38222781.056851029        1251995565.3907845     
  -2362540180.3204179       -30683130.807669640        1294106141.9547839     
  -2292683671.2515750       -25502222.030782938        1281846032.1990716     
  -2223001132.0719886       -20901212.884751320        1274098450.4140766     
  -2153492562.7816558       -16880103.369570971        1270863396.5997963     
  -2084157963.3805823       -13438893.485246420        1272140870.7562313     
  -2732392138.1690507       -42499213.642001033        1261089035.4911926     
  -2654577527.8951077       -47177851.788150191        1262356087.7747536     
  -2576474604.7064648       -50895446.885304809        1267507508.4583769     
  -2498083368.6031275       -53651998.933474183        1276543297.5420616     
  -2419403819.5850906       -55447507.932650685        1289463455.0258088     
  -3062888262.5136075       -42508546.425106287        1223091888.1799502     
  -2978910292.6650047       -57585153.983423352        1238425432.4407301     
  -2894181727.0977511       -70159775.812907934        1257015185.5309176     
  -2808702565.8118443       -80232411.913549066        1278861147.4505143     
  -2722472808.8072901       -87803062.285362005        1303963318.1995180     
  -1317135650.0246086        99537515.693649054        1229027538.9294653     
  -1257297761.7356529        114140254.17795599        1200295819.8398461     
  -1197726084.5013311        127855622.48014683        1180106586.3234053     
  -1138420618.3216410        140683620.60023427        1168459838.3801455     
  -1079381363.1965902        152624248.53818977        1165355576.0100653     
  -1716735240.1937521        38222781.056851029        1251995565.3907845     
  -1637181821.1126332        51172010.170772672        1233358257.6251681     
  -1558045663.9161110        62730366.336033702        1221725836.2888968     
  -1479326768.6041930        72897849.552617729        1217098301.3819690     
  -1401025135.1768708        81674459.820547342        1219475652.9043841     
  -2084157963.3805823       -13438893.485246420        1272140870.7562313     
  -1989282153.9182613       -3461115.8650050163        1263421748.3463316     
  -1894974657.1705055        4622286.0400195122        1260169913.2219372     
  -1801235473.1373110        10811312.229841352        1262385365.3830502     
  -1708064601.8186791        15105962.704453349        1270068104.8296671     
  -2419403819.5850906       -55447507.932650685        1289463455.0258088     
  -2313598760.1525345       -49759123.929381371        1290486292.0033324     
  -2208513064.2645063       -46468618.407871366        1295438817.1225252     
  -2104146731.9210002       -45575991.368103027        1304321030.3833866     
  -2000499763.1220243       -47081242.810100198        1317132931.7859199     
  -2722472808.8072901       -87803062.285362005        1303963318.1995180     
  -2610131639.8154545       -87722014.022341490        1314551888.5961716     
  -2498660885.1981144       -90542347.007638574        1327532547.9906602     
  -2388060544.9552622       -96264061.241234541        1342905296.3829823     
  -2278330619.0868993       -104887156.72311926        1360670133.7731345     
  -1079381363.1965902        152624248.53818977        1165355576.0100653     
  -1026778837.8919939        169370869.56267536        1143570086.5312350     
  -969468115.57716477        201811480.62127537        1114083025.3767014     
  -907449196.25210106        249946081.71399152        1076894392.5464644     
  -840722079.91680527        313774672.84080935        1032004188.0405242     
  -1401025135.1768708        81674459.820547342        1219475652.9043841     
  -1366280203.7424555        81003090.494619131        1210026490.7759223     
  -1328731836.1350782        89676508.411904752        1198561825.8885095     
  -1288380032.3547466        107694713.57236594        1185081658.2421370     
  -1245224792.4014504        135057705.97604769        1169585987.8368111     
  -1708064601.8186791        15105962.704453349        1270068104.8296671     
  -1674931353.0637355        1890376.3853306770        1270733049.0747573     
  -1640899428.9731047       -8329625.4815121889        1275068559.4776385     
  -1605968829.5467877       -15554042.896061420        1283074636.0383132     
  -1570139554.7847881       -19782875.858338416        1294751278.7567799     
  -2000499763.1220243       -47081242.810100198        1317132931.7859199     
  -1952732285.8558376       -67967272.765216112        1325689761.4277353     
  -1905970894.0912404       -92206921.058955610        1343603226.1440914     
  -1860215587.8282299       -119800187.69132423        1370873325.9349926     
  -1815466367.0668106       -150747072.66232485        1407500060.8004389     
  -2278330619.0868993       -104887156.72311926        1360670133.7731345     
  -2199683002.1187563       -128569856.95699441        1374896627.8348579     
  -2123946231.4894826       -161955378.32042533        1404165825.8878725     
  -2051120307.1990688       -205043720.81338787        1448477727.9321771     
  -1981205229.2475224       -257834884.43591809        1507832333.9677751     
  -840722079.91680527        313774672.84080935        1032004188.0405242     
  -748315545.99996376        432617724.51154232        970385689.57112896     
  -629423383.64099264        639746204.32270694        927216714.49165034     
  -484045592.83989447        935160112.27429259        902497262.80208540     
  -312182173.59665841        1318859448.3663414        896227334.50243080     
  -1245224792.4014504        135057705.97604769        1169585987.8368111     
  -1127544897.4381750        205657492.07651454        1154505952.1743350     
  -998901803.13545251        312801275.97513372        1151550501.3661911     
  -859295509.49329293        456489057.67187053        1160719635.4123721     
  -708726016.51169121        636720837.16675782        1182013354.3128872     
  -1570139554.7847881       -19782875.858338416        1294751278.7567799     
  -1445257551.7338758       -2847731.2157467604        1308100205.2814176     
  -1324934778.4462156       -1110019.1173279881        1327248778.1247978     
  -1209171234.9218121       -14569739.563081503        1352196997.2869277     
  -1097966921.1606510       -43226892.553010225        1382944862.7677953     
  -1815466367.0668106       -150747072.66232485        1407500060.8004389     
  -1701453508.8870795       -192897945.36525565        1431168448.8923738     
  -1607522309.5732937       -301987680.95468211        1454311544.7674727     
  -1533672769.1254461       -478016279.43057442        1476929348.4257338     
  -1479904887.5435534       -720983740.79296136        1499021859.8671553     
  -1981205229.2475224       -257834884.43591809        1507832333.9677751     
  -1896132768.8977859       -364493150.37203538        1523710683.0072083     
  -1846664396.5166762       -589831709.53692257        1532738801.2942173     
  -1832800112.1042075       -933850561.93060768        1534916688.8288043     
  -1854539915.6603782       -1396549707.5530825        1530244345.6109707     
  -3768373983.6228237       -1130512195.0868471        800198192.74901676     
  -3779480570.1825757       -1008755469.3566388        884508527.81605589     
  -3791140959.1885605       -888844751.78054118        973709097.42939198     
  -3803355150.6407785       -770780042.35855424        1067799901.5890250     
  -3816123144.5392289       -654561341.09067845        1166780940.2949555     
  -4339830690.9243259       -1301949207.2772977        858380496.12836647     
  -4335589722.9849081       -1125738584.6003671        942040805.74130189     
  -4332457113.2010450       -953222489.10861993        1020050408.0503651     
  -4330432861.5727367       -784400920.80205679        1092409303.0555568     
  -4329516968.0999851       -619273879.68067694        1159117490.7568760     
  -4895315857.7819481       -1468594757.3345845        936059225.18314290     
  -4905844312.0581303       -1246965330.7253623        1018422527.6810994     
  -4918035680.1991901       -1030878950.3323969        1084594181.0250146     
  -4931889962.2051258       -820335616.15568793        1134574185.2148888     
  -4947407158.0759373       -615335328.19523513        1168362540.2507219     
  -5434829484.1956940       -1630448845.2587080        1033234379.9133458     
  -5490244337.4022427       -1372435707.7316246        1113653693.6354475     
  -5547876660.1829920       -1121814135.4518712        1167340416.3533397     
  -5607726452.5379391       -878584128.41944671        1194294548.0670207     
  -5669793714.4670868       -642745686.63435173        1194516088.7764924     
  -5958371570.1655588       -1787511471.0496676        1149905960.3189759     
  -6088789799.0172462       -1502149715.6191545        1227734303.6043477     
  -6221980053.1524534       -1226028044.4670434        1268289114.0353403     
  -6357942332.5711832       -959146457.59333467        1271570391.6119535     
  -6496676637.2734308       -701504954.99802780        1237578136.3341875     
  -3816123144.5392289       -654561341.09067845        1166780940.2949555     
  -3798835137.8443389       -536141022.06766379        1188562961.2979798     
  -3785486855.5754318       -430853117.79793084        1205687193.9036224     
  -3776078297.7325101       -338697628.28148043        1218153638.1118841     
  -3770609464.3155737       -259674553.51831412        1225962293.9227645     
  -4329516968.0999851       -619273879.68067694        1159117490.7568760     
  -4298900800.5672064       -463109225.88825500        1141229014.9952772     
  -4278960320.7340136       -342530197.76112151        1129540527.9441862     
  -4269695528.6004076       -257536795.29927826        1124052029.6036046     
  -4271106424.1663880       -208129018.50272083        1124763519.9735315     
  -4947407158.0759373       -615335328.19523513        1168362540.2507219     
  -4872440609.3970127       -412119673.54092765        1102944943.9052968     
  -4814885711.6912756       -266942855.46391606        1054585113.3782705     
  -4774742464.9587288       -179804873.96420026        1023283048.6696429     
  -4752010869.1993704       -150705729.04177976        1009038749.7794144     
  -5669793714.4670868       -642745686.63435173        1194516088.7764924     
  -5519454564.3337574       -383172365.02568197        1073710748.0280384     
  -5393263028.4472189       -204091090.90631413        980820950.20587397     
  -5291219106.8074722       -105501864.27624917        915846695.30999780     
  -5213322799.4145164       -87404685.135488272        878787983.34041250     
  -6496676637.2734308       -701504954.99802780        1237578136.3341875     
  -6239942665.3774405       -376267300.34251785        1053526427.3635035     
  -6014092271.0018444       -153974904.08831811        908248038.42699778     
  -5819125454.1466389       -34627766.235427141        801742969.52467215     
  -5655042214.8118296       -18225886.783844709        734011220.65652549     
  -3770609464.3155737       -259674553.51831412        1225962293.9227645     
  -3665757392.3333349       -167461024.82206082        1194477691.4733231     
  -3567926816.3447866       -98652482.771441221        1173798580.4914124     
  -3477117736.3499279       -53248927.366456032        1163924960.9770322     
  -3393330152.3487592       -31250358.607100725        1164856832.9301829     
  -4271106424.1663880       -208129018.50272083        1124763519.9735315     
  -4149406039.4488649       -144124472.71978402        1092606415.1907077     
  -4031757405.5583496       -93625763.026874304        1069113824.7936459     
  -3918160522.4948392       -56632889.423989296        1054285748.7823466     
  -3808615390.2583418       -33145851.911131144        1048122187.1568083     
  -4752010869.1993704       -150705729.04177976        1009038749.7794144     
  -4619579249.1230402       -116745289.38509965        979673845.35766959     
  -4488229634.7070370       -86391535.262840748        956832478.23991871     
  -4357962025.9513617       -59644466.675004721        940514648.42616141     
  -4228776422.8560109       -36504083.621587753        930720355.91639721     
  -5213322799.4145164       -87404685.135488272        878787983.34041250     
  -5076277021.3558645       -85323474.818009853        855679981.97420847     
  -4937343503.7908573       -76949799.479350567        836954540.83023119     
  -4796522246.7194920       -62283659.119502306        822611659.90847778     
  -4653813250.1417751       -41325053.738471508        812651339.20895052     
  -5655042214.8118296       -18225886.783844709        734011220.65652549     
  -5519499356.1473351       -49859029.018514395        720624825.04032552     
  -5379099012.8098030       -65300555.676394224        709480012.56458259     
  -5233841184.7992344       -64550466.757486105        700576783.22929549     
  -5083725872.1156292       -47608762.261784792        693915137.03446460     
  -3393330152.3487592       -31250358.607100725        1164856832.9301829     
  -3307304943.0782571       -22682449.522553802        1165005257.8382950     
  -3223556225.0155635       -21702844.464035511        1174760575.3492935     
  -3142083998.1606822       -28311543.431556702        1194122785.4631801     
  -3062888262.5136075       -42508546.425106287        1223091888.1799502     
  -3808615390.2583418       -33145851.911131144        1048122187.1568083     
  -3698012668.0867028       -18589820.862887383        1043197679.7658126     
  -3589455964.3925571       -10853851.406289101        1046190184.6273361     
  -3482945279.1759009       -9937943.5413172245        1057099701.7413775     
  -3378480612.4367371       -15842097.267990589        1075926231.1079388     
  -4228776422.8560109       -36504083.621587753        930720355.91639721     
  -4098424417.3557181       -17408399.481398582        920991801.07833123     
  -3969887957.6025953       -4364534.4984443188        917490378.14241827     
  -3843167043.5966492        2627511.3272602558        920216087.10865521     
  -3718261675.3378716        3567737.9957263470        929168927.97704446     
  -4653813250.1417751       -41325053.738471508        812651339.20895052     
  -4508540190.8853025       -19138185.378070593        798387621.77585268     
  -4364852204.6456842       -2234893.7405219078        788661155.89453864     
  -4222749291.4229193        9384821.1741886139        783471941.56501091     
  -4082231451.2170119        15720959.366041183        782819978.78726518     
  -5083725872.1156292       -47608762.261784792        693915137.03446460     
  -4928359988.6754589       -23779178.552925825        675385141.85837448     
  -4774348705.5218220       -4464929.1325073242        659702517.88370025     
  -4621692022.6547213        10333985.999445200        646867265.11044371     
  -4470389940.0741568        20617566.842952967        636879383.53860319     
  -3062888262.5136075       -42508546.425106287        1223091888.1799502     
  -2978910292.6650047       -57585153.983423352        1238425432.4407301     
  -2894181727.0977511       -70159775.812907934        1257015185.5309176     
  -2808702565.8118443       -80232411.913549066        1278861147.4505143     
  -2722472808.8072901       -87803062.285362005        1303963318.1995180     
  -3378480612.4367371       -15842097.267990589        1075926231.1079388     
  -3284627735.9917440       -27349573.604699492        1083624406.7042902     
  -3190324304.0506635       -37355198.287783861        1094838809.8019309     
  -3095570316.6134901       -45858971.317219734        1109569440.4008617     
  -3000365773.6802287       -52860892.693035245        1127816298.5010812     
  -3718261675.3378716        3567737.9957263470        929168927.97704446     
  -3613790981.8054018       -4147733.9720537663        928881687.98264599     
  -3509169772.9994054       -11361488.361408472        932370694.16142058     
  -3404398048.9198732       -18073525.172319889        939635946.51336503     
  -3299475809.5668125       -24283844.404798508        950677445.03848028     
  -4082231451.2170119        15720959.366041183        782819978.78726518     
  -3966400030.1059761        12020364.914509773        774197276.27580082     
  -3850718133.9439659        7821353.9662225246        769610838.60938561     
  -3735185762.7309875        3123926.5211660862        769060665.78802550     
  -3619802916.4670382       -2071917.4206562042        772546757.81171775     
  -4470389940.0741568        20617566.842952967        636879383.53860319     
  -4342454880.8934593        21154723.055014133        619571171.58374906     
  -4214969386.8843560        20193328.695098400        606559243.14582968     
  -4087933458.0468388        17733383.763228178        597843598.22484457     
  -3961347094.3809123        13774888.259391785        593424236.82079172     
  -2722472808.8072901       -87803062.285362005        1303963318.1995180     
  -2610131639.8154545       -87722014.022341490        1314551888.5961716     
  -2498660885.1981144       -90542347.007638574        1327532547.9906602     
  -2388060544.9552622       -96264061.241234541        1342905296.3829823     
  -2278330619.0868993       -104887156.72311926        1360670133.7731345     
  -3000365773.6802287       -52860892.693035245        1127816298.5010812     
  -2880634432.3275795       -52701374.452269793        1130573943.6943052     
  -2761483272.7848134       -54475795.577776313        1136606139.4031503     
  -2642912295.0519214       -58184156.069530368        1145912885.6276176     
  -2524921499.1289139       -63826455.927565694        1158494182.3677030     
  -3299475809.5668125       -24283844.404798508        950677445.03848028     
  -3169832977.2311001       -23289460.599613190        945942769.68698716     
  -3040480094.1406555       -23261574.278652787        945365106.36890495     
  -2911417160.2954774       -24200185.441915035        948944455.08422863     
  -2782644175.6955671       -26105294.089405417        956680815.83296192     
  -3619802916.4670382       -2071917.4206562042        772546757.81171775     
  -3477727274.5260115        513727.53562951088        760658366.57422161     
  -3335651349.2656388        3100316.8897278309        753809448.88792336     
  -3193575140.6859231        5687850.6416431665        752000004.75282121     
  -3051498648.7868638        8276328.7913659811        755230034.16891336     
  -3961347094.3809123        13774888.259391785        593424236.82079172     
  -3804317324.2123203        18708189.953442812        574720734.35600686     
  -3646997038.1597700        24609877.927356243        561939166.96020615     
  -3489386236.2232604        31479952.181124449        555079534.63338637     
  -3331484918.4028001        39318412.714738607        554141837.37555385     
  -2278330619.0868993       -104887156.72311926        1360670133.7731345     
  -2199683002.1187563       -128569856.95699441        1374896627.8348579     
  -2123946231.4894826       -161955378.32042533        1404165825.8878725     
  -2051120307.1990688       -205043720.81338787        1448477727.9321771     
  -1981205229.2475224       -257834884.43591809        1507832333.9677751     
  -2524921499.1289139       -63826455.927565694        1158494182.3677030     
  -2409029411.9717016       -73942979.530708671        1163703060.9168878     
  -2295092051.4323330       -90575258.526652455        1179388171.7823551     
  -2183109417.5108061       -113723292.91540408        1205549514.9641063     
  -2073081510.2071149       -143387082.69694823        1242187090.4621413     
  -2782644175.6955671       -26105294.089405417        956680815.83296192     
  -2642554680.2778807       -26569759.640391231        953987551.87746859     
  -2503463791.7570105       -30362914.847431183        957204048.56325102     
  -2365371510.1329579       -37484759.710524917        966330305.89030898     
  -2228277835.4057240       -47935294.229679942        981366323.85864878     
  -3051498648.7868638        8276328.7913659811        755230034.16891336     
  -2900258807.0372882        13549802.713966727        745750100.71660149     
  -2749061452.4635110        18681652.717253566        737613456.23055899     
  -2597906585.0655274        23671878.801219225        730820100.71078420     
  -2446794204.8433304        28520480.965887666        725370034.15728390     
  -3331484918.4028001        39318412.714738607        554141837.37555385     
  -3182141792.2499356        46415707.532333016        538990707.43428361     
  -3031885033.5518374        56558444.167373419        520616394.78427988     
  -2880714642.3085093        69746622.619845986        499018899.42553371     
  -2728630618.5199523        85980242.889750481        474198221.35805583     
  -1981205229.2475224       -257834884.43591809        1507832333.9677751     
  -1896132768.8977859       -364493150.37203538        1523710683.0072083     
  -1846664396.5166762       -589831709.53692257        1532738801.2942173     
  -1832800112.1042075       -933850561.93060768        1534916688.8288043     
  -1854539915.6603782       -1396549707.5530825        1530244345.6109707     
  -2073081510.2071149       -143387082.69694823        1242187090.4621413     
  -1989428020.6022999       -213741031.46620190        1205783283.8901918     
  -1925431562.8486807       -349618419.73943985        1166760272.7668312     
  -1881092136.9462588       -551019247.51667082        1125118057.0920556     
  -1856409742.8950372       -817943514.79789734        1080856636.8658772     
  -2228277835.4057240       -47935294.229679942        981366323.85864878     
  -2133954670.2572203       -78358331.945490360        911285260.47899187     
  -2043341480.8424764       -121147955.44049048        842816018.74893820     
  -1956438267.1614971       -176304164.71469325        775958598.66848993     
  -1873245029.2142665       -243826959.76807672        710713000.23764193     
  -2446794204.8433304        28520480.965887666        725370034.15728390     
  -2329712717.8625469        41654948.190082669        640216612.77360582     
  -2200394150.4980717        95579683.359913707        560906039.24054134     
  -2058838502.7499168        190294686.47533488        487438313.55809319     
  -1905045774.6180854        325799957.53636038        419813435.72625631     
  -2728630618.5199523        85980242.889750481        474198221.35805583     
  -2576702163.4182696        146298808.94055998        392577340.77403283     
  -2396589571.8154616        300564496.66178274        321030334.24163729     
  -2188292843.7115312        548777306.05340028        259557201.76086849     
  -1951811979.1064799        890937237.11543143        208157943.33173093     
  -5958371570.1655588       -1787511471.0496676        1149905960.3189759     
  -6088789799.0172462       -1502149715.6191545        1227734303.6043477     
  -6221980053.1524534       -1226028044.4670434        1268289114.0353403     
  -6357942332.5711832       -959146457.59333467        1271570391.6119535     
  -6496676637.2734308       -701504954.99802780        1237578136.3341875     
  -6811134007.4518890       -2043340202.2355666        1353691185.0069094     
  -6828935691.8769999       -1395583218.3854275        1202671668.6802104     
  -6898096200.5440178       -919022315.34164071        1091924128.2084198     
  -7018615533.4529400       -613657493.10420394        1021448563.5915380     
  -7190493690.6037674       -479488751.67311978        991244974.82956386     
  -8338308687.8150253       -2501492606.3445077        1712207272.5840237     
  -8021935231.5013123       -1424872815.1810679        1275655297.8604720     
  -7805507398.3878889       -681405101.35192919        956920807.70111597     
  -7689025188.4747543       -271089464.85709143        756003802.10595584     
  -7672488601.7619114       -193925905.69655514        672904281.07499158     
  -10539895611.254969       -3161968683.3764911        2225454223.0503192     
  -9667788417.8901825       -1590018506.0060756        1446685191.1451323     
  -8944213646.6840668       -513176402.49791002        863279152.51342797     
  -8369171297.6366282        68557627.148005009        475236107.15520805     
  -7942661370.7478609        155183582.93166971        282556055.07047057     
  -13415894777.771723       -4024768433.3315167        2893432036.4057956     
  -11766495251.043610       -1891020290.8604507        1715761348.5341904     
  -10314214945.432550       -414336218.77958298        810999162.64535606     
  -9059053860.9385548        405283782.91108322        179145478.73929381     
  -8001011997.5616188        567839714.21154976       -179799703.18399900     
  -6496676637.2734308       -701504954.99802780        1237578136.3341875     
  -6239942665.3774405       -376267300.34251785        1053526427.3635035     
  -6014092271.0018444       -153974904.08831811        908248038.42699778     
  -5819125454.1466389       -34627766.235427141        801742969.52467215     
  -5655042214.8118296       -18225886.783844709        734011220.65652549     
  -7190493690.6037674       -479488751.67311978        991244974.82956386     
  -6901017686.0470934       -304312391.97532725        846948432.16064072     
  -6624401734.3334837       -172002875.08775997        723694278.03292489     
  -6360645835.4629450       -82560201.010417461        621482512.44641328     
  -6109749989.4354715       -35984369.743299484        540313135.40110660     
  -7672488601.7619114       -193925905.69655514        672904281.07499158     
  -7400930368.8101892       -184008782.23617029        589390350.16470993     
  -7124208664.0242119       -156880085.99492741        509187876.30266136     
  -6842323487.4039717       -112539816.97282457        432296859.48884332     
  -6555274838.9494801       -50987975.169865370        358717299.72325784     
  -7942661370.7478609        155183582.93166971        282556055.07047057     
  -7739680713.6667356       -15356471.125048637        280852181.37571079     
  -7513513060.0740232       -108606536.80982351        264728833.23620865     
  -7264158409.9697275       -124566614.12265253        234186010.65196490     
  -6991616763.3538523       -63236703.063536644        189223713.62297881     
  -8001011997.5616188        567839714.21154976       -179799703.18399900     
  -7917268720.6167240        201644541.35804176       -78666074.206360281     
  -7792314922.4829197       -27182227.532437801       -9682851.1664330754     
  -7626150603.1602087       -118640592.45989561        27149965.935774811     
  -7418775762.6485882       -72730553.424322605        31832377.100269828     
  -5655042214.8118296       -18225886.783844709        734011220.65652549     
  -5519499356.1473351       -49859029.018514395        720624825.04032552     
  -5379099012.8098030       -65300555.676394224        709480012.56458259     
  -5233841184.7992344       -64550466.757486105        700576783.22929549     
  -5083725872.1156292       -47608762.261784792        693915137.03446460     
  -6109749989.4354715       -35984369.743299484        540313135.40110660     
  -5959228928.8433952       -37836344.052045822        533514595.88307530     
  -5807923883.5040131       -37075035.869776964        529123589.80136073     
  -5655834853.4173288       -33700445.196501255        527140117.15596277     
  -5502961838.5833406       -27712572.032210827        527564177.94688267     
  -6555274838.9494801       -50987975.169865370        358717299.72325784     
  -6389301432.7273598       -22916538.441946745        353754199.72337025     
  -6226617541.6836662       -5810152.3087916374        351364583.45566428     
  -6067223165.8184090        331183.22959113121        351548450.92013198     
  -5911118305.1315784       -4492531.8267910480        354305802.11677802     
  -6991616763.3538523       -63236703.063536644        189223713.62297881     
  -6809716867.7992287       -5099612.1882171631        181343636.56121513     
  -6635179987.3487701        28494095.006558418        176202993.52748865     
  -6468006122.0024757        37544418.520786285        173801784.52180052     
  -6308195271.7603445        22051358.354466677        174140009.54415384     
  -7418775762.6485882       -72730553.424322605        31832377.100269828     
  -7220475234.0590067        15614434.709135532        16282906.396605149     
  -7033611220.4993172        65837706.076279163        3638820.0168399396     
  -6858183721.9695320        77939260.677077770       -6099882.0390266012     
  -6694192738.4696388        51919098.511569500       -12933199.770993352     
  -5083725872.1156292       -47608762.261784792        693915137.03446460     
  -4928359988.6754589       -23779178.552925825        675385141.85837448     
  -4774348705.5218220       -4464929.1325073242        659702517.88370025     
  -4621692022.6547213        10333985.999445200        646867265.11044371     
  -4470389940.0741568        20617566.842952967        636879383.53860319     
  -5502961838.5833406       -27712572.032210827        527564177.94688267     
  -5343920454.8074379       -18825394.430725574        512358288.57500178     
  -5184971543.4131575       -10246458.101309538        500580583.51550651     
  -5026115104.4004946       -1975763.0439589024        492231062.76839846     
  -4867351137.7694502        5986690.7413256168        487309726.33367532     
  -5911118305.1315784       -4492531.8267910480        354305802.11677802     
  -5746741954.9886074       -10049920.523289442        343896501.10484308     
  -5581195949.3223362       -11708457.475460768        337496197.51626104     
  -5414480288.1327705       -9468142.6833157539        335104891.35103887     
  -5246594971.4199076       -3328976.1468479633        336722582.60917103     
  -6308195271.7603445        22051358.354466677        174140009.54415384     
  -6136824489.2189560        2547243.1693997383        169999779.44789636     
  -5963021923.2493591       -8850927.2549655437        170449359.88596532     
  -5786787573.8515482       -12143152.918622971        175488750.85836229     
  -5608121441.0255194       -7329433.8215641975        185117952.36508393     
  -6694192738.4696388        51919098.511569500       -12933199.770993352     
  -6514168057.4984951        18966096.647323608       -9331876.3958322164     
  -6330449465.1942253       -1673867.4398286343       -559929.37538090337     
  -6143036961.5568218       -10000793.749876022        13382641.290373398     
  -5951930546.5862980       -6014682.2828438282        32495835.601416599     
  -4470389940.0741568        20617566.842952967        636879383.53860319     
  -4342454880.8934593        21154723.055014133        619571171.58374906     
  -4214969386.8843560        20193328.695098400        606559243.14582968     
  -4087933458.0468388        17733383.763228178        597843598.22484457     
  -3961347094.3809123        13774888.259391785        593424236.82079172     
  -4867351137.7694502        5986690.7413256168        487309726.33367532     
  -4728302650.9083958        7056929.2471225262        475534900.93615550     
  -4589806244.2031898        6286900.5667521954        467889563.55419111     
  -4451861917.6538363        3676604.7002179623        464373714.18778616     
  -4314469671.2603283       -773958.35247659683        464987352.83693767     
  -5246594971.4199076       -3328976.1468479633        336722582.60917103     
  -5096909615.4538565       -1868622.9199242592        330361542.95401162     
  -4947878854.6279163       -2590253.4933695793        327963195.81303513     
  -4799502688.9420824       -5493867.8671681881        329527541.18623316     
  -4651781118.3963518       -10579466.041327477        335054579.07362080     
  -5608121441.0255194       -7329433.8215641975        185117952.36508393     
  -5448275774.5298357       -5621933.4461171627        184051097.63731951     
  -5289187218.1585274       -6438133.4852514267        186780139.92235824     
  -5130855771.9115782       -9778033.9389204979        193305079.22020099     
  -4973281435.7890024       -15641634.807172775        203625915.53084099     
  -5951930546.5862980       -6014682.2828438282        32495835.601416599     
  -5782401128.1363411       -4203002.3314750195        36603564.986073747     
  -5613731334.7950220       -5256739.4088964462        44340395.882159509     
  -5445921166.5623283       -9175893.5150690079        55706328.289670043     
  -5278970623.4382591       -15960464.649993896        70701362.208604068     
  -3961347094.3809123        13774888.259391785        593424236.82079172     
  -3804317324.2123203        18708189.953442812        574720734.35600686     
  -3646997038.1597700        24609877.927356243        561939166.96020615     
  -3489386236.2232604        31479952.181124449        555079534.63338637     
  -3331484918.4028001        39318412.714738607        554141837.37555385     
  -4314469671.2603283       -773958.35247659683        464987352.83693767     
  -4143162130.9962959        4408951.1306228638        451641852.81350768     
  -3971659290.1096168        10242862.689213514        443299715.99703783     
  -3799961148.6002913        16727776.323291779        439960942.38752645     
  -3628067706.4683218        23863692.032849550        441625531.98497140     
  -4651781118.3963518       -10579466.041327477        335054579.07362080     
  -4468820299.0712404       -5934296.0794913769        326955997.02001739     
  -4285759394.3847923       -955508.24652767181        322942206.31135058     
  -4102598404.3370032        4356897.4575541019        323013206.94761574     
  -3919337328.9278812        10002921.032755613        327168998.92881918     
  -4973281435.7890024       -15641634.807172775        203625915.53084099     
  -4781291828.4371700       -12321551.676914454        200663166.97554129     
  -4589297350.9852962       -8985234.8798613548        200866637.90314573     
  -4397298003.4334097       -5632684.4160981178        204236328.31366280     
  -4205293785.7815008       -2263900.2855725288        210772238.20708337     
  -5278970623.4382591       -15960464.649993896        70701362.208604068     
  -5080576719.0940571       -14752815.661597967        72763362.680076614     
  -4882273159.9111404       -13846317.210823059        77073010.772423387     
  -4684059945.8895044       -13240969.297646999        83630306.485663503     
  -4485937077.0291519       -12936771.922090530        92435249.819778651     
  -3331484918.4028001        39318412.714738607        554141837.37555385     
  -3182141792.2499356        46415707.532333016        538990707.43428361     
  -3031885033.5518374        56558444.167373419        520616394.78427988     
  -2880714642.3085093        69746622.619845986        499018899.42553371     
  -2728630618.5199523        85980242.889750481        474198221.35805583     
  -3628067706.4683218        23863692.032849550        441625531.98497140     
  -3485479720.7702489        23473803.293417454        430728853.16685945     
  -3342252420.8720841        25214961.887643814        419586906.75926125     
  -3198385806.7738109        29087167.815556169        408199692.76217937     
  -3053879878.4754300        35090421.077154994        396567211.17561442     
  -3919337328.9278812        10002921.032755613        327168998.92881918     
  -3774996154.7724619        4678347.4099154472        320206733.16454268     
  -3630289984.7620735        570426.63698768616        315977114.93003726     
  -3485218818.8966975       -2320841.2860090733        314480144.22530472     
  -3339782657.1763535       -3995456.3590872288        315715821.05034453     
  -4205293785.7815008       -2263900.2855725288        210772238.20708337     
  -4050691094.2565694       -9970660.1181566715        207424347.42733836     
  -3895997725.2217951       -17375161.584586382        209787019.29661202     
  -3741213678.6771641       -24477404.684828758        217860253.81491500     
  -3586338954.6226940       -31277389.418941498        231644050.98223650     
  -4485937077.0291519       -12936771.922090530        92435249.819778651     
  -4312564539.2225637       -20473219.290780783        92381695.955239519     
  -4139375642.2512627       -28621802.777085543        101016619.85898329     
  -3966370386.1152325       -37382522.380972147        118340021.53100134     
  -3793548770.8144808       -46755378.102443218        144351900.97129655     
  -2728630618.5199523        85980242.889750481        474198221.35805583     
  -2576702163.4182696        146298808.94055998        392577340.77403283     
  -2396589571.8154616        300564496.66178274        321030334.24163729     
  -2188292843.7115312        548777306.05340028        259557201.76086849     
  -1951811979.1064799        890937237.11543143        208157943.33173093     
  -3053879878.4754300        35090421.077154994        396567211.17561442     
  -2884433305.4484997        74231308.502672791        353760331.16422552     
  -2698710371.4049292        167626732.65031767        319242209.03415787     
  -2496711076.3447347        315276693.52004063        293012844.78541726     
  -2278435420.2679110        517181191.11185718        275072238.41799146     
  -3339782657.1763535       -3995456.3590872288        315715821.05034453     
  -3157918298.1393185        12437652.866633892        297830536.87967801     
  -2971685353.5701513        43432713.866125941        286448894.42002654     
  -2781083823.4688578        88989726.639398217        281570893.67139643     
  -2586113707.8354120        149108691.18644857        283196534.63377666     
  -3586338954.6226940       -31277389.418941498        231644050.98223650     
  -3397157141.4907284       -39082157.967591763        224787957.92038387     
  -3215514518.3111224       -72017559.690793753        222650390.39923576     
  -3041411085.0838776       -130083594.58850622        225231348.41880903     
  -2874846841.8089962       -213280262.66078162        232530831.97908393     
  -3793548770.8144808       -46755378.102443218        144351900.97129655     
  -3602149835.5027356       -80328124.000009537        134632594.28634655     
  -3430197865.6278458       -178724088.02042568        127846696.97180319     
  -3277692861.1898174       -341943270.16369855        123994209.02766134     
  -3144634822.1886344       -569985670.42982137        123075130.45393126     
 </DataArray>
 <DataArray  type="Float64" Name="VM" NumberOfComponents="1" format="ascii">
   12935533818.127903     
   11340604497.377865     
   10210088095.347723     
   9272618838.1648273     
   8303746545.3398256     
   10130195821.642658     
   9321861861.2914219     
   8826181182.4790287     
   8443305937.2016220     
   8035424008.3760576     
   7982206927.5454283     
   7734775610.7907476     
   7668911291.3954430     
   7669302657.4644032     
   7666019165.1257124     
   6491479656.5286942     
   6586635684.8523626     
   6757117960.6555510     
   6960846533.6086979     
   7171163533.6441326     
   5657566387.9642916     
   5890608603.2180128     
   6116001147.4773102     
   6331288167.8547630     
   6536249204.0204525     
   8303746545.3398256     
   8020546422.6514301     
   7779498095.3791046     
   7569906244.4238310     
   7386803615.4951267     
   8035424008.3760576     
   7746619690.8820915     
   7473514556.9346132     
   7214147787.7477407     
   6968531472.4267530     
   7666019165.1257124     
   7380764519.7786636     
   7100920959.3552828     
   6826569194.2992220     
   6557916843.1631813     
   7171163533.6441326     
   6910423897.1663370     
   6657593273.2005243     
   6408817445.6344433     
   6160952104.4027281     
   6536249204.0204525     
   6327954501.8504734     
   6141846719.6409349     
   5964020260.6638441     
   5785462625.7328768     
   7386803615.4951267     
   7229372470.2191734     
   7064363806.5671568     
   6891079377.8175106     
   6709335998.1983051     
   6968531472.4267530     
   6815158720.8067608     
   6657126000.9097366     
   6494148506.9285412     
   6326177174.6895075     
   6557916843.1631813     
   6407781990.4929333     
   6255990030.0821466     
   6102508239.6210461     
   5947365694.6666651     
   6160952104.4027281     
   6012240358.6970577     
   5864848292.1947460     
   5718813428.4434595     
   5574190493.5197229     
   5785462625.7328768     
   5634999785.0668135     
   5488724248.1226978     
   5346548437.1220398     
   5208518518.2275934     
   6709335998.1983051     
   6515007985.6896381     
   6324338095.7596273     
   6137210810.4610395     
   5953614318.9155664     
   6326177174.6895075     
   6140479901.9705763     
   5957151452.0910549     
   5776168889.2193861     
   5597561431.3017550     
   5947365694.6666651     
   5772832515.9880638     
   5599737192.5987663     
   5428104544.8849497     
   5257994804.7457781     
   5574190493.5197229     
   5413880647.8814936     
   5254473585.5472059     
   5096010163.4393110     
   4938595368.6799355     
   5208518518.2275934     
   5066033521.0925045     
   4924372202.2730446     
   4783573818.9031248     
   4643828115.7012053     
   5953614318.9155664     
   5785359310.9890528     
   5615528594.5939150     
   5444089098.3022604     
   5271065060.8196087     
   5597561431.3017550     
   5438675838.0594149     
   5279158554.0065308     
   5119034509.4590712     
   4958371934.2571697     
   5257994804.7457781     
   5107935652.5437889     
   4958190845.2124004     
   4808826680.2678843     
   4659942777.5957937     
   4938595368.6799355     
   4796672931.4983997     
   4655980381.9108448     
   4516606534.7025938     
   4378668874.4996557     
   4643828115.7012053     
   4509173682.4162540     
   4376596485.7740488     
   4246187341.6281486     
   4118068240.6696916     
   5271065060.8196087     
   5068677705.7363701     
   4867297897.7710772     
   4666934941.4238911     
   4467628751.9061337     
   4958371934.2571697     
   4765430702.4669647     
   4573529707.6131363     
   4382723747.6134291     
   4193114051.0309477     
   4659942777.5957937     
   4479130506.8748999     
   4299690558.8908691     
   4121756179.4013042     
   3945537698.2994337     
   4378668874.4996557     
   4212877714.7568932     
   4049144772.5000100     
   3887720589.1992960     
   3728978361.9501905     
   4118068240.6696916     
   3970341649.9744358     
   3825755713.5246687     
   3684712678.4243484     
   3547793119.1854477     
   4467628751.9061337     
   4300991618.5364914     
   4133745828.6245809     
   3965848669.1446681     
   3797371818.7021918     
   4193114051.0309477     
   4040725148.6200118     
   3888594616.4797940     
   3736771140.7881827     
   3585379668.5012946     
   3945537698.2994337     
   3804039573.7586961     
   3663342545.8181462     
   3523533022.5200653     
   3384739313.1366620     
   3728978361.9501905     
   3595113447.3630447     
   3462179637.6216311     
   3330250094.6948833     
   3199415120.2869320     
   3547793119.1854477     
   3418535415.1763124     
   3289861905.3078871     
   3161784261.0150838     
   3034320487.6224599     
   3797371818.7021918     
   3597938878.9690132     
   3400511036.1337276     
   3205192718.0512505     
   3012188273.5301409     
   3585379668.5012946     
   3390366450.3557768     
   3196735365.9647036     
   3004590829.4933915     
   2814106831.6766338     
   3384739313.1366620     
   3200291764.1960001     
   3017471049.1529293     
   2836541553.1492124     
   2657935386.3189497     
   3199415120.2869320     
   3032312667.6855154     
   2868137994.6579905     
   2707547700.6752367     
   2551608724.3867416     
   3034320487.6224599     
   2891695768.7306590     
   2754472274.9462790     
   2623914118.8659816     
   2502024750.1748066     
   5657566387.9642916     
   5890608603.2180128     
   6116001147.4773102     
   6331288167.8547630     
   6536249204.0204525     
   5151151048.0876942     
   5310990094.3430233     
   5467445293.0295973     
   5617625322.5194731     
   5760068124.5334101     
   4643195066.7206812     
   4755228423.6266146     
   4868366802.6352873     
   4979980459.5402260     
   5088148748.3341703     
   4133965888.2307358     
   4224165190.9926329     
   4320265223.7832375     
   4420615188.4993620     
   4523765883.1175528     
   3624989813.6713653     
   3719630543.5488887     
   3825504129.8419757     
   3942553044.9472976     
   4070689809.8689070     
   6536249204.0204525     
   6327954501.8504734     
   6141846719.6409349     
   5964020260.6638441     
   5785462625.7328768     
   5760068124.5334101     
   5651284686.8861866     
   5558491940.0637684     
   5472628334.3965645     
   5388151393.8937349     
   5088148748.3341703     
   5053197485.2333345     
   5028742242.5254107     
   5009574736.1238775     
   4992494245.0157137     
   4523765883.1175528     
   4538298352.3445406     
   4557484378.7702036     
   4578839358.2137051     
   4600639468.9190006     
   4070689809.8689070     
   4111924177.8566651     
   4150500809.0677810     
   4185510712.8517313     
   4216213612.3363700     
   5785462625.7328768     
   5634999785.0668135     
   5488724248.1226978     
   5346548437.1220398     
   5208518518.2275934     
   5388151393.8937349     
   5246927833.2123384     
   5108924003.8887701     
   4974181444.7620859     
   4842793934.5963755     
   4992494245.0157137     
   4864899172.3377314     
   4740496362.8162880     
   4619256703.7468481     
   4501221036.0347795     
   4600639468.9190006     
   4491607462.1552601     
   4386798517.9573984     
   4285903214.5154400     
   4188830593.8113441     
   4216213612.3363700     
   4131045433.2501850     
   4052369538.8189201     
   3979349583.8221207     
   3911685992.4422693     
   5208518518.2275934     
   5066033521.0925045     
   4924372202.2730446     
   4783573818.9031248     
   4643828115.7012053     
   4842793934.5963755     
   4717801242.5556040     
   4594568225.7837286     
   4473226824.8373461     
   4354029116.0643797     
   4501221036.0347795     
   4392325982.3263359     
   4286053484.7577505     
   4182594682.5008693     
   4082229811.6475606     
   4188830593.8113441     
   4094498418.9084387     
   4003516552.4559045     
   3916101251.6913991     
   3832529298.0010476     
   3911685992.4422693     
   3830198295.5957527     
   3752582524.2740216     
   3679048547.6616445     
   3609844949.9387503     
   4643828115.7012053     
   4509173682.4162540     
   4376596485.7740488     
   4246187341.6281486     
   4118068240.6696916     
   4354029116.0643797     
   4228613409.5067897     
   4105720529.7753987     
   3985514341.5016570     
   3868202774.1625900     
   4082229811.6475606     
   3968500949.7084022     
   3858041391.5429759     
   3751095385.9708138     
   3647971215.7924285     
   3832529298.0010476     
   3732941723.0947709     
   3637691084.3533211     
   3547101094.7378149     
   3461583820.8182135     
   3609844949.9387503     
   3526699206.6335907     
   3449278019.7729115     
   3377966512.1661019     
   3313262630.5887446     
   4118068240.6696916     
   3970341649.9744358     
   3825755713.5246687     
   3684712678.4243484     
   3547793119.1854477     
   3868202774.1625900     
   3738764391.1631465     
   3612888667.8933172     
   3490991152.6802359     
   3373618842.1382523     
   3647971215.7924285     
   3534604270.5384030     
   3424958868.4086666     
   3319424014.1091442     
   3218475826.2397261     
   3461583820.8182135     
   3362223318.2713590     
   3266426751.1811714     
   3174522093.8675957     
   3086887251.3425865     
   3313262630.5887446     
   3226060268.8299413     
   3141911776.7310638     
   3061058017.6670628     
   2983763418.0393591     
   3547793119.1854477     
   3418535415.1763124     
   3289861905.3078871     
   3161784261.0150838     
   3034320487.6224599     
   3373618842.1382523     
   3248521696.4438415     
   3125722790.8209648     
   3005434928.7519956     
   2887913707.0346580     
   3218475826.2397261     
   3103321833.1827855     
   2992902767.3940430     
   2887677107.3422928     
   2788207231.7383370     
   3086887251.3425865     
   2986725930.0059094     
   2894389913.4868689     
   2810551936.8507400     
   2736044168.9463062     
   2983763418.0393591     
   2902368795.0359607     
   2832428194.7155042     
   2774706755.5251727     
   2730158444.1926546     
   3034320487.6224599     
   2891695768.7306590     
   2754472274.9462790     
   2623914118.8659816     
   2502024750.1748066     
   2887913707.0346580     
   2775052903.8868184     
   2668014759.1581330     
   2567785291.4653726     
   2475666689.7235188     
   2788207231.7383370     
   2697992871.9110212     
   2612661552.5899544     
   2532754815.5430942     
   2458892024.3534245     
   2736044168.9463062     
   2661167833.7424679     
   2588893817.6974468     
   2519323598.4169092     
   2452589308.0150166     
   2730158444.1926546     
   2663535636.3470378     
   2596139506.8846602     
   2527746472.8508301     
   2458276297.5314565     
   3624989813.6713653     
   3719630543.5488887     
   3825504129.8419757     
   3942553044.9472976     
   4070689809.8689070     
   3138188801.0518818     
   3255652565.5374885     
   3382525589.9372487     
   3518341842.1342506     
   3662646198.6056767     
   2695164728.0858340     
   2830877085.4670544     
   2973906628.8978209     
   3123171422.0708141     
   3277760425.2785144     
   2299396021.7995610     
   2450085911.0583720     
   2605519866.8857470     
   2763773223.0614128     
   2923413108.2577844     
   1956070633.0792873     
   2120211390.7344494     
   2285752372.3717318     
   2449729104.9511547     
   2610177025.3658590     
   4070689809.8689070     
   4111924177.8566651     
   4150500809.0677810     
   4185510712.8517313     
   4216213612.3363700     
   3662646198.6056767     
   3701971528.0392857     
   3739926353.8670540     
   3775605735.0846586     
   3808255863.8117743     
   3277760425.2785144     
   3321053717.2269511     
   3364619928.0056286     
   3407635570.9449272     
   3449422582.6408238     
   2923413108.2577844     
   2976541692.8357224     
   3031943238.4991503     
   3088940457.8210430     
   3147004343.6105223     
   2610177025.3658590     
   2678449905.7455535     
   2751295660.1630077     
   2828214812.2252622     
   2908860460.2161932     
   4216213612.3363700     
   4131045433.2501850     
   4052369538.8189201     
   3979349583.8221207     
   3911685992.4422693     
   3808255863.8117743     
   3754374384.4085269     
   3706432818.5772815     
   3663962501.4166369     
   3626868975.4668345     
   3449422582.6408238     
   3422485946.9469695     
   3400574923.1056828     
   3383460718.4511333     
   3371134983.6776118     
   3147004343.6105223     
   3142997959.6288691     
   3142536487.5969954     
   3145515743.4351425     
   3151929709.5585475     
   2908860460.2161932     
   2924157603.1743507     
   2940775430.5676141     
   2958648049.7220368     
   2977734680.0440316     
   3911685992.4422693     
   3830198295.5957527     
   3752582524.2740216     
   3679048547.6616445     
   3609844949.9387503     
   3626868975.4668345     
   3556402808.3500638     
   3490221431.0479579     
   3428538368.1686621     
   3371604905.6230984     
   3371134983.6776118     
   3312135092.8273020     
   3257928555.1544380     
   3208720924.0268488     
   3164754726.0968637     
   3151929709.5585475     
   3104707084.0780520     
   3062865716.7583537     
   3026585276.1695709     
   2996082059.0929699     
   2977734680.0440316     
   2942289992.8424306     
   2912861159.8016648     
   2889579271.3896737     
   2872613296.1859279     
   3609844949.9387503     
   3526699206.6335907     
   3449278019.7729115     
   3377966512.1661019     
   3313262630.5887446     
   3371604905.6230984     
   3303838770.3046427     
   3242028534.4475241     
   3186503005.8639603     
   3137671197.8744678     
   3164754726.0968637     
   3110409984.3212848     
   3062083885.9798255     
   3020035640.5882397     
   2984575748.5843487     
   2996082059.0929699     
   2952994029.5646877     
   2915780055.1183319     
   2884624859.1027188     
   2859741414.7545643     
   2872613296.1859279     
   2838422919.7134542     
   2809725363.5682020     
   2786636070.2596598     
   2769282816.1601057     
   3313262630.5887446     
   3226060268.8299413     
   3141911776.7310638     
   3061058017.6670628     
   2983763418.0393591     
   3137671197.8744678     
   3058747584.0093002     
   2984923594.1773725     
   2916575588.0202866     
   2854116384.1475544     
   2984575748.5843487     
   2916549150.1525578     
   2855923263.8209305     
   2803160112.9786153     
   2758762401.5658221     
   2859741414.7545643     
   2804193226.6422224     
   2758523164.2259865     
   2723197612.0710311     
   2698718422.5232868     
   2769282816.1601057     
   2726324485.4755554     
   2695831812.9148688     
   2678185291.9819098     
   2673792867.2594700     
   2983763418.0393591     
   2902368795.0359607     
   2832428194.7155042     
   2774706755.5251727     
   2730158444.1926546     
   2854116384.1475544     
   2793004756.5237451     
   2740980923.3982635     
   2698448300.3839421     
   2665879868.6159897     
   2758762401.5658221     
   2711526867.6890283     
   2670335248.4147739     
   2635346614.5201516     
   2606737812.5750451     
   2698718422.5232868     
   2659867212.0276108     
   2623399253.7407107     
   2589328765.8523011     
   2557680672.2966833     
   2673792867.2594700     
   2639149856.9971495     
   2602749309.1771936     
   2564528724.6292100     
   2524455508.2868457     
   2730158444.1926546     
   2663535636.3470378     
   2596139506.8846602     
   2527746472.8508301     
   2458276297.5314565     
   2665879868.6159897     
   2595872969.8796892     
   2529200286.1618361     
   2466311817.4690518     
   2407728285.7078142     
   2606737812.5750451     
   2548522857.8657298     
   2499042473.7978249     
   2459957102.0195580     
   2433549579.3134031     
   2557680672.2966833     
   2525400241.8298197     
   2508211299.5089116     
   2509395239.7544498     
   2533752978.6580286     
   2524455508.2868457     
   2530050980.3434687     
   2557758131.3081083     
   2612720370.4039478     
   2702543536.0655260     
   1956070633.0792873     
   2120211390.7344494     
   2285752372.3717318     
   2449729104.9511547     
   2610177025.3658590     
   1654644800.6255083     
   1821244008.2269444     
   1989591230.8321550     
   2156988678.3563552     
   2321675587.3738627     
   1394412427.1353664     
   1571970294.2547331     
   1750586477.9150729     
   1928258570.5569925     
   2103736431.6854062     
   1207639363.9991961     
   1399749464.5923722     
   1591490806.4340508     
   1782089140.3512423     
   1971087469.8319848     
   1137006112.9731731     
   1335415795.6016698     
   1534192851.8167577     
   1733337286.3766463     
   1932849107.8315177     
   2610177025.3658590     
   2678449905.7455535     
   2751295660.1630077     
   2828214812.2252622     
   2908860460.2161932     
   2321675587.3738627     
   2409116894.8311596     
   2499088963.1331429     
   2591207845.5490518     
   2685201309.9609308     
   2103736431.6854062     
   2207900804.8145046     
   2312091698.2141681     
   2416075874.0156045     
   2519687846.9244742     
   1971087469.8319848     
   2088611277.7402174     
   2203431041.6711740     
   2315472814.3970780     
   2424684766.8097811     
   1932849107.8315177     
   2059749730.3384626     
   2181408412.9791913     
   2297825173.1299014     
   2409000036.1749339     
   2908860460.2161932     
   2924157603.1743507     
   2940775430.5676141     
   2958648049.7220368     
   2977734680.0440316     
   2685201309.9609308     
   2708368597.3989530     
   2734183385.0587058     
   2762628422.4437618     
   2793699831.9732642     
   2519687846.9244742     
   2550421146.0922904     
   2585142388.6360550     
   2623857557.7662492     
   2666576802.2738090     
   2424684766.8097811     
   2460917487.2653098     
   2502463571.4809241     
   2549329588.6316810     
   2601521987.7132945     
   2409000036.1749339     
   2446831060.0284319     
   2491282664.3686876     
   2542356866.8098812     
   2600056461.8801398     
   2977734680.0440316     
   2942289992.8424306     
   2912861159.8016648     
   2889579271.3896737     
   2872613296.1859279     
   2793699831.9732642     
   2774481189.2918882     
   2762993689.9786272     
   2759355461.4248986     
   2763706706.2949724     
   2666576802.2738090     
   2662241550.1263156     
   2667241012.5220385     
   2681642766.2475920     
   2705523679.3653769     
   2601521987.7132945     
   2608825601.9428654     
   2626936195.8905292     
   2655867253.1334906     
   2695635194.1904922     
   2600056461.8801398     
   2614015295.1243606     
   2640185971.6645579     
   2678567065.7617316     
   2729156258.3333831     
   2872613296.1859279     
   2838422919.7134542     
   2809725363.5682020     
   2786636070.2596598     
   2769282816.1601057     
   2763706706.2949724     
   2746312505.2816057     
   2734673736.5170240     
   2728869556.7987556     
   2728982836.2892199     
   2705523679.3653769     
   2703757540.9285336     
   2707821432.4235716     
   2717754374.8560982     
   2733594990.0755782     
   2695635194.1904922     
   2707567530.0765109     
   2725253181.3735037     
   2748703118.5980172     
   2777927408.4297423     
   2729156258.3333831     
   2752339344.3899570     
   2781123049.2356825     
   2815509732.2882338     
   2855501481.9672108     
   2769282816.1601057     
   2726324485.4755554     
   2695831812.9148688     
   2678185291.9819098     
   2673792867.2594700     
   2728982836.2892199     
   2706594929.0241280     
   2695157633.2654638     
   2694847078.5460773     
   2705843509.8845029     
   2733594990.0755782     
   2727479498.8403473     
   2730488536.4073582     
   2742680596.4537573     
   2764113051.3853340     
   2777927408.4297423     
   2784209533.6656909     
   2797630947.2454057     
   2818202393.6697807     
   2845933758.0751390     
   2855501481.9672108     
   2871053501.2205324     
   2891709661.3258543     
   2917475041.0711331     
   2948354590.6078086     
   2673792867.2594700     
   2639149856.9971495     
   2602749309.1771936     
   2564528724.6292100     
   2524455508.2868457     
   2705843509.8845029     
   2677453406.0436606     
   2653630233.8245077     
   2634432751.6493158     
   2619931191.1293001     
   2764113051.3853340     
   2744241546.7397037     
   2735342320.8367467     
   2737496464.1324716     
   2750783675.5930333     
   2845933758.0751390     
   2833947506.5613742     
   2839380328.1820445     
   2862265209.4184957     
   2902633904.1342306     
   2948354590.6078086     
   2941199964.6767039     
   2958243391.5987401     
   2999479432.8162184     
   3064897814.3913150     
   2524455508.2868457     
   2530050980.3434687     
   2557758131.3081083     
   2612720370.4039478     
   2702543536.0655260     
   2619931191.1293001     
   2685807605.1778345     
   2766736699.7452455     
   2863243535.1448793     
   2976054906.4008718     
   2750783675.5930333     
   2846067517.3180161     
   2950434707.1088996     
   3064433539.9060001     
   3188865487.6616535     
   2902633904.1342306     
   2998997959.8960528     
   3099781395.7648993     
   3209382624.8353343     
   3334325640.0604482     
   3064897814.3913150     
   3136523988.8279052     
   3209188380.2413559     
   3294982567.6148238     
   3412043481.1193948     
   1137006112.9731731     
   1335415795.6016698     
   1534192851.8167577     
   1733337286.3766463     
   1932849107.8315177     
   1206837864.6320047     
   1398696651.4033544     
   1590169271.2231824     
   1780472542.6205750     
   1969143506.9609795     
   1393167086.8438692     
   1570280221.0851328     
   1748408502.1927059     
   1925538061.7325428     
   2100410816.9236441     
   1653321554.1041212     
   1819391306.8053298     
   1987131539.6033788     
   2153835928.4288702     
   2317738234.1424494     
   1954939537.8991694     
   2118584660.7916577     
   2283520143.8215547     
   2446777385.8254709     
   2606391175.7705564     
   1932849107.8315177     
   2059749730.3384626     
   2181408412.9791913     
   2297825173.1299014     
   2409000036.1749339     
   1969143506.9609795     
   2086073689.6909792     
   2200176738.5434456     
   2311377559.4100499     
   2419623874.1396003     
   2100410816.9236441     
   2203606025.0307488     
   2306589266.6400781     
   2409125418.4822779     
   2511047248.5086651     
   2317738234.1424494     
   2404158521.9195232     
   2492764014.2148337     
   2583166401.8534951     
   2675087720.2960148     
   2606391175.7705564     
   2673951744.6897998     
   2745646830.9415202     
   2820966435.0608044     
   2899549358.2052922     
   2409000036.1749339     
   2446831060.0284319     
   2491282664.3686876     
   2542356866.8098812     
   2600056461.8801398     
   2419623874.1396003     
   2453117398.0693154     
   2491527657.4601917     
   2534859521.4896460     
   2583121370.7224922     
   2511047248.5086651     
   2537177125.6317673     
   2566515268.5395656     
   2599058110.7793026     
   2634810744.4745908     
   2675087720.2960148     
   2692984196.8545232     
   2712406185.3846483     
   2733314319.1365752     
   2755684646.3268237     
   2899549358.2052922     
   2910214400.8560944     
   2920817825.6560578     
   2931262767.5151267     
   2941474381.1586099     
   2600056461.8801398     
   2614015295.1243606     
   2640185971.6645579     
   2678567065.7617316     
   2729156258.3333831     
   2583121370.7224922     
   2584378370.6972885     
   2594397674.1010222     
   2613211045.4873123     
   2640845603.3252425     
   2634810744.4745908     
   2621053177.7978277     
   2612520710.3821692     
   2609271254.2488480     
   2611360133.9756994     
   2755684646.3268237     
   2727929186.0352750     
   2701886137.6114173     
   2677591089.1075659     
   2655080081.8926630     
   2941474381.1586099     
   2903677381.6145959     
   2864408853.7874913     
   2823668471.2661958     
   2781458980.2801642     
   2729156258.3333831     
   2752339344.3899570     
   2781123049.2356825     
   2815509732.2882338     
   2855501481.9672108     
   2640845603.3252425     
   2642143251.8581610     
   2650057985.2687454     
   2664598852.0046005     
   2685776981.9152946     
   2611360133.9756994     
   2588492864.9747405     
   2573069929.1968989     
   2565112822.6811604     
   2564653089.8649783     
   2655080081.8926630     
   2606494517.5427613     
   2565840249.2038393     
   2533133285.4500680     
   2508417293.2686939     
   2781458980.2801642     
   2706869265.9022884     
   2640334656.4847770     
   2581805264.2568145     
   2531281201.7577691     
   2855501481.9672108     
   2871053501.2205324     
   2891709661.3258543     
   2917475041.0711331     
   2948354590.6078086     
   2685776981.9152946     
   2684271553.7660823     
   2690236577.2230482     
   2703683770.6735697     
   2724625477.3049254     
   2564653089.8649783     
   2543611074.6056414     
   2532260603.8267179     
   2530651651.6792846     
   2538839698.4066710     
   2508417293.2686939     
   2464658523.7024326     
   2432418779.2210436     
   2411838341.4573464     
   2403085456.8828406     
   2531281201.7577691     
   2461597877.5515304     
   2404575952.8534226     
   2360475736.2443976     
   2329647808.9005723     
   2948354590.6078086     
   2941199964.6767039     
   2958243391.5987401     
   2999479432.8162184     
   3064897814.3913150     
   2724625477.3049254     
   2702055207.1012216     
   2694840915.8150578     
   2703027885.5126834     
   2726646548.5856848     
   2538839698.4066710     
   2500258329.4079618     
   2468417777.5547667     
   2443475837.2480073     
   2425625805.2646117     
   2403085456.8828406     
   2352153429.8365507     
   2299562287.6644659     
   2245564332.7390089     
   2190597927.3287268     
   2329647808.9005723     
   2275988867.8217955     
   2213546714.8783073     
   2142861417.9630330     
   2064985082.0166912     
   3064897814.3913150     
   3136523988.8279052     
   3209188380.2413559     
   3294982567.6148238     
   3412043481.1193948     
   2726646548.5856848     
   2708460859.6667743     
   2692804786.8330779     
   2683673180.7925863     
   2687726252.3744884     
   2425625805.2646117     
   2351582998.9297118     
   2288585178.9955831     
   2236497793.9764791     
   2195242594.9999461     
   2190597927.3287268     
   2094360188.5683477     
   2029235499.7830749     
   2000325472.5679657     
   2013884388.2600143     
   2064985082.0166912     
   1973781644.5207894     
   1946101931.8919909     
   2001246769.0363410     
   2158296242.0956478     
   1954939537.8991694     
   2118584660.7916577     
   2283520143.8215547     
   2446777385.8254709     
   2606391175.7705564     
   2298574081.4118552     
   2448977949.5676193     
   2604037756.1570115     
   2761827393.0037346     
   2920914966.8053827     
   2694630787.8578796     
   2830264658.2469821     
   2973151763.2009344     
   3122209418.4892526     
   3276527297.4673247     
   3137884449.2233357     
   3255458392.0131912     
   3382402690.1370668     
   3518250996.0648131     
   3662548243.1494527     
   3624839169.2029872     
   3719752046.5998402     
   3825883850.7749095     
   3943177896.1884365     
   4071546758.6886888     
   2606391175.7705564     
   2673951744.6897998     
   2745646830.9415202     
   2820966435.0608044     
   2899549358.2052922     
   2920914966.8053827     
   2974134177.3386340     
   3029392533.1352577     
   3086007486.0231538     
   3143443230.1449838     
   3276527297.4673247     
   3320437263.9469948     
   3364567043.1878815     
   3408092603.8261495     
   3450335454.3322487     
   3662548243.1494527     
   3702671071.1128588     
   3741521410.3321357     
   3778192961.3333373     
   3811930997.9238324     
   4071546758.6886888     
   4113384249.6784115     
   4152782339.2723560     
   4188821969.0622373     
   4220751818.7349200     
   2899549358.2052922     
   2910214400.8560944     
   2920817825.6560578     
   2931262767.5151267     
   2941474381.1586099     
   3143443230.1449838     
   3137921143.7473536     
   3135182793.1747613     
   3135090541.9224010     
   3137589761.9633331     
   3450335454.3322487     
   3424472046.7555385     
   3403432480.9274178     
   3386963319.4771614     
   3375005416.0561442     
   3811930997.9238324     
   3760860256.7188807     
   3716005794.2068410     
   3676902325.5090594     
   3643427347.0710616     
   4220751818.7349200     
   4139115827.1899180     
   4064635108.2306218     
   3996522783.0294638     
   3934500940.0547290     
   2941474381.1586099     
   2903677381.6145959     
   2864408853.7874913     
   2823668471.2661958     
   2781458980.2801642     
   3137589761.9633331     
   3102194760.1693668     
   3068718080.0504813     
   3037190756.7161942     
   3007649272.2666669     
   3375005416.0561442     
   3335603823.4605188     
   3300799160.4641747     
   3270745695.7698841     
   3245640083.0481391     
   3643427347.0710616     
   3592649169.1902595     
   3548501630.5797973     
   3511371497.8176022     
   3481764657.3200169     
   3934500940.0547290     
   3864644156.3191514     
   3802895296.7583585     
   3749976510.2859516     
   3706852284.3587408     
   2781458980.2801642     
   2706869265.9022884     
   2640334656.4847770     
   2581805264.2568145     
   2531281201.7577691     
   3007649272.2666669     
   2940114159.9771013     
   2879233731.5212502     
   2825112001.4320850     
   2777901716.8373499     
   3245640083.0481391     
   3182446857.7676220     
   3125010089.2687645     
   3073555806.7540970     
   3028351602.5141091     
   3481764657.3200169     
   3421169246.4945083     
   3365918412.6789083     
   3316317273.5357761     
   3272703372.0490813     
   3706852284.3587408     
   3647845148.7072349     
   3594219894.8366570     
   3546315815.7857270     
   3504495274.4253378     
   2531281201.7577691     
   2461597877.5515304     
   2404575952.8534226     
   2360475736.2443976     
   2329647808.9005723     
   2777901716.8373499     
   2707448715.9989839     
   2647077675.8798723     
   2597218964.7151065     
   2558384787.7077932     
   3028351602.5141091     
   2956192462.2360625     
   2892022486.4824433     
   2836351576.4904337     
   2789755151.7980866     
   3272703372.0490813     
   3199399499.2044683     
   3132339049.8819013     
   3072030618.0200901     
   3019030872.7423840     
   3504495274.4253378     
   3431567619.6218376     
   3363375910.1269631     
   3300363530.6541195     
   3243006898.4862957     
   2329647808.9005723     
   2275988867.8217955     
   2213546714.8783073     
   2142861417.9630330     
   2064985082.0166912     
   2558384787.7077932     
   2525163032.3469100     
   2490457297.6928902     
   2454287796.4420657     
   2416774031.6946507     
   2789755151.7980866     
   2766378916.1479964     
   2748881906.3528156     
   2737378319.9616990     
   2731997498.0426641     
   3019030872.7423840     
   2992895098.9207215     
   2980149718.6477776     
   2981573572.6092792     
   2998021986.7396760     
   3243006898.4862957     
   3200522582.4371209     
   3179376923.7299118     
   3181639716.7768841     
   3209595645.6817207     
   2064985082.0166912     
   1973781644.5207894     
   1946101931.8919909     
   2001246769.0363410     
   2158296242.0956478     
   2416774031.6946507     
   2354610909.7714586     
   2320843140.0557299     
   2319663821.7412548     
   2355935763.7338209     
   2731997498.0426641     
   2686641069.5408993     
   2653064389.2387500     
   2632489354.4150648     
   2626318279.7297297     
   2998021986.7396760     
   2957816113.5450053     
   2921461758.8811851     
   2896807221.0487218     
   2895539375.9890275     
   3209595645.6817207     
   3162614434.9300299     
   3117164467.9063134     
   3096381667.8968778     
   3134430646.7692385     
   3624839169.2029872     
   3719752046.5998402     
   3825883850.7749095     
   3943177896.1884365     
   4071546758.6886888     
   4133934477.5713153     
   4224477199.3460479     
   4320940951.1075335     
   4421675282.6572418     
   4525231553.9955959     
   4643304138.6105661     
   4755666778.6732588     
   4869180682.0849934     
   4981210683.8341722     
   5089830431.6508827     
   5151431194.7368746     
   5311499687.6076002     
   5468250805.7807655     
   5618777890.4415150     
   5761601633.8562431     
   5658054670.0765886     
   5891140439.7139587     
   6116660064.1779079     
   6332129858.7456894     
   6537297959.3797894     
   4071546758.6886888     
   4113384249.6784115     
   4152782339.2723560     
   4188821969.0622373     
   4220751818.7349200     
   4525231553.9955959     
   4539974517.5827122     
   4559467145.4816608     
   4581211662.9022808     
   4603477545.7805405     
   5089830431.6508827     
   5054894077.2272501     
   5030460500.6100512     
   5011316995.0963926     
   4994260891.3599052     
   5761601633.8562431     
   5652863133.0759592     
   5560058591.5501623     
   5474141239.2701979     
   5389574223.5427923     
   6537297959.3797894     
   6329322946.9644709     
   6143430501.9693022     
   5965759983.8509836     
   5787320959.7565060     
   4220751818.7349200     
   4139115827.1899180     
   4064635108.2306218     
   3996522783.0294638     
   3934500940.0547290     
   4603477545.7805405     
   4496851979.0919609     
   4394925517.9623919     
   4297423383.0101395     
   4204294280.1772065     
   4994260891.3599052     
   4867659634.2677021     
   4744524093.8072224     
   4624842221.4086189     
   4508684521.8110380     
   5389574223.5427923     
   5247790734.4856882     
   5109288919.5794497     
   4974115980.7494106     
   4842372666.5721445     
   5787320959.7565060     
   5634719389.8288221     
   5486145993.5271626     
   5341520093.2548819     
   5200871089.8107214     
   3934500940.0547290     
   3864644156.3191514     
   3802895296.7583585     
   3749976510.2859516     
   3706852284.3587408     
   4204294280.1772065     
   4107515316.9437304     
   4016079457.8753610     
   3930492666.9793830     
   3851455798.3358598     
   4508684521.8110380     
   4389842416.3754377     
   4274116109.1020131     
   4161782158.4825268     
   4053247227.6746197     
   4842372666.5721445     
   4706727528.6365051     
   4572542404.2572403     
   4439911513.7245264     
   4308997414.9680786     
   5200871089.8107214     
   5053764987.0858831     
   4907008315.1745634     
   4760589902.5443459     
   4614523367.7284403     
   3706852284.3587408     
   3647845148.7072349     
   3594219894.8366570     
   3546315815.7857270     
   3504495274.4253378     
   3851455798.3358598     
   3771262356.2421031     
   3695457405.6834760     
   3624380221.3900304     
   3558411983.7562003     
   4053247227.6746197     
   3953855964.8854799     
   3857781424.8100548     
   3765298180.7431993     
   3676733493.1095309     
   4308997414.9680786     
   4192647794.8349977     
   4078616392.7155023     
   3967071187.9014497     
   3858233143.9661984     
   4614523367.7284403     
   4483394992.1081161     
   4353760594.1877565     
   4225666601.4895039     
   4099205366.6323471     
   3504495274.4253378     
   3431567619.6218376     
   3363375910.1269631     
   3300363530.6541195     
   3243006898.4862957     
   3558411983.7562003     
   3461735272.9785213     
   3369561399.9898090     
   3282368687.1287017     
   3200698660.3231487     
   3676733493.1095309     
   3557946454.4671674     
   3443178691.7281170     
   3332861448.0001702     
   3227516522.1122751     
   3858233143.9661984     
   3719163523.7077870     
   3583518824.8057261     
   3451612830.3605909     
   3323865960.1166863     
   4099205366.6323471     
   3941479919.8161578     
   3786591089.1513052     
   3634692954.5833564     
   3486050189.8119984     
   3243006898.4862957     
   3200522582.4371209     
   3179376923.7299118     
   3181639716.7768841     
   3209595645.6817207     
   3200698660.3231487     
   3113418362.7373796     
   3039842467.1887975     
   2981724035.4386439     
   2941098433.6872802     
   3227516522.1122751     
   3105457437.3360529     
   2990143671.6421018     
   2882551801.0474582     
   2783872542.9407096     
   3323865960.1166863     
   3181102374.6120157     
   3039945018.8053603     
   2900598278.1488605     
   2763310352.7465253     
   3486050189.8119984     
   3338774492.9459329     
   3190631396.1704884     
   3041605027.7380996     
   2891715379.7091002     
   3209595645.6817207     
   3162614434.9300299     
   3117164467.9063134     
   3096381667.8968778     
   3134430646.7692385     
   2941098433.6872802     
   2817805292.0075164     
   2690788361.1752543     
   2569685543.4447680     
   2470142430.1602473     
   2783872542.9407096     
   2623740061.8940949     
   2464425108.6506071     
   2306543057.8561845     
   2151067128.5508723     
   2763310352.7465253     
   2599225361.3054566     
   2450516195.4491258     
   2319396991.4750433     
   2210144522.5697708     
   2891715379.7091002     
   2738634101.7799563     
   2619826665.4982452     
   2548092889.9991212     
   2544065707.1728024     
   5658054670.0765886     
   5891140439.7139587     
   6116660064.1779079     
   6332129858.7456894     
   6537297959.3797894     
   6492053695.2797651     
   6587178802.8071566     
   6757641879.5074911     
   6961363732.4980021     
   7171683758.6683350     
   7982581082.1919727     
   7735202600.9803410     
   7669331026.5738840     
   7669733331.0706053     
   7666498210.6885443     
   10130082186.173880     
   9322071839.0695019     
   8826556581.1773434     
   8443876299.1542101     
   8036294918.4980993     
   12934642270.724375     
   11340511363.100552     
   10210500014.594816     
   9273536473.5407753     
   8305354362.8224897     
   6537297959.3797894     
   6329322946.9644709     
   6143430501.9693022     
   5965759983.8509836     
   5787320959.7565060     
   7171683758.6683350     
   6911479644.4869604     
   6659134133.4298115     
   6410789106.8168211     
   6163302617.7914162     
   7666498210.6885443     
   7381594429.7922068     
   7102051172.8797293     
   6827932615.9471416     
   6559422390.7611170     
   8036294918.4980993     
   7747301015.8805771     
   7473881275.2445116     
   7214095361.9745436     
   6967926082.7321148     
   8305354362.8224897     
   8021149767.2831001     
   7778777508.0816135     
   7567673945.7024488     
   7382885058.2689371     
   5787320959.7565060     
   5634719389.8288221     
   5486145993.5271626     
   5341520093.2548819     
   5200871089.8107214     
   6163302617.7914162     
   6011844895.8135509     
   5861564699.6688585     
   5712497664.4165220     
   5564694748.3908987     
   6559422390.7611170     
   6407238359.5080595     
   6253398546.6710606     
   6097865639.3956099     
   5940654990.5904274     
   6967926082.7321148     
   6814411159.7452211     
   6656472888.2264023     
   6493841042.6628036     
   6326443894.6650352     
   7382885058.2689371     
   7228350119.8035545     
   7066762905.0293369     
   6897491709.8321552     
   6720340041.0829573     
   5200871089.8107214     
   5053764987.0858831     
   4907008315.1745634     
   4760589902.5443459     
   4614523367.7284403     
   5564694748.3908987     
   5407843549.8848476     
   5251918703.1036530     
   5096938374.2896843     
   4942943917.6406870     
   5940654990.5904274     
   5772537068.6232738     
   5605911983.5480347     
   5440800237.9247789     
   5277257846.6108503     
   6326443894.6650352     
   6145156878.3249331     
   5965910615.7953720     
   5788711163.9519653     
   5613624625.1231050     
   6720340041.0829573     
   6523691806.5511322     
   6329612771.7683878     
   6138086441.7619781     
   5949191741.2852869     
   4614523367.7284403     
   4483394992.1081161     
   4353760594.1877565     
   4225666601.4895039     
   4099205366.6323471     
   4942943917.6406870     
   4802984840.9222870     
   4663901636.0738239     
   4525746858.4771137     
   4388615913.7355671     
   5277257846.6108503     
   5127999918.5762711     
   4979093811.3699913     
   4830595575.2211323     
   4682600863.9506502     
   5613624625.1231050     
   5454790105.7041922     
   5295861671.8116388     
   5136896674.1788368     
   4977988869.8869524     
   5949191741.2852869     
   5780648448.8668756     
   5611630371.1088362     
   5442194404.9943771     
   5272430824.9029388     
   4099205366.6323471     
   3941479919.8161578     
   3786591089.1513052     
   3634692954.5833564     
   3486050189.8119984     
   4388615913.7355671     
   4218532916.9715042     
   4050235488.0076032     
   3883844273.6524482     
   3719559541.1876740     
   4682600863.9506502     
   4501618758.8957891     
   4321633305.4715872     
   4142730964.7102299     
   3965050900.0186844     
   4977988869.8869524     
   4787774802.0047102     
   4597992737.5151339     
   4408699388.6638994     
   4219982866.4783621     
   5272430824.9029388     
   5074781586.7507648     
   4877192037.6970577     
   4679695875.8567982     
   4482342925.3614645     
   3486050189.8119984     
   3338774492.9459329     
   3190631396.1704884     
   3041605027.7380996     
   2891715379.7091002     
   3719559541.1876740     
   3575964122.2391453     
   3432742536.7351532     
   3289898293.9473414     
   3147438996.9627757     
   3965050900.0186844     
   3817836514.9461555     
   3671593812.5609961     
   3526380615.5187221     
   3382284678.1393719     
   4219982866.4783621     
   4061635664.4491353     
   3904284615.8497019     
   3748078574.7116780     
   3593273013.7755175     
   4482342925.3614645     
   4305338907.8437948     
   4128848095.3490744     
   3953129348.4009805     
   3778669335.7241716     
   2891715379.7091002     
   2738634101.7799563     
   2619826665.4982452     
   2548092889.9991212     
   2544065707.1728024     
   3147438996.9627757     
   2985803100.5093045     
   2840644144.5986705     
   2716190344.3374457     
   2619943225.0225859     
   3382284678.1393719     
   3205930262.9033461     
   3034473184.6339107     
   2868393417.6308503     
   2708584570.1328897     
   3593273013.7755175     
   3400150688.5852036     
   3203414775.9303880     
   3003939567.3706188     
   2803443687.3659377     
   3778669335.7241716     
   3570288491.5084500     
   3351742091.1389370     
   3128183877.0082979     
   2909752138.1113000     
 </DataArray>
 <DataArray  type="Float64" Name="strain" NumberOfComponents="3" format="ascii">
  0.20348290408215716        0.0000000000000000       0.12540996941276975     
  0.18665308354859739       -2.7326084657361818E-002   7.4354523538079975E-002
  0.16982326301503758       -4.4677380400551019E-002   3.5132550276225367E-002
  0.15299344248147781       -5.2053887229567636E-002   7.7440496272059810E-003
  0.13616362194791803       -4.9455605144411649E-002  -7.8109784089782641E-003
  0.15985286509158420        0.0000000000000000        9.6451724635525454E-002
  0.15317497302950289       -2.1845250991236062E-002   6.2692268590432629E-002
  0.14649708096742164       -3.6174983084863319E-002   3.7403196875461675E-002
  0.13981918890534040       -4.2989196280881742E-002   2.0584509490612565E-002
  0.13314129684325909       -4.2287890579291373E-002   1.2236206435885313E-002
  0.12645520616607411        0.0000000000000000        7.4203948532688802E-002
  0.12656615429275803       -1.6364417325110309E-002   5.5281212300629129E-002
  0.12667710241944194       -2.7672585769175591E-002   4.1465772115978003E-002
  0.12678805054612588       -3.3924505332195862E-002   3.2757627978735444E-002
  0.12689899867280979       -3.5120176014171105E-002   2.9156779888901339E-002
  0.10328992730562693        0.0000000000000000        5.8666641104259815E-002
  0.10682662733836272       -1.0883583658984551E-002   5.2121354668669524E-002
  0.11036332737109852       -1.9170188453487877E-002   4.7320275997774434E-002
  0.11390002740383431       -2.4859814383509968E-002   4.4263405091574573E-002
  0.11743672743657008       -2.7952461449050840E-002   4.2950741950069864E-002
   9.0357028510242660E-002   0.0000000000000000        4.9839802350238480E-002
   9.3956392166316988E-002  -5.4027499928587944E-003   5.3212695694553752E-002
   9.7555755822391330E-002  -1.0667791137800156E-002   5.4966708520850921E-002
  0.10115511947846569       -1.5795123434824077E-002   5.5101840829129958E-002
  0.10475448313454003       -2.0784746883930581E-002   5.3618092619390899E-002
  0.13616362194791803       -4.9455605144411649E-002  -7.8109784089782641E-003
  0.13295909858133897       -4.2919873854074114E-002  -3.3934328509085121E-003
  0.12975457521475989       -3.8484033067546081E-002  -3.9012578376761489E-004
  0.12655005184818083       -3.6148082784827638E-002   1.1989427924438967E-003
  0.12334552848160177       -3.5912023005918753E-002   1.3737728777264979E-003
  0.13314129684325909       -4.2287890579291373E-002   1.2236206435885313E-002
  0.12891032669711194       -3.8420951707886397E-002   1.2179499108631184E-002
  0.12467935655096482       -3.5738265394461136E-002   1.1484136713169946E-002
  0.12044838640481768       -3.4239831639015512E-002   1.0150119249501648E-002
  0.11621741625867058       -3.3925650441549521E-002   8.1774467176262827E-003
  0.12689899867280979       -3.5120176014171105E-002   2.9156779888901339E-002
  0.12241716516981657       -3.3922029561698736E-002   2.5541457622153086E-002
  0.11793533166682342       -3.2992497721376177E-002   2.2063063709919777E-002
  0.11345349816383021       -3.2331580493203380E-002   1.8721598152201410E-002
  0.10897166466083699       -3.1939277877180358E-002   1.5517060948997970E-002
  0.11743672743657008       -2.7952461449050840E-002   4.2950741950069864E-002
  0.11347961399945287       -2.9423107415511060E-002   3.6692442689657358E-002
  0.10952250056233562       -3.0246730048291183E-002   3.1346655206481826E-002
  0.10556538712521840       -3.0423329347391240E-002   2.6913379500543236E-002
  0.10160827368810113       -2.9952905312811202E-002   2.3392615571841628E-002
  0.10475448313454003       -2.0784746883930581E-002   5.3618092619390899E-002
  0.10209767318602075       -2.4924185269323371E-002   4.5632454311144058E-002
   9.9440863237501495E-002  -2.7500962375206210E-002   3.9334911202856149E-002
   9.6784053288982236E-002  -2.8515078201579076E-002   3.4725463294527227E-002
   9.4127243340462963E-002  -2.7966532748442005E-002   3.1804110586157328E-002
  0.12334552848160177       -3.5912023005918753E-002   1.3737728777264979E-003
  0.12042506920418439       -3.6416043523818484E-002   6.3709998584549066E-004
  0.11750460992676702       -3.6300334131525898E-002   9.2542395991448978E-005
  0.11458415064934965       -3.5564894829040933E-002  -2.5989989183519691E-004
  0.11166369137193227       -3.4209725616363984E-002  -4.2022687763459965E-004
  0.11621741625867058       -3.3925650441549521E-002   8.1774467176262827E-003
  0.11347468776046375       -3.4005349074645017E-002   7.8168613315507673E-003
  0.11073195926225697       -3.3688554810883710E-002   7.6196222018693263E-003
  0.10798923076405018       -3.2975267650265573E-002   7.5857293285815607E-003
  0.10524650226584339       -3.1865487592790787E-002   7.7151827116881955E-003
  0.10897166466083699       -3.1939277877180358E-002   1.5517060948997970E-002
  0.10637789789620758       -3.1594654625471640E-002   1.5309326055392682E-002
  0.10378413113157818       -3.1076775490241574E-002   1.5236168372547997E-002
  0.10119036436694874       -3.0385640471490186E-002   1.5297587900464255E-002
   9.8596597602319369E-002  -2.9521249569217561E-002   1.5493584639141064E-002
  0.10160827368810113       -2.9952905312811202E-002   2.3392615571841628E-002
   9.9134699611415855E-002  -2.9183960176298217E-002   2.3114494157371018E-002
   9.6661125534730621E-002  -2.8464996169599383E-002   2.2942180908027791E-002
   9.4187551458045388E-002  -2.7796013292714784E-002   2.2875675823812090E-002
   9.1713977381360112E-002  -2.7177011545644350E-002   2.2914978904724059E-002
   9.4127243340462963E-002  -2.7966532748442005E-002   3.1804110586157328E-002
   9.1745092906088621E-002  -2.6773265727124761E-002   3.1232365637485826E-002
   8.9362942471714321E-002  -2.5853216848957260E-002   3.0737659808308511E-002
   8.6980792037339966E-002  -2.5206386113939331E-002   3.0319993098625594E-002
   8.4598641602965680E-002  -2.4832773522071167E-002   2.9979365508436995E-002
  0.11166369137193227       -3.4209725616363984E-002  -4.2022687763459965E-004
  0.10855918584905211       -3.2677780286249625E-002  -1.5465609373596645E-004
  0.10545468032617200       -3.1412012631452838E-002   1.6176674520149148E-004
  0.10235017480329187       -3.0412422651973654E-002   5.2904163917784353E-004
   9.9245669280411730E-002  -2.9679010347812063E-002   9.4716858819293703E-004
  0.10524650226584339       -3.1865487592790787E-002   7.7151827116881955E-003
  0.10222363442871804       -3.0637584942664275E-002   7.5656108754321438E-003
   9.9200766591592729E-002  -2.9569930004091138E-002   7.5284623556468033E-003
   9.6177898754467445E-002  -2.8662522777071556E-002   7.6037371523322919E-003
   9.3155030917342063E-002  -2.7915363261605486E-002   7.7914352654885610E-003
   9.8596597602319369E-002  -2.9521249569217561E-002   1.5493584639141064E-002
   9.5716938712380767E-002  -2.8597389599078954E-002   1.5034800146494429E-002
   9.2837279822442220E-002  -2.7727847376729599E-002   1.4750010231750342E-002
   8.9957620932503674E-002  -2.6912622902169621E-002   1.4639214894909169E-002
   8.7077962042565057E-002  -2.6151716175398909E-002   1.4702414135970676E-002
   9.1713977381360112E-002  -2.7177011545644350E-002   2.2914978904724059E-002
   8.9039098700040259E-002  -2.6557194255493619E-002   2.2252911719450950E-002
   8.6364220018720447E-002  -2.5885764749368035E-002   2.1826410373512371E-002
   8.3689341337400663E-002  -2.5162723027267606E-002   2.1635474866908814E-002
   8.1014462656080782E-002  -2.4388069089192388E-002   2.1680105199639595E-002
   8.4598641602965680E-002  -2.4832773522071167E-002   2.9979365508436995E-002
   8.2190114391696573E-002  -2.4516998911908228E-002   2.9219945594301577E-002
   7.9781587180427424E-002  -2.4043682122006436E-002   2.8757662780932738E-002
   7.7373059969158303E-002  -2.3412823152365612E-002   2.8592517068330624E-002
   7.4964532757889196E-002  -2.2624422002985811E-002   2.8724508456495296E-002
   9.9245669280411730E-002  -2.9679010347812063E-002   9.4716858819293703E-004
   9.6400449466859328E-002  -2.9016946157478435E-002   6.1995730299196916E-004
   9.3555229653306954E-002  -2.8231400519484057E-002   4.8400469744219743E-004
   9.0710009839754566E-002  -2.7322373433827797E-002   5.3931077154378837E-004
   8.7864790026202177E-002  -2.6289864900510218E-002   7.8587552529618687E-004
   9.3155030917342063E-002  -2.7915363261605486E-002   7.7914352654885610E-003
   9.0490510325459433E-002  -2.7209817506196610E-002   7.5674848301490460E-003
   8.7825989733576831E-002  -2.6427251559349163E-002   7.5136741584984068E-003
   8.5161469141694160E-002  -2.5567665421062549E-002   7.6300032505359425E-003
   8.2496948549811600E-002  -2.4631059091337559E-002   7.9164721062618959E-003
   8.7077962042565057E-002  -2.6151716175398909E-002   1.4702414135970676E-002
   8.4573021756389602E-002  -2.5402688854914826E-002   1.4535263294270323E-002
   8.2068081470214077E-002  -2.4623102599214255E-002   1.4517133300295679E-002
   7.9563141184038566E-002  -2.3812957408297520E-002   1.4648024154047139E-002
   7.7058200897863083E-002  -2.2972253282164401E-002   1.4927935855524238E-002
   8.1014462656080782E-002  -2.4388069089192388E-002   2.1680105199639595E-002
   7.8647983759649709E-002  -2.3595560203632911E-002   2.1523292695355772E-002
   7.6281504863218760E-002  -2.2818953639079577E-002   2.1494382122835037E-002
   7.3915025966787715E-002  -2.2058249395532491E-002   2.1593373482077155E-002
   7.1548547070356724E-002  -2.1313447472991492E-002   2.1820266773082901E-002
   7.4964532757889196E-002  -2.2624422002985811E-002   2.8724508456495296E-002
   7.2715396335239990E-002  -2.1788431552350954E-002   2.8531573033405255E-002
   7.0466259912590798E-002  -2.1014804678944607E-002   2.8445420626115603E-002
   6.8217123489941606E-002  -2.0303541382767281E-002   2.8466051234626644E-002
   6.5967987067292455E-002  -1.9654641663818695E-002   2.8593464858938100E-002
   8.7864790026202177E-002  -2.6289864900510218E-002   7.8587552529618687E-004
   8.4502580796800508E-002  -2.5232931898757749E-002   6.7758012242891130E-004
   8.1140371567398950E-002  -2.4250631407796180E-002   6.9437263693178375E-004
   7.7778162337997281E-002  -2.3342963427626158E-002   8.3625306880549810E-004
   7.4415953108595723E-002  -2.2509927958247355E-002   1.1032214180493050E-003
   8.2496948549811600E-002  -2.4631059091337559E-002   7.9164721062618959E-003
   7.9281271836718237E-002  -2.3678573532594310E-002   7.6987680046773643E-003
   7.6065595123624929E-002  -2.2771349707254335E-002   7.6490410183387980E-003
   7.2849918410531567E-002  -2.1909387615317348E-002   7.7672911472467798E-003
   6.9634241697438259E-002  -2.1092687256784148E-002   8.0535183914003383E-003
   7.7058200897863083E-002  -2.2972253282164401E-002   1.4927935855524238E-002
   7.4031945898953788E-002  -2.2124215166430872E-002   1.4630193832610466E-002
   7.1005690900044494E-002  -2.1292068006712364E-002   1.4543318122818436E-002
   6.7979435901135199E-002  -2.0475811803008757E-002   1.4667308726148486E-002
   6.4953180902225960E-002  -1.9675446555320553E-002   1.5002165642600318E-002
   7.1548547070356724E-002  -2.1313447472991492E-002   2.1820266773082901E-002
   6.8754602983507190E-002  -2.0569856800267322E-002   2.1471857606227947E-002
   6.5960658896657698E-002  -1.9812786306170289E-002   2.1377203950370568E-002
   6.3166714809808205E-002  -1.9042235990700165E-002   2.1536305805510837E-002
   6.0372770722958657E-002  -1.8258205853857373E-002   2.1949163171648953E-002
   6.5967987067292455E-002  -1.9654641663818695E-002   2.8593464858938100E-002
   6.3449243090378471E-002  -1.9015498434103884E-002   2.8223759325530090E-002
   6.0930499113464487E-002  -1.8333504605628270E-002   2.8150698500995275E-002
   5.8411755136550531E-002  -1.7608660178391591E-002   2.8374282385334099E-002
   5.5893011159636574E-002  -1.6840965152394027E-002   2.8894510978546284E-002
   7.4415953108595723E-002  -2.2509927958247355E-002   1.1032214180493050E-003
   7.1638719736069889E-002  -2.1687226496432011E-002   6.3313044306101407E-004
   6.8861486363544000E-002  -2.0810560538952860E-002   4.6405325781145867E-004
   6.6084252991018111E-002  -1.9879930085809530E-002   5.9598986229969508E-004
   6.3307019618492277E-002  -1.8895335137002589E-002   1.0289402565263339E-003
   6.9634241697438259E-002  -2.1092687256784148E-002   8.0535183914003383E-003
   6.7117921578810913E-002  -2.0282719969855645E-002   7.6868575394458682E-003
   6.4601601460183400E-002  -1.9440957092735855E-002   7.5410094055499977E-003
   6.2085281341555942E-002  -1.8567398625423837E-002   7.6159739897128931E-003
   5.9568961222928540E-002  -1.7662044567919755E-002   7.9117512919346655E-003
   6.4953180902225960E-002  -1.9675446555320553E-002   1.5002165642600318E-002
   6.2617572965817533E-002  -1.8878213443279862E-002   1.4716766008207316E-002
   6.0281965029409051E-002  -1.8071353646519156E-002   1.4571978020193610E-002
   5.7946357093000542E-002  -1.7254867165038025E-002   1.4567801678559353E-002
   5.5610749156592115E-002  -1.6428753998836754E-002   1.4704236983303559E-002
   6.0372770722958657E-002  -1.8258205853857373E-002   2.1949163171648953E-002
   5.8137673897089778E-002  -1.7473706916703899E-002   2.1722855849345524E-002
   5.5902577071220920E-002  -1.6701750200302082E-002   2.1556959101741970E-002
   5.3667480245351951E-002  -1.5942335704652161E-002   2.1451472928837988E-002
   5.1432383419483127E-002  -1.5195463429753836E-002   2.1406397330634146E-002
   5.5893011159636574E-002  -1.6840965152394027E-002   2.8894510978546284E-002
   5.3678224372627759E-002  -1.6069200390127991E-002   2.8705127062860547E-002
   5.1463437585618971E-002  -1.5332146754085368E-002   2.8495952650195333E-002
   4.9248650798610141E-002  -1.4629804244266527E-002   2.8266987740550212E-002
   4.7033864011601312E-002  -1.3962172860670974E-002   2.8018232333925586E-002
   6.3307019618492277E-002  -1.8895335137002589E-002   1.0289402565263339E-003
   5.9968550686904099E-002  -1.7958657322910243E-002   1.0528991396964171E-003
   5.6630081755315864E-002  -1.7171778273910948E-002   1.0920857920794225E-003
   5.3291612823727574E-002  -1.6534697990005794E-002   1.1465002136762659E-003
   4.9953143892139451E-002  -1.6047416471193898E-002   1.2161424044845326E-003
   5.9568961222928540E-002  -1.7662044567919755E-002   7.9117512919346655E-003
   5.6300389597917166E-002  -1.6774742897944395E-002   7.6613764765247061E-003
   5.3031817972905765E-002  -1.5955341593218625E-002   7.5355685050560450E-003
   4.9763246347894377E-002  -1.5203840653742605E-002   7.5343273775275443E-003
   4.6494674722883045E-002  -1.4520240079516800E-002   7.6576530939411747E-003
   5.5610749156592115E-002  -1.6428753998836754E-002   1.4704236983303559E-002
   5.2521413912885812E-002  -1.5590828472978546E-002   1.4261426869157268E-002
   4.9432078669179397E-002  -1.4738904912525955E-002   1.4052522673680831E-002
   4.6342743425472968E-002  -1.3872983317479746E-002   1.4077524396872508E-002
   4.3253408181766706E-002  -1.2993063687839035E-002   1.4336432038733471E-002
   5.1432383419483127E-002  -1.5195463429753836E-002   2.1406397330634146E-002
   4.8631623631809867E-002  -1.4406914048012476E-002   2.0853050317595372E-002
   4.5830863844136586E-002  -1.3522468231833458E-002   2.0642948297953639E-002
   4.3030104056463472E-002  -1.2542125981216389E-002   2.0776091271709443E-002
   4.0229344268790004E-002  -1.1465887296161825E-002   2.1252479238862143E-002
   4.7033864011601312E-002  -1.3962172860670974E-002   2.8018232333925586E-002
   4.4631018754689444E-002  -1.3222999623046683E-002   2.7436246821837929E-002
   4.2228173497777494E-002  -1.2306031551140892E-002   2.7306845377875671E-002
   3.9825328240865446E-002  -1.1211268644953403E-002   2.7630028002038606E-002
   3.7422482983953564E-002  -9.9387109044843935E-003   2.8405794694327247E-002
   9.0357028510242660E-002   0.0000000000000000        4.9839802350238480E-002
   9.3956392166316988E-002  -5.4027499928587944E-003   5.3212695694553752E-002
   9.7555755822391330E-002  -1.0667791137800156E-002   5.4966708520850921E-002
  0.10115511947846569       -1.5795123434824077E-002   5.5101840829129958E-002
  0.10475448313454003       -2.0784746883930581E-002   5.3618092619390899E-002
   8.2418900217205632E-002   0.0000000000000000        4.4790300937584640E-002
   8.4628402656412055E-002  -4.5720453645666879E-003   4.8273581990563898E-002
   8.6837905095618492E-002  -9.0333846412863992E-003   5.0596021127825457E-002
   8.9047407534824916E-002  -1.3384017830159143E-002   5.1757618349369303E-002
   9.1256909974031339E-002  -1.7623944931184903E-002   5.1758373655195450E-002
   7.4237932863800191E-002   0.0000000000000000        4.0585005533258126E-002
   7.5515612688439107E-002  -3.7413407362745818E-003   4.4151671534830919E-002
   7.6793292513078037E-002  -7.3989781447726510E-003   4.7015534222986426E-002
   7.8070972337716968E-002  -1.0972912225494203E-002   4.9176593597724604E-002
   7.9348652162355884E-002  -1.4463142978439241E-002   5.0634849659045515E-002
   6.5814126450026322E-002   0.0000000000000000        3.7223916137258957E-002
   6.6618022262398144E-002  -2.9106361079824757E-003   4.0846964327354830E-002
   6.7421918074769965E-002  -5.7645716482588993E-003   4.4225247806333794E-002
   6.8225813887141787E-002  -8.5618066208292629E-003   4.7358766574195868E-002
   6.9029709699513622E-002  -1.1302341025693578E-002   5.0247520630941060E-002
   5.7147480975884041E-002   0.0000000000000000        3.4707032749587120E-002
   5.7935631378289179E-002  -2.0799314796903692E-003   3.8359460368135603E-002
   5.8723781780694317E-002  -4.1301651517451458E-003   4.2225161877867595E-002
   5.9511932183099456E-002  -6.1507010161643266E-003   4.6304137278783103E-002
   6.0300082585504608E-002  -8.1415390729479061E-003   5.0596386570882154E-002
  0.10475448313454003       -2.0784746883930581E-002   5.3618092619390899E-002
  0.10209767318602075       -2.4924185269323371E-002   4.5632454311144058E-002
   9.9440863237501495E-002  -2.7500962375206210E-002   3.9334911202856149E-002
   9.6784053288982236E-002  -2.8515078201579076E-002   3.4725463294527227E-002
   9.4127243340462963E-002  -2.7966532748442005E-002   3.1804110586157328E-002
   9.1256909974031339E-002  -1.7623944931184903E-002   5.1758373655195450E-002
   9.0050635336462445E-002  -2.1197881080240878E-002   4.6516459354574477E-002
   8.8844360698893551E-002  -2.3550541413204271E-002   4.2487520475895241E-002
   8.7638086061324644E-002  -2.4681925930075017E-002   3.9671557019157741E-002
   8.6431811423755778E-002  -2.4592034630853160E-002   3.8068568984362013E-002
   7.9348652162355884E-002  -1.4463142978439241E-002   5.0634849659045515E-002
   7.9117793057720098E-002  -1.7471576891158386E-002   4.7795273902633065E-002
   7.8886933953084340E-002  -1.9600120451202307E-002   4.5693553790145100E-002
   7.8656074848448568E-002  -2.0848773658570945E-002   4.4329689321581642E-002
   7.8425215743812809E-002  -2.1217536513264350E-002   4.3703680496942676E-002
   6.9029709699513622E-002  -1.1302341025693578E-002   5.0247520630941060E-002
   6.9299146349793755E-002  -1.3745272702075914E-002   4.9468897955319779E-002
   6.9568583000073875E-002  -1.5649699489200346E-002   4.8953011145605782E-002
   6.9838019650353980E-002  -1.7015621387066870E-002   4.8699860201799013E-002
   7.0107456300634113E-002  -1.7843038395675529E-002   4.8709445123899527E-002
   6.0300082585504608E-002  -8.1415390729479061E-003   5.0596386570882154E-002
   6.0594695212683368E-002  -1.0018968512993404E-002   5.1537331512634683E-002
   6.0889307839862135E-002  -1.1699278527198403E-002   5.2265892542277217E-002
   6.1183920467040881E-002  -1.3182469115562801E-002   5.2782069659809784E-002
   6.1478533094219662E-002  -1.4468540278086688E-002   5.3085862865232404E-002
   9.4127243340462963E-002  -2.7966532748442005E-002   3.1804110586157328E-002
   9.1745092906088621E-002  -2.6773265727124761E-002   3.1232365637485826E-002
   8.9362942471714321E-002  -2.5853216848957260E-002   3.0737659808308511E-002
   8.6980792037339966E-002  -2.5206386113939331E-002   3.0319993098625594E-002
   8.4598641602965680E-002  -2.4832773522071167E-002   2.9979365508436995E-002
   8.6431811423755778E-002  -2.4592034630853160E-002   3.8068568984362013E-002
   8.4173004722947822E-002  -2.3946422901122335E-002   3.7040438337414591E-002
   8.1914198022139867E-002  -2.3410646126466102E-002   3.6181956038105589E-002
   7.9655391321331911E-002  -2.2984704306884436E-002   3.5493122086435021E-002
   7.7396584620523956E-002  -2.2668597442377370E-002   3.4973936482402851E-002
   7.8425215743812809E-002  -2.1217536513264350E-002   4.3703680496942676E-002
   7.6382362004715307E-002  -2.1119580075119878E-002   4.2382547339794512E-002
   7.4339508265617860E-002  -2.0968075403974946E-002   4.1323671758428888E-002
   7.2296654526520357E-002  -2.0763022499829531E-002   4.0527053752845744E-002
   7.0253800787422910E-002  -2.0504421362683670E-002   3.9992693323045107E-002
   7.0107456300634113E-002  -1.7843038395675529E-002   4.8709445123899527E-002
   6.8373164751391186E-002  -1.8292737249117438E-002   4.7258692644625649E-002
   6.6638873202148299E-002  -1.8525504681483843E-002   4.6162806969278360E-002
   6.4904581652905385E-002  -1.8541340692774636E-002   4.5421788097857727E-002
   6.3170290103662458E-002  -1.8340245282989949E-002   4.5035636030363646E-002
   6.1478533094219662E-002  -1.4468540278086688E-002   5.3085862865232404E-002
   6.0145412962975417E-002  -1.5465894423114999E-002   5.1668874251907880E-002
   5.8812292831731172E-002  -1.6082933958992657E-002   5.0699361670654100E-002
   5.7479172700486914E-002  -1.6319658885719741E-002   5.0177325121471036E-002
   5.6146052569242683E-002  -1.6176069203296173E-002   5.0102764604358724E-002
   8.4598641602965680E-002  -2.4832773522071167E-002   2.9979365508436995E-002
   8.2190114391696573E-002  -2.4516998911908228E-002   2.9219945594301577E-002
   7.9781587180427424E-002  -2.4043682122006436E-002   2.8757662780932738E-002
   7.7373059969158303E-002  -2.3412823152365612E-002   2.8592517068330624E-002
   7.4964532757889196E-002  -2.2624422002985811E-002   2.8724508456495296E-002
   7.7396584620523956E-002  -2.2668597442377370E-002   3.4973936482402851E-002
   7.5268244590794148E-002  -2.2349717638659956E-002   3.4393301304997813E-002
   7.3139904561064298E-002  -2.1915457001447064E-002   3.4075903389904738E-002
   7.1011564531334476E-002  -2.1365815530738713E-002   3.4021742737123530E-002
   6.8883224501604640E-002  -2.0700793226534953E-002   3.4230819346654159E-002
   7.0253800787422910E-002  -2.0504421362683670E-002   3.9992693323045107E-002
   6.8371748100777591E-002  -2.0182436365411588E-002   3.9548681536127048E-002
   6.6489695414132272E-002  -1.9787231880887639E-002   3.9334007173066052E-002
   6.4607642727486939E-002  -1.9318807909111790E-002   3.9348670233862147E-002
   6.2725590040841633E-002  -1.8777164450084038E-002   3.9592670718515438E-002
   6.3170290103662458E-002  -1.8340245282989949E-002   4.5035636030363646E-002
   6.1500624921646888E-002  -1.8015155092163254E-002   4.4686086287688991E-002
   5.9830959739631269E-002  -1.7659006760328229E-002   4.4531974130416548E-002
   5.8161294557615706E-002  -1.7271800287484807E-002   4.4573299558546532E-002
   5.6491629375600101E-002  -1.6853535673633152E-002   4.4810062572078715E-002
   5.6146052569242683E-002  -1.6176069203296173E-002   5.0102764604358724E-002
   5.4654875053402024E-002  -1.5847873818914920E-002   4.9805515559683877E-002
   5.3163697537561366E-002  -1.5530781639768836E-002   4.9669804261956427E-002
   5.1672520021720722E-002  -1.5224792665857951E-002   4.9695630711176560E-002
   5.0181342505880050E-002  -1.4929906897182238E-002   4.9882994907344380E-002
   7.4964532757889196E-002  -2.2624422002985811E-002   2.8724508456495296E-002
   7.2715396335239990E-002  -2.1788431552350954E-002   2.8531573033405255E-002
   7.0466259912590798E-002  -2.1014804678944607E-002   2.8445420626115603E-002
   6.8217123489941606E-002  -2.0303541382767281E-002   2.8466051234626644E-002
   6.5967987067292455E-002  -1.9654641663818695E-002   2.8593464858938100E-002
   6.8883224501604640E-002  -2.0700793226534953E-002   3.4230819346654159E-002
   6.6760487512361869E-002  -1.9993869749728749E-002   3.3934203103931956E-002
   6.4637750523119167E-002  -1.9318524761212930E-002   3.3783602712222048E-002
   6.2515013533876396E-002  -1.8674758260987703E-002   3.3779018171524539E-002
   6.0392276544633694E-002  -1.8062570249053056E-002   3.3920449481839421E-002
   6.2725590040841633E-002  -1.8777164450084038E-002   3.9592670718515438E-002
   6.0768485320217155E-002  -1.8199307947106481E-002   3.9223158745099213E-002
   5.8811380599592664E-002  -1.7622244843481148E-002   3.9038895457907168E-002
   5.6854275878968207E-002  -1.7045975139208157E-002   3.9039880856939282E-002
   5.4897171158343736E-002  -1.6470498834287306E-002   3.9226114942195689E-002
   5.6491629375600101E-002  -1.6853535673633152E-002   4.4810062572078715E-002
   5.4739389758805740E-002  -1.6404746144484301E-002   4.4398439956906871E-002
   5.2987150142011427E-002  -1.5925964925749336E-002   4.4211298863171003E-002
   5.1234910525217073E-002  -1.5417192017428482E-002   4.4248639290871146E-002
   4.9482670908422746E-002  -1.4878427419521612E-002   4.4510461240007279E-002
   5.0181342505880050E-002  -1.4929906897182238E-002   4.9882994907344380E-002
   4.8673200828127705E-002  -1.4610184341861995E-002   4.9460046739355001E-002
   4.7165059150375319E-002  -1.4229685008017613E-002   4.9300812928013457E-002
   4.5656917472622939E-002  -1.3788408895648941E-002   4.9405293473319810E-002
   4.4148775794870587E-002  -1.3286356004755973E-002   4.9773488375274066E-002
   6.5967987067292455E-002  -1.9654641663818695E-002   2.8593464858938100E-002
   6.3449243090378471E-002  -1.9015498434103884E-002   2.8223759325530090E-002
   6.0930499113464487E-002  -1.8333504605628270E-002   2.8150698500995275E-002
   5.8411755136550531E-002  -1.7608660178391591E-002   2.8374282385334099E-002
   5.5893011159636574E-002  -1.6840965152394027E-002   2.8894510978546284E-002
   6.0392276544633694E-002  -1.8062570249053056E-002   3.3920449481839421E-002
   5.8141753750088926E-002  -1.7450933248024839E-002   3.3639589090915287E-002
   5.5891230955544172E-002  -1.6808819780519055E-002   3.3598526355856001E-002
   5.3640708160999369E-002  -1.6136229846535993E-002   3.3797261276661522E-002
   5.1390185366454649E-002  -1.5433163446075371E-002   3.4235793853332419E-002
   5.4897171158343736E-002  -1.6470498834287306E-002   3.9226114942195689E-002
   5.2858022493159823E-002  -1.5886368061945655E-002   3.9021725561471932E-002
   5.0818873827975869E-002  -1.5284134955409950E-002   3.9000286783604649E-002
   4.8779725162791943E-002  -1.4663799514680338E-002   3.9161798608594159E-002
   4.6740576497608016E-002  -1.4025361739756687E-002   3.9506261036440060E-002
   4.9482670908422746E-002  -1.4878427419521612E-002   4.4510461240007279E-002
   4.7598049319591211E-002  -1.4321802875866541E-002   4.4370168737200524E-002
   4.5713427730759683E-002  -1.3759450130300818E-002   4.4355979784241821E-002
   4.3828806141928134E-002  -1.3191369182824753E-002   4.4467894381131232E-002
   4.1944184553096620E-002  -1.2617560033437905E-002   4.4705912527869131E-002
   4.4148775794870587E-002  -1.3286356004755973E-002   4.9773488375274066E-002
   4.2361834229383041E-002  -1.2757237689787482E-002   4.9684918618100649E-002
   4.0574892663895551E-002  -1.2234765305191644E-002   4.9665605357767123E-002
   3.8787951098408047E-002  -1.1718938850969116E-002   4.9715548594273240E-002
   3.7001009532920515E-002  -1.1209758327119290E-002   4.9834748327619249E-002
   5.5893011159636574E-002  -1.6840965152394027E-002   2.8894510978546284E-002
   5.3678224372627759E-002  -1.6069200390127991E-002   2.8705127062860547E-002
   5.1463437585618971E-002  -1.5332146754085368E-002   2.8495952650195333E-002
   4.9248650798610141E-002  -1.4629804244266527E-002   2.8266987740550212E-002
   4.7033864011601312E-002  -1.3962172860670974E-002   2.8018232333925586E-002
   5.1390185366454649E-002  -1.5433163446075371E-002   3.4235793853332419E-002
   4.9207994878763303E-002  -1.4725272695409602E-002   3.3924244212133720E-002
   4.7025804391071943E-002  -1.4038209710810962E-002   3.3697677666549575E-002
   4.4843613903380562E-002  -1.3371974492279538E-002   3.3556094216579832E-002
   4.2661423415689209E-002  -1.2726567039815118E-002   3.3499493862224783E-002
   4.6740576497608016E-002  -1.4025361739756687E-002   3.9506261036440060E-002
   4.4695755901828255E-002  -1.3381345000691353E-002   3.9086429029884753E-002
   4.2650935306048542E-002  -1.2744272667536707E-002   3.8856353711538241E-002
   4.0606114710268801E-002  -1.2114144740292713E-002   3.8816035081400350E-002
   3.8561294114489011E-002  -1.1490961218959345E-002   3.8965473139471171E-002
   4.1944184553096620E-002  -1.2617560033437905E-002   4.4705912527869131E-002
   4.0141507441822676E-002  -1.2037417305973061E-002   4.4191681516113593E-002
   3.8338830330548655E-002  -1.1450335624262405E-002   4.3971980785161111E-002
   3.6536153219274684E-002  -1.0856314988305917E-002   4.4046810335011420E-002
   3.4733476108000691E-002  -1.0255355398103530E-002   4.4416170165664792E-002
   3.7001009532920515E-002  -1.1209758327119290E-002   4.9834748327619249E-002
   3.5545249498746490E-002  -1.0693489611254769E-002   4.9240001670820266E-002
   3.4089489464572423E-002  -1.0156398580988102E-002   4.9044558887418405E-002
   3.2633729430398377E-002  -9.5984852363189682E-003   4.9248419977413416E-002
   3.1177969396224331E-002  -9.0197495772476599E-003   4.9851584940805493E-002
   4.7033864011601312E-002  -1.3962172860670974E-002   2.8018232333925586E-002
   4.4631018754689444E-002  -1.3222999623046683E-002   2.7436246821837929E-002
   4.2228173497777494E-002  -1.2306031551140892E-002   2.7306845377875671E-002
   3.9825328240865446E-002  -1.1211268644953403E-002   2.7630028002038606E-002
   3.7422482983953564E-002  -9.9387109044843935E-003   2.8405794694327247E-002
   4.2661423415689209E-002  -1.2726567039815118E-002   3.3499493862224783E-002
   4.0634251165809765E-002  -1.2045844372842340E-002   3.3247535098439057E-002
   3.8607078915930321E-002  -1.1273663510785348E-002   3.3294338280592750E-002
   3.6579906666050918E-002  -1.0410024453644126E-002   3.3639903408686195E-002
   3.4552734416171460E-002  -9.4549272014188279E-003   3.4284230482719114E-002
   3.8561294114489011E-002  -1.1490961218959345E-002   3.8965473139471171E-002
   3.6755972749456287E-002  -1.0868689122637970E-002   3.8957204484789731E-002
   3.4950651384423527E-002  -1.0241295470429811E-002   3.9093875653862194E-002
   3.3145330019390726E-002  -9.6087802623347675E-003   3.9375486646688579E-002
   3.1340008654357987E-002  -8.9711434983530403E-003   3.9802037463268602E-002
   3.4733476108000691E-002  -1.0255355398103530E-002   4.4416170165664792E-002
   3.2996183505628850E-002  -9.6915338724335026E-003   4.4565254980890423E-002
   3.1258890903257022E-002  -9.2089274300743811E-003   4.4705457497684266E-002
   2.9521598300885268E-002  -8.8075360710256727E-003   4.4836777716045897E-002
   2.7784305698513298E-002  -8.4873597952873081E-003   4.4959215635975963E-002
   3.1177969396224331E-002  -9.0197495772476599E-003   4.9851584940805493E-002
   2.9354883434327600E-002  -8.5143786222291462E-003   5.0071686586740993E-002
   2.7531797472430911E-002  -8.1765593897188821E-003   5.0129083812058745E-002
   2.5708711510534214E-002  -8.0062918797161979E-003   5.0023776616758900E-002
   2.3885625548637490E-002  -8.0035760922216870E-003   4.9755765000840890E-002
   5.7147480975884041E-002   0.0000000000000000        3.4707032749587120E-002
   5.7935631378289179E-002  -2.0799314796903692E-003   3.8359460368135603E-002
   5.8723781780694317E-002  -4.1301651517451458E-003   4.2225161877867595E-002
   5.9511932183099456E-002  -6.1507010161643266E-003   4.6304137278783103E-002
   6.0300082585504608E-002  -8.1415390729479061E-003   5.0596386570882154E-002
   4.8649621873080043E-002   0.0000000000000000        3.2809717783318586E-002
   4.9586008218113549E-002  -1.7069812955094969E-003   3.6985236413694091E-002
   5.0522394563147048E-002  -3.4282260839801765E-003   4.1243953038142836E-002
   5.1458780908180561E-002  -5.1637343654120458E-003   4.5585867656664752E-002
   5.2395167253214074E-002  -6.9135061398050961E-003   5.0010980269259923E-002
   4.0732174573321012E-002   0.0000000000000000        3.1307333651529309E-002
   4.1686720963872582E-002  -1.3340311113286254E-003   3.5961981993135064E-002
   4.2641267354424160E-002  -2.7262870162152140E-003   4.0569752431703750E-002
   4.3595813744975724E-002  -4.1767677146597659E-003   4.5130644967235345E-002
   4.4550360135527295E-002  -5.6854732066622836E-003   4.9644659599729850E-002
   3.3395139076606961E-002   0.0000000000000000        3.0199880354219302E-002
   3.4237769615566301E-002  -9.6108092714775311E-004   3.5289697106458531E-002
   3.5080400154525640E-002  -2.0243479484502490E-003   4.0202560058550371E-002
   3.5923030693484972E-002  -3.1898010639074882E-003   4.4938469210494839E-002
   3.6765661232444312E-002  -4.4574402735194762E-003   4.9497424562291913E-002
   2.6638515382937891E-002   0.0000000000000000        2.9487357891388552E-002
   2.7239154173194689E-002  -5.8813074296688254E-004   3.4968381753664471E-002
   2.7839792963451487E-002  -1.3224088806852840E-003   4.0142375918682700E-002
   2.8440431753708285E-002  -2.2028344131552070E-003   4.5009340386443254E-002
   2.9041070543965087E-002  -3.2294073403766601E-003   4.9569275156946126E-002
   6.0300082585504608E-002  -8.1415390729479061E-003   5.0596386570882154E-002
   6.0594695212683368E-002  -1.0018968512993404E-002   5.1537331512634683E-002
   6.0889307839862135E-002  -1.1699278527198403E-002   5.2265892542277217E-002
   6.1183920467040881E-002  -1.3182469115562801E-002   5.2782069659809784E-002
   6.1478533094219662E-002  -1.4468540278086688E-002   5.3085862865232404E-002
   5.2395167253214074E-002  -6.9135061398050961E-003   5.0010980269259923E-002
   5.2516585335592628E-002  -8.5753311739777873E-003   5.1244860992547200E-002
   5.2638003417971188E-002  -1.0046999234748607E-002   5.2344736538344046E-002
   5.2759421500349749E-002  -1.1328510322117532E-002   5.3310606906650453E-002
   5.2880839582728309E-002  -1.2419864436084567E-002   5.4142472097466435E-002
   4.4550360135527295E-002  -5.6854732066622836E-003   4.9644659599729850E-002
   4.4576962407725199E-002  -7.1316938349621720E-003   5.1164513652113240E-002
   4.4603564679923095E-002  -8.3947199422988311E-003   5.2628741261625728E-002
   4.4630166952121006E-002  -9.4745515286722651E-003   5.4037342428267347E-002
   4.4656769224318896E-002  -1.0371188594082464E-002   5.5390317152038043E-002
   3.6765661232444312E-002  -4.4574402735194762E-003   4.9497424562291913E-002
   3.6775826429081088E-002  -5.6880564959465489E-003   5.1296289491332747E-002
   3.6785991625717877E-002  -6.7424406498490536E-003   5.3117906712122222E-002
   3.6796156822354653E-002  -7.6205927352269972E-003   5.4962276224660336E-002
   3.6806322018991436E-002  -8.3225127520803657E-003   5.6829398028947119E-002
   2.9041070543965087E-002  -3.2294073403766601E-003   4.9569275156946126E-002
   2.9113177399660298E-002  -4.2444191569309337E-003   5.1640188510205742E-002
   2.9185284255355499E-002  -5.0901613573992640E-003   5.3812232889833549E-002
   2.9257391111050704E-002  -5.7666339417817266E-003   5.6085408295829524E-002
   2.9329497966745915E-002  -6.2738369100782329E-003   5.8459714728193730E-002
   6.1478533094219662E-002  -1.4468540278086688E-002   5.3085862865232404E-002
   6.0145412962975417E-002  -1.5465894423114999E-002   5.1668874251907880E-002
   5.8812292831731172E-002  -1.6082933958992657E-002   5.0699361670654100E-002
   5.7479172700486914E-002  -1.6319658885719741E-002   5.0177325121471036E-002
   5.6146052569242683E-002  -1.6176069203296173E-002   5.0102764604358724E-002
   5.2880839582728309E-002  -1.2419864436084567E-002   5.4142472097466435E-002
   5.1943796482008670E-002  -1.3263318704379874E-002   5.3390686299223916E-002
   5.1006753381289002E-002  -1.3801130254733581E-002   5.2983578529959857E-002
   5.0069710280569370E-002  -1.4033299087145628E-002   5.2921148789674216E-002
   4.9132667179849702E-002  -1.3959825201616094E-002   5.3203397078367187E-002
   4.4656769224318896E-002  -1.0371188594082464E-002   5.5390317152038043E-002
   4.4013005151031612E-002  -1.1060742985644774E-002   5.5229062277668432E-002
   4.3369241077744321E-002  -1.1519326550474440E-002   5.5309687429185038E-002
   4.2725477004457030E-002  -1.1746939288571543E-002   5.5632192606587937E-002
   4.2081712931169746E-002  -1.1743581199936015E-002   5.6196577809877003E-002
   3.6806322018991436E-002  -8.3225127520803657E-003   5.6829398028947119E-002
   3.6353038970044271E-002  -8.8581672669096473E-003   5.7184002187241428E-002
   3.5899755921097107E-002  -9.2375228462153527E-003   5.7677688368329760E-002
   3.5446472872149956E-002  -9.4605794899973988E-003   5.8310456572212115E-002
   3.4993189823202778E-002  -9.5273371982559085E-003   5.9082306798888470E-002
   2.9329497966745915E-002  -6.2738369100782329E-003   5.8459714728193730E-002
   2.8963897939046648E-002  -6.6555915481745359E-003   5.9255506027942967E-002
   2.8598297911347378E-002  -6.9557191419562427E-003   6.0087581347394003E-002
   2.8232697883648100E-002  -7.1742196914233222E-003   6.0955940686546757E-002
   2.7867097855948833E-002  -7.3110931965758574E-003   6.1860584045401290E-002
   5.6146052569242683E-002  -1.6176069203296173E-002   5.0102764604358724E-002
   5.4654875053402024E-002  -1.5847873818914920E-002   4.9805515559683877E-002
   5.3163697537561366E-002  -1.5530781639768836E-002   4.9669804261956427E-002
   5.1672520021720722E-002  -1.5224792665857951E-002   4.9695630711176560E-002
   5.0181342505880050E-002  -1.4929906897182238E-002   4.9882994907344380E-002
   4.9132667179849702E-002  -1.3959825201616094E-002   5.3203397078367187E-002
   4.7805405428109071E-002  -1.3728804848059446E-002   5.2870130697996391E-002
   4.6478143676368475E-002  -1.3488334276390325E-002   5.2703158098878253E-002
   4.5150881924627864E-002  -1.3238413486608524E-002   5.2702479281012425E-002
   4.3823620172887212E-002  -1.2979042478714287E-002   5.2868094244399269E-002
   4.2081712931169746E-002  -1.1743581199936015E-002   5.6196577809877003E-002
   4.0923122977834132E-002  -1.1609735877204028E-002   5.5847847517158176E-002
   3.9764533024498512E-002  -1.1445886913011762E-002   5.5670167039996929E-002
   3.8605943071162892E-002  -1.1252034307359153E-002   5.5663536378393122E-002
   3.7447353117827285E-002  -1.1028178060246238E-002   5.5827955532346742E-002
   3.4993189823202778E-002  -9.5273371982559085E-003   5.9082306798888470E-002
   3.4008027702577132E-002  -9.4906669063485813E-003   5.8738666017169316E-002
   3.3022865581951472E-002  -9.4034395496331979E-003   5.8570831085312608E-002
   3.2037703461325846E-002  -9.2656551281097115E-003   5.8578802003318400E-002
   3.1052541340700186E-002  -9.0773136417782938E-003   5.8762578771186603E-002
   2.7867097855948833E-002  -7.3110931965758574E-003   6.1860584045401290E-002
   2.7060119602338131E-002  -7.3715979354930933E-003   6.1542586198029589E-002
   2.6253141348727409E-002  -7.3609921862546751E-003   6.1405150234825290E-002
   2.5446163095116697E-002  -7.2792759488603635E-003   6.1448276155788434E-002
   2.4639184841505984E-002  -7.1264492233102383E-003   6.1671963960918896E-002
   5.0181342505880050E-002  -1.4929906897182238E-002   4.9882994907344380E-002
   4.8673200828127705E-002  -1.4610184341861995E-002   4.9460046739355001E-002
   4.7165059150375319E-002  -1.4229685008017613E-002   4.9300812928013457E-002
   4.5656917472622939E-002  -1.3788408895648941E-002   4.9405293473319810E-002
   4.4148775794870587E-002  -1.3286356004755973E-002   4.9773488375274066E-002
   4.3823620172887212E-002  -1.2979042478714287E-002   5.2868094244399269E-002
   4.2565485022350885E-002  -1.2690085066243112E-002   5.2468143209693591E-002
   4.1307349871814579E-002  -1.2351405062730983E-002   5.2304490872772079E-002
   4.0049214721278259E-002  -1.1963002468177778E-002   5.2377137233634810E-002
   3.8791079570741918E-002  -1.1524877282583501E-002   5.2686082292281611E-002
   3.7447353117827285E-002  -1.1028178060246238E-002   5.5827955532346742E-002
   3.6411808835643308E-002  -1.0769985790624235E-002   5.5439947443441537E-002
   3.5376264553459338E-002  -1.0473125117444432E-002   5.5260822393456852E-002
   3.4340720271275368E-002  -1.0137596040706642E-002   5.5290580382392589E-002
   3.3305175989091398E-002  -9.7633985604110018E-003   5.5529221410248977E-002
   3.1052541340700186E-002  -9.0773136417782938E-003   5.8762578771186603E-002
   3.0212172268004881E-002  -8.8498865150053556E-003   5.8375459440598756E-002
   2.9371803195309593E-002  -8.5948451721578698E-003   5.8169807490067685E-002
   2.8531434122614309E-002  -8.3121896132355485E-003   5.8145622919593465E-002
   2.7691065049919011E-002  -8.0019198382385165E-003   5.8302905729176041E-002
   2.4639184841505984E-002  -7.1264492233102383E-003   6.1671963960918896E-002
   2.3966575319435676E-002  -6.9297872393865034E-003   6.1274679201165277E-002
   2.3293965797365361E-002  -6.7165652268712378E-003   6.1031446162604724E-002
   2.2621356275295049E-002  -6.4867831857644519E-003   6.0942264845237237E-002
   2.1948746753224738E-002  -6.2404411160660311E-003   6.1007135249062927E-002
   4.4148775794870587E-002  -1.3286356004755973E-002   4.9773488375274066E-002
   4.2361834229383041E-002  -1.2757237689787482E-002   4.9684918618100649E-002
   4.0574892663895551E-002  -1.2234765305191644E-002   4.9665605357767123E-002
   3.8787951098408047E-002  -1.1718938850969116E-002   4.9715548594273240E-002
   3.7001009532920515E-002  -1.1209758327119290E-002   4.9834748327619249E-002
   3.8791079570741918E-002  -1.1524877282583501E-002   5.2686082292281611E-002
   3.7106184727714583E-002  -1.1061621364174587E-002   5.2499041875314470E-002
   3.5421289884687283E-002  -1.0597826571177457E-002   5.2446838406427748E-002
   3.3736395041659983E-002  -1.0133492903592025E-002   5.2529471885621667E-002
   3.2051500198632676E-002  -9.6686203614185229E-003   5.2746942312896283E-002
   3.3305175989091398E-002  -9.7633985604110018E-003   5.5529221410248977E-002
   3.1787908319765079E-002  -9.3660050385617477E-003   5.5250895138448983E-002
   3.0270640650438711E-002  -8.9608878371630965E-003   5.5172986265970413E-002
   2.8753372981112333E-002  -8.5480469562150985E-003   5.5295494792813135E-002
   2.7236105311786003E-002  -8.1274823957176723E-003   5.5618420718977324E-002
   2.7691065049919011E-002  -8.0019198382385165E-003   5.8302905729176041E-002
   2.6407005005534397E-002  -7.6703887129488529E-003   5.7940478407504575E-002
   2.5122944961149814E-002  -7.3239491031487670E-003   5.7844048936395193E-002
   2.3838884916765217E-002  -6.9626010088380897E-003   5.8013617315848101E-002
   2.2554824872380620E-002  -6.5863444300169743E-003   5.8449183545862884E-002
   2.1948746753224738E-002  -6.2404411160660311E-003   6.1007135249062927E-002
   2.0963474785022668E-002  -5.9747723873360414E-003   6.0567791682481054E-002
   1.9978202816820584E-002  -5.6870103691345486E-003   6.0460026417702040E-002
   1.8992930848618521E-002  -5.3771550614611086E-003   6.0683839454726080E-002
   1.8007658880416430E-002  -5.0452064643161099E-003   6.1239230793552979E-002
   3.7001009532920515E-002  -1.1209758327119290E-002   4.9834748327619249E-002
   3.5545249498746490E-002  -1.0693489611254769E-002   4.9240001670820266E-002
   3.4089489464572423E-002  -1.0156398580988102E-002   4.9044558887418405E-002
   3.2633729430398377E-002  -9.5984852363189682E-003   4.9248419977413416E-002
   3.1177969396224331E-002  -9.0197495772476599E-003   4.9851584940805493E-002
   3.2051500198632676E-002  -9.6686203614185229E-003   5.2746942312896283E-002
   3.0936053660108487E-002  -9.2059352819249540E-003   5.2235273983018138E-002
   2.9820607121584283E-002  -8.7481640023803070E-003   5.2004928771042680E-002
   2.8705160583060101E-002  -8.2953065227841481E-003   5.2055906676970146E-002
   2.7589714044535904E-002  -7.8473628431363074E-003   5.2388207700800327E-002
   2.7236105311786003E-002  -8.1274823957176723E-003   5.5618420718977324E-002
   2.6342991513417388E-002  -7.7183809525952773E-003   5.5164094601669392E-002
   2.5449877715048776E-002  -7.3399294237724011E-003   5.4873110846769727E-002
   2.4556763916680137E-002  -6.9921278092491060E-003   5.4745469454278550E-002
   2.3663650118311515E-002  -6.6749761090250936E-003   5.4781170424195905E-002
   2.2554824872380620E-002  -6.5863444300169743E-003   5.8449183545862884E-002
   2.1766063058673273E-002  -6.2308266232656978E-003   5.8026463526774222E-002
   2.0977301244965923E-002  -5.9316948451646617E-003   5.7649105114599412E-002
   2.0188539431258572E-002  -5.6889490957140638E-003   5.7317108309338907E-002
   1.9399777617551225E-002  -5.5025893749138660E-003   5.7030473110992422E-002
   1.8007658880416430E-002  -5.0452064643161099E-003   6.1239230793552979E-002
   1.7205268295876056E-002  -4.7432722939357574E-003   6.0822380758332462E-002
   1.6402877711335702E-002  -4.5234602665568391E-003   6.0332911574531717E-002
   1.5600487126795338E-002  -4.3857703821791674E-003   5.9770823242150856E-002
   1.4798096542254988E-002  -4.3302026408024719E-003   5.9136115761189878E-002
   3.1177969396224331E-002  -9.0197495772476599E-003   4.9851584940805493E-002
   2.9354883434327600E-002  -8.5143786222291462E-003   5.0071686586740993E-002
   2.7531797472430911E-002  -8.1765593897188821E-003   5.0129083812058745E-002
   2.5708711510534214E-002  -8.0062918797161979E-003   5.0023776616758900E-002
   2.3885625548637490E-002  -8.0035760922216870E-003   4.9755765000840890E-002
   2.7589714044535904E-002  -7.8473628431363074E-003   5.2388207700800327E-002
   2.5699303502399032E-002  -7.3543564157206032E-003   5.2329624399065827E-002
   2.3808892960262097E-002  -6.7663106928201044E-003   5.2299096357468822E-002
   2.1918482418125270E-002  -6.0832256744347071E-003   5.2296623576009116E-002
   2.0028071875988263E-002  -5.3051013605645014E-003   5.2322206054687292E-002
   2.3663650118311515E-002  -6.6749761090250936E-003   5.4781170424195905E-002
   2.1896674676689661E-002  -6.1943342092120601E-003   5.4706493192784506E-002
   2.0129699235067761E-002  -5.3560619959215003E-003   5.4850630902265503E-002
   1.8362723793445890E-002  -4.1601594691533014E-003   5.5213583552639264E-002
   1.6595748351824008E-002  -2.6066266289073159E-003   5.5795351143905325E-002
   1.9399777617551225E-002  -5.5025893749138660E-003   5.7030473110992422E-002
   1.7946996957199528E-002  -5.0343120027034616E-003   5.7202292967896619E-002
   1.6494216296847809E-002  -3.9458132990228094E-003   5.7783687446448621E-002
   1.5041435636496153E-002  -2.2370932638717976E-003   5.8774656546648166E-002
   1.3588654976144386E-002   9.1848102749869653E-005   6.0175200268495793E-002
   1.4798096542254988E-002  -4.3302026408024719E-003   5.9136115761189878E-002
   1.3850270343928633E-002  -3.8742897961948630E-003   5.9817023724402396E-002
   1.2902444145602314E-002  -2.5355646021241046E-003   6.1098265990018136E-002
   1.1954617947275991E-002  -3.1402705859034583E-004   6.2979842558036750E-002
   1.1006791748949640E-002   2.7903228344070552E-003   6.5461753428458058E-002
   2.6638515382937891E-002   0.0000000000000000        2.9487357891388552E-002
   2.7239154173194689E-002  -5.8813074296688254E-004   3.4968381753664471E-002
   2.7839792963451487E-002  -1.3224088806852840E-003   4.0142375918682700E-002
   2.8440431753708285E-002  -2.2028344131552070E-003   4.5009340386443254E-002
   2.9041070543965087E-002  -3.2294073403766601E-003   4.9569275156946126E-002
   2.0124494212198075E-002   0.0000000000000000        2.9035992487051118E-002
   2.0457630571498034E-002  -4.4261032020180471E-004   3.4333326603947605E-002
   2.0790766930797996E-002  -9.9509375463973683E-004   3.9402685556188109E-002
   2.1123903290097959E-002  -1.6574503033137990E-003   4.4244069343772618E-002
   2.1457039649397915E-002  -2.4296799662239807E-003   4.8857477966701125E-002
   1.3515266284271800E-002   0.0000000000000000        2.8712010365221068E-002
   1.3659954745216620E-002  -2.9708989743672991E-004   3.3861929017253517E-002
   1.3804643206161437E-002  -6.6777862859419054E-004   3.8862927037231661E-002
   1.3949331667106253E-002  -1.1120661934723832E-003   4.3715004425155531E-002
   1.4094020128051069E-002  -1.6299525920713087E-003   4.8418161181025071E-002
   6.8108315991590729E-003   0.0000000000000000        2.8515411525898395E-002
   6.8461266943504410E-003  -1.5156947467165360E-004   3.3554188993582201E-002
   6.8814217895418082E-003  -3.4046350254864468E-004   3.8523100361813403E-002
   6.9167168847331754E-003  -5.6668208363097128E-004   4.3422145630592025E-002
   6.9520119799245435E-003  -8.3022521791863472E-004   4.8251324799918005E-002
   1.1190156859887390E-005   0.0000000000000000        2.8446195969083096E-002
   1.6146418899500026E-005  -6.0490519065781526E-006   3.3410106532933657E-002
   2.1102680939113095E-005  -1.3148376503097081E-005   3.8383205529933302E-002
   2.6058942978724646E-005  -2.1297973789557653E-005   4.3365492960082040E-002
   3.1015205018337932E-005  -3.0497843765957267E-005   4.8356968823379885E-002
   2.9041070543965087E-002  -3.2294073403766601E-003   4.9569275156946126E-002
   2.9113177399660298E-002  -4.2444191569309337E-003   5.1640188510205742E-002
   2.9185284255355499E-002  -5.0901613573992640E-003   5.3812232889833549E-002
   2.9257391111050704E-002  -5.7666339417817266E-003   5.6085408295829524E-002
   2.9329497966745915E-002  -6.2738369100782329E-003   5.8459714728193730E-002
   2.1457039649397915E-002  -2.4296799662239807E-003   4.8857477966701125E-002
   2.1601241901545578E-002  -3.1935275882665642E-003   5.1268320469293936E-002
   2.1745444153693231E-002  -3.8307380143378159E-003   5.3722222738423454E-002
   2.1889646405840884E-002  -4.3413112444377223E-003   5.6219184774089645E-002
   2.2033848657988540E-002  -4.7252472785662830E-003   5.8759206576292564E-002
   1.4094020128051069E-002  -1.6299525920713087E-003   4.8418161181025071E-002
   1.4252246516819680E-002  -2.1426360196022229E-003   5.1126300412836514E-002
   1.4410472905588285E-002  -2.5713146712763547E-003   5.3819428151353155E-002
   1.4568699294356890E-002  -2.9159885470937314E-003   5.6497544396574999E-002
   1.4726925683125504E-002  -3.1766576470543227E-003   5.9160649148502047E-002
   6.9520119799245435E-003  -8.3022521791863472E-004   4.8251324799918005E-002
   7.0661912454826094E-003  -1.0917444509378641E-003   5.1214128340833491E-002
   7.1803705110406769E-003  -1.3118913282148862E-003   5.4103849128622712E-002
   7.2945497765987428E-003  -1.4906658497497165E-003   5.6920487163285634E-002
   7.4087290421568103E-003  -1.6280680155423537E-003   5.9664042444822256E-002
   3.1015205018337932E-005  -3.0497843765957267E-005   4.8356968823379885E-002
   4.3076087534368174E-005  -4.0852882273513871E-005   5.1531804253284859E-002
   5.5136970050397114E-005  -5.2467985153438479E-005   5.4575485670232057E-002
   6.7197852566425404E-005  -6.5343152405738028E-005   5.7488013074221481E-002
   7.9258735082455428E-005  -7.9478384030398641E-005   6.0269386465253108E-002
   2.9329497966745915E-002  -6.2738369100782329E-003   5.8459714728193730E-002
   2.8963897939046648E-002  -6.6555915481745359E-003   5.9255506027942967E-002
   2.8598297911347378E-002  -6.9557191419562427E-003   6.0087581347394003E-002
   2.8232697883648100E-002  -7.1742196914233222E-003   6.0955940686546757E-002
   2.7867097855948833E-002  -7.3110931965758574E-003   6.1860584045401290E-002
   2.2033848657988540E-002  -4.7252472785662830E-003   5.8759206576292564E-002
   2.1720686217348087E-002  -5.0172718165733578E-003   5.9629284197586327E-002
   2.1407523776707627E-002  -5.2521105583087646E-003   6.0567952973295931E-002
   2.1094361336067173E-002  -5.4297635037724480E-003   6.1575212903421384E-002
   2.0781198895426713E-002  -5.5502306529645468E-003   6.2651063987962691E-002
   1.4726925683125504E-002  -3.1766576470543227E-003   5.9160649148502047E-002
   1.4498507964257945E-002  -3.3789520849721658E-003   6.0080571843297362E-002
   1.4270090245390384E-002  -3.5485019746612735E-003   6.1101392827222663E-002
   1.4041672526522825E-002  -3.6853073161216441E-003   6.2223112100277846E-002
   1.3813254807655273E-002  -3.7893681093532916E-003   6.3445729662462994E-002
   7.4087290421568103E-003  -1.6280680155423537E-003   5.9664042444822256E-002
   7.2973631797762280E-003  -1.7406323533709946E-003   6.0609368965076252E-002
   7.1859973173956501E-003  -1.8448933910137888E-003   6.1687900909174226E-002
   7.0746314550150713E-003  -1.9408511284708121E-003   6.2899638277116254E-002
   6.9632655926344907E-003  -2.0285055657420087E-003   6.4244581068902268E-002
   7.9258735082455428E-005  -7.9478384030398641E-005   6.0269386465253108E-002
   1.1725186390293754E-004  -1.0231262176980602E-004   6.1215675562922803E-002
   1.5524499272341792E-004  -1.4128480736634239E-004   6.2327477219150600E-002
   1.9323812154389873E-004  -1.9639494081998259E-004   6.3604791433936519E-002
   2.3123125036438041E-004  -2.6764302213075353E-004   6.5047618207280555E-002
   2.7867097855948833E-002  -7.3110931965758574E-003   6.1860584045401290E-002
   2.7060119602338131E-002  -7.3715979354930933E-003   6.1542586198029589E-002
   2.6253141348727409E-002  -7.3609921862546751E-003   6.1405150234825290E-002
   2.5446163095116697E-002  -7.2792759488603635E-003   6.1448276155788434E-002
   2.4639184841505984E-002  -7.1264492233102383E-003   6.1671963960918896E-002
   2.0781198895426713E-002  -5.5502306529645468E-003   6.2651063987962691E-002
   2.0170272419235493E-002  -5.6161321406769937E-003   6.2528038914015441E-002
   1.9559345943044266E-002  -5.6300881017017947E-003   6.2616555510739691E-002
   1.8948419466853050E-002  -5.5920985360389469E-003   6.2916613778135497E-002
   1.8337492990661834E-002  -5.5021634436884792E-003   6.3428213716202941E-002
   1.3813254807655273E-002  -3.7893681093532916E-003   6.3445729662462994E-002
   1.3429359895387672E-002  -3.8606663458608317E-003   6.3498512400471996E-002
   1.3045464983120069E-002  -3.8991840171489142E-003   6.3793816595656694E-002
   1.2661570070852460E-002  -3.9049211232175304E-003   6.4331642248017087E-002
   1.2277675158584866E-002  -3.8778776640666923E-003   6.5111989357553177E-002
   6.9632655926344907E-003  -2.0285055657420087E-003   6.4244581068902268E-002
   6.8373820307946398E-003  -2.1052005510447010E-003   6.4454006657399421E-002
   6.7114984689547949E-003  -2.1682799325960060E-003   6.4936933489576368E-002
   6.5856149071149474E-003  -2.2177437103961138E-003   6.5693361565433178E-002
   6.4597313452751009E-003  -2.2535918844448777E-003   6.6723290884969685E-002
   2.3123125036438041E-004  -2.6764302213075353E-004   6.5047618207280555E-002
   3.9433882545641605E-004  -3.4973475622857020E-004   6.5394521684797605E-002
   5.5744640054845515E-004  -4.3737584804316720E-004   6.6045906192498616E-002
   7.2055397564049425E-004  -5.3056629757470067E-004   6.7001771730383630E-002
   8.8366155073252989E-004  -6.2930610482311855E-004   6.8262118298452523E-002
   2.4639184841505984E-002  -7.1264492233102383E-003   6.1671963960918896E-002
   2.3966575319435676E-002  -6.9297872393865034E-003   6.1274679201165277E-002
   2.3293965797365361E-002  -6.7165652268712378E-003   6.1031446162604724E-002
   2.2621356275295049E-002  -6.4867831857644519E-003   6.0942264845237237E-002
   2.1948746753224738E-002  -6.2404411160660311E-003   6.1007135249062927E-002
   1.8337492990661834E-002  -5.5021634436884792E-003   6.3428213716202941E-002
   1.7817096964749660E-002  -5.3810301869700178E-003   6.3284470165501358E-002
   1.7296700938837502E-002  -5.2494461282032029E-003   6.3291101885922949E-002
   1.6776304912925331E-002  -5.1074112673878784E-003   6.3448108877467657E-002
   1.6255908887013178E-002  -4.9549256045243739E-003   6.3755491140135678E-002
   1.2277675158584866E-002  -3.8778776640666923E-003   6.5111989357553177E-002
   1.1905816178760877E-002  -3.8322731345535183E-003   6.5215677789360604E-002
   1.1533957198936887E-002  -3.7823270295350639E-003   6.5466065042221216E-002
   1.1162098219112907E-002  -3.7280393490115010E-003   6.5863151116135069E-002
   1.0790239239288915E-002  -3.6694100929826612E-003   6.6406936011102008E-002
   6.4597313452751009E-003  -2.2535918844448777E-003   6.6723290884969685E-002
   6.2327329614693117E-003  -2.2835160821370118E-003   6.7068302072743030E-002
   6.0057345776635251E-003  -2.3152079308669769E-003   6.7556335631499501E-002
   5.7787361938577411E-003  -2.3486674306349977E-003   6.8187391561239138E-002
   5.5517378100519502E-003  -2.3838945814409762E-003   6.8961469861962110E-002
   8.8366155073252989E-004  -6.2930610482311855E-004   6.8262118298452523E-002
   7.9784731287497329E-004  -7.3475902972051921E-004   6.8842343015648455E-002
   7.1203307501740976E-004  -8.4808883219896630E-004   6.9561913653757676E-002
   6.2621883715985142E-004  -9.6929551225861076E-004   7.0420830212780117E-002
   5.4040459930228962E-004  -1.0983790698992912E-003   7.1419092692715735E-002
   2.1948746753224738E-002  -6.2404411160660311E-003   6.1007135249062927E-002
   2.0963474785022668E-002  -5.9747723873360414E-003   6.0567791682481054E-002
   1.9978202816820584E-002  -5.6870103691345486E-003   6.0460026417702040E-002
   1.8992930848618521E-002  -5.3771550614611086E-003   6.0683839454726080E-002
   1.8007658880416430E-002  -5.0452064643161099E-003   6.1239230793552979E-002
   1.6255908887013178E-002  -4.9549256045243739E-003   6.3755491140135678E-002
   1.5576582028533910E-002  -4.7905314284942824E-003   6.3535412356839016E-002
   1.4897255170054646E-002  -4.6127710281798906E-003   6.3595645491185168E-002
   1.4217928311575383E-002  -4.4216444035811084E-003   6.3936190543174010E-002
   1.3538601453096114E-002  -4.2171515546977623E-003   6.4557047512805305E-002
   1.0790239239288915E-002  -3.6694100929826612E-003   6.6406936011102008E-002
   1.0365591106372266E-002  -3.6062904696526205E-003   6.6397394945903396E-002
   9.9409429734556021E-003  -3.5385316872253991E-003   6.6616899414187358E-002
   9.5162948405389438E-003  -3.4661337457010527E-003   6.7065449415953798E-002
   9.0916467076222855E-003  -3.3890966450793869E-003   6.7743044951202785E-002
   5.5517378100519502E-003  -2.3838945814409762E-003   6.8961469861962110E-002
   5.3305020185377017E-003  -2.4220495108109100E-003   6.9153739449674290E-002
   5.1092662270234516E-003  -2.4642923462709632E-003   6.9523788186708693E-002
   4.8880304355092049E-003  -2.5106230878209415E-003   7.0071616073065612E-002
   4.6667946439949521E-003  -2.5610417354610254E-003   7.0797223108744645E-002
   5.4040459930228962E-004  -1.0983790698992912E-003   7.1419092692715735E-002
   4.7131476503024100E-004  -1.2378085519692272E-003   7.1804445868151517E-002
   4.0222493075819238E-004  -1.3900530053162774E-003   7.2316311808749340E-002
   3.3313509648614636E-004  -1.5551124299409760E-003   7.2954690514509229E-002
   2.6404526221409513E-004  -1.7329868258426639E-003   7.3719581985431271E-002
   1.8007658880416430E-002  -5.0452064643161099E-003   6.1239230793552979E-002
   1.7205268295876056E-002  -4.7432722939357574E-003   6.0822380758332462E-002
   1.6402877711335702E-002  -4.5234602665568391E-003   6.0332911574531717E-002
   1.5600487126795338E-002  -4.3857703821791674E-003   5.9770823242150856E-002
   1.4798096542254988E-002  -4.3302026408024719E-003   5.9136115761189878E-002
   1.3538601453096114E-002  -4.2171515546977623E-003   6.4557047512805305E-002
   1.2747921428450680E-002  -4.0390156360024798E-003   6.4172528754075697E-002
   1.1957241403805260E-002  -3.9269598019677776E-003   6.3884050263715866E-002
   1.1166561379159827E-002  -3.8809840525938499E-003   6.3691612041726131E-002
   1.0375881354514394E-002  -3.9010883878802249E-003   6.3595214088106422E-002
   9.0916467076222855E-003  -3.3890966450793869E-003   6.7743044951202785E-002
   8.4813366598219912E-003  -3.3347589780691606E-003   6.7406899527304165E-002
   7.8710266120216952E-003  -3.3304593373788688E-003   6.7335453788725963E-002
   7.2607165642213966E-003  -3.3761977230085290E-003   6.7528707735467930E-002
   6.6504065164211083E-003  -3.4719741349582278E-003   6.7986661367530080E-002
   4.6667946439949521E-003  -2.5610417354610254E-003   7.0797223108744645E-002
   4.4055139899899934E-003  -2.6305023201356956E-003   7.0525493078018142E-002
   4.1442333359850304E-003  -2.7339588727898281E-003   7.0687122149561937E-002
   3.8829526819800717E-003  -2.8714113934232097E-003   7.1282110323376294E-002
   3.6216720279751138E-003  -3.0428598820361613E-003   7.2310457599461100E-002
   2.6404526221409513E-004  -1.7329868258426639E-003   7.3719581985431271E-002
   5.2045341895467709E-004  -1.9262456622025081E-003   7.3528309406217296E-002
   7.7686157569525210E-004  -2.1374584082008707E-003   7.3939055346223970E-002
   1.0332697324358271E-003  -2.3666250638379946E-003   7.4951819805451209E-002
   1.2896778891764091E-003  -2.6137456291139838E-003   7.6566602783899151E-002
   1.4798096542254988E-002  -4.3302026408024719E-003   5.9136115761189878E-002
   1.3850270343928633E-002  -3.8742897961948630E-003   5.9817023724402396E-002
   1.2902444145602314E-002  -2.5355646021241046E-003   6.1098265990018136E-002
   1.1954617947275991E-002  -3.1402705859034583E-004   6.2979842558036750E-002
   1.1006791748949640E-002   2.7903228344070552E-003   6.5461753428458058E-002
   1.0375881354514394E-002  -3.9010883878802249E-003   6.3595214088106422E-002
   9.9250380626652798E-003  -3.8173390033713894E-003   6.5447810941898221E-002
   9.4741947708161869E-003  -3.4598020946102065E-003   6.7694039306241405E-002
   9.0233514789670802E-003  -2.8284776615974498E-003   7.0333899181135917E-002
   8.5725081871179665E-003  -1.9233657043326025E-003   7.3367390566582369E-002
   6.6504065164211083E-003  -3.4719741349582278E-003   6.7986661367530080E-002
   6.4898433391977484E-003  -3.7603882105475273E-003   7.0401922286689581E-002
   6.3292801619743901E-003  -4.3840395870963153E-003   7.3004111924549087E-002
   6.1687169847510518E-003  -5.3429282646045555E-003   7.5793230281108542E-002
   6.0081538075276858E-003  -6.6370542430721491E-003   7.8769277356368184E-002
   3.6216720279751138E-003  -3.0428598820361613E-003   7.2310457599461100E-002
   3.5446861735260390E-003  -3.7034374177237483E-003   7.4679357758776974E-002
   3.4677003190769717E-003  -5.3082770795823096E-003   7.7028483844941459E-002
   3.3907144646279164E-003  -7.8573788676116613E-003   7.9357835857954639E-002
   3.3137286101788364E-003  -1.1350742781811751E-002   8.1667413797816002E-002
   1.2896778891764091E-003  -2.6137456291139838E-003   7.6566602783899151E-002
   1.0895665656501588E-003  -3.6464866249001360E-003   7.8280117358160317E-002
   8.8945524212390159E-004  -6.2325145720686093E-003   7.9767155067418272E-002
   6.8934391859764264E-004  -1.0371829470618897E-002   8.1027715911673431E-002
   4.8923259507140104E-004  -1.6064431320551353E-002   8.2061799890925879E-002
   1.1190156859887390E-005   0.0000000000000000        2.8446195969083096E-002
   1.6146418899500026E-005  -6.0490519065781526E-006   3.3410106532933657E-002
   2.1102680939113095E-005  -1.3148376503097081E-005   3.8383205529933302E-002
   2.6058942978724646E-005  -2.1297973789557653E-005   4.3365492960082040E-002
   3.1015205018337932E-005  -3.0497843765957267E-005   4.8356968823379885E-002
  -6.7893350233525444E-003   0.0000000000000000        2.8505190221119473E-002
  -6.8151215966928023E-003   1.4146977481501333E-004   3.3540041016636719E-002
  -6.8409081700330603E-003   3.1885425999133958E-004   3.8504217708245130E-002
  -6.8666947433733182E-003   5.3215345552896920E-004   4.3397720295944707E-002
  -6.8924813167135753E-003   7.8136736142792040E-004   4.8220548779735466E-002
  -1.3496420922205007E-002   0.0000000000000000        2.8693220808351811E-002
  -1.3632812867983063E-002   2.8898860153660612E-004   3.3835976818586994E-002
  -1.3769204813761116E-002   6.5085689648577451E-004   3.8828196187855435E-002
  -1.3905596759539172E-002   1.0856048848475021E-003   4.3669878916157097E-002
  -1.4041988705317227E-002   1.5932325666217946E-003   4.8361025003492000E-002
  -2.0110067539697508E-002   0.0000000000000000        2.9010287730780123E-002
  -2.0436927394971278E-002   4.3650742825819783E-004   3.4297913938784501E-002
  -2.0763787250245060E-002   9.8285953298020770E-004   3.9355140968764184E-002
  -2.1090647105518837E-002   1.6390563141660355E-003   4.4181968820719196E-002
  -2.1417506960792615E-002   2.4050977718156688E-003   4.8778397494649517E-002
  -2.6630274875830036E-002   0.0000000000000000        2.9456390988404395E-002
  -2.7227465177657464E-002   5.8402625497979040E-004   3.4925852377229213E-002
  -2.7824655479484886E-002   1.3148621694746461E-003   4.0085052050971424E-002
  -2.8421845781312311E-002   2.1925077434845636E-003   4.4933990009631025E-002
  -2.9019036083139729E-002   3.2169629770095482E-003   4.9472666253208016E-002
   3.1015205018337932E-005  -3.0497843765957267E-005   4.8356968823379885E-002
   4.3076087534368174E-005  -4.0852882273513871E-005   5.1531804253284859E-002
   5.5136970050397114E-005  -5.2467985153438479E-005   5.4575485670232057E-002
   6.7197852566425404E-005  -6.5343152405738028E-005   5.7488013074221481E-002
   7.9258735082455428E-005  -7.9478384030398641E-005   6.0269386465253108E-002
  -6.8924813167135753E-003   7.8136736142792040E-004   4.8220548779735466E-002
  -6.9842441334218878E-003   1.0272955701825536E-003   5.1174830571991001E-002
  -7.0760069501301995E-003   1.2307376742872345E-003   5.4052618978755622E-002
  -7.1677697668385111E-003   1.3916936737420047E-003   5.6853914000029343E-002
  -7.2595325835468219E-003   1.5101635685468018E-003   5.9578715635812199E-002
  -1.4041988705317227E-002   1.5932325666217946E-003   4.8361025003492000E-002
  -1.4182914593782993E-002   2.0954440226386142E-003   5.1053527117820525E-002
  -1.4323840482248763E-002   2.5139433337279214E-003   5.3724196474125033E-002
  -1.4464766370714527E-002   2.8487304998897197E-003   5.6373033072405501E-002
  -1.4605692259180297E-002   3.0998055211239953E-003   5.9000036912661993E-002
  -2.1417506960792615E-002   2.4050977718156688E-003   4.8778397494649517E-002
  -2.1552935293548948E-002   3.1635924750946748E-003   5.1167893890773447E-002
  -2.1688363626305288E-002   3.7971489931686048E-003   5.3590218156340248E-002
  -2.1823791959061627E-002   4.3057673260374560E-003   5.6045370291349927E-002
  -2.1959220291817967E-002   4.6894474737011922E-003   5.8533350295802464E-002
  -2.9019036083139729E-002   3.2169629770095482E-003   4.9472666253208016E-002
  -2.9094306232719760E-002   4.2317409275507397E-003   5.1517930890849779E-002
  -2.9169576382299778E-002   5.0803546526092813E-003   5.3650684025401303E-002
  -2.9244846531879809E-002   5.7628041521851740E-003   5.5870925656862587E-002
  -2.9320116681459826E-002   6.2790894262783822E-003   5.8178655785233617E-002
   7.9258735082455428E-005  -7.9478384030398641E-005   6.0269386465253108E-002
   1.1725186390293754E-004  -1.0231262176980602E-004   6.1215675562922803E-002
   1.5524499272341792E-004  -1.4128480736634239E-004   6.2327477219150600E-002
   1.9323812154389873E-004  -1.9639494081998259E-004   6.3604791433936519E-002
   2.3123125036438041E-004  -2.6764302213075353E-004   6.5047618207280555E-002
  -7.2595325835468219E-003   1.5101635685468018E-003   5.9578715635812199E-002
  -7.0773105685994625E-003   1.5917466708136110E-003   6.0472639989904896E-002
  -6.8950885536521005E-003   1.6420422926543901E-003   6.1489509557693271E-002
  -6.7128665387047350E-003   1.6610504340690366E-003   6.2629324339177297E-002
  -6.5306445237573781E-003   1.6487710950576356E-003   6.3892084334356919E-002
  -1.4605692259180297E-002   3.0998055211239953E-003   5.9000036912661993E-002
  -1.4321808702968491E-002   3.2858059633970264E-003   5.9826446990608746E-002
  -1.4037925146756686E-002   3.4253693926750376E-003   6.0733234937388685E-002
  -1.3754041590544882E-002   3.5184958089580416E-003   6.1720400753001892E-002
  -1.3470158034333077E-002   3.5651852122460664E-003   6.2787944437448298E-002
  -2.1959220291817967E-002   4.6894474737011922E-003   5.8533350295802464E-002
  -2.1616242539204158E-002   4.9798652559804287E-003   5.9277096565034292E-002
  -2.1273264786590352E-002   5.2086964926957554E-003   6.0058653358236937E-002
  -2.0930287033976543E-002   5.3759411838470673E-003   6.0878020675410364E-002
  -2.0587309281362740E-002   5.4815993294345042E-003   6.1735198516554568E-002
  -2.9320116681459826E-002   6.2790894262783822E-003   5.8178655785233617E-002
  -2.8960612077306450E-002   6.6739245485638483E-003   5.8824588713181622E-002
  -2.8601107473153083E-002   6.9920235927164124E-003   5.9465764820237993E-002
  -2.8241602868999707E-002   7.2333865587360918E-003   6.0102184106402702E-002
  -2.7882098264846340E-002   7.3980134466229003E-003   6.0733846571675756E-002
   2.3123125036438041E-004  -2.6764302213075353E-004   6.5047618207280555E-002
   3.9433882545641605E-004  -3.4973475622857020E-004   6.5394521684797605E-002
   5.5744640054845515E-004  -4.3737584804316720E-004   6.6045906192498616E-002
   7.2055397564049425E-004  -5.3056629757470067E-004   6.7001771730383630E-002
   8.8366155073252989E-004  -6.2930610482311855E-004   6.8262118298452523E-002
  -6.5306445237573781E-003   1.6487710950576356E-003   6.3892084334356919E-002
  -6.1077958301280610E-003   1.6202297628700735E-003   6.4013217231951761E-002
  -5.6849471364987421E-003   1.5904519247560873E-003   6.4349351336437211E-002
  -5.2620984428694301E-003   1.5594375807157128E-003   6.4900486647813227E-002
  -4.8392497492401130E-003   1.5271867307490583E-003   6.5666623166079893E-002
  -1.3470158034333077E-002   3.5651852122460664E-003   6.2787944437448298E-002
  -1.2877048045459832E-002   3.5901942819686339E-003   6.2687619606911410E-002
  -1.2283938056586591E-002   3.6182796975553419E-003   6.2712816159971763E-002
  -1.1690828067713349E-002   3.6494414590062096E-003   6.2863534096629356E-002
  -1.1097718078840104E-002   3.6836795663212490E-003   6.3139773416884204E-002
  -2.0587309281362740E-002   5.4815993294345042E-003   6.1735198516554568E-002
  -1.9913417820538907E-002   5.5601588010671943E-003   6.1417728809676449E-002
  -1.9239526359715091E-002   5.6461074703546520E-003   6.1136300663102217E-002
  -1.8565634898891268E-002   5.7394453372967063E-003   6.0890914076831865E-002
  -1.7891743438067438E-002   5.8401724018934328E-003   6.0681569050865490E-002
  -2.7882098264846340E-002   7.3980134466229003E-003   6.0733846571675756E-002
  -2.7216905155365290E-002   7.5301233201658310E-003   6.0203544840246911E-002
  -2.6551712045884239E-002   7.6739352431539030E-003   5.9619804845828649E-002
  -2.5886518936403188E-002   7.8294492155871476E-003   5.8982626588420933E-002
  -2.5221325826922145E-002   7.9966652374655889E-003   5.8292010068023731E-002
   8.8366155073252989E-004  -6.2930610482311855E-004   6.8262118298452523E-002
   7.9784731287497329E-004  -7.3475902972051921E-004   6.8842343015648455E-002
   7.1203307501740976E-004  -8.4808883219896630E-004   6.9561913653757676E-002
   6.2621883715985142E-004  -9.6929551225861076E-004   7.0420830212780117E-002
   5.4040459930228962E-004  -1.0983790698992912E-003   7.1419092692715735E-002
  -4.8392497492401130E-003   1.5271867307490583E-003   6.5666623166079893E-002
  -4.7718883844417980E-003   1.4844216646817260E-003   6.5711286133463095E-002
  -4.7045270196434770E-003   1.4218646723394429E-003   6.5922954385244786E-002
  -4.6371656548451629E-003   1.3395157537220391E-003   6.6301627921425077E-002
  -4.5698042900468479E-003   1.2373749088298858E-003   6.6847306742003731E-002
  -1.1097718078840104E-002   3.6836795663212490E-003   6.3139773416884204E-002
  -1.0849521747900638E-002   3.7036023590839365E-003   6.2636959585760779E-002
  -1.0601325416961167E-002   3.6918181768777654E-003   6.2328810402521168E-002
  -1.0353129086021703E-002   3.6483270197027158E-003   6.2215325867165293E-002
  -1.0104932755082230E-002   3.5731288875589517E-003   6.2296505979693301E-002
  -1.7891743438067438E-002   5.8401724018934328E-003   6.0681569050865490E-002
  -1.7435052777501556E-002   5.9227830534861643E-003   5.9619363372541589E-002
  -1.6978362116935652E-002   5.9617716814161868E-003   5.8779481705586792E-002
  -1.6521671456369749E-002   5.9571382856834342E-003   5.8161924050001021E-002
  -1.6064980795803856E-002   5.9088828662881010E-003   5.7766690405784284E-002
  -2.5221325826922145E-002   7.9966652374655889E-003   5.8292010068023731E-002
  -2.4528481473244539E-002   8.1419637478883783E-003   5.6658497493805499E-002
  -2.3835637119566933E-002   8.2317251859545457E-003   5.5274968294441604E-002
  -2.3142792765889333E-002   8.2659495516640407E-003   5.4141422469932109E-002
  -2.2449948412211724E-002   8.2446368450171947E-003   5.3257860020276826E-002
   5.4040459930228962E-004  -1.0983790698992912E-003   7.1419092692715735E-002
   4.7131476503024100E-004  -1.2378085519692272E-003   7.1804445868151517E-002
   4.0222493075819238E-004  -1.3900530053162774E-003   7.2316311808749340E-002
   3.3313509648614636E-004  -1.5551124299409760E-003   7.2954690514509229E-002
   2.6404526221409513E-004  -1.7329868258426639E-003   7.3719581985431271E-002
  -4.5698042900468479E-003   1.2373749088298858E-003   6.6847306742003731E-002
  -4.4819236579473325E-003   1.1188501806007889E-003   6.6825302637124828E-002
  -4.3940430258478189E-003   9.8734961197333854E-004   6.6990726699826905E-002
  -4.3061623937483010E-003   8.4287320294741848E-004   6.7343578930110087E-002
  -4.2182817616487900E-003   6.8542095352286392E-004   6.7883859327974194E-002
  -1.0104932755082230E-002   3.5731288875589517E-003   6.2296505979693301E-002
  -9.7991662541922295E-003   3.4755089131708189E-003   6.1866983725378487E-002
  -9.4933997533022344E-003   3.3647522292630655E-003   6.1685805041063552E-002
  -9.1876332524122323E-003   3.2408588358355354E-003   6.1752969926748592E-002
  -8.8818667515222303E-003   3.1038287328883918E-003   6.2068478382433540E-002
  -1.6064980795803856E-002   5.9088828662881010E-003   5.7766690405784284E-002
  -1.5480413023704443E-002   5.8321676457409252E-003   5.6929489132912417E-002
  -1.4895845251605047E-002   5.7421548465527092E-003   5.6401546832459404E-002
  -1.4311277479505632E-002   5.6388444687237912E-003   5.6182863504425216E-002
  -1.3726709707406238E-002   5.5222365122539752E-003   5.6273439148809855E-002
  -2.2449948412211724E-002   8.2446368450171947E-003   5.3257860020276826E-002
  -2.1525663966483997E-002   8.1888263783108650E-003   5.2012818859726667E-002
  -2.0601379520756254E-002   8.1195574638424362E-003   5.1137952074014226E-002
  -1.9677095075028520E-002   8.0368301016121094E-003   5.0633259663139640E-002
  -1.8752810629300787E-002   7.9406442916194475E-003   5.0498741627102828E-002
   2.6404526221409513E-004  -1.7329868258426639E-003   7.3719581985431271E-002
   5.2045341895467709E-004  -1.9262456622025081E-003   7.3528309406217296E-002
   7.7686157569525210E-004  -2.1374584082008707E-003   7.3939055346223970E-002
   1.0332697324358271E-003  -2.3666250638379946E-003   7.4951819805451209E-002
   1.2896778891764091E-003  -2.6137456291139838E-003   7.6566602783899151E-002
  -4.2182817616487900E-003   6.8542095352286392E-004   6.7883859327974194E-002
  -3.4768242471668875E-003   5.4450125722435572E-004   6.7408403139776113E-002
  -2.7353667326849816E-003   4.4962250757610289E-004   6.7301027147840059E-002
  -1.9939092182030774E-003   4.0078470457819565E-004   6.7561731352166129E-002
  -1.2524517037211733E-003   3.9798784823075195E-004   6.8190515752754088E-002
  -8.8818667515222303E-003   3.1038287328883918E-003   6.2068478382433540E-002
  -7.8892982022576112E-003   3.0152481766510253E-003   6.1372833441540653E-002
  -6.8967296529930102E-003   3.0367034233530626E-003   6.0811330373950978E-002
  -5.9041611037284041E-003   3.1681944729944934E-003   6.0383969179664786E-002
  -4.9115925544637971E-003   3.4097213255751546E-003   6.0090749858681902E-002
  -1.3726709707406238E-002   5.5222365122539752E-003   5.6273439148809855E-002
  -1.2716968446317542E-002   5.4859950960776810E-003   5.5421600311510825E-002
  -1.1707227185228845E-002   5.6237843391300571E-003   5.4469965024556644E-002
  -1.0697485924140141E-002   5.9356042414106264E-003   5.3418533287947309E-002
  -9.6877446630514417E-003   6.4214548029197793E-003   5.2267305101682475E-002
  -1.8752810629300787E-002   7.9406442916194475E-003   5.0498741627102828E-002
  -1.7959834979346608E-002   7.9567420155045587E-003   4.9554703749686846E-002
  -1.7166859329392457E-002   8.2108652549070793E-003   4.8276931099657056E-002
  -1.6373883679438306E-002   8.7030140098270301E-003   4.6665423677013457E-002
  -1.5580908029484135E-002   9.4331882802641820E-003   4.4720181481756049E-002
   1.2896778891764091E-003  -2.6137456291139838E-003   7.6566602783899151E-002
   1.0895665656501588E-003  -3.6464866249001360E-003   7.8280117358160317E-002
   8.8945524212390159E-004  -6.2325145720686093E-003   7.9767155067418272E-002
   6.8934391859764264E-004  -1.0371829470618897E-002   8.1027715911673431E-002
   4.8923259507140104E-004  -1.6064431320551353E-002   8.2061799890925879E-002
  -1.2524517037211733E-003   3.9798784823075195E-004   6.8190515752754088E-002
  -1.5507953657629466E-003   3.1033159562932067E-006   6.7723511970714384E-002
  -1.8491390278047165E-003  -1.2219975148220485E-003   6.7286520376646591E-002
  -2.1474826898464985E-003  -3.2773146441047035E-003   6.6879540970550752E-002
  -2.4458263518882598E-003  -6.1628480718912693E-003   6.6502573752426741E-002
  -4.9115925544637971E-003   3.4097213255751546E-003   6.0090749858681902E-002
  -5.0516795020463107E-003   3.6526932568127501E-003   5.8166298373219627E-002
  -5.1917664496288190E-003   3.7885195424241652E-003   5.6528348128703845E-002
  -5.3318533972113308E-003   3.8172001824094311E-003   5.5176899125134744E-002
  -5.4719403447938408E-003   3.7387351767688148E-003   5.4111951362512511E-002
  -9.6877446630514417E-003   6.4214548029197793E-003   5.2267305101682475E-002
  -9.4130858431999212E-003   7.3022831976690822E-003   4.9608476565675533E-002
  -9.1384270233483677E-003   8.7990365996702194E-003   4.7492638323589936E-002
  -8.8637682034968333E-003   1.0911715008923651E-002   4.5919790375425797E-002
  -8.5891093836453006E-003   1.3640318425428899E-002   4.4889932721183190E-002
  -1.5580908029484135E-002   9.4331882802641820E-003   4.4720181481756049E-002
  -1.4635014389223776E-002   1.0951873138525525E-002   4.2050046548082254E-002
  -1.3689120748963411E-002   1.3809553656916745E-002   4.0179390961304851E-002
  -1.2743227108703039E-002   1.8006229835437683E-002   3.9108214721423701E-002
  -1.1797333468442681E-002   2.3541901674088983E-002   3.8836517828438666E-002
  -2.6630274875830036E-002   0.0000000000000000        2.9456390988404395E-002
  -2.7227465177657464E-002   5.8402625497979040E-004   3.4925852377229213E-002
  -2.7824655479484886E-002   1.3148621694746461E-003   4.0085052050971424E-002
  -2.8421845781312311E-002   2.1925077434845636E-003   4.4933990009631025E-002
  -2.9019036083139729E-002   3.2169629770095482E-003   4.9472666253208016E-002
  -3.3393102972989211E-002   0.0000000000000000        3.0165536059241063E-002
  -3.4235283505054809E-002   9.5922261497706756E-004   3.5246546857780600E-002
  -3.5077464037120407E-002   2.0215530270060959E-003   4.0147838910926381E-002
  -3.5919644569186011E-002   3.1869912360870866E-003   4.4869412218678420E-002
  -3.6761825101251602E-002   4.4555372422200468E-003   4.9411266781036738E-002
  -4.0734611873561616E-002   0.0000000000000000        3.1271728421306572E-002
  -4.1691239666176515E-002   1.3344189749743447E-003   3.5920586767097695E-002
  -4.2647867458791427E-002   2.7282438845375474E-003   4.0520269337183959E-002
  -4.3604495251406333E-002   4.1814747286896105E-003   4.5070776131565342E-002
  -4.4561123044021232E-002   5.6941115074305272E-003   4.9572107150241872E-002
  -4.8654801577547278E-002   0.0000000000000000        3.2774968074600896E-002
  -4.9595333661022617E-002   1.7096153349716228E-003   3.6947972105180533E-002
  -5.0535865744497949E-002   3.4349347420689993E-003   4.1202343329744158E-002
  -5.1476397827973294E-002   5.1759582212921353E-003   4.5538081748291791E-002
  -5.2416929911448619E-002   6.9326857726410198E-003   4.9955187360823439E-002
  -5.7153672084946164E-002   0.0000000000000000        3.4675255019124059E-002
  -5.7947565489593067E-002   2.0848116949688991E-003   3.8328702872029087E-002
  -5.8741458894239970E-002   4.1416255996004504E-003   4.2194060888606985E-002
  -5.9535352298886873E-002   6.1704417138946574E-003   4.6271329068857753E-002
  -6.0329245703533763E-002   8.1712600378515063E-003   5.0560507412781404E-002
  -2.9019036083139729E-002   3.2169629770095482E-003   4.9472666253208016E-002
  -2.9094306232719760E-002   4.2317409275507397E-003   5.1517930890849779E-002
  -2.9169576382299778E-002   5.0803546526092813E-003   5.3650684025401303E-002
  -2.9244846531879809E-002   5.7628041521851740E-003   5.5870925656862587E-002
  -2.9320116681459826E-002   6.2790894262783822E-003   5.8178655785233617E-002
  -3.6761825101251602E-002   4.4555372422200468E-003   4.9411266781036738E-002
  -3.6785772503188069E-002   5.6884286926865511E-003   5.1193566177820796E-002
  -3.6809719905124542E-002   6.7469032347681999E-003   5.2991022572982188E-002
  -3.6833667307061009E-002   7.6309608684650082E-003   5.4803635966520964E-002
  -3.6857614708997483E-002   8.3406015937769612E-003   5.6631406358437039E-002
  -4.4561123044021232E-002   5.6941115074305272E-003   4.9572107150241872E-002
  -4.4606079196846553E-002   7.1451164578223546E-003   5.1083188623266010E-002
  -4.4651035349671866E-002   8.4134518169271325E-003   5.2537095596135099E-002
  -4.4695991502497173E-002   9.4991175847448563E-003   5.3933828068849159E-002
  -4.4740947655322494E-002   1.0402113761275516E-002   5.5273386041408128E-002
  -5.2416929911448619E-002   6.9326857726410198E-003   4.9955187360823439E-002
  -5.2555226313695191E-002   8.6018042229581496E-003   5.1186798227185450E-002
  -5.2693522715941750E-002   1.0080000399086044E-002   5.2288903094860034E-002
  -5.2831819118188329E-002   1.1367274301024684E-002   5.3261501963847137E-002
  -5.2970115520434895E-002   1.2463625928774069E-002   5.4104594834146820E-002
  -6.0329245703533763E-002   8.1712600378515063E-003   5.0560507412781404E-002
  -6.0633213853733998E-002   1.0058491988093965E-002   5.1504394989579122E-002
  -6.0937182003934214E-002   1.1746548981244978E-002   5.2246445069156974E-002
  -6.1241150154134436E-002   1.3235431017304544E-002   5.2786657651514982E-002
  -6.1545118304334664E-002   1.4525138096272636E-002   5.3125032736653130E-002
  -2.9320116681459826E-002   6.2790894262783822E-003   5.8178655785233617E-002
  -2.8960612077306450E-002   6.6739245485638483E-003   5.8824588713181622E-002
  -2.8601107473153083E-002   6.9920235927164124E-003   5.9465764820237993E-002
  -2.8241602868999707E-002   7.2333865587360918E-003   6.0102184106402702E-002
  -2.7882098264846340E-002   7.3980134466229003E-003   6.0733846571675756E-002
  -3.6857614708997483E-002   8.3406015937769612E-003   5.6631406358437039E-002
  -3.6443742577675173E-002   8.8898858817476091E-003   5.6879112693442979E-002
  -3.6029870446352877E-002   9.2928742034206306E-003   5.7240310903678447E-002
  -3.5615998315030595E-002   9.5495665587959216E-003   5.7715000989143367E-002
  -3.5202126183708285E-002   9.6599629478735377E-003   5.8303182949837822E-002
  -4.4740947655322494E-002   1.0402113761275516E-002   5.5273386041408128E-002
  -4.4154459300710096E-002   1.1105847214931417E-002   5.5053305895307172E-002
  -4.3567970946097719E-002   1.1593724814124833E-002   5.5064966320556887E-002
  -4.2981482591485341E-002   1.1865746558855736E-002   5.5308367317157277E-002
  -4.2394994236872950E-002   1.1921912449124168E-002   5.5783508885108357E-002
  -5.2970115520434895E-002   1.2463625928774069E-002   5.4104594834146820E-002
  -5.2092762246411260E-002   1.3321808548115186E-002   5.3347168318774188E-002
  -5.1215408972387626E-002   1.3894575424829044E-002   5.2939731070873353E-002
  -5.0338055698363984E-002   1.4181926558915557E-002   5.2882283090444390E-002
  -4.9460702424340364E-002   1.4183861950374788E-002   5.3174824377487252E-002
  -6.1545118304334664E-002   1.4525138096272636E-002   5.3125032736653130E-002
  -6.0258651414778611E-002   1.5537769881298992E-002   5.1760699963844005E-002
  -5.8972184525222578E-002   1.6195426035533249E-002   5.0864605154627873E-002
  -5.7685717635666517E-002   1.6498106558975371E-002   5.0436748309004728E-002
  -5.6399250746110484E-002   1.6445811451625450E-002   5.0477129426974590E-002
  -2.7882098264846340E-002   7.3980134466229003E-003   6.0733846571675756E-002
  -2.7216905155365290E-002   7.5301233201658310E-003   6.0203544840246911E-002
  -2.6551712045884239E-002   7.6739352431539030E-003   5.9619804845828649E-002
  -2.5886518936403188E-002   7.8294492155871476E-003   5.8982626588420933E-002
  -2.5221325826922145E-002   7.9966652374655889E-003   5.8292010068023731E-002
  -3.5202126183708285E-002   9.6599629478735377E-003   5.8303182949837822E-002
  -3.4531654219410693E-002   9.6872134626282136E-003   5.7954611335460746E-002
  -3.3861182255113122E-002   9.6944681950346910E-003   5.7670035693706198E-002
  -3.3190710290815537E-002   9.6817271450930567E-003   5.7449456024574165E-002
  -3.2520238326517958E-002   9.6489903128032517E-003   5.7292872328064584E-002
  -4.2394994236872950E-002   1.1921912449124168E-002   5.5783508885108357E-002
  -4.1601809182146871E-002   1.1844303605090614E-002   5.5584969555989683E-002
  -4.0808624127420784E-002   1.1715001146915564E-002   5.5567860435105532E-002
  -4.0015439072694711E-002   1.1534005074598980E-002   5.5732181522455813E-002
  -3.9222254017968618E-002   1.1301315388140928E-002   5.6077932818040639E-002
  -4.9460702424340364E-002   1.4183861950374788E-002   5.3174824377487252E-002
  -4.8427370043573809E-002   1.4001393747552963E-002   5.3094619501833674E-002
  -4.7394037662807267E-002   1.3735534098796395E-002   5.3313279070026559E-002
  -4.6360705282040726E-002   1.3386283004104924E-002   5.3830803082065941E-002
  -4.5327372901274178E-002   1.2953640463478570E-002   5.4647191537951681E-002
  -5.6399250746110484E-002   1.6445811451625450E-002   5.0477129426974590E-002
  -5.5008336803691514E-002   1.6158483890015389E-002   5.0483561172992783E-002
  -5.3617422861272551E-002   1.5756067050677228E-002   5.0906291598469385E-002
  -5.2226508918853581E-002   1.5238560933610798E-002   5.1745320703404471E-002
  -5.0835594976434598E-002   1.4605965538816268E-002   5.3000648487797841E-002
  -2.5221325826922145E-002   7.9966652374655889E-003   5.8292010068023731E-002
  -2.4528481473244539E-002   8.1419637478883783E-003   5.6658497493805499E-002
  -2.3835637119566933E-002   8.2317251859545457E-003   5.5274968294441604E-002
  -2.3142792765889333E-002   8.2659495516640407E-003   5.4141422469932109E-002
  -2.2449948412211724E-002   8.2446368450171947E-003   5.3257860020276826E-002
  -3.2520238326517958E-002   9.6489903128032517E-003   5.7292872328064584E-002
  -3.1591020722016826E-002   9.5901725351498768E-003   5.6198794847592937E-002
  -3.0661803117515707E-002   9.4991886491176333E-003   5.5327480493913943E-002
  -2.9732585513014585E-002   9.3760386547064433E-003   5.4678929267027596E-002
  -2.8803367908513459E-002   9.2207225519162772E-003   5.4253141166933999E-002
  -3.9222254017968618E-002   1.1301315388140928E-002   5.6077932818040639E-002
  -3.8083883410705670E-002   1.1038381322411493E-002   5.5546661395293108E-002
  -3.6945512803442715E-002   1.0766652112280752E-002   5.5210932851276651E-002
  -3.5807142196179746E-002   1.0486127757748764E-002   5.5070747185991170E-002
  -3.4668771588916805E-002   1.0196808258815471E-002   5.5126104399436687E-002
  -4.5327372901274178E-002   1.2953640463478570E-002   5.4647191537951681E-002
  -4.4007069539311050E-002   1.2486590109673037E-002   5.4702097136905992E-002
  -4.2686766177347894E-002   1.2034115575443911E-002   5.4925325366529665E-002
  -4.1366462815384759E-002   1.1596216860791070E-002   5.5316876226822673E-002
  -4.0046159453421590E-002   1.1172893965714609E-002   5.5876749717785050E-002
  -5.0835594976434598E-002   1.4605965538816268E-002   5.3000648487797841E-002
  -4.9360579107832966E-002   1.3934798896934636E-002   5.3665102072431636E-002
  -4.7885563239231314E-002   1.3301579038606959E-002   5.4470658039673103E-002
  -4.6410547370629662E-002   1.2706305963833403E-002   5.5417316389522284E-002
  -4.4935531502028017E-002   1.2148979672613747E-002   5.6505077121979108E-002
  -2.2449948412211724E-002   8.2446368450171947E-003   5.3257860020276826E-002
  -2.1525663966483997E-002   8.1888263783108650E-003   5.2012818859726667E-002
  -2.0601379520756254E-002   8.1195574638424362E-003   5.1137952074014226E-002
  -1.9677095075028520E-002   8.0368301016121094E-003   5.0633259663139640E-002
  -1.8752810629300787E-002   7.9406442916194475E-003   5.0498741627102828E-002
  -2.8803367908513459E-002   9.2207225519162772E-003   5.4253141166933999E-002
  -2.7542223736064415E-002   9.0387759417427105E-003   5.3445524497090613E-002
  -2.6281079563615355E-002   8.8357344251811173E-003   5.2941452905852199E-002
  -2.5019935391166304E-002   8.6115980022312601E-003   5.2740926393218659E-002
  -2.3758791218717254E-002   8.3663666728934771E-003   5.2843944959189981E-002
  -3.4668771588916805E-002   1.0196808258815471E-002   5.5126104399436687E-002
  -3.3137396985979332E-002   9.8887255051745560E-003   5.4748275761674368E-002
  -3.1606022383041860E-002   9.5519113865195210E-003   5.4607362906283943E-002
  -3.0074647780104390E-002   9.1863659028505774E-003   5.4703365833265509E-002
  -2.8543273177166918E-002   8.7920890541676178E-003   5.5036284542618913E-002
  -4.0046159453421590E-002   1.1172893965714609E-002   5.5876749717785050E-002
  -3.8311183716228672E-002   1.0738675068606318E-002   5.5921072653477739E-002
  -3.6576207979035748E-002   1.0268088347858008E-002   5.6135682075309432E-002
  -3.4841232241842823E-002   9.7611338034699503E-003   5.6520577983280092E-002
  -3.3106256504649906E-002   9.2178114354417862E-003   5.7075760377389866E-002
  -4.4935531502028017E-002   1.2148979672613747E-002   5.6505077121979108E-002
  -4.3063583926812532E-002   1.1588624632038247E-002   5.6963915172500768E-002
  -4.1191636351597040E-002   1.0984265309196592E-002   5.7526410412928608E-002
  -3.9319688776381534E-002   1.0335901704089070E-002   5.8192562843262560E-002
  -3.7447741201166063E-002   9.6435338167158435E-003   5.8962372463502499E-002
  -1.8752810629300787E-002   7.9406442916194475E-003   5.0498741627102828E-002
  -1.7959834979346608E-002   7.9567420155045587E-003   4.9554703749686846E-002
  -1.7166859329392457E-002   8.2108652549070793E-003   4.8276931099657056E-002
  -1.6373883679438306E-002   8.7030140098270301E-003   4.6665423677013457E-002
  -1.5580908029484135E-002   9.4331882802641820E-003   4.4720181481756049E-002
  -2.3758791218717254E-002   8.3663666728934771E-003   5.2843944959189981E-002
  -2.3176352181514020E-002   8.1814525269559291E-003   5.2434481266956628E-002
  -2.2593913144310827E-002   8.1382676542071375E-003   5.1937679121835417E-002
  -2.2011474107107607E-002   8.2368120546464987E-003   5.1353538523825931E-002
  -2.1429035069904411E-002   8.4770857282747136E-003   5.0682059472928476E-002
  -2.8543273177166918E-002   8.7920890541676178E-003   5.5036284542618913E-002
  -2.7924974432988910E-002   8.4061630384075214E-003   5.5065098793239481E-002
  -2.7306675688810851E-002   8.0656700535069875E-003   5.5252970910697669E-002
  -2.6688376944632823E-002   7.7706100994662484E-003   5.5599900894993566E-002
  -2.6070078200454778E-002   7.5209831762849677E-003   5.6105888746127125E-002
  -3.3106256504649906E-002   9.2178114354417862E-003   5.7075760377389866E-002
  -3.2205701733771214E-002   8.6308735498589195E-003   5.7446556328535202E-002
  -3.1305146962892563E-002   7.9930724528069416E-003   5.8222806466243962E-002
  -3.0404592192013878E-002   7.3044081442857466E-003   5.9404510790516341E-002
  -2.9504037421135217E-002   6.5648806242953051E-003   6.0991669301352351E-002
  -3.7447741201166063E-002   9.6435338167158435E-003   5.8962372463502499E-002
  -3.6018534083860965E-002   8.8555840613105397E-003   5.9578853872843840E-002
  -3.4589326966555922E-002   7.9204748521069929E-003   6.0847185788474478E-002
  -3.3160119849250873E-002   6.8382061891055466E-003   6.2767368210394345E-002
  -3.1730912731945782E-002   5.6087780723056424E-003   6.5339401138603592E-002
  -1.5580908029484135E-002   9.4331882802641820E-003   4.4720181481756049E-002
  -1.4635014389223776E-002   1.0951873138525525E-002   4.2050046548082254E-002
  -1.3689120748963411E-002   1.3809553656916745E-002   4.0179390961304851E-002
  -1.2743227108703039E-002   1.8006229835437683E-002   3.9108214721423701E-002
  -1.1797333468442681E-002   2.3541901674088983E-002   3.8836517828438666E-002
  -2.1429035069904411E-002   8.4770857282747136E-003   5.0682059472928476E-002
  -1.9820702417685489E-002   9.0653493551327846E-003   5.0028591260887850E-002
  -1.8212369765466543E-002   1.0207863615262824E-002   4.9900521725868285E-002
  -1.6604037113247566E-002   1.1904628508664306E-002   5.0297850867869462E-002
  -1.4995704461028644E-002   1.4155644035337756E-002   5.1220578686891782E-002
  -2.6070078200454778E-002   7.5209831762849677E-003   5.6105888746127125E-002
  -2.4073387206152527E-002   7.1788255717402660E-003   5.6684342228861428E-002
  -2.2076696211850287E-002   6.6061735736089450E-003   5.7514113718741239E-002
  -2.0080005217548130E-002   5.8030271818910358E-003   5.8595203215766868E-002
  -1.8083314223245796E-002   4.7693863965864169E-003   5.9927610719937796E-002
  -2.9504037421135217E-002   6.5648806242953051E-003   6.0991669301352351E-002
  -2.7393068754625046E-002   5.2923017883478030E-003   6.2017299452002864E-002
  -2.5282100088114819E-002   3.0044835319551003E-003   6.3020166939923822E-002
  -2.3171131421604561E-002  -2.9857414488234334E-004   6.4000271765115135E-002
  -2.1060162755094418E-002  -4.6168712421649216E-003   6.4957613927576735E-002
  -3.1730912731945782E-002   5.6087780723056424E-003   6.5339401138603592E-002
  -2.9779747063102921E-002   3.4057780049550068E-003   6.6027462930312364E-002
  -2.7828581394259991E-002  -5.9720650969866118E-004   6.6418681389416090E-002
  -2.5877415725417088E-002  -6.4001754716557571E-003   6.6513056515914853E-002
  -2.3926250056574228E-002  -1.4003128880916149E-002   6.6310588309808738E-002
  -5.7153672084946164E-002   0.0000000000000000        3.4675255019124059E-002
  -5.7947565489593067E-002   2.0848116949688991E-003   3.8328702872029087E-002
  -5.8741458894239970E-002   4.1416255996004504E-003   4.2194060888606985E-002
  -5.9535352298886873E-002   6.1704417138946574E-003   4.6271329068857753E-002
  -6.0329245703533763E-002   8.1712600378515063E-003   5.0560507412781404E-002
  -6.5820765479018939E-002   0.0000000000000000        3.7196488165562550E-002
  -6.6631135793413288E-002   2.9156388715850879E-003   4.0821768248789747E-002
  -6.7441506107807650E-002   5.7752440808615593E-003   4.4202184348849156E-002
  -6.8251876422201999E-002   8.5788156278294048E-003   4.7337736465740798E-002
  -6.9062246736596375E-002   1.1326353512488644E-002   5.0228424599464631E-002
  -7.4245623843026215E-002   0.0000000000000000        4.0562566424602861E-002
  -7.5529245214008695E-002   3.7464660482012776E-003   4.4131642866180973E-002
  -7.6812866584991174E-002   7.4088625621226674E-003   4.6999081177750632E-002
  -7.8096487955973654E-002   1.0987189541764163E-002   4.9164881359311845E-002
  -7.9380109326956119E-002   1.4481446987125769E-002   5.0629043410864619E-002
  -8.2428247176968020E-002   0.0000000000000000        4.4773489796244986E-002
  -8.4641893751379246E-002   4.5772932248174672E-003   4.8258326724202730E-002
  -8.6855540325790501E-002   9.0424810433837721E-003   5.0584751375311383E-002
  -8.9069186900201755E-002   1.3395563455698917E-002   5.1752763749570899E-002
  -9.1282833474613023E-002   1.7636540461762905E-002   5.1762363846981338E-002
  -9.0368635480844312E-002   0.0000000000000000        4.9829258280488953E-002
  -9.3969081405524998E-002   5.4081204014336560E-003   5.3201819822855066E-002
  -9.7569527330205685E-002   1.0676099524644884E-002   5.4959194941531418E-002
 -0.10116997325488637        1.5803937369633668E-002   5.5101383636517981E-002
 -0.10477041917956705        2.0791633936400027E-002   5.3628385907814796E-002
  -6.0329245703533763E-002   8.1712600378515063E-003   5.0560507412781404E-002
  -6.0633213853733998E-002   1.0058491988093965E-002   5.1504394989579122E-002
  -6.0937182003934214E-002   1.1746548981244978E-002   5.2246445069156974E-002
  -6.1241150154134436E-002   1.3235431017304544E-002   5.2786657651514982E-002
  -6.1545118304334664E-002   1.4525138096272636E-002   5.3125032736653130E-002
  -6.9062246736596375E-002   1.1326353512488644E-002   5.0228424599464631E-002
  -6.9332800546678827E-002   1.3776016904698447E-002   4.9453257316462010E-002
  -6.9603354356761279E-002   1.5685964974318043E-002   4.8946756210914738E-002
  -6.9873908166843746E-002   1.7056197721347404E-002   4.8708921282822865E-002
  -7.0144461976926198E-002   1.7886715145786596E-002   4.8739752532186369E-002
  -7.9380109326956119E-002   1.4481446987125769E-002   5.0629043410864619E-002
  -7.9146745122245565E-002   1.7493541821302933E-002   4.7794280902562859E-002
  -7.8913380917535011E-002   1.9625380967391113E-002   4.5698688246391721E-002
  -7.8680016712824485E-002   2.0876964425390308E-002   4.4342265442351196E-002
  -7.8446652508113932E-002   2.1248292195300521E-002   4.3725012490441292E-002
  -9.1282833474613023E-002   1.7636540461762905E-002   5.1762363846981338E-002
  -9.0075047580434220E-002   2.1211066737907423E-002   4.6527465747881663E-002
  -8.8867261686255417E-002   2.3564796960464197E-002   4.2502241175587874E-002
  -8.7659475792076627E-002   2.4697731129433208E-002   3.9686690130099907E-002
  -8.6451689897897838E-002   2.4609869244814446E-002   3.8080812611417873E-002
 -0.10477041917956705        2.0791633936400027E-002   5.3628385907814796E-002
 -0.10211770792124476        2.4928591654511906E-002   4.5652811852418484E-002
  -9.9464996662922481E-002   2.7504212953537253E-002   3.9357414998503239E-002
  -9.6812285404600185E-002   2.8518497833476077E-002   3.4742195346069128E-002
  -9.4159574146277930E-002   2.7971446294328399E-002   3.1807152895116104E-002
  -6.1545118304334664E-002   1.4525138096272636E-002   5.3125032736653130E-002
  -6.0258651414778611E-002   1.5537769881298992E-002   5.1760699963844005E-002
  -5.8972184525222578E-002   1.6195426035533249E-002   5.0864605154627873E-002
  -5.7685717635666517E-002   1.6498106558975371E-002   5.0436748309004728E-002
  -5.6399250746110484E-002   1.6445811451625450E-002   5.0477129426974590E-002
  -7.0144461976926198E-002   1.7886715145786596E-002   4.8739752532186369E-002
  -6.8436144960548825E-002   1.8344955651914591E-002   4.7346277991597338E-002
  -6.6727827944171453E-002   1.8598357644010508E-002   4.6328265741057986E-002
  -6.5019510927794039E-002   1.8646921122074375E-002   4.5685715780568355E-002
  -6.3311193911416708E-002   1.8490646086106191E-002   4.5418628110128360E-002
  -7.8446652508113932E-002   2.1248292195300521E-002   4.3725012490441292E-002
  -7.6409261038458506E-002   2.1152141422530208E-002   4.2452533298832348E-002
  -7.4371869568803081E-002   2.1001289252487839E-002   4.1462740723729810E-002
  -7.2334478099147670E-002   2.0795735685173396E-002   4.0755634765133664E-002
  -7.0297086629492245E-002   2.0535480720586925E-002   4.0331215423043881E-002
  -8.6451689897897838E-002   2.4609869244814446E-002   3.8080812611417873E-002
  -8.4177999648507681E-002   2.3959327193145821E-002   3.7079465885549036E-002
  -8.1904309399117539E-002   2.3404220860965108E-002   3.6268030102643352E-002
  -7.9630619149727355E-002   2.2944550248272421E-002   3.5646505262700703E-002
  -7.7356928900337241E-002   2.2580315355067691E-002   3.5214891365721188E-002
  -9.4159574146277930E-002   2.7971446294328399E-002   3.1807152895116104E-002
  -9.1742360790696337E-002   2.6766512963761431E-002   3.1227075751747442E-002
  -8.9325147435114743E-002   2.5807152469442443E-002   3.0744133877798580E-002
  -8.6907934079533150E-002   2.5093364811371404E-002   3.0358327273269474E-002
  -8.4490720723951571E-002   2.4625149989548401E-002   3.0069655938160134E-002
  -5.6399250746110484E-002   1.6445811451625450E-002   5.0477129426974590E-002
  -5.5008336803691514E-002   1.6158483890015389E-002   5.0483561172992783E-002
  -5.3617422861272551E-002   1.5756067050677228E-002   5.0906291598469385E-002
  -5.2226508918853581E-002   1.5238560933610798E-002   5.1745320703404471E-002
  -5.0835594976434598E-002   1.4605965538816268E-002   5.3000648487797841E-002
  -6.3311193911416708E-002   1.8490646086106191E-002   4.5418628110128360E-002
  -6.1540595363797281E-002   1.8180232992718724E-002   4.5205232789851883E-002
  -5.9769996816177846E-002   1.7766382298524636E-002   4.5334908000517898E-002
  -5.7999398268558433E-002   1.7249094003524219E-002   4.5807653742126357E-002
  -5.6228799720938999E-002   1.6628368107717173E-002   4.6623470014677343E-002
  -7.0297086629492245E-002   2.0535480720586925E-002   4.0331215423043881E-002
  -6.8220031625188318E-002   2.0201982095421952E-002   3.9909644713394352E-002
  -6.6142976620884364E-002   1.9776697546372235E-002   3.9757916386171460E-002
  -6.4065921616580451E-002   1.9259627073437584E-002   3.9876030441375061E-002
  -6.1988866612276497E-002   1.8650770676618134E-002   4.0263986879005259E-002
  -7.7356928900337241E-002   2.2580315355067691E-002   3.5214891365721188E-002
  -7.5046645587864683E-002   2.2223731198125332E-002   3.4596796943620285E-002
  -7.2736362275392138E-002   2.1787012794219726E-002   3.4175316755430007E-002
  -7.0426078962919594E-002   2.1270160143351074E-002   3.3950450801150472E-002
  -6.8115795650447078E-002   2.0673173245519080E-002   3.3922199080781493E-002
  -8.4490720723951571E-002   2.4625149989548401E-002   3.0069655938160134E-002
  -8.2020437251826353E-002   2.4245480300828529E-002   2.9266689480529559E-002
  -7.9550153779701149E-002   2.3797328042067314E-002   2.8587109108293679E-002
  -7.7079870307575918E-002   2.3280693213264359E-002   2.8030914821452563E-002
  -7.4609586835450714E-002   2.2695575814419999E-002   2.7598106620006141E-002
  -5.0835594976434598E-002   1.4605965538816268E-002   5.3000648487797841E-002
  -4.9360579107832966E-002   1.3934798896934636E-002   5.3665102072431636E-002
  -4.7885563239231314E-002   1.3301579038606959E-002   5.4470658039673103E-002
  -4.6410547370629662E-002   1.2706305963833403E-002   5.5417316389522284E-002
  -4.4935531502028017E-002   1.2148979672613747E-002   5.6505077121979108E-002
  -5.6228799720938999E-002   1.6628368107717173E-002   4.6623470014677343E-002
  -5.4607047731838901E-002   1.5967312453213728E-002   4.6957057623852577E-002
  -5.2985295742738810E-002   1.5329034882123588E-002   4.7443015091417004E-002
  -5.1363543753638732E-002   1.4713535394447121E-002   4.8081342417370672E-002
  -4.9741791764538634E-002   1.4120813990183889E-002   4.8872039601713518E-002
  -6.1988866612276497E-002   1.8650770676618134E-002   4.0263986879005259E-002
  -6.0209111026896425E-002   1.7999826009492778E-002   4.0251539812581325E-002
  -5.8429355441516381E-002   1.7356490725640217E-002   4.0402730080328228E-002
  -5.6649599856136282E-002   1.6720764825060699E-002   4.0717557682245817E-002
  -5.4869844270756210E-002   1.6092648307754087E-002   4.1196022618334147E-002
  -6.8115795650447078E-002   2.0673173245519080E-002   3.3922199080781493E-002
  -6.6166768993005484E-002   2.0032339565771710E-002   3.3548548638618038E-002
  -6.4217742335563877E-002   1.9383946569156874E-002   3.3349803006406713E-002
  -6.2268715678122297E-002   1.8727994255674375E-002   3.3325962184147774E-002
  -6.0319689020680696E-002   1.8064482625324257E-002   3.3477026171841104E-002
  -7.4609586835450714E-002   2.2695575814419999E-002   2.7598106620006141E-002
  -7.2480021630166064E-002   2.2064853122050865E-002   2.6848084101962461E-002
  -7.0350456424881427E-002   2.1411402412673419E-002   2.6284233869652618E-002
  -6.8220891219596791E-002   2.0735223686287996E-002   2.5906555923076599E-002
  -6.6091326014312168E-002   2.0036316942894428E-002   2.5715050262234307E-002
  -4.4935531502028017E-002   1.2148979672613747E-002   5.6505077121979108E-002
  -4.3063583926812532E-002   1.1588624632038247E-002   5.6963915172500768E-002
  -4.1191636351597040E-002   1.0984265309196592E-002   5.7526410412928608E-002
  -3.9319688776381534E-002   1.0335901704089070E-002   5.8192562843262560E-002
  -3.7447741201166063E-002   9.6435338167158435E-003   5.8962372463502499E-002
  -4.9741791764538634E-002   1.4120813990183889E-002   4.8872039601713518E-002
  -4.7747066999864980E-002   1.3524815920766736E-002   4.8991537560086562E-002
  -4.5752342235191347E-002   1.2899486437627797E-002   4.9252932707469846E-002
  -4.3757617470517707E-002   1.2244825540767435E-002   4.9656225043863425E-002
  -4.1762892705844074E-002   1.1560833230185141E-002   5.0201414569267133E-002
  -5.4869844270756210E-002   1.6092648307754087E-002   4.1196022618334147E-002
  -5.2714102317520273E-002   1.5461007209495281E-002   4.0990853353102777E-002
  -5.0558360364284329E-002   1.4814707566059064E-002   4.0965821275985879E-002
  -4.8402618411048377E-002   1.4153749377445469E-002   4.1120926386983239E-002
  -4.6246876457812426E-002   1.3478132643654411E-002   4.1456168686095016E-002
  -6.0319689020680696E-002   1.8064482625324257E-002   3.3477026171841104E-002
  -5.7964689879778333E-002   1.7397198498223881E-002   3.2961862551549606E-002
  -5.5609690738875957E-002   1.6729928694490328E-002   3.2665076118476681E-002
  -5.3254691597973601E-002   1.6062673214123670E-002   3.2586666872622252E-002
  -5.0899692457071224E-002   1.5395432057123751E-002   3.2726634813986244E-002
  -6.6091326014312168E-002   2.0036316942894428E-002   2.5715050262234307E-002
  -6.3498829686639224E-002   1.9333389786952315E-002   2.4904565155426966E-002
  -6.0906333358966280E-002   1.8645149822921453E-002   2.4350697234942265E-002
  -5.8313837031293295E-002   1.7971597050801709E-002   2.4053446500780076E-002
  -5.5721340703620365E-002   1.7312731470592979E-002   2.4012812952940665E-002
  -3.7447741201166063E-002   9.6435338167158435E-003   5.8962372463502499E-002
  -3.6018534083860965E-002   8.8555840613105397E-003   5.9578853872843840E-002
  -3.4589326966555922E-002   7.9204748521069929E-003   6.0847185788474478E-002
  -3.3160119849250873E-002   6.8382061891055466E-003   6.2767368210394345E-002
  -3.1730912731945782E-002   5.6087780723056424E-003   6.5339401138603592E-002
  -4.1762892705844074E-002   1.1560833230185141E-002   5.0201414569267133E-002
  -3.9780775301874821E-002   1.0812764067680031E-002   5.0427132639731809E-002
  -3.7798657897905617E-002   9.9658726150507887E-003   5.1106820777235384E-002
  -3.5816540493936413E-002   9.0201588722972938E-003   5.2240478981777944E-002
  -3.3834423089967175E-002   7.9756228394197715E-003   5.3828107253359458E-002
  -4.6246876457812426E-002   1.3478132643654411E-002   4.1456168686095016E-002
  -4.3909729206429389E-002   1.2769944074049550E-002   4.1339460581356971E-002
  -4.1572581955046359E-002   1.2011270377994536E-002   4.1478842104407547E-002
  -3.9235434703663342E-002   1.1202111555489376E-002   4.1874313255246723E-002
  -3.6898287452280340E-002   1.0342467606533956E-002   4.2525874033874783E-002
  -5.0899692457071224E-002   1.5395432057123751E-002   3.2726634813986244E-002
  -4.8405395797524640E-002   1.4727124080419221E-002   3.2315837697719396E-002
  -4.5911099137978112E-002   1.4056668140938446E-002   3.1963249769990890E-002
  -4.3416802478431556E-002   1.3384064238681291E-002   3.1668871030800648E-002
  -4.0922505818884944E-002   1.2709312373648113E-002   3.1432701480148970E-002
  -5.5721340703620365E-002   1.7312731470592979E-002   2.4012812952940665E-002
  -5.3267775075160589E-002   1.6684304086788559E-002   2.3356263988818959E-002
  -5.0814209446700828E-002   1.6102065903882079E-002   2.2560043773985461E-002
  -4.8360643818241060E-002   1.5566016921873316E-002   2.1624152308439795E-002
  -4.5907078189781292E-002   1.5076157140762270E-002   2.0548589592182420E-002
  -3.1730912731945782E-002   5.6087780723056424E-003   6.5339401138603592E-002
  -2.9779747063102921E-002   3.4057780049550068E-003   6.6027462930312364E-002
  -2.7828581394259991E-002  -5.9720650969866118E-004   6.6418681389416090E-002
  -2.5877415725417088E-002  -6.4001754716557571E-003   6.6513056515914853E-002
  -2.3926250056574228E-002  -1.4003128880916149E-002   6.6310588309808738E-002
  -3.3834423089967175E-002   7.9756228394197715E-003   5.3828107253359458E-002
  -3.2088428519373990E-002   6.3847895785748010E-003   5.2250608968574974E-002
  -3.0342433948780813E-002   3.8001841519194057E-003   5.0559611819896016E-002
  -2.8596439378187625E-002   2.2180655945344685E-004   4.8755115807322405E-002
  -2.6850444807594465E-002  -4.3503431988231034E-003   4.6837120930854681E-002
  -3.6898287452280340E-002   1.0342467606533956E-002   4.2525874033874783E-002
  -3.5174119511226218E-002   9.3638011521945952E-003   3.9489027954089650E-002
  -3.3449951570172158E-002   8.1975748135375420E-003   3.6522027479120658E-002
  -3.1725783629118154E-002   6.8437885905625988E-003   3.3624872608967897E-002
  -3.0001615688064059E-002   5.3024424832700534E-003   3.0797563343631151E-002
  -4.0922505818884944E-002   1.2709312373648113E-002   3.1432701480148970E-002
  -3.9036820038659527E-002   1.2342812725814112E-002   2.7742719886856254E-002
  -3.7151134258434103E-002   1.2594965475155588E-002   2.4305928367090123E-002
  -3.5265448478208623E-002   1.3465770621671832E-002   2.1122326920850705E-002
  -3.3379762697983220E-002   1.4955228165363099E-002   1.8191915548137774E-002
  -4.5907078189781292E-002   1.5076157140762270E-002   2.0548589592182420E-002
  -4.3676530101673966E-002   1.5321824299434017E-002   1.7011684766874757E-002
  -4.1445982013566612E-002   1.6992356136773690E-002   1.3911314483804282E-002
  -3.9215433925459189E-002   2.0087752652780996E-002   1.1247478742970968E-002
  -3.6984885837351822E-002   2.4608013847456256E-002   9.0201775443750076E-003
  -9.0368635480844312E-002   0.0000000000000000        4.9829258280488953E-002
  -9.3969081405524998E-002   5.4081204014336560E-003   5.3201819822855066E-002
  -9.7569527330205685E-002   1.0676099524644884E-002   5.4959194941531418E-002
 -0.10116997325488637        1.5803937369633668E-002   5.5101383636517981E-002
 -0.10477041917956705        2.0791633936400027E-002   5.3628385907814796E-002
 -0.10330219911302031        0.0000000000000000        5.8659951350299409E-002
 -0.10683767877268953        1.0884958152961208E-002   5.2115772309475783E-002
 -0.11037315843235877        1.9173442413692746E-002   4.7316712222364860E-002
 -0.11390863809202798        2.4865452782194632E-002   4.4262771088966646E-002
 -0.11744411775169721        2.7960989258466844E-002   4.2953948909281101E-002
 -0.12646434843186122        0.0000000000000000        7.4195648478641033E-002
 -0.12657455644911653        1.6361795904488760E-002   5.5278396240620448E-002
 -0.12668476446637184        2.7670785302740624E-002   4.1466568333715023E-002
 -0.12679497248362712        3.3926968194755582E-002   3.2760164757924752E-002
 -0.12690518050088243        3.5130344580533636E-002   2.9159185513249638E-002
 -0.15985508343736704        0.0000000000000000        9.6436349665513829E-002
 -0.15317971443480599        2.1838633656016321E-002   6.2689691616289067E-002
 -0.14650434543224489        3.6168128191788496E-002   3.7408763275581881E-002
 -0.13982897642968381        4.2988483607316552E-002   2.0593564643392348E-002
 -0.13315360742712271        4.2299699902600470E-002   1.2244095719720393E-002
 -0.20347440412953779        0.0000000000000000       0.12538205491091781     
 -0.18665315272975788        2.7315471407543864E-002   7.4349658436481586E-002
 -0.16983190132997794        4.4665471080836378E-002   3.5143297047965427E-002
 -0.15301064993019800        5.2049999019877495E-002   7.7629707453693991E-003
 -0.13618939853041806        4.9469055224667262E-002  -7.7913204713066231E-003
 -0.10477041917956705        2.0791633936400027E-002   5.3628385907814796E-002
 -0.10211770792124476        2.4928591654511906E-002   4.5652811852418484E-002
  -9.9464996662922481E-002   2.7504212953537253E-002   3.9357414998503239E-002
  -9.6812285404600185E-002   2.8518497833476077E-002   3.4742195346069128E-002
  -9.4159574146277930E-002   2.7971446294328399E-002   3.1807152895116104E-002
 -0.11744411775169721        2.7960989258466844E-002   4.2953948909281101E-002
 -0.11349539947424159        2.9433215230646681E-002   3.6701098726961097E-002
 -0.10954668119678594        3.0255294086871425E-002   3.1360085381426747E-002
 -0.10559796291933034        3.0427225827141104E-002   2.6930908872677909E-002
 -0.10164924464187469        2.9949010451455697E-002   2.3413569200714621E-002
 -0.12690518050088243        3.5130344580533636E-002   2.9159185513249638E-002
 -0.12242879556898897        3.3937838806781445E-002   2.5540248507137431E-002
 -0.11795241063709555        3.3006375220205601E-002   2.2064807973115327E-002
 -0.11347602570520209        3.2335953820806118E-002   1.8732863911183211E-002
 -0.10899964077330868        3.1926574608582975E-002   1.5544416321341173E-002
 -0.13315360742712271        4.2299699902600470E-002   1.2244095719720393E-002
 -0.12891789620548702        3.8442462382916202E-002   1.2170261192947469E-002
 -0.12468218498385127        3.5757456353539725E-002   1.1471582773569041E-002
 -0.12044647376221554        3.4244681814471101E-002   1.0148060461585146E-002
 -0.11621076254057985        3.3904138765710315E-002   8.1996942569957480E-003
 -0.13618939853041806        4.9469055224667262E-002  -7.7913204713066231E-003
 -0.13296270138373562        4.2947085959050987E-002  -3.4088632156089455E-003
 -0.12973600423705314        3.8508537486873974E-002  -4.1959021721209994E-004
 -0.12650930709037067        3.6153409808136118E-002   1.1764985238835752E-003
 -0.12328260994368820        3.5881702922837572E-002   1.3794030076783592E-003
  -9.4159574146277930E-002   2.7971446294328399E-002   3.1807152895116104E-002
  -9.1742360790696337E-002   2.6766512963761431E-002   3.1227075751747442E-002
  -8.9325147435114743E-002   2.5807152469442443E-002   3.0744133877798580E-002
  -8.6907934079533150E-002   2.5093364811371404E-002   3.0358327273269474E-002
  -8.4490720723951571E-002   2.4625149989548401E-002   3.0069655938160134E-002
 -0.10164924464187469        2.9949010451455697E-002   2.3413569200714621E-002
  -9.9131300427129684E-002   2.9165538910016209E-002   2.3118965821599929E-002
  -9.6613356212384663E-002   2.8421702153023781E-002   2.2928688891392299E-002
  -9.4095411997639641E-002   2.7717500180478291E-002   2.2842738410091719E-002
  -9.1577467782894634E-002   2.7052932992379861E-002   2.2861114377698250E-002
 -0.10899964077330868        3.1926574608582975E-002   1.5544416321341173E-002
 -0.10637377451991292        3.1564564856271016E-002   1.5329348654679378E-002
 -0.10374790826651716        3.1036251836605140E-002   1.5225798616412118E-002
 -0.10112204201312144        3.0341635549585234E-002   1.5233766206539053E-002
  -9.8496175759725690E-002   2.9480715995211376E-002   1.5353251425060381E-002
 -0.11621076254057985        3.3904138765710315E-002   8.1996942569957480E-003
 -0.11346978306904607        3.3963590802525853E-002   7.8582242509859894E-003
 -0.11072880359751229        3.3650801520186485E-002   7.6354630528578417E-003
 -0.10798782412597853        3.2965770918692149E-002   7.5314106626113561E-003
 -0.10524684465444474        3.1908498998042836E-002   7.5460670802466670E-003
 -0.12328260994368820        3.5881702922837572E-002   1.3794030076783592E-003
 -0.12041932607452913        3.6362616748780621E-002   7.0559261051955646E-004
 -0.11755604220537001        3.6265351203767900E-002   1.5768220072973071E-004
 -0.11469275833621093        3.5589906287798956E-002  -2.6432822169115272E-004
 -0.11182947446705183        3.4336282000874352E-002  -5.6043865674304527E-004
  -8.4490720723951571E-002   2.4625149989548401E-002   3.0069655938160134E-002
  -8.2020437251826353E-002   2.4245480300828529E-002   2.9266689480529559E-002
  -7.9550153779701149E-002   2.3797328042067314E-002   2.8587109108293679E-002
  -7.7079870307575918E-002   2.3280693213264359E-002   2.8030914821452563E-002
  -7.4609586835450714E-002   2.2695575814419999E-002   2.7598106620006141E-002
  -9.1577467782894634E-002   2.7052932992379861E-002   2.2861114377698250E-002
  -8.8971213941303667E-002   2.6405845700191763E-002   2.2202192504916743E-002
  -8.6364960099712743E-002   2.5754083415377296E-002   2.1691825285671949E-002
  -8.3758706258121776E-002   2.5097646137936490E-002   2.1330012719963935E-002
  -8.1152452416530796E-002   2.4436533867869342E-002   2.1116754807792598E-002
  -9.8496175759725690E-002   2.9480715995211376E-002   1.5353251425060381E-002
  -9.5728782980527005E-002   2.8566211099554879E-002   1.4902181714543199E-002
  -9.2961390201328292E-002   2.7710838788687332E-002   1.4624835225704645E-002
  -9.0193997422129593E-002   2.6914599062608589E-002   1.4521211958545017E-002
  -8.7426604642930894E-002   2.6177491921318741E-002   1.4591311913064078E-002
 -0.10524684465444474        3.1908498998042836E-002   7.5460670802466670E-003
 -0.10229314436949627        3.0726576498918110E-002   7.3666571094088426E-003
  -9.9339444084547826E-002   2.9667594161997369E-002   7.3861389283918309E-003
  -9.6385743799599355E-002   2.8731551987280692E-002   7.6045125371956993E-003
  -9.3432043514650842E-002   2.7918449974768195E-002   8.0217779358203040E-003
 -0.11182947446705183        3.4336282000874352E-002  -5.6043865674304527E-004
 -0.10866429810821154        3.2886941898281202E-002  -4.0438131048606274E-004
 -0.10549912174937129        3.1624349535307322E-002  -2.4263606266505811E-005
 -0.10233394539053099        3.0548504911952844E-002   5.7991445591618063E-004
  -9.9168769031690751E-002   2.9659408028217427E-002   1.4081528760613859E-003
  -7.4609586835450714E-002   2.2695575814419999E-002   2.7598106620006141E-002
  -7.2480021630166064E-002   2.2064853122050865E-002   2.6848084101962461E-002
  -7.0350456424881427E-002   2.1411402412673419E-002   2.6284233869652618E-002
  -6.8220891219596791E-002   2.0735223686287996E-002   2.5906555923076599E-002
  -6.6091326014312168E-002   2.0036316942894428E-002   2.5715050262234307E-002
  -8.1152452416530796E-002   2.4436533867869342E-002   2.1116754807792598E-002
  -7.8840328828042219E-002   2.3759128741994026E-002   2.0606512373900071E-002
  -7.6528205239553601E-002   2.3053812897128489E-002   2.0275214420681614E-002
  -7.4216081651065038E-002   2.2320586333272815E-002   2.0122860948137401E-002
  -7.1903958062576420E-002   2.1559449050427032E-002   2.0149451956267300E-002
  -8.7426604642930894E-002   2.6177491921318741E-002   1.4591311913064078E-002
  -8.4939150476297992E-002   2.5453404361937215E-002   1.4315666861340504E-002
  -8.2451696309665090E-002   2.4696223381583421E-002   1.4211738485231523E-002
  -7.9964242143032202E-002   2.3905948980257608E-002   1.4279526784736769E-002
  -7.7476787976399231E-002   2.3082581157959636E-002   1.4519031759856901E-002
  -9.3432043514650842E-002   2.7918449974768195E-002   8.0217779358203040E-003
  -9.0776486574933341E-002   2.7147679981880557E-002   7.9755475642838448E-003
  -8.8120929635215867E-002   2.6338633866038449E-002   8.0938060633021901E-003
  -8.5465372695498379E-002   2.5491311627242552E-002   8.3765534328753763E-003
  -8.2809815755780836E-002   2.4605713265492130E-002   8.8237896730031101E-003
  -9.9168769031690751E-002   2.9659408028217427E-002   1.4081528760613859E-003
  -9.6352337123948306E-002   2.8841955601823788E-002   1.5861544827298624E-003
  -9.3535905216205889E-002   2.7981044350493506E-002   1.9214171548935788E-003
  -9.0719473308463458E-002   2.7076674274227157E-002   2.4139408925523687E-003
  -8.7903041400721027E-002   2.6128845373024734E-002   3.0637256957061765E-003
  -6.6091326014312168E-002   2.0036316942894428E-002   2.5715050262234307E-002
  -6.3498829686639224E-002   1.9333389786952315E-002   2.4904565155426966E-002
  -6.0906333358966280E-002   1.8645149822921453E-002   2.4350697234942265E-002
  -5.8313837031293295E-002   1.7971597050801709E-002   2.4053446500780076E-002
  -5.5721340703620365E-002   1.7312731470592979E-002   2.4012812952940665E-002
  -7.1903958062576420E-002   2.1559449050427032E-002   2.0149451956267300E-002
  -6.9074746938924708E-002   2.0789293173825191E-002   1.9571146955252000E-002
  -6.6245535815273010E-002   2.0029010828701642E-002   1.9209654359871639E-002
  -6.3416324691621312E-002   1.9278602015056316E-002   1.9064974170126148E-002
  -6.0587113567969614E-002   1.8538066732889102E-002   1.9137106386015429E-002
  -7.7476787976399231E-002   2.3082581157959636E-002   1.4519031759856901E-002
  -7.4450666837456547E-002   2.2245196560698011E-002   1.4168093204200753E-002
  -7.1424545698513892E-002   2.1412871834481831E-002   1.3994162273491859E-002
  -6.8398424559571167E-002   2.0585606979310920E-002   1.3997238967730016E-002
  -6.5372303420628469E-002   1.9763401995185337E-002   1.4177323286915497E-002
  -8.2809815755780836E-002   2.4605713265492130E-002   8.8237896730031101E-003
  -7.9626589382234922E-002   2.3701099947570609E-002   8.6954039022734565E-003
  -7.6443363008688980E-002   2.2796732840262131E-002   8.7042209758029822E-003
  -7.3260136635143011E-002   2.1892611943565413E-002   8.8502408935920551E-003
  -7.0076910261597153E-002   2.0988737257481294E-002   9.1334636556402796E-003
  -8.7903041400721027E-002   2.6128845373024734E-002   3.0637256957061765E-003
  -8.4602514573259624E-002   2.5157003334443651E-002   3.1530790494699867E-003
  -8.1301987745798221E-002   2.4180593846041987E-002   3.3398304668050133E-003
  -7.8001460918336846E-002   2.3199616907820075E-002   3.6239799477120853E-003
  -7.4700934090875415E-002   2.2214072519777583E-002   4.0055274921904083E-003
  -5.5721340703620365E-002   1.7312731470592979E-002   2.4012812952940665E-002
  -5.3267775075160589E-002   1.6684304086788559E-002   2.3356263988818959E-002
  -5.0814209446700828E-002   1.6102065903882079E-002   2.2560043773985461E-002
  -4.8360643818241060E-002   1.5566016921873316E-002   2.1624152308439795E-002
  -4.5907078189781292E-002   1.5076157140762270E-002   2.0548589592182420E-002
  -6.0587113567969614E-002   1.8538066732889102E-002   1.9137106386015429E-002
  -5.8208697695971243E-002   1.7818628658741537E-002   1.8664916970563911E-002
  -5.5830281823972955E-002   1.7131511469154481E-002   1.8182099292901321E-002
  -5.3451865951974632E-002   1.6476715164128325E-002   1.7688653353027772E-002
  -5.1073450079976282E-002   1.5854239743663068E-002   1.7184579150943291E-002
  -6.5372303420628469E-002   1.9763401995185337E-002   1.4177323286915497E-002
  -6.2939994316590614E-002   1.8952953230694236E-002   1.3875625103796849E-002
  -6.0507685212552828E-002   1.8160957034426828E-002   1.3692341646968281E-002
  -5.8075376108514917E-002   1.7387413406383334E-002   1.3627472916429871E-002
  -5.5643067004477118E-002   1.6632322346563644E-002   1.3681018912181597E-002
  -7.0076910261597153E-002   2.0988737257481294E-002   9.1334636556402796E-003
  -6.7461664937018717E-002   2.0087277802646908E-002   8.9883883885179955E-003
  -6.4846419612440323E-002   1.9190402599699202E-002   9.0907708361865208E-003
  -6.2231174287861922E-002   1.8298111648638676E-002   9.4406109986463170E-003
  -5.9615928963283521E-002   1.7410404949464442E-002   1.0037908875896916E-002
  -7.4700934090875415E-002   2.2214072519777583E-002   4.0055274921904083E-003
  -7.1773709557255483E-002   2.1221602374599802E-002   4.0032068247270458E-003
  -6.8846485023635606E-002   2.0219848164971549E-002   4.3773868605559429E-003
  -6.5919260490015674E-002   1.9208809890893290E-002   5.1280675996767250E-003
  -6.2992035956395798E-002   1.8188487552365018E-002   6.2552490420895168E-003
  -4.5907078189781292E-002   1.5076157140762270E-002   2.0548589592182420E-002
  -4.3676530101673966E-002   1.5321824299434017E-002   1.7011684766874757E-002
  -4.1445982013566612E-002   1.6992356136773690E-002   1.3911314483804282E-002
  -3.9215433925459189E-002   2.0087752652780996E-002   1.1247478742970968E-002
  -3.6984885837351822E-002   2.4608013847456256E-002   9.0201775443750076E-003
  -5.1073450079976282E-002   1.5854239743663068E-002   1.7184579150943291E-002
  -4.8445044966655026E-002   1.5659355002287045E-002   1.5329614350449772E-002
  -4.5816639853333736E-002   1.6287330734529940E-002   1.3833829058146840E-002
  -4.3188234740012446E-002   1.7738166940391018E-002   1.2697223274034747E-002
  -4.0559829626691135E-002   2.0011863619870507E-002   1.1919796998112964E-002
  -5.5643067004477118E-002   1.6632322346563644E-002   1.3681018912181597E-002
  -5.2694159899988477E-002   1.5996885705140490E-002   1.2905989931452713E-002
  -4.9745252795499816E-002   1.5582305332286189E-002   1.2412785424867817E-002
  -4.6796345691011293E-002   1.5388581228000929E-002   1.2201405392427180E-002
  -4.3847438586522444E-002   1.5415713392284536E-002   1.2271849834130322E-002
  -5.9615928963283521E-002   1.7410404949464442E-002   1.0037908875896916E-002
  -5.6423874901674179E-002   1.6334416407993782E-002   9.7408115098833008E-003
  -5.3231820840064739E-002   1.4877279930042384E-002   9.6481835839668829E-003
  -5.0039766778455431E-002   1.3038995515610951E-002   9.7600250981483908E-003
  -4.6847712716846027E-002   1.0819563164698620E-002   1.0076336052426971E-002
  -6.2992035956395798E-002   1.8188487552365018E-002   6.2552490420895168E-003
  -5.9634189971712215E-002   1.6671947110846852E-002   5.8340790857416835E-003
  -5.6276343987028632E-002   1.4172254527798800E-002   5.5400235354448046E-003
  -5.2918498002345132E-002   1.0689409803220778E-002   5.3730823911986580E-003
  -4.9560652017661466E-002   6.2234129371128155E-003   5.3332556530036879E-003
 </DataArray>
 </PointData>
 </Piece>
 <Piece  NumberOfPoints="          1600 "  NumberOfCells="         1024 ">
 <Points>
 <DataArray  type="Float64" NumberOfComponents="3"  format="ascii" >
  0.50000000000000000        0.0000000000000000        0.0000000000000000     
  0.53125000000000000        0.0000000000000000        0.0000000000000000     
  0.56250000000000000        0.0000000000000000        0.0000000000000000     
  0.59375000000000000        0.0000000000000000        0.0000000000000000     
  0.62500000000000000        0.0000000000000000        0.0000000000000000     
  0.50000000000000000        3.1250000000000000E-002   0.0000000000000000     
  0.53125000000000000        3.1250000000000000E-002   0.0000000000000000     
  0.56250000000000000        3.1250000000000000E-002   0.0000000000000000     
  0.59375000000000000        3.1250000000000000E-002   0.0000000000000000     
  0.62500000000000000        3.1250000000000000E-002   0.0000000000000000     
  0.50000000000000000        6.2500000000000000E-002   0.0000000000000000     
  0.53125000000000000        6.2500000000000000E-002   0.0000000000000000     
  0.56250000000000000        6.2500000000000000E-002   0.0000000000000000     
  0.59375000000000000        6.2500000000000000E-002   0.0000000000000000     
  0.62500000000000000        6.2500000000000000E-002   0.0000000000000000     
  0.50000000000000000        9.3750000000000000E-002   0.0000000000000000     
  0.53125000000000000        9.3750000000000000E-002   0.0000000000000000     
  0.56250000000000000        9.3750000000000000E-002   0.0000000000000000     
  0.59375000000000000        9.3750000000000000E-002   0.0000000000000000     
  0.62500000000000000        9.3750000000000000E-002   0.0000000000000000     
  0.50000000000000000       0.12500000000000000        0.0000000000000000     
  0.53125000000000000       0.12500000000000000        0.0000000000000000     
  0.56250000000000000       0.12500000000000000        0.0000000000000000     
  0.59375000000000000       0.12500000000000000        0.0000000000000000     
  0.62500000000000000       0.12500000000000000        0.0000000000000000     
  0.62500000000000000        0.0000000000000000        0.0000000000000000     
  0.65625000000000000        0.0000000000000000        0.0000000000000000     
  0.68750000000000000        0.0000000000000000        0.0000000000000000     
  0.71875000000000000        0.0000000000000000        0.0000000000000000     
  0.75000000000000000        0.0000000000000000        0.0000000000000000     
  0.62500000000000000        3.1250000000000000E-002   0.0000000000000000     
  0.65625000000000000        3.1250000000000000E-002   0.0000000000000000     
  0.68750000000000000        3.1250000000000000E-002   0.0000000000000000     
  0.71875000000000000        3.1250000000000000E-002   0.0000000000000000     
  0.75000000000000000        3.1250000000000000E-002   0.0000000000000000     
  0.62500000000000000        6.2500000000000000E-002   0.0000000000000000     
  0.65625000000000000        6.2500000000000000E-002   0.0000000000000000     
  0.68750000000000000        6.2500000000000000E-002   0.0000000000000000     
  0.71875000000000000        6.2500000000000000E-002   0.0000000000000000     
  0.75000000000000000        6.2500000000000000E-002   0.0000000000000000     
  0.62500000000000000        9.3750000000000000E-002   0.0000000000000000     
  0.65625000000000000        9.3750000000000000E-002   0.0000000000000000     
  0.68750000000000000        9.3750000000000000E-002   0.0000000000000000     
  0.71875000000000000        9.3750000000000000E-002   0.0000000000000000     
  0.75000000000000000        9.3750000000000000E-002   0.0000000000000000     
  0.62500000000000000       0.12500000000000000        0.0000000000000000     
  0.65625000000000000       0.12500000000000000        0.0000000000000000     
  0.68750000000000000       0.12500000000000000        0.0000000000000000     
  0.71875000000000000       0.12500000000000000        0.0000000000000000     
  0.75000000000000000       0.12500000000000000        0.0000000000000000     
  0.75000000000000000        0.0000000000000000        0.0000000000000000     
  0.78125000000000000        0.0000000000000000        0.0000000000000000     
  0.81250000000000000        0.0000000000000000        0.0000000000000000     
  0.84375000000000000        0.0000000000000000        0.0000000000000000     
  0.87500000000000000        0.0000000000000000        0.0000000000000000     
  0.75000000000000000        3.1250000000000000E-002   0.0000000000000000     
  0.78125000000000000        3.1250000000000000E-002   0.0000000000000000     
  0.81250000000000000        3.1250000000000000E-002   0.0000000000000000     
  0.84375000000000000        3.1250000000000000E-002   0.0000000000000000     
  0.87500000000000000        3.1250000000000000E-002   0.0000000000000000     
  0.75000000000000000        6.2500000000000000E-002   0.0000000000000000     
  0.78125000000000000        6.2500000000000000E-002   0.0000000000000000     
  0.81250000000000000        6.2500000000000000E-002   0.0000000000000000     
  0.84375000000000000        6.2500000000000000E-002   0.0000000000000000     
  0.87500000000000000        6.2500000000000000E-002   0.0000000000000000     
  0.75000000000000000        9.3750000000000000E-002   0.0000000000000000     
  0.78125000000000000        9.3750000000000000E-002   0.0000000000000000     
  0.81250000000000000        9.3750000000000000E-002   0.0000000000000000     
  0.84375000000000000        9.3750000000000000E-002   0.0000000000000000     
  0.87500000000000000        9.3750000000000000E-002   0.0000000000000000     
  0.75000000000000000       0.12500000000000000        0.0000000000000000     
  0.78125000000000000       0.12500000000000000        0.0000000000000000     
  0.81250000000000000       0.12500000000000000        0.0000000000000000     
  0.84375000000000000       0.12500000000000000        0.0000000000000000     
  0.87500000000000000       0.12500000000000000        0.0000000000000000     
  0.87500000000000000        0.0000000000000000        0.0000000000000000     
  0.90625000000000000        0.0000000000000000        0.0000000000000000     
  0.93750000000000000        0.0000000000000000        0.0000000000000000     
  0.96875000000000000        0.0000000000000000        0.0000000000000000     
   1.0000000000000000        0.0000000000000000        0.0000000000000000     
  0.87500000000000000        3.1250000000000000E-002   0.0000000000000000     
  0.90625000000000000        3.1250000000000000E-002   0.0000000000000000     
  0.93750000000000000        3.1250000000000000E-002   0.0000000000000000     
  0.96875000000000000        3.1250000000000000E-002   0.0000000000000000     
   1.0000000000000000        3.1250000000000000E-002   0.0000000000000000     
  0.87500000000000000        6.2500000000000000E-002   0.0000000000000000     
  0.90625000000000000        6.2500000000000000E-002   0.0000000000000000     
  0.93750000000000000        6.2500000000000000E-002   0.0000000000000000     
  0.96875000000000000        6.2500000000000000E-002   0.0000000000000000     
   1.0000000000000000        6.2500000000000000E-002   0.0000000000000000     
  0.87500000000000000        9.3750000000000000E-002   0.0000000000000000     
  0.90625000000000000        9.3750000000000000E-002   0.0000000000000000     
  0.93750000000000000        9.3750000000000000E-002   0.0000000000000000     
  0.96875000000000000        9.3750000000000000E-002   0.0000000000000000     
   1.0000000000000000        9.3750000000000000E-002   0.0000000000000000     
  0.87500000000000000       0.12500000000000000        0.0000000000000000     
  0.90625000000000000       0.12500000000000000        0.0000000000000000     
  0.93750000000000000       0.12500000000000000        0.0000000000000000     
  0.96875000000000000       0.12500000000000000        0.0000000000000000     
   1.0000000000000000       0.12500000000000000        0.0000000000000000     
   1.0000000000000000        0.0000000000000000        0.0000000000000000     
   1.0312500000000000        0.0000000000000000        0.0000000000000000     
   1.0625000000000000        0.0000000000000000        0.0000000000000000     
   1.0937500000000000        0.0000000000000000        0.0000000000000000     
   1.1250000000000000        0.0000000000000000        0.0000000000000000     
   1.0000000000000000        3.1250000000000000E-002   0.0000000000000000     
   1.0312500000000000        3.1250000000000000E-002   0.0000000000000000     
   1.0625000000000000        3.1250000000000000E-002   0.0000000000000000     
   1.0937500000000000        3.1250000000000000E-002   0.0000000000000000     
   1.1250000000000000        3.1250000000000000E-002   0.0000000000000000     
   1.0000000000000000        6.2500000000000000E-002   0.0000000000000000     
   1.0312500000000000        6.2500000000000000E-002   0.0000000000000000     
   1.0625000000000000        6.2500000000000000E-002   0.0000000000000000     
   1.0937500000000000        6.2500000000000000E-002   0.0000000000000000     
   1.1250000000000000        6.2500000000000000E-002   0.0000000000000000     
   1.0000000000000000        9.3750000000000000E-002   0.0000000000000000     
   1.0312500000000000        9.3750000000000000E-002   0.0000000000000000     
   1.0625000000000000        9.3750000000000000E-002   0.0000000000000000     
   1.0937500000000000        9.3750000000000000E-002   0.0000000000000000     
   1.1250000000000000        9.3750000000000000E-002   0.0000000000000000     
   1.0000000000000000       0.12500000000000000        0.0000000000000000     
   1.0312500000000000       0.12500000000000000        0.0000000000000000     
   1.0625000000000000       0.12500000000000000        0.0000000000000000     
   1.0937500000000000       0.12500000000000000        0.0000000000000000     
   1.1250000000000000       0.12500000000000000        0.0000000000000000     
   1.1250000000000000        0.0000000000000000        0.0000000000000000     
   1.1562500000000000        0.0000000000000000        0.0000000000000000     
   1.1875000000000000        0.0000000000000000        0.0000000000000000     
   1.2187500000000000        0.0000000000000000        0.0000000000000000     
   1.2500000000000000        0.0000000000000000        0.0000000000000000     
   1.1250000000000000        3.1250000000000000E-002   0.0000000000000000     
   1.1562500000000000        3.1250000000000000E-002   0.0000000000000000     
   1.1875000000000000        3.1250000000000000E-002   0.0000000000000000     
   1.2187500000000000        3.1250000000000000E-002   0.0000000000000000     
   1.2500000000000000        3.1250000000000000E-002   0.0000000000000000     
   1.1250000000000000        6.2500000000000000E-002   0.0000000000000000     
   1.1562500000000000        6.2500000000000000E-002   0.0000000000000000     
   1.1875000000000000        6.2500000000000000E-002   0.0000000000000000     
   1.2187500000000000        6.2500000000000000E-002   0.0000000000000000     
   1.2500000000000000        6.2500000000000000E-002   0.0000000000000000     
   1.1250000000000000        9.3750000000000000E-002   0.0000000000000000     
   1.1562500000000000        9.3750000000000000E-002   0.0000000000000000     
   1.1875000000000000        9.3750000000000000E-002   0.0000000000000000     
   1.2187500000000000        9.3750000000000000E-002   0.0000000000000000     
   1.2500000000000000        9.3750000000000000E-002   0.0000000000000000     
   1.1250000000000000       0.12500000000000000        0.0000000000000000     
   1.1562500000000000       0.12500000000000000        0.0000000000000000     
   1.1875000000000000       0.12500000000000000        0.0000000000000000     
   1.2187500000000000       0.12500000000000000        0.0000000000000000     
   1.2500000000000000       0.12500000000000000        0.0000000000000000     
   1.2500000000000000        0.0000000000000000        0.0000000000000000     
   1.2812500000000000        0.0000000000000000        0.0000000000000000     
   1.3125000000000000        0.0000000000000000        0.0000000000000000     
   1.3437500000000000        0.0000000000000000        0.0000000000000000     
   1.3750000000000000        0.0000000000000000        0.0000000000000000     
   1.2500000000000000        3.1250000000000000E-002   0.0000000000000000     
   1.2812500000000000        3.1250000000000000E-002   0.0000000000000000     
   1.3125000000000000        3.1250000000000000E-002   0.0000000000000000     
   1.3437500000000000        3.1250000000000000E-002   0.0000000000000000     
   1.3750000000000000        3.1250000000000000E-002   0.0000000000000000     
   1.2500000000000000        6.2500000000000000E-002   0.0000000000000000     
   1.2812500000000000        6.2500000000000000E-002   0.0000000000000000     
   1.3125000000000000        6.2500000000000000E-002   0.0000000000000000     
   1.3437500000000000        6.2500000000000000E-002   0.0000000000000000     
   1.3750000000000000        6.2500000000000000E-002   0.0000000000000000     
   1.2500000000000000        9.3750000000000000E-002   0.0000000000000000     
   1.2812500000000000        9.3750000000000000E-002   0.0000000000000000     
   1.3125000000000000        9.3750000000000000E-002   0.0000000000000000     
   1.3437500000000000        9.3750000000000000E-002   0.0000000000000000     
   1.3750000000000000        9.3750000000000000E-002   0.0000000000000000     
   1.2500000000000000       0.12500000000000000        0.0000000000000000     
   1.2812500000000000       0.12500000000000000        0.0000000000000000     
   1.3125000000000000       0.12500000000000000        0.0000000000000000     
   1.3437500000000000       0.12500000000000000        0.0000000000000000     
   1.3750000000000000       0.12500000000000000        0.0000000000000000     
   1.3750000000000000        0.0000000000000000        0.0000000000000000     
   1.4062500000000000        0.0000000000000000        0.0000000000000000     
   1.4375000000000000        0.0000000000000000        0.0000000000000000     
   1.4687500000000000        0.0000000000000000        0.0000000000000000     
   1.5000000000000000        0.0000000000000000        0.0000000000000000     
   1.3750000000000000        3.1250000000000000E-002   0.0000000000000000     
   1.4062500000000000        3.1250000000000000E-002   0.0000000000000000     
   1.4375000000000000        3.1250000000000000E-002   0.0000000000000000     
   1.4687500000000000        3.1250000000000000E-002   0.0000000000000000     
   1.5000000000000000        3.1250000000000000E-002   0.0000000000000000     
   1.3750000000000000        6.2500000000000000E-002   0.0000000000000000     
   1.4062500000000000        6.2500000000000000E-002   0.0000000000000000     
   1.4375000000000000        6.2500000000000000E-002   0.0000000000000000     
   1.4687500000000000        6.2500000000000000E-002   0.0000000000000000     
   1.5000000000000000        6.2500000000000000E-002   0.0000000000000000     
   1.3750000000000000        9.3750000000000000E-002   0.0000000000000000     
   1.4062500000000000        9.3750000000000000E-002   0.0000000000000000     
   1.4375000000000000        9.3750000000000000E-002   0.0000000000000000     
   1.4687500000000000        9.3750000000000000E-002   0.0000000000000000     
   1.5000000000000000        9.3750000000000000E-002   0.0000000000000000     
   1.3750000000000000       0.12500000000000000        0.0000000000000000     
   1.4062500000000000       0.12500000000000000        0.0000000000000000     
   1.4375000000000000       0.12500000000000000        0.0000000000000000     
   1.4687500000000000       0.12500000000000000        0.0000000000000000     
   1.5000000000000000       0.12500000000000000        0.0000000000000000     
  0.50000000000000000       0.12500000000000000        0.0000000000000000     
  0.53125000000000000       0.12500000000000000        0.0000000000000000     
  0.56250000000000000       0.12500000000000000        0.0000000000000000     
  0.59375000000000000       0.12500000000000000        0.0000000000000000     
  0.62500000000000000       0.12500000000000000        0.0000000000000000     
  0.50000000000000000       0.15625000000000000        0.0000000000000000     
  0.53125000000000000       0.15625000000000000        0.0000000000000000     
  0.56250000000000000       0.15625000000000000        0.0000000000000000     
  0.59375000000000000       0.15625000000000000        0.0000000000000000     
  0.62500000000000000       0.15625000000000000        0.0000000000000000     
  0.50000000000000000       0.18750000000000000        0.0000000000000000     
  0.53125000000000000       0.18750000000000000        0.0000000000000000     
  0.56250000000000000       0.18750000000000000        0.0000000000000000     
  0.59375000000000000       0.18750000000000000        0.0000000000000000     
  0.62500000000000000       0.18750000000000000        0.0000000000000000     
  0.50000000000000000       0.21875000000000000        0.0000000000000000     
  0.53125000000000000       0.21875000000000000        0.0000000000000000     
  0.56250000000000000       0.21875000000000000        0.0000000000000000     
  0.59375000000000000       0.21875000000000000        0.0000000000000000     
  0.62500000000000000       0.21875000000000000        0.0000000000000000     
  0.50000000000000000       0.25000000000000000        0.0000000000000000     
  0.53125000000000000       0.25000000000000000        0.0000000000000000     
  0.56250000000000000       0.25000000000000000        0.0000000000000000     
  0.59375000000000000       0.25000000000000000        0.0000000000000000     
  0.62500000000000000       0.25000000000000000        0.0000000000000000     
  0.62500000000000000       0.12500000000000000        0.0000000000000000     
  0.65625000000000000       0.12500000000000000        0.0000000000000000     
  0.68750000000000000       0.12500000000000000        0.0000000000000000     
  0.71875000000000000       0.12500000000000000        0.0000000000000000     
  0.75000000000000000       0.12500000000000000        0.0000000000000000     
  0.62500000000000000       0.15625000000000000        0.0000000000000000     
  0.65625000000000000       0.15625000000000000        0.0000000000000000     
  0.68750000000000000       0.15625000000000000        0.0000000000000000     
  0.71875000000000000       0.15625000000000000        0.0000000000000000     
  0.75000000000000000       0.15625000000000000        0.0000000000000000     
  0.62500000000000000       0.18750000000000000        0.0000000000000000     
  0.65625000000000000       0.18750000000000000        0.0000000000000000     
  0.68750000000000000       0.18750000000000000        0.0000000000000000     
  0.71875000000000000       0.18750000000000000        0.0000000000000000     
  0.75000000000000000       0.18750000000000000        0.0000000000000000     
  0.62500000000000000       0.21875000000000000        0.0000000000000000     
  0.65625000000000000       0.21875000000000000        0.0000000000000000     
  0.68750000000000000       0.21875000000000000        0.0000000000000000     
  0.71875000000000000       0.21875000000000000        0.0000000000000000     
  0.75000000000000000       0.21875000000000000        0.0000000000000000     
  0.62500000000000000       0.25000000000000000        0.0000000000000000     
  0.65625000000000000       0.25000000000000000        0.0000000000000000     
  0.68750000000000000       0.25000000000000000        0.0000000000000000     
  0.71875000000000000       0.25000000000000000        0.0000000000000000     
  0.75000000000000000       0.25000000000000000        0.0000000000000000     
  0.75000000000000000       0.12500000000000000        0.0000000000000000     
  0.78125000000000000       0.12500000000000000        0.0000000000000000     
  0.81250000000000000       0.12500000000000000        0.0000000000000000     
  0.84375000000000000       0.12500000000000000        0.0000000000000000     
  0.87500000000000000       0.12500000000000000        0.0000000000000000     
  0.75000000000000000       0.15625000000000000        0.0000000000000000     
  0.78125000000000000       0.15625000000000000        0.0000000000000000     
  0.81250000000000000       0.15625000000000000        0.0000000000000000     
  0.84375000000000000       0.15625000000000000        0.0000000000000000     
  0.87500000000000000       0.15625000000000000        0.0000000000000000     
  0.75000000000000000       0.18750000000000000        0.0000000000000000     
  0.78125000000000000       0.18750000000000000        0.0000000000000000     
  0.81250000000000000       0.18750000000000000        0.0000000000000000     
  0.84375000000000000       0.18750000000000000        0.0000000000000000     
  0.87500000000000000       0.18750000000000000        0.0000000000000000     
  0.75000000000000000       0.21875000000000000        0.0000000000000000     
  0.78125000000000000       0.21875000000000000        0.0000000000000000     
  0.81250000000000000       0.21875000000000000        0.0000000000000000     
  0.84375000000000000       0.21875000000000000        0.0000000000000000     
  0.87500000000000000       0.21875000000000000        0.0000000000000000     
  0.75000000000000000       0.25000000000000000        0.0000000000000000     
  0.78125000000000000       0.25000000000000000        0.0000000000000000     
  0.81250000000000000       0.25000000000000000        0.0000000000000000     
  0.84375000000000000       0.25000000000000000        0.0000000000000000     
  0.87500000000000000       0.25000000000000000        0.0000000000000000     
  0.87500000000000000       0.12500000000000000        0.0000000000000000     
  0.90625000000000000       0.12500000000000000        0.0000000000000000     
  0.93750000000000000       0.12500000000000000        0.0000000000000000     
  0.96875000000000000       0.12500000000000000        0.0000000000000000     
   1.0000000000000000       0.12500000000000000        0.0000000000000000     
  0.87500000000000000       0.15625000000000000        0.0000000000000000     
  0.90625000000000000       0.15625000000000000        0.0000000000000000     
  0.93750000000000000       0.15625000000000000        0.0000000000000000     
  0.96875000000000000       0.15625000000000000        0.0000000000000000     
   1.0000000000000000       0.15625000000000000        0.0000000000000000     
  0.87500000000000000       0.18750000000000000        0.0000000000000000     
  0.90625000000000000       0.18750000000000000        0.0000000000000000     
  0.93750000000000000       0.18750000000000000        0.0000000000000000     
  0.96875000000000000       0.18750000000000000        0.0000000000000000     
   1.0000000000000000       0.18750000000000000        0.0000000000000000     
  0.87500000000000000       0.21875000000000000        0.0000000000000000     
  0.90625000000000000       0.21875000000000000        0.0000000000000000     
  0.93750000000000000       0.21875000000000000        0.0000000000000000     
  0.96875000000000000       0.21875000000000000        0.0000000000000000     
   1.0000000000000000       0.21875000000000000        0.0000000000000000     
  0.87500000000000000       0.25000000000000000        0.0000000000000000     
  0.90625000000000000       0.25000000000000000        0.0000000000000000     
  0.93750000000000000       0.25000000000000000        0.0000000000000000     
  0.96875000000000000       0.25000000000000000        0.0000000000000000     
   1.0000000000000000       0.25000000000000000        0.0000000000000000     
   1.0000000000000000       0.12500000000000000        0.0000000000000000     
   1.0312500000000000       0.12500000000000000        0.0000000000000000     
   1.0625000000000000       0.12500000000000000        0.0000000000000000     
   1.0937500000000000       0.12500000000000000        0.0000000000000000     
   1.1250000000000000       0.12500000000000000        0.0000000000000000     
   1.0000000000000000       0.15625000000000000        0.0000000000000000     
   1.0312500000000000       0.15625000000000000        0.0000000000000000     
   1.0625000000000000       0.15625000000000000        0.0000000000000000     
   1.0937500000000000       0.15625000000000000        0.0000000000000000     
   1.1250000000000000       0.15625000000000000        0.0000000000000000     
   1.0000000000000000       0.18750000000000000        0.0000000000000000     
   1.0312500000000000       0.18750000000000000        0.0000000000000000     
   1.0625000000000000       0.18750000000000000        0.0000000000000000     
   1.0937500000000000       0.18750000000000000        0.0000000000000000     
   1.1250000000000000       0.18750000000000000        0.0000000000000000     
   1.0000000000000000       0.21875000000000000        0.0000000000000000     
   1.0312500000000000       0.21875000000000000        0.0000000000000000     
   1.0625000000000000       0.21875000000000000        0.0000000000000000     
   1.0937500000000000       0.21875000000000000        0.0000000000000000     
   1.1250000000000000       0.21875000000000000        0.0000000000000000     
   1.0000000000000000       0.25000000000000000        0.0000000000000000     
   1.0312500000000000       0.25000000000000000        0.0000000000000000     
   1.0625000000000000       0.25000000000000000        0.0000000000000000     
   1.0937500000000000       0.25000000000000000        0.0000000000000000     
   1.1250000000000000       0.25000000000000000        0.0000000000000000     
   1.1250000000000000       0.12500000000000000        0.0000000000000000     
   1.1562500000000000       0.12500000000000000        0.0000000000000000     
   1.1875000000000000       0.12500000000000000        0.0000000000000000     
   1.2187500000000000       0.12500000000000000        0.0000000000000000     
   1.2500000000000000       0.12500000000000000        0.0000000000000000     
   1.1250000000000000       0.15625000000000000        0.0000000000000000     
   1.1562500000000000       0.15625000000000000        0.0000000000000000     
   1.1875000000000000       0.15625000000000000        0.0000000000000000     
   1.2187500000000000       0.15625000000000000        0.0000000000000000     
   1.2500000000000000       0.15625000000000000        0.0000000000000000     
   1.1250000000000000       0.18750000000000000        0.0000000000000000     
   1.1562500000000000       0.18750000000000000        0.0000000000000000     
   1.1875000000000000       0.18750000000000000        0.0000000000000000     
   1.2187500000000000       0.18750000000000000        0.0000000000000000     
   1.2500000000000000       0.18750000000000000        0.0000000000000000     
   1.1250000000000000       0.21875000000000000        0.0000000000000000     
   1.1562500000000000       0.21875000000000000        0.0000000000000000     
   1.1875000000000000       0.21875000000000000        0.0000000000000000     
   1.2187500000000000       0.21875000000000000        0.0000000000000000     
   1.2500000000000000       0.21875000000000000        0.0000000000000000     
   1.1250000000000000       0.25000000000000000        0.0000000000000000     
   1.1562500000000000       0.25000000000000000        0.0000000000000000     
   1.1875000000000000       0.25000000000000000        0.0000000000000000     
   1.2187500000000000       0.25000000000000000        0.0000000000000000     
   1.2500000000000000       0.25000000000000000        0.0000000000000000     
   1.2500000000000000       0.12500000000000000        0.0000000000000000     
   1.2812500000000000       0.12500000000000000        0.0000000000000000     
   1.3125000000000000       0.12500000000000000        0.0000000000000000     
   1.3437500000000000       0.12500000000000000        0.0000000000000000     
   1.3750000000000000       0.12500000000000000        0.0000000000000000     
   1.2500000000000000       0.15625000000000000        0.0000000000000000     
   1.2812500000000000       0.15625000000000000        0.0000000000000000     
   1.3125000000000000       0.15625000000000000        0.0000000000000000     
   1.3437500000000000       0.15625000000000000        0.0000000000000000     
   1.3750000000000000       0.15625000000000000        0.0000000000000000     
   1.2500000000000000       0.18750000000000000        0.0000000000000000     
   1.2812500000000000       0.18750000000000000        0.0000000000000000     
   1.3125000000000000       0.18750000000000000        0.0000000000000000     
   1.3437500000000000       0.18750000000000000        0.0000000000000000     
   1.3750000000000000       0.18750000000000000        0.0000000000000000     
   1.2500000000000000       0.21875000000000000        0.0000000000000000     
   1.2812500000000000       0.21875000000000000        0.0000000000000000     
   1.3125000000000000       0.21875000000000000        0.0000000000000000     
   1.3437500000000000       0.21875000000000000        0.0000000000000000     
   1.3750000000000000       0.21875000000000000        0.0000000000000000     
   1.2500000000000000       0.25000000000000000        0.0000000000000000     
   1.2812500000000000       0.25000000000000000        0.0000000000000000     
   1.3125000000000000       0.25000000000000000        0.0000000000000000     
   1.3437500000000000       0.25000000000000000        0.0000000000000000     
   1.3750000000000000       0.25000000000000000        0.0000000000000000     
   1.3750000000000000       0.12500000000000000        0.0000000000000000     
   1.4062500000000000       0.12500000000000000        0.0000000000000000     
   1.4375000000000000       0.12500000000000000        0.0000000000000000     
   1.4687500000000000       0.12500000000000000        0.0000000000000000     
   1.5000000000000000       0.12500000000000000        0.0000000000000000     
   1.3750000000000000       0.15625000000000000        0.0000000000000000     
   1.4062500000000000       0.15625000000000000        0.0000000000000000     
   1.4375000000000000       0.15625000000000000        0.0000000000000000     
   1.4687500000000000       0.15625000000000000        0.0000000000000000     
   1.5000000000000000       0.15625000000000000        0.0000000000000000     
   1.3750000000000000       0.18750000000000000        0.0000000000000000     
   1.4062500000000000       0.18750000000000000        0.0000000000000000     
   1.4375000000000000       0.18750000000000000        0.0000000000000000     
   1.4687500000000000       0.18750000000000000        0.0000000000000000     
   1.5000000000000000       0.18750000000000000        0.0000000000000000     
   1.3750000000000000       0.21875000000000000        0.0000000000000000     
   1.4062500000000000       0.21875000000000000        0.0000000000000000     
   1.4375000000000000       0.21875000000000000        0.0000000000000000     
   1.4687500000000000       0.21875000000000000        0.0000000000000000     
   1.5000000000000000       0.21875000000000000        0.0000000000000000     
   1.3750000000000000       0.25000000000000000        0.0000000000000000     
   1.4062500000000000       0.25000000000000000        0.0000000000000000     
   1.4375000000000000       0.25000000000000000        0.0000000000000000     
   1.4687500000000000       0.25000000000000000        0.0000000000000000     
   1.5000000000000000       0.25000000000000000        0.0000000000000000     
  0.50000000000000000       0.25000000000000000        0.0000000000000000     
  0.53125000000000000       0.25000000000000000        0.0000000000000000     
  0.56250000000000000       0.25000000000000000        0.0000000000000000     
  0.59375000000000000       0.25000000000000000        0.0000000000000000     
  0.62500000000000000       0.25000000000000000        0.0000000000000000     
  0.50000000000000000       0.28125000000000000        0.0000000000000000     
  0.53125000000000000       0.28125000000000000        0.0000000000000000     
  0.56250000000000000       0.28125000000000000        0.0000000000000000     
  0.59375000000000000       0.28125000000000000        0.0000000000000000     
  0.62500000000000000       0.28125000000000000        0.0000000000000000     
  0.50000000000000000       0.31250000000000000        0.0000000000000000     
  0.53125000000000000       0.31250000000000000        0.0000000000000000     
  0.56250000000000000       0.31250000000000000        0.0000000000000000     
  0.59375000000000000       0.31250000000000000        0.0000000000000000     
  0.62500000000000000       0.31250000000000000        0.0000000000000000     
  0.50000000000000000       0.34375000000000000        0.0000000000000000     
  0.53125000000000000       0.34375000000000000        0.0000000000000000     
  0.56250000000000000       0.34375000000000000        0.0000000000000000     
  0.59375000000000000       0.34375000000000000        0.0000000000000000     
  0.62500000000000000       0.34375000000000000        0.0000000000000000     
  0.50000000000000000       0.37500000000000000        0.0000000000000000     
  0.53125000000000000       0.37500000000000000        0.0000000000000000     
  0.56250000000000000       0.37500000000000000        0.0000000000000000     
  0.59375000000000000       0.37500000000000000        0.0000000000000000     
  0.62500000000000000       0.37500000000000000        0.0000000000000000     
  0.62500000000000000       0.25000000000000000        0.0000000000000000     
  0.65625000000000000       0.25000000000000000        0.0000000000000000     
  0.68750000000000000       0.25000000000000000        0.0000000000000000     
  0.71875000000000000       0.25000000000000000        0.0000000000000000     
  0.75000000000000000       0.25000000000000000        0.0000000000000000     
  0.62500000000000000       0.28125000000000000        0.0000000000000000     
  0.65625000000000000       0.28125000000000000        0.0000000000000000     
  0.68750000000000000       0.28125000000000000        0.0000000000000000     
  0.71875000000000000       0.28125000000000000        0.0000000000000000     
  0.75000000000000000       0.28125000000000000        0.0000000000000000     
  0.62500000000000000       0.31250000000000000        0.0000000000000000     
  0.65625000000000000       0.31250000000000000        0.0000000000000000     
  0.68750000000000000       0.31250000000000000        0.0000000000000000     
  0.71875000000000000       0.31250000000000000        0.0000000000000000     
  0.75000000000000000       0.31250000000000000        0.0000000000000000     
  0.62500000000000000       0.34375000000000000        0.0000000000000000     
  0.65625000000000000       0.34375000000000000        0.0000000000000000     
  0.68750000000000000       0.34375000000000000        0.0000000000000000     
  0.71875000000000000       0.34375000000000000        0.0000000000000000     
  0.75000000000000000       0.34375000000000000        0.0000000000000000     
  0.62500000000000000       0.37500000000000000        0.0000000000000000     
  0.65625000000000000       0.37500000000000000        0.0000000000000000     
  0.68750000000000000       0.37500000000000000        0.0000000000000000     
  0.71875000000000000       0.37500000000000000        0.0000000000000000     
  0.75000000000000000       0.37500000000000000        0.0000000000000000     
  0.75000000000000000       0.25000000000000000        0.0000000000000000     
  0.78125000000000000       0.25000000000000000        0.0000000000000000     
  0.81250000000000000       0.25000000000000000        0.0000000000000000     
  0.84375000000000000       0.25000000000000000        0.0000000000000000     
  0.87500000000000000       0.25000000000000000        0.0000000000000000     
  0.75000000000000000       0.28125000000000000        0.0000000000000000     
  0.78125000000000000       0.28125000000000000        0.0000000000000000     
  0.81250000000000000       0.28125000000000000        0.0000000000000000     
  0.84375000000000000       0.28125000000000000        0.0000000000000000     
  0.87500000000000000       0.28125000000000000        0.0000000000000000     
  0.75000000000000000       0.31250000000000000        0.0000000000000000     
  0.78125000000000000       0.31250000000000000        0.0000000000000000     
  0.81250000000000000       0.31250000000000000        0.0000000000000000     
  0.84375000000000000       0.31250000000000000        0.0000000000000000     
  0.87500000000000000       0.31250000000000000        0.0000000000000000     
  0.75000000000000000       0.34375000000000000        0.0000000000000000     
  0.78125000000000000       0.34375000000000000        0.0000000000000000     
  0.81250000000000000       0.34375000000000000        0.0000000000000000     
  0.84375000000000000       0.34375000000000000        0.0000000000000000     
  0.87500000000000000       0.34375000000000000        0.0000000000000000     
  0.75000000000000000       0.37500000000000000        0.0000000000000000     
  0.78125000000000000       0.37500000000000000        0.0000000000000000     
  0.81250000000000000       0.37500000000000000        0.0000000000000000     
  0.84375000000000000       0.37500000000000000        0.0000000000000000     
  0.87500000000000000       0.37500000000000000        0.0000000000000000     
  0.87500000000000000       0.25000000000000000        0.0000000000000000     
  0.90625000000000000       0.25000000000000000        0.0000000000000000     
  0.93750000000000000       0.25000000000000000        0.0000000000000000     
  0.96875000000000000       0.25000000000000000        0.0000000000000000     
   1.0000000000000000       0.25000000000000000        0.0000000000000000     
  0.87500000000000000       0.28125000000000000        0.0000000000000000     
  0.90625000000000000       0.28125000000000000        0.0000000000000000     
  0.93750000000000000       0.28125000000000000        0.0000000000000000     
  0.96875000000000000       0.28125000000000000        0.0000000000000000     
   1.0000000000000000       0.28125000000000000        0.0000000000000000     
  0.87500000000000000       0.31250000000000000        0.0000000000000000     
  0.90625000000000000       0.31250000000000000        0.0000000000000000     
  0.93750000000000000       0.31250000000000000        0.0000000000000000     
  0.96875000000000000       0.31250000000000000        0.0000000000000000     
   1.0000000000000000       0.31250000000000000        0.0000000000000000     
  0.87500000000000000       0.34375000000000000        0.0000000000000000     
  0.90625000000000000       0.34375000000000000        0.0000000000000000     
  0.93750000000000000       0.34375000000000000        0.0000000000000000     
  0.96875000000000000       0.34375000000000000        0.0000000000000000     
   1.0000000000000000       0.34375000000000000        0.0000000000000000     
  0.87500000000000000       0.37500000000000000        0.0000000000000000     
  0.90625000000000000       0.37500000000000000        0.0000000000000000     
  0.93750000000000000       0.37500000000000000        0.0000000000000000     
  0.96875000000000000       0.37500000000000000        0.0000000000000000     
   1.0000000000000000       0.37500000000000000        0.0000000000000000     
   1.0000000000000000       0.25000000000000000        0.0000000000000000     
   1.0312500000000000       0.25000000000000000        0.0000000000000000     
   1.0625000000000000       0.25000000000000000        0.0000000000000000     
   1.0937500000000000       0.25000000000000000        0.0000000000000000     
   1.1250000000000000       0.25000000000000000        0.0000000000000000     
   1.0000000000000000       0.28125000000000000        0.0000000000000000     
   1.0312500000000000       0.28125000000000000        0.0000000000000000     
   1.0625000000000000       0.28125000000000000        0.0000000000000000     
   1.0937500000000000       0.28125000000000000        0.0000000000000000     
   1.1250000000000000       0.28125000000000000        0.0000000000000000     
   1.0000000000000000       0.31250000000000000        0.0000000000000000     
   1.0312500000000000       0.31250000000000000        0.0000000000000000     
   1.0625000000000000       0.31250000000000000        0.0000000000000000     
   1.0937500000000000       0.31250000000000000        0.0000000000000000     
   1.1250000000000000       0.31250000000000000        0.0000000000000000     
   1.0000000000000000       0.34375000000000000        0.0000000000000000     
   1.0312500000000000       0.34375000000000000        0.0000000000000000     
   1.0625000000000000       0.34375000000000000        0.0000000000000000     
   1.0937500000000000       0.34375000000000000        0.0000000000000000     
   1.1250000000000000       0.34375000000000000        0.0000000000000000     
   1.0000000000000000       0.37500000000000000        0.0000000000000000     
   1.0312500000000000       0.37500000000000000        0.0000000000000000     
   1.0625000000000000       0.37500000000000000        0.0000000000000000     
   1.0937500000000000       0.37500000000000000        0.0000000000000000     
   1.1250000000000000       0.37500000000000000        0.0000000000000000     
   1.1250000000000000       0.25000000000000000        0.0000000000000000     
   1.1562500000000000       0.25000000000000000        0.0000000000000000     
   1.1875000000000000       0.25000000000000000        0.0000000000000000     
   1.2187500000000000       0.25000000000000000        0.0000000000000000     
   1.2500000000000000       0.25000000000000000        0.0000000000000000     
   1.1250000000000000       0.28125000000000000        0.0000000000000000     
   1.1562500000000000       0.28125000000000000        0.0000000000000000     
   1.1875000000000000       0.28125000000000000        0.0000000000000000     
   1.2187500000000000       0.28125000000000000        0.0000000000000000     
   1.2500000000000000       0.28125000000000000        0.0000000000000000     
   1.1250000000000000       0.31250000000000000        0.0000000000000000     
   1.1562500000000000       0.31250000000000000        0.0000000000000000     
   1.1875000000000000       0.31250000000000000        0.0000000000000000     
   1.2187500000000000       0.31250000000000000        0.0000000000000000     
   1.2500000000000000       0.31250000000000000        0.0000000000000000     
   1.1250000000000000       0.34375000000000000        0.0000000000000000     
   1.1562500000000000       0.34375000000000000        0.0000000000000000     
   1.1875000000000000       0.34375000000000000        0.0000000000000000     
   1.2187500000000000       0.34375000000000000        0.0000000000000000     
   1.2500000000000000       0.34375000000000000        0.0000000000000000     
   1.1250000000000000       0.37500000000000000        0.0000000000000000     
   1.1562500000000000       0.37500000000000000        0.0000000000000000     
   1.1875000000000000       0.37500000000000000        0.0000000000000000     
   1.2187500000000000       0.37500000000000000        0.0000000000000000     
   1.2500000000000000       0.37500000000000000        0.0000000000000000     
   1.2500000000000000       0.25000000000000000        0.0000000000000000     
   1.2812500000000000       0.25000000000000000        0.0000000000000000     
   1.3125000000000000       0.25000000000000000        0.0000000000000000     
   1.3437500000000000       0.25000000000000000        0.0000000000000000     
   1.3750000000000000       0.25000000000000000        0.0000000000000000     
   1.2500000000000000       0.28125000000000000        0.0000000000000000     
   1.2812500000000000       0.28125000000000000        0.0000000000000000     
   1.3125000000000000       0.28125000000000000        0.0000000000000000     
   1.3437500000000000       0.28125000000000000        0.0000000000000000     
   1.3750000000000000       0.28125000000000000        0.0000000000000000     
   1.2500000000000000       0.31250000000000000        0.0000000000000000     
   1.2812500000000000       0.31250000000000000        0.0000000000000000     
   1.3125000000000000       0.31250000000000000        0.0000000000000000     
   1.3437500000000000       0.31250000000000000        0.0000000000000000     
   1.3750000000000000       0.31250000000000000        0.0000000000000000     
   1.2500000000000000       0.34375000000000000        0.0000000000000000     
   1.2812500000000000       0.34375000000000000        0.0000000000000000     
   1.3125000000000000       0.34375000000000000        0.0000000000000000     
   1.3437500000000000       0.34375000000000000        0.0000000000000000     
   1.3750000000000000       0.34375000000000000        0.0000000000000000     
   1.2500000000000000       0.37500000000000000        0.0000000000000000     
   1.2812500000000000       0.37500000000000000        0.0000000000000000     
   1.3125000000000000       0.37500000000000000        0.0000000000000000     
   1.3437500000000000       0.37500000000000000        0.0000000000000000     
   1.3750000000000000       0.37500000000000000        0.0000000000000000     
   1.3750000000000000       0.25000000000000000        0.0000000000000000     
   1.4062500000000000       0.25000000000000000        0.0000000000000000     
   1.4375000000000000       0.25000000000000000        0.0000000000000000     
   1.4687500000000000       0.25000000000000000        0.0000000000000000     
   1.5000000000000000       0.25000000000000000        0.0000000000000000     
   1.3750000000000000       0.28125000000000000        0.0000000000000000     
   1.4062500000000000       0.28125000000000000        0.0000000000000000     
   1.4375000000000000       0.28125000000000000        0.0000000000000000     
   1.4687500000000000       0.28125000000000000        0.0000000000000000     
   1.5000000000000000       0.28125000000000000        0.0000000000000000     
   1.3750000000000000       0.31250000000000000        0.0000000000000000     
   1.4062500000000000       0.31250000000000000        0.0000000000000000     
   1.4375000000000000       0.31250000000000000        0.0000000000000000     
   1.4687500000000000       0.31250000000000000        0.0000000000000000     
   1.5000000000000000       0.31250000000000000        0.0000000000000000     
   1.3750000000000000       0.34375000000000000        0.0000000000000000     
   1.4062500000000000       0.34375000000000000        0.0000000000000000     
   1.4375000000000000       0.34375000000000000        0.0000000000000000     
   1.4687500000000000       0.34375000000000000        0.0000000000000000     
   1.5000000000000000       0.34375000000000000        0.0000000000000000     
   1.3750000000000000       0.37500000000000000        0.0000000000000000     
   1.4062500000000000       0.37500000000000000        0.0000000000000000     
   1.4375000000000000       0.37500000000000000        0.0000000000000000     
   1.4687500000000000       0.37500000000000000        0.0000000000000000     
   1.5000000000000000       0.37500000000000000        0.0000000000000000     
  0.50000000000000000       0.37500000000000000        0.0000000000000000     
  0.53125000000000000       0.37500000000000000        0.0000000000000000     
  0.56250000000000000       0.37500000000000000        0.0000000000000000     
  0.59375000000000000       0.37500000000000000        0.0000000000000000     
  0.62500000000000000       0.37500000000000000        0.0000000000000000     
  0.50000000000000000       0.40625000000000000        0.0000000000000000     
  0.53125000000000000       0.40625000000000000        0.0000000000000000     
  0.56250000000000000       0.40625000000000000        0.0000000000000000     
  0.59375000000000000       0.40625000000000000        0.0000000000000000     
  0.62500000000000000       0.40625000000000000        0.0000000000000000     
  0.50000000000000000       0.43750000000000000        0.0000000000000000     
  0.53125000000000000       0.43750000000000000        0.0000000000000000     
  0.56250000000000000       0.43750000000000000        0.0000000000000000     
  0.59375000000000000       0.43750000000000000        0.0000000000000000     
  0.62500000000000000       0.43750000000000000        0.0000000000000000     
  0.50000000000000000       0.46875000000000000        0.0000000000000000     
  0.53125000000000000       0.46875000000000000        0.0000000000000000     
  0.56250000000000000       0.46875000000000000        0.0000000000000000     
  0.59375000000000000       0.46875000000000000        0.0000000000000000     
  0.62500000000000000       0.46875000000000000        0.0000000000000000     
  0.50000000000000000       0.50000000000000000        0.0000000000000000     
  0.53125000000000000       0.50000000000000000        0.0000000000000000     
  0.56250000000000000       0.50000000000000000        0.0000000000000000     
  0.59375000000000000       0.50000000000000000        0.0000000000000000     
  0.62500000000000000       0.50000000000000000        0.0000000000000000     
  0.62500000000000000       0.37500000000000000        0.0000000000000000     
  0.65625000000000000       0.37500000000000000        0.0000000000000000     
  0.68750000000000000       0.37500000000000000        0.0000000000000000     
  0.71875000000000000       0.37500000000000000        0.0000000000000000     
  0.75000000000000000       0.37500000000000000        0.0000000000000000     
  0.62500000000000000       0.40625000000000000        0.0000000000000000     
  0.65625000000000000       0.40625000000000000        0.0000000000000000     
  0.68750000000000000       0.40625000000000000        0.0000000000000000     
  0.71875000000000000       0.40625000000000000        0.0000000000000000     
  0.75000000000000000       0.40625000000000000        0.0000000000000000     
  0.62500000000000000       0.43750000000000000        0.0000000000000000     
  0.65625000000000000       0.43750000000000000        0.0000000000000000     
  0.68750000000000000       0.43750000000000000        0.0000000000000000     
  0.71875000000000000       0.43750000000000000        0.0000000000000000     
  0.75000000000000000       0.43750000000000000        0.0000000000000000     
  0.62500000000000000       0.46875000000000000        0.0000000000000000     
  0.65625000000000000       0.46875000000000000        0.0000000000000000     
  0.68750000000000000       0.46875000000000000        0.0000000000000000     
  0.71875000000000000       0.46875000000000000        0.0000000000000000     
  0.75000000000000000       0.46875000000000000        0.0000000000000000     
  0.62500000000000000       0.50000000000000000        0.0000000000000000     
  0.65625000000000000       0.50000000000000000        0.0000000000000000     
  0.68750000000000000       0.50000000000000000        0.0000000000000000     
  0.71875000000000000       0.50000000000000000        0.0000000000000000     
  0.75000000000000000       0.50000000000000000        0.0000000000000000     
  0.75000000000000000       0.37500000000000000        0.0000000000000000     
  0.78125000000000000       0.37500000000000000        0.0000000000000000     
  0.81250000000000000       0.37500000000000000        0.0000000000000000     
  0.84375000000000000       0.37500000000000000        0.0000000000000000     
  0.87500000000000000       0.37500000000000000        0.0000000000000000     
  0.75000000000000000       0.40625000000000000        0.0000000000000000     
  0.78125000000000000       0.40625000000000000        0.0000000000000000     
  0.81250000000000000       0.40625000000000000        0.0000000000000000     
  0.84375000000000000       0.40625000000000000        0.0000000000000000     
  0.87500000000000000       0.40625000000000000        0.0000000000000000     
  0.75000000000000000       0.43750000000000000        0.0000000000000000     
  0.78125000000000000       0.43750000000000000        0.0000000000000000     
  0.81250000000000000       0.43750000000000000        0.0000000000000000     
  0.84375000000000000       0.43750000000000000        0.0000000000000000     
  0.87500000000000000       0.43750000000000000        0.0000000000000000     
  0.75000000000000000       0.46875000000000000        0.0000000000000000     
  0.78125000000000000       0.46875000000000000        0.0000000000000000     
  0.81250000000000000       0.46875000000000000        0.0000000000000000     
  0.84375000000000000       0.46875000000000000        0.0000000000000000     
  0.87500000000000000       0.46875000000000000        0.0000000000000000     
  0.75000000000000000       0.50000000000000000        0.0000000000000000     
  0.78125000000000000       0.50000000000000000        0.0000000000000000     
  0.81250000000000000       0.50000000000000000        0.0000000000000000     
  0.84375000000000000       0.50000000000000000        0.0000000000000000     
  0.87500000000000000       0.50000000000000000        0.0000000000000000     
  0.87500000000000000       0.37500000000000000        0.0000000000000000     
  0.90625000000000000       0.37500000000000000        0.0000000000000000     
  0.93750000000000000       0.37500000000000000        0.0000000000000000     
  0.96875000000000000       0.37500000000000000        0.0000000000000000     
   1.0000000000000000       0.37500000000000000        0.0000000000000000     
  0.87500000000000000       0.40625000000000000        0.0000000000000000     
  0.90625000000000000       0.40625000000000000        0.0000000000000000     
  0.93750000000000000       0.40625000000000000        0.0000000000000000     
  0.96875000000000000       0.40625000000000000        0.0000000000000000     
   1.0000000000000000       0.40625000000000000        0.0000000000000000     
  0.87500000000000000       0.43750000000000000        0.0000000000000000     
  0.90625000000000000       0.43750000000000000        0.0000000000000000     
  0.93750000000000000       0.43750000000000000        0.0000000000000000     
  0.96875000000000000       0.43750000000000000        0.0000000000000000     
   1.0000000000000000       0.43750000000000000        0.0000000000000000     
  0.87500000000000000       0.46875000000000000        0.0000000000000000     
  0.90625000000000000       0.46875000000000000        0.0000000000000000     
  0.93750000000000000       0.46875000000000000        0.0000000000000000     
  0.96875000000000000       0.46875000000000000        0.0000000000000000     
   1.0000000000000000       0.46875000000000000        0.0000000000000000     
  0.87500000000000000       0.50000000000000000        0.0000000000000000     
  0.90625000000000000       0.50000000000000000        0.0000000000000000     
  0.93750000000000000       0.50000000000000000        0.0000000000000000     
  0.96875000000000000       0.50000000000000000        0.0000000000000000     
   1.0000000000000000       0.50000000000000000        0.0000000000000000     
   1.0000000000000000       0.37500000000000000        0.0000000000000000     
   1.0312500000000000       0.37500000000000000        0.0000000000000000     
   1.0625000000000000       0.37500000000000000        0.0000000000000000     
   1.0937500000000000       0.37500000000000000        0.0000000000000000     
   1.1250000000000000       0.37500000000000000        0.0000000000000000     
   1.0000000000000000       0.40625000000000000        0.0000000000000000     
   1.0312500000000000       0.40625000000000000        0.0000000000000000     
   1.0625000000000000       0.40625000000000000        0.0000000000000000     
   1.0937500000000000       0.40625000000000000        0.0000000000000000     
   1.1250000000000000       0.40625000000000000        0.0000000000000000     
   1.0000000000000000       0.43750000000000000        0.0000000000000000     
   1.0312500000000000       0.43750000000000000        0.0000000000000000     
   1.0625000000000000       0.43750000000000000        0.0000000000000000     
   1.0937500000000000       0.43750000000000000        0.0000000000000000     
   1.1250000000000000       0.43750000000000000        0.0000000000000000     
   1.0000000000000000       0.46875000000000000        0.0000000000000000     
   1.0312500000000000       0.46875000000000000        0.0000000000000000     
   1.0625000000000000       0.46875000000000000        0.0000000000000000     
   1.0937500000000000       0.46875000000000000        0.0000000000000000     
   1.1250000000000000       0.46875000000000000        0.0000000000000000     
   1.0000000000000000       0.50000000000000000        0.0000000000000000     
   1.0312500000000000       0.50000000000000000        0.0000000000000000     
   1.0625000000000000       0.50000000000000000        0.0000000000000000     
   1.0937500000000000       0.50000000000000000        0.0000000000000000     
   1.1250000000000000       0.50000000000000000        0.0000000000000000     
   1.1250000000000000       0.37500000000000000        0.0000000000000000     
   1.1562500000000000       0.37500000000000000        0.0000000000000000     
   1.1875000000000000       0.37500000000000000        0.0000000000000000     
   1.2187500000000000       0.37500000000000000        0.0000000000000000     
   1.2500000000000000       0.37500000000000000        0.0000000000000000     
   1.1250000000000000       0.40625000000000000        0.0000000000000000     
   1.1562500000000000       0.40625000000000000        0.0000000000000000     
   1.1875000000000000       0.40625000000000000        0.0000000000000000     
   1.2187500000000000       0.40625000000000000        0.0000000000000000     
   1.2500000000000000       0.40625000000000000        0.0000000000000000     
   1.1250000000000000       0.43750000000000000        0.0000000000000000     
   1.1562500000000000       0.43750000000000000        0.0000000000000000     
   1.1875000000000000       0.43750000000000000        0.0000000000000000     
   1.2187500000000000       0.43750000000000000        0.0000000000000000     
   1.2500000000000000       0.43750000000000000        0.0000000000000000     
   1.1250000000000000       0.46875000000000000        0.0000000000000000     
   1.1562500000000000       0.46875000000000000        0.0000000000000000     
   1.1875000000000000       0.46875000000000000        0.0000000000000000     
   1.2187500000000000       0.46875000000000000        0.0000000000000000     
   1.2500000000000000       0.46875000000000000        0.0000000000000000     
   1.1250000000000000       0.50000000000000000        0.0000000000000000     
   1.1562500000000000       0.50000000000000000        0.0000000000000000     
   1.1875000000000000       0.50000000000000000        0.0000000000000000     
   1.2187500000000000       0.50000000000000000        0.0000000000000000     
   1.2500000000000000       0.50000000000000000        0.0000000000000000     
   1.2500000000000000       0.37500000000000000        0.0000000000000000     
   1.2812500000000000       0.37500000000000000        0.0000000000000000     
   1.3125000000000000       0.37500000000000000        0.0000000000000000     
   1.3437500000000000       0.37500000000000000        0.0000000000000000     
   1.3750000000000000       0.37500000000000000        0.0000000000000000     
   1.2500000000000000       0.40625000000000000        0.0000000000000000     
   1.2812500000000000       0.40625000000000000        0.0000000000000000     
   1.3125000000000000       0.40625000000000000        0.0000000000000000     
   1.3437500000000000       0.40625000000000000        0.0000000000000000     
   1.3750000000000000       0.40625000000000000        0.0000000000000000     
   1.2500000000000000       0.43750000000000000        0.0000000000000000     
   1.2812500000000000       0.43750000000000000        0.0000000000000000     
   1.3125000000000000       0.43750000000000000        0.0000000000000000     
   1.3437500000000000       0.43750000000000000        0.0000000000000000     
   1.3750000000000000       0.43750000000000000        0.0000000000000000     
   1.2500000000000000       0.46875000000000000        0.0000000000000000     
   1.2812500000000000       0.46875000000000000        0.0000000000000000     
   1.3125000000000000       0.46875000000000000        0.0000000000000000     
   1.3437500000000000       0.46875000000000000        0.0000000000000000     
   1.3750000000000000       0.46875000000000000        0.0000000000000000     
   1.2500000000000000       0.50000000000000000        0.0000000000000000     
   1.2812500000000000       0.50000000000000000        0.0000000000000000     
   1.3125000000000000       0.50000000000000000        0.0000000000000000     
   1.3437500000000000       0.50000000000000000        0.0000000000000000     
   1.3750000000000000       0.50000000000000000        0.0000000000000000     
   1.3750000000000000       0.37500000000000000        0.0000000000000000     
   1.4062500000000000       0.37500000000000000        0.0000000000000000     
   1.4375000000000000       0.37500000000000000        0.0000000000000000     
   1.4687500000000000       0.37500000000000000        0.0000000000000000     
   1.5000000000000000       0.37500000000000000        0.0000000000000000     
   1.3750000000000000       0.40625000000000000        0.0000000000000000     
   1.4062500000000000       0.40625000000000000        0.0000000000000000     
   1.4375000000000000       0.40625000000000000        0.0000000000000000     
   1.4687500000000000       0.40625000000000000        0.0000000000000000     
   1.5000000000000000       0.40625000000000000        0.0000000000000000     
   1.3750000000000000       0.43750000000000000        0.0000000000000000     
   1.4062500000000000       0.43750000000000000        0.0000000000000000     
   1.4375000000000000       0.43750000000000000        0.0000000000000000     
   1.4687500000000000       0.43750000000000000        0.0000000000000000     
   1.5000000000000000       0.43750000000000000        0.0000000000000000     
   1.3750000000000000       0.46875000000000000        0.0000000000000000     
   1.4062500000000000       0.46875000000000000        0.0000000000000000     
   1.4375000000000000       0.46875000000000000        0.0000000000000000     
   1.4687500000000000       0.46875000000000000        0.0000000000000000     
   1.5000000000000000       0.46875000000000000        0.0000000000000000     
   1.3750000000000000       0.50000000000000000        0.0000000000000000     
   1.4062500000000000       0.50000000000000000        0.0000000000000000     
   1.4375000000000000       0.50000000000000000        0.0000000000000000     
   1.4687500000000000       0.50000000000000000        0.0000000000000000     
   1.5000000000000000       0.50000000000000000        0.0000000000000000     
  0.50000000000000000       0.50000000000000000        0.0000000000000000     
  0.53125000000000000       0.50000000000000000        0.0000000000000000     
  0.56250000000000000       0.50000000000000000        0.0000000000000000     
  0.59375000000000000       0.50000000000000000        0.0000000000000000     
  0.62500000000000000       0.50000000000000000        0.0000000000000000     
  0.50000000000000000       0.53125000000000000        0.0000000000000000     
  0.53125000000000000       0.53125000000000000        0.0000000000000000     
  0.56250000000000000       0.53125000000000000        0.0000000000000000     
  0.59375000000000000       0.53125000000000000        0.0000000000000000     
  0.62500000000000000       0.53125000000000000        0.0000000000000000     
  0.50000000000000000       0.56250000000000000        0.0000000000000000     
  0.53125000000000000       0.56250000000000000        0.0000000000000000     
  0.56250000000000000       0.56250000000000000        0.0000000000000000     
  0.59375000000000000       0.56250000000000000        0.0000000000000000     
  0.62500000000000000       0.56250000000000000        0.0000000000000000     
  0.50000000000000000       0.59375000000000000        0.0000000000000000     
  0.53125000000000000       0.59375000000000000        0.0000000000000000     
  0.56250000000000000       0.59375000000000000        0.0000000000000000     
  0.59375000000000000       0.59375000000000000        0.0000000000000000     
  0.62500000000000000       0.59375000000000000        0.0000000000000000     
  0.50000000000000000       0.62500000000000000        0.0000000000000000     
  0.53125000000000000       0.62500000000000000        0.0000000000000000     
  0.56250000000000000       0.62500000000000000        0.0000000000000000     
  0.59375000000000000       0.62500000000000000        0.0000000000000000     
  0.62500000000000000       0.62500000000000000        0.0000000000000000     
  0.62500000000000000       0.50000000000000000        0.0000000000000000     
  0.65625000000000000       0.50000000000000000        0.0000000000000000     
  0.68750000000000000       0.50000000000000000        0.0000000000000000     
  0.71875000000000000       0.50000000000000000        0.0000000000000000     
  0.75000000000000000       0.50000000000000000        0.0000000000000000     
  0.62500000000000000       0.53125000000000000        0.0000000000000000     
  0.65625000000000000       0.53125000000000000        0.0000000000000000     
  0.68750000000000000       0.53125000000000000        0.0000000000000000     
  0.71875000000000000       0.53125000000000000        0.0000000000000000     
  0.75000000000000000       0.53125000000000000        0.0000000000000000     
  0.62500000000000000       0.56250000000000000        0.0000000000000000     
  0.65625000000000000       0.56250000000000000        0.0000000000000000     
  0.68750000000000000       0.56250000000000000        0.0000000000000000     
  0.71875000000000000       0.56250000000000000        0.0000000000000000     
  0.75000000000000000       0.56250000000000000        0.0000000000000000     
  0.62500000000000000       0.59375000000000000        0.0000000000000000     
  0.65625000000000000       0.59375000000000000        0.0000000000000000     
  0.68750000000000000       0.59375000000000000        0.0000000000000000     
  0.71875000000000000       0.59375000000000000        0.0000000000000000     
  0.75000000000000000       0.59375000000000000        0.0000000000000000     
  0.62500000000000000       0.62500000000000000        0.0000000000000000     
  0.65625000000000000       0.62500000000000000        0.0000000000000000     
  0.68750000000000000       0.62500000000000000        0.0000000000000000     
  0.71875000000000000       0.62500000000000000        0.0000000000000000     
  0.75000000000000000       0.62500000000000000        0.0000000000000000     
  0.75000000000000000       0.50000000000000000        0.0000000000000000     
  0.78125000000000000       0.50000000000000000        0.0000000000000000     
  0.81250000000000000       0.50000000000000000        0.0000000000000000     
  0.84375000000000000       0.50000000000000000        0.0000000000000000     
  0.87500000000000000       0.50000000000000000        0.0000000000000000     
  0.75000000000000000       0.53125000000000000        0.0000000000000000     
  0.78125000000000000       0.53125000000000000        0.0000000000000000     
  0.81250000000000000       0.53125000000000000        0.0000000000000000     
  0.84375000000000000       0.53125000000000000        0.0000000000000000     
  0.87500000000000000       0.53125000000000000        0.0000000000000000     
  0.75000000000000000       0.56250000000000000        0.0000000000000000     
  0.78125000000000000       0.56250000000000000        0.0000000000000000     
  0.81250000000000000       0.56250000000000000        0.0000000000000000     
  0.84375000000000000       0.56250000000000000        0.0000000000000000     
  0.87500000000000000       0.56250000000000000        0.0000000000000000     
  0.75000000000000000       0.59375000000000000        0.0000000000000000     
  0.78125000000000000       0.59375000000000000        0.0000000000000000     
  0.81250000000000000       0.59375000000000000        0.0000000000000000     
  0.84375000000000000       0.59375000000000000        0.0000000000000000     
  0.87500000000000000       0.59375000000000000        0.0000000000000000     
  0.75000000000000000       0.62500000000000000        0.0000000000000000     
  0.78125000000000000       0.62500000000000000        0.0000000000000000     
  0.81250000000000000       0.62500000000000000        0.0000000000000000     
  0.84375000000000000       0.62500000000000000        0.0000000000000000     
  0.87500000000000000       0.62500000000000000        0.0000000000000000     
  0.87500000000000000       0.50000000000000000        0.0000000000000000     
  0.90625000000000000       0.50000000000000000        0.0000000000000000     
  0.93750000000000000       0.50000000000000000        0.0000000000000000     
  0.96875000000000000       0.50000000000000000        0.0000000000000000     
   1.0000000000000000       0.50000000000000000        0.0000000000000000     
  0.87500000000000000       0.53125000000000000        0.0000000000000000     
  0.90625000000000000       0.53125000000000000        0.0000000000000000     
  0.93750000000000000       0.53125000000000000        0.0000000000000000     
  0.96875000000000000       0.53125000000000000        0.0000000000000000     
   1.0000000000000000       0.53125000000000000        0.0000000000000000     
  0.87500000000000000       0.56250000000000000        0.0000000000000000     
  0.90625000000000000       0.56250000000000000        0.0000000000000000     
  0.93750000000000000       0.56250000000000000        0.0000000000000000     
  0.96875000000000000       0.56250000000000000        0.0000000000000000     
   1.0000000000000000       0.56250000000000000        0.0000000000000000     
  0.87500000000000000       0.59375000000000000        0.0000000000000000     
  0.90625000000000000       0.59375000000000000        0.0000000000000000     
  0.93750000000000000       0.59375000000000000        0.0000000000000000     
  0.96875000000000000       0.59375000000000000        0.0000000000000000     
   1.0000000000000000       0.59375000000000000        0.0000000000000000     
  0.87500000000000000       0.62500000000000000        0.0000000000000000     
  0.90625000000000000       0.62500000000000000        0.0000000000000000     
  0.93750000000000000       0.62500000000000000        0.0000000000000000     
  0.96875000000000000       0.62500000000000000        0.0000000000000000     
   1.0000000000000000       0.62500000000000000        0.0000000000000000     
   1.0000000000000000       0.50000000000000000        0.0000000000000000     
   1.0312500000000000       0.50000000000000000        0.0000000000000000     
   1.0625000000000000       0.50000000000000000        0.0000000000000000     
   1.0937500000000000       0.50000000000000000        0.0000000000000000     
   1.1250000000000000       0.50000000000000000        0.0000000000000000     
   1.0000000000000000       0.53125000000000000        0.0000000000000000     
   1.0312500000000000       0.53125000000000000        0.0000000000000000     
   1.0625000000000000       0.53125000000000000        0.0000000000000000     
   1.0937500000000000       0.53125000000000000        0.0000000000000000     
   1.1250000000000000       0.53125000000000000        0.0000000000000000     
   1.0000000000000000       0.56250000000000000        0.0000000000000000     
   1.0312500000000000       0.56250000000000000        0.0000000000000000     
   1.0625000000000000       0.56250000000000000        0.0000000000000000     
   1.0937500000000000       0.56250000000000000        0.0000000000000000     
   1.1250000000000000       0.56250000000000000        0.0000000000000000     
   1.0000000000000000       0.59375000000000000        0.0000000000000000     
   1.0312500000000000       0.59375000000000000        0.0000000000000000     
   1.0625000000000000       0.59375000000000000        0.0000000000000000     
   1.0937500000000000       0.59375000000000000        0.0000000000000000     
   1.1250000000000000       0.59375000000000000        0.0000000000000000     
   1.0000000000000000       0.62500000000000000        0.0000000000000000     
   1.0312500000000000       0.62500000000000000        0.0000000000000000     
   1.0625000000000000       0.62500000000000000        0.0000000000000000     
   1.0937500000000000       0.62500000000000000        0.0000000000000000     
   1.1250000000000000       0.62500000000000000        0.0000000000000000     
   1.1250000000000000       0.50000000000000000        0.0000000000000000     
   1.1562500000000000       0.50000000000000000        0.0000000000000000     
   1.1875000000000000       0.50000000000000000        0.0000000000000000     
   1.2187500000000000       0.50000000000000000        0.0000000000000000     
   1.2500000000000000       0.50000000000000000        0.0000000000000000     
   1.1250000000000000       0.53125000000000000        0.0000000000000000     
   1.1562500000000000       0.53125000000000000        0.0000000000000000     
   1.1875000000000000       0.53125000000000000        0.0000000000000000     
   1.2187500000000000       0.53125000000000000        0.0000000000000000     
   1.2500000000000000       0.53125000000000000        0.0000000000000000     
   1.1250000000000000       0.56250000000000000        0.0000000000000000     
   1.1562500000000000       0.56250000000000000        0.0000000000000000     
   1.1875000000000000       0.56250000000000000        0.0000000000000000     
   1.2187500000000000       0.56250000000000000        0.0000000000000000     
   1.2500000000000000       0.56250000000000000        0.0000000000000000     
   1.1250000000000000       0.59375000000000000        0.0000000000000000     
   1.1562500000000000       0.59375000000000000        0.0000000000000000     
   1.1875000000000000       0.59375000000000000        0.0000000000000000     
   1.2187500000000000       0.59375000000000000        0.0000000000000000     
   1.2500000000000000       0.59375000000000000        0.0000000000000000     
   1.1250000000000000       0.62500000000000000        0.0000000000000000     
   1.1562500000000000       0.62500000000000000        0.0000000000000000     
   1.1875000000000000       0.62500000000000000        0.0000000000000000     
   1.2187500000000000       0.62500000000000000        0.0000000000000000     
   1.2500000000000000       0.62500000000000000        0.0000000000000000     
   1.2500000000000000       0.50000000000000000        0.0000000000000000     
   1.2812500000000000       0.50000000000000000        0.0000000000000000     
   1.3125000000000000       0.50000000000000000        0.0000000000000000     
   1.3437500000000000       0.50000000000000000        0.0000000000000000     
   1.3750000000000000       0.50000000000000000        0.0000000000000000     
   1.2500000000000000       0.53125000000000000        0.0000000000000000     
   1.2812500000000000       0.53125000000000000        0.0000000000000000     
   1.3125000000000000       0.53125000000000000        0.0000000000000000     
   1.3437500000000000       0.53125000000000000        0.0000000000000000     
   1.3750000000000000       0.53125000000000000        0.0000000000000000     
   1.2500000000000000       0.56250000000000000        0.0000000000000000     
   1.2812500000000000       0.56250000000000000        0.0000000000000000     
   1.3125000000000000       0.56250000000000000        0.0000000000000000     
   1.3437500000000000       0.56250000000000000        0.0000000000000000     
   1.3750000000000000       0.56250000000000000        0.0000000000000000     
   1.2500000000000000       0.59375000000000000        0.0000000000000000     
   1.2812500000000000       0.59375000000000000        0.0000000000000000     
   1.3125000000000000       0.59375000000000000        0.0000000000000000     
   1.3437500000000000       0.59375000000000000        0.0000000000000000     
   1.3750000000000000       0.59375000000000000        0.0000000000000000     
   1.2500000000000000       0.62500000000000000        0.0000000000000000     
   1.2812500000000000       0.62500000000000000        0.0000000000000000     
   1.3125000000000000       0.62500000000000000        0.0000000000000000     
   1.3437500000000000       0.62500000000000000        0.0000000000000000     
   1.3750000000000000       0.62500000000000000        0.0000000000000000     
   1.3750000000000000       0.50000000000000000        0.0000000000000000     
   1.4062500000000000       0.50000000000000000        0.0000000000000000     
   1.4375000000000000       0.50000000000000000        0.0000000000000000     
   1.4687500000000000       0.50000000000000000        0.0000000000000000     
   1.5000000000000000       0.50000000000000000        0.0000000000000000     
   1.3750000000000000       0.53125000000000000        0.0000000000000000     
   1.4062500000000000       0.53125000000000000        0.0000000000000000     
   1.4375000000000000       0.53125000000000000        0.0000000000000000     
   1.4687500000000000       0.53125000000000000        0.0000000000000000     
   1.5000000000000000       0.53125000000000000        0.0000000000000000     
   1.3750000000000000       0.56250000000000000        0.0000000000000000     
   1.4062500000000000       0.56250000000000000        0.0000000000000000     
   1.4375000000000000       0.56250000000000000        0.0000000000000000     
   1.4687500000000000       0.56250000000000000        0.0000000000000000     
   1.5000000000000000       0.56250000000000000        0.0000000000000000     
   1.3750000000000000       0.59375000000000000        0.0000000000000000     
   1.4062500000000000       0.59375000000000000        0.0000000000000000     
   1.4375000000000000       0.59375000000000000        0.0000000000000000     
   1.4687500000000000       0.59375000000000000        0.0000000000000000     
   1.5000000000000000       0.59375000000000000        0.0000000000000000     
   1.3750000000000000       0.62500000000000000        0.0000000000000000     
   1.4062500000000000       0.62500000000000000        0.0000000000000000     
   1.4375000000000000       0.62500000000000000        0.0000000000000000     
   1.4687500000000000       0.62500000000000000        0.0000000000000000     
   1.5000000000000000       0.62500000000000000        0.0000000000000000     
  0.50000000000000000       0.62500000000000000        0.0000000000000000     
  0.53125000000000000       0.62500000000000000        0.0000000000000000     
  0.56250000000000000       0.62500000000000000        0.0000000000000000     
  0.59375000000000000       0.62500000000000000        0.0000000000000000     
  0.62500000000000000       0.62500000000000000        0.0000000000000000     
  0.50000000000000000       0.65625000000000000        0.0000000000000000     
  0.53125000000000000       0.65625000000000000        0.0000000000000000     
  0.56250000000000000       0.65625000000000000        0.0000000000000000     
  0.59375000000000000       0.65625000000000000        0.0000000000000000     
  0.62500000000000000       0.65625000000000000        0.0000000000000000     
  0.50000000000000000       0.68750000000000000        0.0000000000000000     
  0.53125000000000000       0.68750000000000000        0.0000000000000000     
  0.56250000000000000       0.68750000000000000        0.0000000000000000     
  0.59375000000000000       0.68750000000000000        0.0000000000000000     
  0.62500000000000000       0.68750000000000000        0.0000000000000000     
  0.50000000000000000       0.71875000000000000        0.0000000000000000     
  0.53125000000000000       0.71875000000000000        0.0000000000000000     
  0.56250000000000000       0.71875000000000000        0.0000000000000000     
  0.59375000000000000       0.71875000000000000        0.0000000000000000     
  0.62500000000000000       0.71875000000000000        0.0000000000000000     
  0.50000000000000000       0.75000000000000000        0.0000000000000000     
  0.53125000000000000       0.75000000000000000        0.0000000000000000     
  0.56250000000000000       0.75000000000000000        0.0000000000000000     
  0.59375000000000000       0.75000000000000000        0.0000000000000000     
  0.62500000000000000       0.75000000000000000        0.0000000000000000     
  0.62500000000000000       0.62500000000000000        0.0000000000000000     
  0.65625000000000000       0.62500000000000000        0.0000000000000000     
  0.68750000000000000       0.62500000000000000        0.0000000000000000     
  0.71875000000000000       0.62500000000000000        0.0000000000000000     
  0.75000000000000000       0.62500000000000000        0.0000000000000000     
  0.62500000000000000       0.65625000000000000        0.0000000000000000     
  0.65625000000000000       0.65625000000000000        0.0000000000000000     
  0.68750000000000000       0.65625000000000000        0.0000000000000000     
  0.71875000000000000       0.65625000000000000        0.0000000000000000     
  0.75000000000000000       0.65625000000000000        0.0000000000000000     
  0.62500000000000000       0.68750000000000000        0.0000000000000000     
  0.65625000000000000       0.68750000000000000        0.0000000000000000     
  0.68750000000000000       0.68750000000000000        0.0000000000000000     
  0.71875000000000000       0.68750000000000000        0.0000000000000000     
  0.75000000000000000       0.68750000000000000        0.0000000000000000     
  0.62500000000000000       0.71875000000000000        0.0000000000000000     
  0.65625000000000000       0.71875000000000000        0.0000000000000000     
  0.68750000000000000       0.71875000000000000        0.0000000000000000     
  0.71875000000000000       0.71875000000000000        0.0000000000000000     
  0.75000000000000000       0.71875000000000000        0.0000000000000000     
  0.62500000000000000       0.75000000000000000        0.0000000000000000     
  0.65625000000000000       0.75000000000000000        0.0000000000000000     
  0.68750000000000000       0.75000000000000000        0.0000000000000000     
  0.71875000000000000       0.75000000000000000        0.0000000000000000     
  0.75000000000000000       0.75000000000000000        0.0000000000000000     
  0.75000000000000000       0.62500000000000000        0.0000000000000000     
  0.78125000000000000       0.62500000000000000        0.0000000000000000     
  0.81250000000000000       0.62500000000000000        0.0000000000000000     
  0.84375000000000000       0.62500000000000000        0.0000000000000000     
  0.87500000000000000       0.62500000000000000        0.0000000000000000     
  0.75000000000000000       0.65625000000000000        0.0000000000000000     
  0.78125000000000000       0.65625000000000000        0.0000000000000000     
  0.81250000000000000       0.65625000000000000        0.0000000000000000     
  0.84375000000000000       0.65625000000000000        0.0000000000000000     
  0.87500000000000000       0.65625000000000000        0.0000000000000000     
  0.75000000000000000       0.68750000000000000        0.0000000000000000     
  0.78125000000000000       0.68750000000000000        0.0000000000000000     
  0.81250000000000000       0.68750000000000000        0.0000000000000000     
  0.84375000000000000       0.68750000000000000        0.0000000000000000     
  0.87500000000000000       0.68750000000000000        0.0000000000000000     
  0.75000000000000000       0.71875000000000000        0.0000000000000000     
  0.78125000000000000       0.71875000000000000        0.0000000000000000     
  0.81250000000000000       0.71875000000000000        0.0000000000000000     
  0.84375000000000000       0.71875000000000000        0.0000000000000000     
  0.87500000000000000       0.71875000000000000        0.0000000000000000     
  0.75000000000000000       0.75000000000000000        0.0000000000000000     
  0.78125000000000000       0.75000000000000000        0.0000000000000000     
  0.81250000000000000       0.75000000000000000        0.0000000000000000     
  0.84375000000000000       0.75000000000000000        0.0000000000000000     
  0.87500000000000000       0.75000000000000000        0.0000000000000000     
  0.87500000000000000       0.62500000000000000        0.0000000000000000     
  0.90625000000000000       0.62500000000000000        0.0000000000000000     
  0.93750000000000000       0.62500000000000000        0.0000000000000000     
  0.96875000000000000       0.62500000000000000        0.0000000000000000     
   1.0000000000000000       0.62500000000000000        0.0000000000000000     
  0.87500000000000000       0.65625000000000000        0.0000000000000000     
  0.90625000000000000       0.65625000000000000        0.0000000000000000     
  0.93750000000000000       0.65625000000000000        0.0000000000000000     
  0.96875000000000000       0.65625000000000000        0.0000000000000000     
   1.0000000000000000       0.65625000000000000        0.0000000000000000     
  0.87500000000000000       0.68750000000000000        0.0000000000000000     
  0.90625000000000000       0.68750000000000000        0.0000000000000000     
  0.93750000000000000       0.68750000000000000        0.0000000000000000     
  0.96875000000000000       0.68750000000000000        0.0000000000000000     
   1.0000000000000000       0.68750000000000000        0.0000000000000000     
  0.87500000000000000       0.71875000000000000        0.0000000000000000     
  0.90625000000000000       0.71875000000000000        0.0000000000000000     
  0.93750000000000000       0.71875000000000000        0.0000000000000000     
  0.96875000000000000       0.71875000000000000        0.0000000000000000     
   1.0000000000000000       0.71875000000000000        0.0000000000000000     
  0.87500000000000000       0.75000000000000000        0.0000000000000000     
  0.90625000000000000       0.75000000000000000        0.0000000000000000     
  0.93750000000000000       0.75000000000000000        0.0000000000000000     
  0.96875000000000000       0.75000000000000000        0.0000000000000000     
   1.0000000000000000       0.75000000000000000        0.0000000000000000     
   1.0000000000000000       0.62500000000000000        0.0000000000000000     
   1.0312500000000000       0.62500000000000000        0.0000000000000000     
   1.0625000000000000       0.62500000000000000        0.0000000000000000     
   1.0937500000000000       0.62500000000000000        0.0000000000000000     
   1.1250000000000000       0.62500000000000000        0.0000000000000000     
   1.0000000000000000       0.65625000000000000        0.0000000000000000     
   1.0312500000000000       0.65625000000000000        0.0000000000000000     
   1.0625000000000000       0.65625000000000000        0.0000000000000000     
   1.0937500000000000       0.65625000000000000        0.0000000000000000     
   1.1250000000000000       0.65625000000000000        0.0000000000000000     
   1.0000000000000000       0.68750000000000000        0.0000000000000000     
   1.0312500000000000       0.68750000000000000        0.0000000000000000     
   1.0625000000000000       0.68750000000000000        0.0000000000000000     
   1.0937500000000000       0.68750000000000000        0.0000000000000000     
   1.1250000000000000       0.68750000000000000        0.0000000000000000     
   1.0000000000000000       0.71875000000000000        0.0000000000000000     
   1.0312500000000000       0.71875000000000000        0.0000000000000000     
   1.0625000000000000       0.71875000000000000        0.0000000000000000     
   1.0937500000000000       0.71875000000000000        0.0000000000000000     
   1.1250000000000000       0.71875000000000000        0.0000000000000000     
   1.0000000000000000       0.75000000000000000        0.0000000000000000     
   1.0312500000000000       0.75000000000000000        0.0000000000000000     
   1.0625000000000000       0.75000000000000000        0.0000000000000000     
   1.0937500000000000       0.75000000000000000        0.0000000000000000     
   1.1250000000000000       0.75000000000000000        0.0000000000000000     
   1.1250000000000000       0.62500000000000000        0.0000000000000000     
   1.1562500000000000       0.62500000000000000        0.0000000000000000     
   1.1875000000000000       0.62500000000000000        0.0000000000000000     
   1.2187500000000000       0.62500000000000000        0.0000000000000000     
   1.2500000000000000       0.62500000000000000        0.0000000000000000     
   1.1250000000000000       0.65625000000000000        0.0000000000000000     
   1.1562500000000000       0.65625000000000000        0.0000000000000000     
   1.1875000000000000       0.65625000000000000        0.0000000000000000     
   1.2187500000000000       0.65625000000000000        0.0000000000000000     
   1.2500000000000000       0.65625000000000000        0.0000000000000000     
   1.1250000000000000       0.68750000000000000        0.0000000000000000     
   1.1562500000000000       0.68750000000000000        0.0000000000000000     
   1.1875000000000000       0.68750000000000000        0.0000000000000000     
   1.2187500000000000       0.68750000000000000        0.0000000000000000     
   1.2500000000000000       0.68750000000000000        0.0000000000000000     
   1.1250000000000000       0.71875000000000000        0.0000000000000000     
   1.1562500000000000       0.71875000000000000        0.0000000000000000     
   1.1875000000000000       0.71875000000000000        0.0000000000000000     
   1.2187500000000000       0.71875000000000000        0.0000000000000000     
   1.2500000000000000       0.71875000000000000        0.0000000000000000     
   1.1250000000000000       0.75000000000000000        0.0000000000000000     
   1.1562500000000000       0.75000000000000000        0.0000000000000000     
   1.1875000000000000       0.75000000000000000        0.0000000000000000     
   1.2187500000000000       0.75000000000000000        0.0000000000000000     
   1.2500000000000000       0.75000000000000000        0.0000000000000000     
   1.2500000000000000       0.62500000000000000        0.0000000000000000     
   1.2812500000000000       0.62500000000000000        0.0000000000000000     
   1.3125000000000000       0.62500000000000000        0.0000000000000000     
   1.3437500000000000       0.62500000000000000        0.0000000000000000     
   1.3750000000000000       0.62500000000000000        0.0000000000000000     
   1.2500000000000000       0.65625000000000000        0.0000000000000000     
   1.2812500000000000       0.65625000000000000        0.0000000000000000     
   1.3125000000000000       0.65625000000000000        0.0000000000000000     
   1.3437500000000000       0.65625000000000000        0.0000000000000000     
   1.3750000000000000       0.65625000000000000        0.0000000000000000     
   1.2500000000000000       0.68750000000000000        0.0000000000000000     
   1.2812500000000000       0.68750000000000000        0.0000000000000000     
   1.3125000000000000       0.68750000000000000        0.0000000000000000     
   1.3437500000000000       0.68750000000000000        0.0000000000000000     
   1.3750000000000000       0.68750000000000000        0.0000000000000000     
   1.2500000000000000       0.71875000000000000        0.0000000000000000     
   1.2812500000000000       0.71875000000000000        0.0000000000000000     
   1.3125000000000000       0.71875000000000000        0.0000000000000000     
   1.3437500000000000       0.71875000000000000        0.0000000000000000     
   1.3750000000000000       0.71875000000000000        0.0000000000000000     
   1.2500000000000000       0.75000000000000000        0.0000000000000000     
   1.2812500000000000       0.75000000000000000        0.0000000000000000     
   1.3125000000000000       0.75000000000000000        0.0000000000000000     
   1.3437500000000000       0.75000000000000000        0.0000000000000000     
   1.3750000000000000       0.75000000000000000        0.0000000000000000     
   1.3750000000000000       0.62500000000000000        0.0000000000000000     
   1.4062500000000000       0.62500000000000000        0.0000000000000000     
   1.4375000000000000       0.62500000000000000        0.0000000000000000     
   1.4687500000000000       0.62500000000000000        0.0000000000000000     
   1.5000000000000000       0.62500000000000000        0.0000000000000000     
   1.3750000000000000       0.65625000000000000        0.0000000000000000     
   1.4062500000000000       0.65625000000000000        0.0000000000000000     
   1.4375000000000000       0.65625000000000000        0.0000000000000000     
   1.4687500000000000       0.65625000000000000        0.0000000000000000     
   1.5000000000000000       0.65625000000000000        0.0000000000000000     
   1.3750000000000000       0.68750000000000000        0.0000000000000000     
   1.4062500000000000       0.68750000000000000        0.0000000000000000     
   1.4375000000000000       0.68750000000000000        0.0000000000000000     
   1.4687500000000000       0.68750000000000000        0.0000000000000000     
   1.5000000000000000       0.68750000000000000        0.0000000000000000     
   1.3750000000000000       0.71875000000000000        0.0000000000000000     
   1.4062500000000000       0.71875000000000000        0.0000000000000000     
   1.4375000000000000       0.71875000000000000        0.0000000000000000     
   1.4687500000000000       0.71875000000000000        0.0000000000000000     
   1.5000000000000000       0.71875000000000000        0.0000000000000000     
   1.3750000000000000       0.75000000000000000        0.0000000000000000     
   1.4062500000000000       0.75000000000000000        0.0000000000000000     
   1.4375000000000000       0.75000000000000000        0.0000000000000000     
   1.4687500000000000       0.75000000000000000        0.0000000000000000     
   1.5000000000000000       0.75000000000000000        0.0000000000000000     
  0.50000000000000000       0.75000000000000000        0.0000000000000000     
  0.53125000000000000       0.75000000000000000        0.0000000000000000     
  0.56250000000000000       0.75000000000000000        0.0000000000000000     
  0.59375000000000000       0.75000000000000000        0.0000000000000000     
  0.62500000000000000       0.75000000000000000        0.0000000000000000     
  0.50000000000000000       0.78125000000000000        0.0000000000000000     
  0.53125000000000000       0.78125000000000000        0.0000000000000000     
  0.56250000000000000       0.78125000000000000        0.0000000000000000     
  0.59375000000000000       0.78125000000000000        0.0000000000000000     
  0.62500000000000000       0.78125000000000000        0.0000000000000000     
  0.50000000000000000       0.81250000000000000        0.0000000000000000     
  0.53125000000000000       0.81250000000000000        0.0000000000000000     
  0.56250000000000000       0.81250000000000000        0.0000000000000000     
  0.59375000000000000       0.81250000000000000        0.0000000000000000     
  0.62500000000000000       0.81250000000000000        0.0000000000000000     
  0.50000000000000000       0.84375000000000000        0.0000000000000000     
  0.53125000000000000       0.84375000000000000        0.0000000000000000     
  0.56250000000000000       0.84375000000000000        0.0000000000000000     
  0.59375000000000000       0.84375000000000000        0.0000000000000000     
  0.62500000000000000       0.84375000000000000        0.0000000000000000     
  0.50000000000000000       0.87500000000000000        0.0000000000000000     
  0.53125000000000000       0.87500000000000000        0.0000000000000000     
  0.56250000000000000       0.87500000000000000        0.0000000000000000     
  0.59375000000000000       0.87500000000000000        0.0000000000000000     
  0.62500000000000000       0.87500000000000000        0.0000000000000000     
  0.62500000000000000       0.75000000000000000        0.0000000000000000     
  0.65625000000000000       0.75000000000000000        0.0000000000000000     
  0.68750000000000000       0.75000000000000000        0.0000000000000000     
  0.71875000000000000       0.75000000000000000        0.0000000000000000     
  0.75000000000000000       0.75000000000000000        0.0000000000000000     
  0.62500000000000000       0.78125000000000000        0.0000000000000000     
  0.65625000000000000       0.78125000000000000        0.0000000000000000     
  0.68750000000000000       0.78125000000000000        0.0000000000000000     
  0.71875000000000000       0.78125000000000000        0.0000000000000000     
  0.75000000000000000       0.78125000000000000        0.0000000000000000     
  0.62500000000000000       0.81250000000000000        0.0000000000000000     
  0.65625000000000000       0.81250000000000000        0.0000000000000000     
  0.68750000000000000       0.81250000000000000        0.0000000000000000     
  0.71875000000000000       0.81250000000000000        0.0000000000000000     
  0.75000000000000000       0.81250000000000000        0.0000000000000000     
  0.62500000000000000       0.84375000000000000        0.0000000000000000     
  0.65625000000000000       0.84375000000000000        0.0000000000000000     
  0.68750000000000000       0.84375000000000000        0.0000000000000000     
  0.71875000000000000       0.84375000000000000        0.0000000000000000     
  0.75000000000000000       0.84375000000000000        0.0000000000000000     
  0.62500000000000000       0.87500000000000000        0.0000000000000000     
  0.65625000000000000       0.87500000000000000        0.0000000000000000     
  0.68750000000000000       0.87500000000000000        0.0000000000000000     
  0.71875000000000000       0.87500000000000000        0.0000000000000000     
  0.75000000000000000       0.87500000000000000        0.0000000000000000     
  0.75000000000000000       0.75000000000000000        0.0000000000000000     
  0.78125000000000000       0.75000000000000000        0.0000000000000000     
  0.81250000000000000       0.75000000000000000        0.0000000000000000     
  0.84375000000000000       0.75000000000000000        0.0000000000000000     
  0.87500000000000000       0.75000000000000000        0.0000000000000000     
  0.75000000000000000       0.78125000000000000        0.0000000000000000     
  0.78125000000000000       0.78125000000000000        0.0000000000000000     
  0.81250000000000000       0.78125000000000000        0.0000000000000000     
  0.84375000000000000       0.78125000000000000        0.0000000000000000     
  0.87500000000000000       0.78125000000000000        0.0000000000000000     
  0.75000000000000000       0.81250000000000000        0.0000000000000000     
  0.78125000000000000       0.81250000000000000        0.0000000000000000     
  0.81250000000000000       0.81250000000000000        0.0000000000000000     
  0.84375000000000000       0.81250000000000000        0.0000000000000000     
  0.87500000000000000       0.81250000000000000        0.0000000000000000     
  0.75000000000000000       0.84375000000000000        0.0000000000000000     
  0.78125000000000000       0.84375000000000000        0.0000000000000000     
  0.81250000000000000       0.84375000000000000        0.0000000000000000     
  0.84375000000000000       0.84375000000000000        0.0000000000000000     
  0.87500000000000000       0.84375000000000000        0.0000000000000000     
  0.75000000000000000       0.87500000000000000        0.0000000000000000     
  0.78125000000000000       0.87500000000000000        0.0000000000000000     
  0.81250000000000000       0.87500000000000000        0.0000000000000000     
  0.84375000000000000       0.87500000000000000        0.0000000000000000     
  0.87500000000000000       0.87500000000000000        0.0000000000000000     
  0.87500000000000000       0.75000000000000000        0.0000000000000000     
  0.90625000000000000       0.75000000000000000        0.0000000000000000     
  0.93750000000000000       0.75000000000000000        0.0000000000000000     
  0.96875000000000000       0.75000000000000000        0.0000000000000000     
   1.0000000000000000       0.75000000000000000        0.0000000000000000     
  0.87500000000000000       0.78125000000000000        0.0000000000000000     
  0.90625000000000000       0.78125000000000000        0.0000000000000000     
  0.93750000000000000       0.78125000000000000        0.0000000000000000     
  0.96875000000000000       0.78125000000000000        0.0000000000000000     
   1.0000000000000000       0.78125000000000000        0.0000000000000000     
  0.87500000000000000       0.81250000000000000        0.0000000000000000     
  0.90625000000000000       0.81250000000000000        0.0000000000000000     
  0.93750000000000000       0.81250000000000000        0.0000000000000000     
  0.96875000000000000       0.81250000000000000        0.0000000000000000     
   1.0000000000000000       0.81250000000000000        0.0000000000000000     
  0.87500000000000000       0.84375000000000000        0.0000000000000000     
  0.90625000000000000       0.84375000000000000        0.0000000000000000     
  0.93750000000000000       0.84375000000000000        0.0000000000000000     
  0.96875000000000000       0.84375000000000000        0.0000000000000000     
   1.0000000000000000       0.84375000000000000        0.0000000000000000     
  0.87500000000000000       0.87500000000000000        0.0000000000000000     
  0.90625000000000000       0.87500000000000000        0.0000000000000000     
  0.93750000000000000       0.87500000000000000        0.0000000000000000     
  0.96875000000000000       0.87500000000000000        0.0000000000000000     
   1.0000000000000000       0.87500000000000000        0.0000000000000000     
   1.0000000000000000       0.75000000000000000        0.0000000000000000     
   1.0312500000000000       0.75000000000000000        0.0000000000000000     
   1.0625000000000000       0.75000000000000000        0.0000000000000000     
   1.0937500000000000       0.75000000000000000        0.0000000000000000     
   1.1250000000000000       0.75000000000000000        0.0000000000000000     
   1.0000000000000000       0.78125000000000000        0.0000000000000000     
   1.0312500000000000       0.78125000000000000        0.0000000000000000     
   1.0625000000000000       0.78125000000000000        0.0000000000000000     
   1.0937500000000000       0.78125000000000000        0.0000000000000000     
   1.1250000000000000       0.78125000000000000        0.0000000000000000     
   1.0000000000000000       0.81250000000000000        0.0000000000000000     
   1.0312500000000000       0.81250000000000000        0.0000000000000000     
   1.0625000000000000       0.81250000000000000        0.0000000000000000     
   1.0937500000000000       0.81250000000000000        0.0000000000000000     
   1.1250000000000000       0.81250000000000000        0.0000000000000000     
   1.0000000000000000       0.84375000000000000        0.0000000000000000     
   1.0312500000000000       0.84375000000000000        0.0000000000000000     
   1.0625000000000000       0.84375000000000000        0.0000000000000000     
   1.0937500000000000       0.84375000000000000        0.0000000000000000     
   1.1250000000000000       0.84375000000000000        0.0000000000000000     
   1.0000000000000000       0.87500000000000000        0.0000000000000000     
   1.0312500000000000       0.87500000000000000        0.0000000000000000     
   1.0625000000000000       0.87500000000000000        0.0000000000000000     
   1.0937500000000000       0.87500000000000000        0.0000000000000000     
   1.1250000000000000       0.87500000000000000        0.0000000000000000     
   1.1250000000000000       0.75000000000000000        0.0000000000000000     
   1.1562500000000000       0.75000000000000000        0.0000000000000000     
   1.1875000000000000       0.75000000000000000        0.0000000000000000     
   1.2187500000000000       0.75000000000000000        0.0000000000000000     
   1.2500000000000000       0.75000000000000000        0.0000000000000000     
   1.1250000000000000       0.78125000000000000        0.0000000000000000     
   1.1562500000000000       0.78125000000000000        0.0000000000000000     
   1.1875000000000000       0.78125000000000000        0.0000000000000000     
   1.2187500000000000       0.78125000000000000        0.0000000000000000     
   1.2500000000000000       0.78125000000000000        0.0000000000000000     
   1.1250000000000000       0.81250000000000000        0.0000000000000000     
   1.1562500000000000       0.81250000000000000        0.0000000000000000     
   1.1875000000000000       0.81250000000000000        0.0000000000000000     
   1.2187500000000000       0.81250000000000000        0.0000000000000000     
   1.2500000000000000       0.81250000000000000        0.0000000000000000     
   1.1250000000000000       0.84375000000000000        0.0000000000000000     
   1.1562500000000000       0.84375000000000000        0.0000000000000000     
   1.1875000000000000       0.84375000000000000        0.0000000000000000     
   1.2187500000000000       0.84375000000000000        0.0000000000000000     
   1.2500000000000000       0.84375000000000000        0.0000000000000000     
   1.1250000000000000       0.87500000000000000        0.0000000000000000     
   1.1562500000000000       0.87500000000000000        0.0000000000000000     
   1.1875000000000000       0.87500000000000000        0.0000000000000000     
   1.2187500000000000       0.87500000000000000        0.0000000000000000     
   1.2500000000000000       0.87500000000000000        0.0000000000000000     
   1.2500000000000000       0.75000000000000000        0.0000000000000000     
   1.2812500000000000       0.75000000000000000        0.0000000000000000     
   1.3125000000000000       0.75000000000000000        0.0000000000000000     
   1.3437500000000000       0.75000000000000000        0.0000000000000000     
   1.3750000000000000       0.75000000000000000        0.0000000000000000     
   1.2500000000000000       0.78125000000000000        0.0000000000000000     
   1.2812500000000000       0.78125000000000000        0.0000000000000000     
   1.3125000000000000       0.78125000000000000        0.0000000000000000     
   1.3437500000000000       0.78125000000000000        0.0000000000000000     
   1.3750000000000000       0.78125000000000000        0.0000000000000000     
   1.2500000000000000       0.81250000000000000        0.0000000000000000     
   1.2812500000000000       0.81250000000000000        0.0000000000000000     
   1.3125000000000000       0.81250000000000000        0.0000000000000000     
   1.3437500000000000       0.81250000000000000        0.0000000000000000     
   1.3750000000000000       0.81250000000000000        0.0000000000000000     
   1.2500000000000000       0.84375000000000000        0.0000000000000000     
   1.2812500000000000       0.84375000000000000        0.0000000000000000     
   1.3125000000000000       0.84375000000000000        0.0000000000000000     
   1.3437500000000000       0.84375000000000000        0.0000000000000000     
   1.3750000000000000       0.84375000000000000        0.0000000000000000     
   1.2500000000000000       0.87500000000000000        0.0000000000000000     
   1.2812500000000000       0.87500000000000000        0.0000000000000000     
   1.3125000000000000       0.87500000000000000        0.0000000000000000     
   1.3437500000000000       0.87500000000000000        0.0000000000000000     
   1.3750000000000000       0.87500000000000000        0.0000000000000000     
   1.3750000000000000       0.75000000000000000        0.0000000000000000     
   1.4062500000000000       0.75000000000000000        0.0000000000000000     
   1.4375000000000000       0.75000000000000000        0.0000000000000000     
   1.4687500000000000       0.75000000000000000        0.0000000000000000     
   1.5000000000000000       0.75000000000000000        0.0000000000000000     
   1.3750000000000000       0.78125000000000000        0.0000000000000000     
   1.4062500000000000       0.78125000000000000        0.0000000000000000     
   1.4375000000000000       0.78125000000000000        0.0000000000000000     
   1.4687500000000000       0.78125000000000000        0.0000000000000000     
   1.5000000000000000       0.78125000000000000        0.0000000000000000     
   1.3750000000000000       0.81250000000000000        0.0000000000000000     
   1.4062500000000000       0.81250000000000000        0.0000000000000000     
   1.4375000000000000       0.81250000000000000        0.0000000000000000     
   1.4687500000000000       0.81250000000000000        0.0000000000000000     
   1.5000000000000000       0.81250000000000000        0.0000000000000000     
   1.3750000000000000       0.84375000000000000        0.0000000000000000     
   1.4062500000000000       0.84375000000000000        0.0000000000000000     
   1.4375000000000000       0.84375000000000000        0.0000000000000000     
   1.4687500000000000       0.84375000000000000        0.0000000000000000     
   1.5000000000000000       0.84375000000000000        0.0000000000000000     
   1.3750000000000000       0.87500000000000000        0.0000000000000000     
   1.4062500000000000       0.87500000000000000        0.0000000000000000     
   1.4375000000000000       0.87500000000000000        0.0000000000000000     
   1.4687500000000000       0.87500000000000000        0.0000000000000000     
   1.5000000000000000       0.87500000000000000        0.0000000000000000     
  0.50000000000000000       0.87500000000000000        0.0000000000000000     
  0.53125000000000000       0.87500000000000000        0.0000000000000000     
  0.56250000000000000       0.87500000000000000        0.0000000000000000     
  0.59375000000000000       0.87500000000000000        0.0000000000000000     
  0.62500000000000000       0.87500000000000000        0.0000000000000000     
  0.50000000000000000       0.90625000000000000        0.0000000000000000     
  0.53125000000000000       0.90625000000000000        0.0000000000000000     
  0.56250000000000000       0.90625000000000000        0.0000000000000000     
  0.59375000000000000       0.90625000000000000        0.0000000000000000     
  0.62500000000000000       0.90625000000000000        0.0000000000000000     
  0.50000000000000000       0.93750000000000000        0.0000000000000000     
  0.53125000000000000       0.93750000000000000        0.0000000000000000     
  0.56250000000000000       0.93750000000000000        0.0000000000000000     
  0.59375000000000000       0.93750000000000000        0.0000000000000000     
  0.62500000000000000       0.93750000000000000        0.0000000000000000     
  0.50000000000000000       0.96875000000000000        0.0000000000000000     
  0.53125000000000000       0.96875000000000000        0.0000000000000000     
  0.56250000000000000       0.96875000000000000        0.0000000000000000     
  0.59375000000000000       0.96875000000000000        0.0000000000000000     
  0.62500000000000000       0.96875000000000000        0.0000000000000000     
  0.50000000000000000        1.0000000000000000        0.0000000000000000     
  0.53125000000000000        1.0000000000000000        0.0000000000000000     
  0.56250000000000000        1.0000000000000000        0.0000000000000000     
  0.59375000000000000        1.0000000000000000        0.0000000000000000     
  0.62500000000000000        1.0000000000000000        0.0000000000000000     
  0.62500000000000000       0.87500000000000000        0.0000000000000000     
  0.65625000000000000       0.87500000000000000        0.0000000000000000     
  0.68750000000000000       0.87500000000000000        0.0000000000000000     
  0.71875000000000000       0.87500000000000000        0.0000000000000000     
  0.75000000000000000       0.87500000000000000        0.0000000000000000     
  0.62500000000000000       0.90625000000000000        0.0000000000000000     
  0.65625000000000000       0.90625000000000000        0.0000000000000000     
  0.68750000000000000       0.90625000000000000        0.0000000000000000     
  0.71875000000000000       0.90625000000000000        0.0000000000000000     
  0.75000000000000000       0.90625000000000000        0.0000000000000000     
  0.62500000000000000       0.93750000000000000        0.0000000000000000     
  0.65625000000000000       0.93750000000000000        0.0000000000000000     
  0.68750000000000000       0.93750000000000000        0.0000000000000000     
  0.71875000000000000       0.93750000000000000        0.0000000000000000     
  0.75000000000000000       0.93750000000000000        0.0000000000000000     
  0.62500000000000000       0.96875000000000000        0.0000000000000000     
  0.65625000000000000       0.96875000000000000        0.0000000000000000     
  0.68750000000000000       0.96875000000000000        0.0000000000000000     
  0.71875000000000000       0.96875000000000000        0.0000000000000000     
  0.75000000000000000       0.96875000000000000        0.0000000000000000     
  0.62500000000000000        1.0000000000000000        0.0000000000000000     
  0.65625000000000000        1.0000000000000000        0.0000000000000000     
  0.68750000000000000        1.0000000000000000        0.0000000000000000     
  0.71875000000000000        1.0000000000000000        0.0000000000000000     
  0.75000000000000000        1.0000000000000000        0.0000000000000000     
  0.75000000000000000       0.87500000000000000        0.0000000000000000     
  0.78125000000000000       0.87500000000000000        0.0000000000000000     
  0.81250000000000000       0.87500000000000000        0.0000000000000000     
  0.84375000000000000       0.87500000000000000        0.0000000000000000     
  0.87500000000000000       0.87500000000000000        0.0000000000000000     
  0.75000000000000000       0.90625000000000000        0.0000000000000000     
  0.78125000000000000       0.90625000000000000        0.0000000000000000     
  0.81250000000000000       0.90625000000000000        0.0000000000000000     
  0.84375000000000000       0.90625000000000000        0.0000000000000000     
  0.87500000000000000       0.90625000000000000        0.0000000000000000     
  0.75000000000000000       0.93750000000000000        0.0000000000000000     
  0.78125000000000000       0.93750000000000000        0.0000000000000000     
  0.81250000000000000       0.93750000000000000        0.0000000000000000     
  0.84375000000000000       0.93750000000000000        0.0000000000000000     
  0.87500000000000000       0.93750000000000000        0.0000000000000000     
  0.75000000000000000       0.96875000000000000        0.0000000000000000     
  0.78125000000000000       0.96875000000000000        0.0000000000000000     
  0.81250000000000000       0.96875000000000000        0.0000000000000000     
  0.84375000000000000       0.96875000000000000        0.0000000000000000     
  0.87500000000000000       0.96875000000000000        0.0000000000000000     
  0.75000000000000000        1.0000000000000000        0.0000000000000000     
  0.78125000000000000        1.0000000000000000        0.0000000000000000     
  0.81250000000000000        1.0000000000000000        0.0000000000000000     
  0.84375000000000000        1.0000000000000000        0.0000000000000000     
  0.87500000000000000        1.0000000000000000        0.0000000000000000     
  0.87500000000000000       0.87500000000000000        0.0000000000000000     
  0.90625000000000000       0.87500000000000000        0.0000000000000000     
  0.93750000000000000       0.87500000000000000        0.0000000000000000     
  0.96875000000000000       0.87500000000000000        0.0000000000000000     
   1.0000000000000000       0.87500000000000000        0.0000000000000000     
  0.87500000000000000       0.90625000000000000        0.0000000000000000     
  0.90625000000000000       0.90625000000000000        0.0000000000000000     
  0.93750000000000000       0.90625000000000000        0.0000000000000000     
  0.96875000000000000       0.90625000000000000        0.0000000000000000     
   1.0000000000000000       0.90625000000000000        0.0000000000000000     
  0.87500000000000000       0.93750000000000000        0.0000000000000000     
  0.90625000000000000       0.93750000000000000        0.0000000000000000     
  0.93750000000000000       0.93750000000000000        0.0000000000000000     
  0.96875000000000000       0.93750000000000000        0.0000000000000000     
   1.0000000000000000       0.93750000000000000        0.0000000000000000     
  0.87500000000000000       0.96875000000000000        0.0000000000000000     
  0.90625000000000000       0.96875000000000000        0.0000000000000000     
  0.93750000000000000       0.96875000000000000        0.0000000000000000     
  0.96875000000000000       0.96875000000000000        0.0000000000000000     
   1.0000000000000000       0.96875000000000000        0.0000000000000000     
  0.87500000000000000        1.0000000000000000        0.0000000000000000     
  0.90625000000000000        1.0000000000000000        0.0000000000000000     
  0.93750000000000000        1.0000000000000000        0.0000000000000000     
  0.96875000000000000        1.0000000000000000        0.0000000000000000     
   1.0000000000000000        1.0000000000000000        0.0000000000000000     
   1.0000000000000000       0.87500000000000000        0.0000000000000000     
   1.0312500000000000       0.87500000000000000        0.0000000000000000     
   1.0625000000000000       0.87500000000000000        0.0000000000000000     
   1.0937500000000000       0.87500000000000000        0.0000000000000000     
   1.1250000000000000       0.87500000000000000        0.0000000000000000     
   1.0000000000000000       0.90625000000000000        0.0000000000000000     
   1.0312500000000000       0.90625000000000000        0.0000000000000000     
   1.0625000000000000       0.90625000000000000        0.0000000000000000     
   1.0937500000000000       0.90625000000000000        0.0000000000000000     
   1.1250000000000000       0.90625000000000000        0.0000000000000000     
   1.0000000000000000       0.93750000000000000        0.0000000000000000     
   1.0312500000000000       0.93750000000000000        0.0000000000000000     
   1.0625000000000000       0.93750000000000000        0.0000000000000000     
   1.0937500000000000       0.93750000000000000        0.0000000000000000     
   1.1250000000000000       0.93750000000000000        0.0000000000000000     
   1.0000000000000000       0.96875000000000000        0.0000000000000000     
   1.0312500000000000       0.96875000000000000        0.0000000000000000     
   1.0625000000000000       0.96875000000000000        0.0000000000000000     
   1.0937500000000000       0.96875000000000000        0.0000000000000000     
   1.1250000000000000       0.96875000000000000        0.0000000000000000     
   1.0000000000000000        1.0000000000000000        0.0000000000000000     
   1.0312500000000000        1.0000000000000000        0.0000000000000000     
   1.0625000000000000        1.0000000000000000        0.0000000000000000     
   1.0937500000000000        1.0000000000000000        0.0000000000000000     
   1.1250000000000000        1.0000000000000000        0.0000000000000000     
   1.1250000000000000       0.87500000000000000        0.0000000000000000     
   1.1562500000000000       0.87500000000000000        0.0000000000000000     
   1.1875000000000000       0.87500000000000000        0.0000000000000000     
   1.2187500000000000       0.87500000000000000        0.0000000000000000     
   1.2500000000000000       0.87500000000000000        0.0000000000000000     
   1.1250000000000000       0.90625000000000000        0.0000000000000000     
   1.1562500000000000       0.90625000000000000        0.0000000000000000     
   1.1875000000000000       0.90625000000000000        0.0000000000000000     
   1.2187500000000000       0.90625000000000000        0.0000000000000000     
   1.2500000000000000       0.90625000000000000        0.0000000000000000     
   1.1250000000000000       0.93750000000000000        0.0000000000000000     
   1.1562500000000000       0.93750000000000000        0.0000000000000000     
   1.1875000000000000       0.93750000000000000        0.0000000000000000     
   1.2187500000000000       0.93750000000000000        0.0000000000000000     
   1.2500000000000000       0.93750000000000000        0.0000000000000000     
   1.1250000000000000       0.96875000000000000        0.0000000000000000     
   1.1562500000000000       0.96875000000000000        0.0000000000000000     
   1.1875000000000000       0.96875000000000000        0.0000000000000000     
   1.2187500000000000       0.96875000000000000        0.0000000000000000     
   1.2500000000000000       0.96875000000000000        0.0000000000000000     
   1.1250000000000000        1.0000000000000000        0.0000000000000000     
   1.1562500000000000        1.0000000000000000        0.0000000000000000     
   1.1875000000000000        1.0000000000000000        0.0000000000000000     
   1.2187500000000000        1.0000000000000000        0.0000000000000000     
   1.2500000000000000        1.0000000000000000        0.0000000000000000     
   1.2500000000000000       0.87500000000000000        0.0000000000000000     
   1.2812500000000000       0.87500000000000000        0.0000000000000000     
   1.3125000000000000       0.87500000000000000        0.0000000000000000     
   1.3437500000000000       0.87500000000000000        0.0000000000000000     
   1.3750000000000000       0.87500000000000000        0.0000000000000000     
   1.2500000000000000       0.90625000000000000        0.0000000000000000     
   1.2812500000000000       0.90625000000000000        0.0000000000000000     
   1.3125000000000000       0.90625000000000000        0.0000000000000000     
   1.3437500000000000       0.90625000000000000        0.0000000000000000     
   1.3750000000000000       0.90625000000000000        0.0000000000000000     
   1.2500000000000000       0.93750000000000000        0.0000000000000000     
   1.2812500000000000       0.93750000000000000        0.0000000000000000     
   1.3125000000000000       0.93750000000000000        0.0000000000000000     
   1.3437500000000000       0.93750000000000000        0.0000000000000000     
   1.3750000000000000       0.93750000000000000        0.0000000000000000     
   1.2500000000000000       0.96875000000000000        0.0000000000000000     
   1.2812500000000000       0.96875000000000000        0.0000000000000000     
   1.3125000000000000       0.96875000000000000        0.0000000000000000     
   1.3437500000000000       0.96875000000000000        0.0000000000000000     
   1.3750000000000000       0.96875000000000000        0.0000000000000000     
   1.2500000000000000        1.0000000000000000        0.0000000000000000     
   1.2812500000000000        1.0000000000000000        0.0000000000000000     
   1.3125000000000000        1.0000000000000000        0.0000000000000000     
   1.3437500000000000        1.0000000000000000        0.0000000000000000     
   1.3750000000000000        1.0000000000000000        0.0000000000000000     
   1.3750000000000000       0.87500000000000000        0.0000000000000000     
   1.4062500000000000       0.87500000000000000        0.0000000000000000     
   1.4375000000000000       0.87500000000000000        0.0000000000000000     
   1.4687500000000000       0.87500000000000000        0.0000000000000000     
   1.5000000000000000       0.87500000000000000        0.0000000000000000     
   1.3750000000000000       0.90625000000000000        0.0000000000000000     
   1.4062500000000000       0.90625000000000000        0.0000000000000000     
   1.4375000000000000       0.90625000000000000        0.0000000000000000     
   1.4687500000000000       0.90625000000000000        0.0000000000000000     
   1.5000000000000000       0.90625000000000000        0.0000000000000000     
   1.3750000000000000       0.93750000000000000        0.0000000000000000     
   1.4062500000000000       0.93750000000000000        0.0000000000000000     
   1.4375000000000000       0.93750000000000000        0.0000000000000000     
   1.4687500000000000       0.93750000000000000        0.0000000000000000     
   1.5000000000000000       0.93750000000000000        0.0000000000000000     
   1.3750000000000000       0.96875000000000000        0.0000000000000000     
   1.4062500000000000       0.96875000000000000        0.0000000000000000     
   1.4375000000000000       0.96875000000000000        0.0000000000000000     
   1.4687500000000000       0.96875000000000000        0.0000000000000000     
   1.5000000000000000       0.96875000000000000        0.0000000000000000     
   1.3750000000000000        1.0000000000000000        0.0000000000000000     
   1.4062500000000000        1.0000000000000000        0.0000000000000000     
   1.4375000000000000        1.0000000000000000        0.0000000000000000     
   1.4687500000000000        1.0000000000000000        0.0000000000000000     
   1.5000000000000000        1.0000000000000000        0.0000000000000000     
 </DataArray>
 </Points>
 <Cells>
 <DataArray  type="Int32"  Name="connectivity"  format="ascii">
           0           1           6           5
           1           2           7           6
           2           3           8           7
           3           4           9           8
           5           6          11          10
           6           7          12          11
           7           8          13          12
           8           9          14          13
          10          11          16          15
          11          12          17          16
          12          13          18          17
          13          14          19          18
          15          16          21          20
          16          17          22          21
          17          18          23          22
          18          19          24          23
          25          26          31          30
          26          27          32          31
          27          28          33          32
          28          29          34          33
          30          31          36          35
          31          32          37          36
          32          33          38          37
          33          34          39          38
          35          36          41          40
          36          37          42          41
          37          38          43          42
          38          39          44          43
          40          41          46          45
          41          42          47          46
          42          43          48          47
          43          44          49          48
          50          51          56          55
          51          52          57          56
          52          53          58          57
          53          54          59          58
          55          56          61          60
          56          57          62          61
          57          58          63          62
          58          59          64          63
          60          61          66          65
          61          62          67          66
          62          63          68          67
          63          64          69          68
          65          66          71          70
          66          67          72          71
          67          68          73          72
          68          69          74          73
          75          76          81          80
          76          77          82          81
          77          78          83          82
          78          79          84          83
          80          81          86          85
          81          82          87          86
          82          83          88          87
          83          84          89          88
          85          86          91          90
          86          87          92          91
          87          88          93          92
          88          89          94          93
          90          91          96          95
          91          92          97          96
          92          93          98          97
          93          94          99          98
         100         101         106         105
         101         102         107         106
         102         103         108         107
         103         104         109         108
         105         106         111         110
         106         107         112         111
         107         108         113         112
         108         109         114         113
         110         111         116         115
         111         112         117         116
         112         113         118         117
         113         114         119         118
         115         116         121         120
         116         117         122         121
         117         118         123         122
         118         119         124         123
         125         126         131         130
         126         127         132         131
         127         128         133         132
         128         129         134         133
         130         131         136         135
         131         132         137         136
         132         133         138         137
         133         134         139         138
         135         136         141         140
         136         137         142         141
         137         138         143         142
         138         139         144         143
         140         141         146         145
         141         142         147         146
         142         143         148         147
         143         144         149         148
         150         151         156         155
         151         152         157         156
         152         153         158         157
         153         154         159         158
         155         156         161         160
         156         157         162         161
         157         158         163         162
         158         159         164         163
         160         161         166         165
         161         162         167         166
         162         163         168         167
         163         164         169         168
         165         166         171         170
         166         167         172         171
         167         168         173         172
         168         169         174         173
         175         176         181         180
         176         177         182         181
         177         178         183         182
         178         179         184         183
         180         181         186         185
         181         182         187         186
         182         183         188         187
         183         184         189         188
         185         186         191         190
         186         187         192         191
         187         188         193         192
         188         189         194         193
         190         191         196         195
         191         192         197         196
         192         193         198         197
         193         194         199         198
         200         201         206         205
         201         202         207         206
         202         203         208         207
         203         204         209         208
         205         206         211         210
         206         207         212         211
         207         208         213         212
         208         209         214         213
         210         211         216         215
         211         212         217         216
         212         213         218         217
         213         214         219         218
         215         216         221         220
         216         217         222         221
         217         218         223         222
         218         219         224         223
         225         226         231         230
         226         227         232         231
         227         228         233         232
         228         229         234         233
         230         231         236         235
         231         232         237         236
         232         233         238         237
         233         234         239         238
         235         236         241         240
         236         237         242         241
         237         238         243         242
         238         239         244         243
         240         241         246         245
         241         242         247         246
         242         243         248         247
         243         244         249         248
         250         251         256         255
         251         252         257         256
         252         253         258         257
         253         254         259         258
         255         256         261         260
         256         257         262         261
         257         258         263         262
         258         259         264         263
         260         261         266         265
         261         262         267         266
         262         263         268         267
         263         264         269         268
         265         266         271         270
         266         267         272         271
         267         268         273         272
         268         269         274         273
         275         276         281         280
         276         277         282         281
         277         278         283         282
         278         279         284         283
         280         281         286         285
         281         282         287         286
         282         283         288         287
         283         284         289         288
         285         286         291         290
         286         287         292         291
         287         288         293         292
         288         289         294         293
         290         291         296         295
         291         292         297         296
         292         293         298         297
         293         294         299         298
         300         301         306         305
         301         302         307         306
         302         303         308         307
         303         304         309         308
         305         306         311         310
         306         307         312         311
         307         308         313         312
         308         309         314         313
         310         311         316         315
         311         312         317         316
         312         313         318         317
         313         314         319         318
         315         316         321         320
         316         317         322         321
         317         318         323         322
         318         319         324         323
         325         326         331         330
         326         327         332         331
         327         328         333         332
         328         329         334         333
         330         331         336         335
         331         332         337         336
         332         333         338         337
         333         334         339         338
         335         336         341         340
         336         337         342         341
         337         338         343         342
         338         339         344         343
         340         341         346         345
         341         342         347         346
         342         343         348         347
         343         344         349         348
         350         351         356         355
         351         352         357         356
         352         353         358         357
         353         354         359         358
         355         356         361         360
         356         357         362         361
         357         358         363         362
         358         359         364         363
         360         361         366         365
         361         362         367         366
         362         363         368         367
         363         364         369         368
         365         366         371         370
         366         367         372         371
         367         368         373         372
         368         369         374         373
         375         376         381         380
         376         377         382         381
         377         378         383         382
         378         379         384         383
         380         381         386         385
         381         382         387         386
         382         383         388         387
         383         384         389         388
         385         386         391         390
         386         387         392         391
         387         388         393         392
         388         389         394         393
         390         391         396         395
         391         392         397         396
         392         393         398         397
         393         394         399         398
         400         401         406         405
         401         402         407         406
         402         403         408         407
         403         404         409         408
         405         406         411         410
         406         407         412         411
         407         408         413         412
         408         409         414         413
         410         411         416         415
         411         412         417         416
         412         413         418         417
         413         414         419         418
         415         416         421         420
         416         417         422         421
         417         418         423         422
         418         419         424         423
         425         426         431         430
         426         427         432         431
         427         428         433         432
         428         429         434         433
         430         431         436         435
         431         432         437         436
         432         433         438         437
         433         434         439         438
         435         436         441         440
         436         437         442         441
         437         438         443         442
         438         439         444         443
         440         441         446         445
         441         442         447         446
         442         443         448         447
         443         444         449         448
         450         451         456         455
         451         452         457         456
         452         453         458         457
         453         454         459         458
         455         456         461         460
         456         457         462         461
         457         458         463         462
         458         459         464         463
         460         461         466         465
         461         462         467         466
         462         463         468         467
         463         464         469         468
         465         466         471         470
         466         467         472         471
         467         468         473         472
         468         469         474         473
         475         476         481         480
         476         477         482         481
         477         478         483         482
         478         479         484         483
         480         481         486         485
         481         482         487         486
         482         483         488         487
         483         484         489         488
         485         486         491         490
         486         487         492         491
         487         488         493         492
         488         489         494         493
         490         491         496         495
         491         492         497         496
         492         493         498         497
         493         494         499         498
         500         501         506         505
         501         502         507         506
         502         503         508         507
         503         504         509         508
         505         506         511         510
         506         507         512         511
         507         508         513         512
         508         509         514         513
         510         511         516         515
         511         512         517         516
         512         513         518         517
         513         514         519         518
         515         516         521         520
         516         517         522         521
         517         518         523         522
         518         519         524         523
         525         526         531         530
         526         527         532         531
         527         528         533         532
         528         529         534         533
         530         531         536         535
         531         532         537         536
         532         533         538         537
         533         534         539         538
         535         536         541         540
         536         537         542         541
         537         538         543         542
         538         539         544         543
         540         541         546         545
         541         542         547         546
         542         543         548         547
         543         544         549         548
         550         551         556         555
         551         552         557         556
         552         553         558         557
         553         554         559         558
         555         556         561         560
         556         557         562         561
         557         558         563         562
         558         559         564         563
         560         561         566         565
         561         562         567         566
         562         563         568         567
         563         564         569         568
         565         566         571         570
         566         567         572         571
         567         568         573         572
         568         569         574         573
         575         576         581         580
         576         577         582         581
         577         578         583         582
         578         579         584         583
         580         581         586         585
         581         582         587         586
         582         583         588         587
         583         584         589         588
         585         586         591         590
         586         587         592         591
         587         588         593         592
         588         589         594         593
         590         591         596         595
         591         592         597         596
         592         593         598         597
         593         594         599         598
         600         601         606         605
         601         602         607         606
         602         603         608         607
         603         604         609         608
         605         606         611         610
         606         607         612         611
         607         608         613         612
         608         609         614         613
         610         611         616         615
         611         612         617         616
         612         613         618         617
         613         614         619         618
         615         616         621         620
         616         617         622         621
         617         618         623         622
         618         619         624         623
         625         626         631         630
         626         627         632         631
         627         628         633         632
         628         629         634         633
         630         631         636         635
         631         632         637         636
         632         633         638         637
         633         634         639         638
         635         636         641         640
         636         637         642         641
         637         638         643         642
         638         639         644         643
         640         641         646         645
         641         642         647         646
         642         643         648         647
         643         644         649         648
         650         651         656         655
         651         652         657         656
         652         653         658         657
         653         654         659         658
         655         656         661         660
         656         657         662         661
         657         658         663         662
         658         659         664         663
         660         661         666         665
         661         662         667         666
         662         663         668         667
         663         664         669         668
         665         666         671         670
         666         667         672         671
         667         668         673         672
         668         669         674         673
         675         676         681         680
         676         677         682         681
         677         678         683         682
         678         679         684         683
         680         681         686         685
         681         682         687         686
         682         683         688         687
         683         684         689         688
         685         686         691         690
         686         687         692         691
         687         688         693         692
         688         689         694         693
         690         691         696         695
         691         692         697         696
         692         693         698         697
         693         694         699         698
         700         701         706         705
         701         702         707         706
         702         703         708         707
         703         704         709         708
         705         706         711         710
         706         707         712         711
         707         708         713         712
         708         709         714         713
         710         711         716         715
         711         712         717         716
         712         713         718         717
         713         714         719         718
         715         716         721         720
         716         717         722         721
         717         718         723         722
         718         719         724         723
         725         726         731         730
         726         727         732         731
         727         728         733         732
         728         729         734         733
         730         731         736         735
         731         732         737         736
         732         733         738         737
         733         734         739         738
         735         736         741         740
         736         737         742         741
         737         738         743         742
         738         739         744         743
         740         741         746         745
         741         742         747         746
         742         743         748         747
         743         744         749         748
         750         751         756         755
         751         752         757         756
         752         753         758         757
         753         754         759         758
         755         756         761         760
         756         757         762         761
         757         758         763         762
         758         759         764         763
         760         761         766         765
         761         762         767         766
         762         763         768         767
         763         764         769         768
         765         766         771         770
         766         767         772         771
         767         768         773         772
         768         769         774         773
         775         776         781         780
         776         777         782         781
         777         778         783         782
         778         779         784         783
         780         781         786         785
         781         782         787         786
         782         783         788         787
         783         784         789         788
         785         786         791         790
         786         787         792         791
         787         788         793         792
         788         789         794         793
         790         791         796         795
         791         792         797         796
         792         793         798         797
         793         794         799         798
         800         801         806         805
         801         802         807         806
         802         803         808         807
         803         804         809         808
         805         806         811         810
         806         807         812         811
         807         808         813         812
         808         809         814         813
         810         811         816         815
         811         812         817         816
         812         813         818         817
         813         814         819         818
         815         816         821         820
         816         817         822         821
         817         818         823         822
         818         819         824         823
         825         826         831         830
         826         827         832         831
         827         828         833         832
         828         829         834         833
         830         831         836         835
         831         832         837         836
         832         833         838         837
         833         834         839         838
         835         836         841         840
         836         837         842         841
         837         838         843         842
         838         839         844         843
         840         841         846         845
         841         842         847         846
         842         843         848         847
         843         844         849         848
         850         851         856         855
         851         852         857         856
         852         853         858         857
         853         854         859         858
         855         856         861         860
         856         857         862         861
         857         858         863         862
         858         859         864         863
         860         861         866         865
         861         862         867         866
         862         863         868         867
         863         864         869         868
         865         866         871         870
         866         867         872         871
         867         868         873         872
         868         869         874         873
         875         876         881         880
         876         877         882         881
         877         878         883         882
         878         879         884         883
         880         881         886         885
         881         882         887         886
         882         883         888         887
         883         884         889         888
         885         886         891         890
         886         887         892         891
         887         888         893         892
         888         889         894         893
         890         891         896         895
         891         892         897         896
         892         893         898         897
         893         894         899         898
         900         901         906         905
         901         902         907         906
         902         903         908         907
         903         904         909         908
         905         906         911         910
         906         907         912         911
         907         908         913         912
         908         909         914         913
         910         911         916         915
         911         912         917         916
         912         913         918         917
         913         914         919         918
         915         916         921         920
         916         917         922         921
         917         918         923         922
         918         919         924         923
         925         926         931         930
         926         927         932         931
         927         928         933         932
         928         929         934         933
         930         931         936         935
         931         932         937         936
         932         933         938         937
         933         934         939         938
         935         936         941         940
         936         937         942         941
         937         938         943         942
         938         939         944         943
         940         941         946         945
         941         942         947         946
         942         943         948         947
         943         944         949         948
         950         951         956         955
         951         952         957         956
         952         953         958         957
         953         954         959         958
         955         956         961         960
         956         957         962         961
         957         958         963         962
         958         959         964         963
         960         961         966         965
         961         962         967         966
         962         963         968         967
         963         964         969         968
         965         966         971         970
         966         967         972         971
         967         968         973         972
         968         969         974         973
         975         976         981         980
         976         977         982         981
         977         978         983         982
         978         979         984         983
         980         981         986         985
         981         982         987         986
         982         983         988         987
         983         984         989         988
         985         986         991         990
         986         987         992         991
         987         988         993         992
         988         989         994         993
         990         991         996         995
         991         992         997         996
         992         993         998         997
         993         994         999         998
        1000        1001        1006        1005
        1001        1002        1007        1006
        1002        1003        1008        1007
        1003        1004        1009        1008
        1005        1006        1011        1010
        1006        1007        1012        1011
        1007        1008        1013        1012
        1008        1009        1014        1013
        1010        1011        1016        1015
        1011        1012        1017        1016
        1012        1013        1018        1017
        1013        1014        1019        1018
        1015        1016        1021        1020
        1016        1017        1022        1021
        1017        1018        1023        1022
        1018        1019        1024        1023
        1025        1026        1031        1030
        1026        1027        1032        1031
        1027        1028        1033        1032
        1028        1029        1034        1033
        1030        1031        1036        1035
        1031        1032        1037        1036
        1032        1033        1038        1037
        1033        1034        1039        1038
        1035        1036        1041        1040
        1036        1037        1042        1041
        1037        1038        1043        1042
        1038        1039        1044        1043
        1040        1041        1046        1045
        1041        1042        1047        1046
        1042        1043        1048        1047
        1043        1044        1049        1048
        1050        1051        1056        1055
        1051        1052        1057        1056
        1052        1053        1058        1057
        1053        1054        1059        1058
        1055        1056        1061        1060
        1056        1057        1062        1061
        1057        1058        1063        1062
        1058        1059        1064        1063
        1060        1061        1066        1065
        1061        1062        1067        1066
        1062        1063        1068        1067
        1063        1064        1069        1068
        1065        1066        1071        1070
        1066        1067        1072        1071
        1067        1068        1073        1072
        1068        1069        1074        1073
        1075        1076        1081        1080
        1076        1077        1082        1081
        1077        1078        1083        1082
        1078        1079        1084        1083
        1080        1081        1086        1085
        1081        1082        1087        1086
        1082        1083        1088        1087
        1083        1084        1089        1088
        1085        1086        1091        1090
        1086        1087        1092        1091
        1087        1088        1093        1092
        1088        1089        1094        1093
        1090        1091        1096        1095
        1091        1092        1097        1096
        1092        1093        1098        1097
        1093        1094        1099        1098
        1100        1101        1106        1105
        1101        1102        1107        1106
        1102        1103        1108        1107
        1103        1104        1109        1108
        1105        1106        1111        1110
        1106        1107        1112        1111
        1107        1108        1113        1112
        1108        1109        1114        1113
        1110        1111        1116        1115
        1111        1112        1117        1116
        1112        1113        1118        1117
        1113        1114        1119        1118
        1115        1116        1121        1120
        1116        1117        1122        1121
        1117        1118        1123        1122
        1118        1119        1124        1123
        1125        1126        1131        1130
        1126        1127        1132        1131
        1127        1128        1133        1132
        1128        1129        1134        1133
        1130        1131        1136        1135
        1131        1132        1137        1136
        1132        1133        1138        1137
        1133        1134        1139        1138
        1135        1136        1141        1140
        1136        1137        1142        1141
        1137        1138        1143        1142
        1138        1139        1144        1143
        1140        1141        1146        1145
        1141        1142        1147        1146
        1142        1143        1148        1147
        1143        1144        1149        1148
        1150        1151        1156        1155
        1151        1152        1157        1156
        1152        1153        1158        1157
        1153        1154        1159        1158
        1155        1156        1161        1160
        1156        1157        1162        1161
        1157        1158        1163        1162
        1158        1159        1164        1163
        1160        1161        1166        1165
        1161        1162        1167        1166
        1162        1163        1168        1167
        1163        1164        1169        1168
        1165        1166        1171        1170
        1166        1167        1172        1171
        1167        1168        1173        1172
        1168        1169        1174        1173
        1175        1176        1181        1180
        1176        1177        1182        1181
        1177        1178        1183        1182
        1178        1179        1184        1183
        1180        1181        1186        1185
        1181        1182        1187        1186
        1182        1183        1188        1187
        1183        1184        1189        1188
        1185        1186        1191        1190
        1186        1187        1192        1191
        1187        1188        1193        1192
        1188        1189        1194        1193
        1190        1191        1196        1195
        1191        1192        1197        1196
        1192        1193        1198        1197
        1193        1194        1199        1198
        1200        1201        1206        1205
        1201        1202        1207        1206
        1202        1203        1208        1207
        1203        1204        1209        1208
        1205        1206        1211        1210
        1206        1207        1212        1211
        1207        1208        1213        1212
        1208        1209        1214        1213
        1210        1211        1216        1215
        1211        1212        1217        1216
        1212        1213        1218        1217
        1213        1214        1219        1218
        1215        1216        1221        1220
        1216        1217        1222        1221
        1217        1218        1223        1222
        1218        1219        1224        1223
        1225        1226        1231        1230
        1226        1227        1232        1231
        1227        1228        1233        1232
        1228        1229        1234        1233
        1230        1231        1236        1235
        1231        1232        1237        1236
        1232        1233        1238        1237
        1233        1234        1239        1238
        1235        1236        1241        1240
        1236        1237        1242        1241
        1237        1238        1243        1242
        1238        1239        1244        1243
        1240        1241        1246        1245
        1241        1242        1247        1246
        1242        1243        1248        1247
        1243        1244        1249        1248
        1250        1251        1256        1255
        1251        1252        1257        1256
        1252        1253        1258        1257
        1253        1254        1259        1258
        1255        1256        1261        1260
        1256        1257        1262        1261
        1257        1258        1263        1262
        1258        1259        1264        1263
        1260        1261        1266        1265
        1261        1262        1267        1266
        1262        1263        1268        1267
        1263        1264        1269        1268
        1265        1266        1271        1270
        1266        1267        1272        1271
        1267        1268        1273        1272
        1268        1269        1274        1273
        1275        1276        1281        1280
        1276        1277        1282        1281
        1277        1278        1283        1282
        1278        1279        1284        1283
        1280        1281        1286        1285
        1281        1282        1287        1286
        1282        1283        1288        1287
        1283        1284        1289        1288
        1285        1286        1291        1290
        1286        1287        1292        1291
        1287        1288        1293        1292
        1288        1289        1294        1293
        1290        1291        1296        1295
        1291        1292        1297        1296
        1292        1293        1298        1297
        1293        1294        1299        1298
        1300        1301        1306        1305
        1301        1302        1307        1306
        1302        1303        1308        1307
        1303        1304        1309        1308
        1305        1306        1311        1310
        1306        1307        1312        1311
        1307        1308        1313        1312
        1308        1309        1314        1313
        1310        1311        1316        1315
        1311        1312        1317        1316
        1312        1313        1318        1317
        1313        1314        1319        1318
        1315        1316        1321        1320
        1316        1317        1322        1321
        1317        1318        1323        1322
        1318        1319        1324        1323
        1325        1326        1331        1330
        1326        1327        1332        1331
        1327        1328        1333        1332
        1328        1329        1334        1333
        1330        1331        1336        1335
        1331        1332        1337        1336
        1332        1333        1338        1337
        1333        1334        1339        1338
        1335        1336        1341        1340
        1336        1337        1342        1341
        1337        1338        1343        1342
        1338        1339        1344        1343
        1340        1341        1346        1345
        1341        1342        1347        1346
        1342        1343        1348        1347
        1343        1344        1349        1348
        1350        1351        1356        1355
        1351        1352        1357        1356
        1352        1353        1358        1357
        1353        1354        1359        1358
        1355        1356        1361        1360
        1356        1357        1362        1361
        1357        1358        1363        1362
        1358        1359        1364        1363
        1360        1361        1366        1365
        1361        1362        1367        1366
        1362        1363        1368        1367
        1363        1364        1369        1368
        1365        1366        1371        1370
        1366        1367        1372        1371
        1367        1368        1373        1372
        1368        1369        1374        1373
        1375        1376        1381        1380
        1376        1377        1382        1381
        1377        1378        1383        1382
        1378        1379        1384        1383
        1380        1381        1386        1385
        1381        1382        1387        1386
        1382        1383        1388        1387
        1383        1384        1389        1388
        1385        1386        1391        1390
        1386        1387        1392        1391
        1387        1388        1393        1392
        1388        1389        1394        1393
        1390        1391        1396        1395
        1391        1392        1397        1396
        1392        1393        1398        1397
        1393        1394        1399        1398
        1400        1401        1406        1405
        1401        1402        1407        1406
        1402        1403        1408        1407
        1403        1404        1409        1408
        1405        1406        1411        1410
        1406        1407        1412        1411
        1407        1408        1413        1412
        1408        1409        1414        1413
        1410        1411        1416        1415
        1411        1412        1417        1416
        1412        1413        1418        1417
        1413        1414        1419        1418
        1415        1416        1421        1420
        1416        1417        1422        1421
        1417        1418        1423        1422
        1418        1419        1424        1423
        1425        1426        1431        1430
        1426        1427        1432        1431
        1427        1428        1433        1432
        1428        1429        1434        1433
        1430        1431        1436        1435
        1431        1432        1437        1436
        1432        1433        1438        1437
        1433        1434        1439        1438
        1435        1436        1441        1440
        1436        1437        1442        1441
        1437        1438        1443        1442
        1438        1439        1444        1443
        1440        1441        1446        1445
        1441        1442        1447        1446
        1442        1443        1448        1447
        1443        1444        1449        1448
        1450        1451        1456        1455
        1451        1452        1457        1456
        1452        1453        1458        1457
        1453        1454        1459        1458
        1455        1456        1461        1460
        1456        1457        1462        1461
        1457        1458        1463        1462
        1458        1459        1464        1463
        1460        1461        1466        1465
        1461        1462        1467        1466
        1462        1463        1468        1467
        1463        1464        1469        1468
        1465        1466        1471        1470
        1466        1467        1472        1471
        1467        1468        1473        1472
        1468        1469        1474        1473
        1475        1476        1481        1480
        1476        1477        1482        1481
        1477        1478        1483        1482
        1478        1479        1484        1483
        1480        1481        1486        1485
        1481        1482        1487        1486
        1482        1483        1488        1487
        1483        1484        1489        1488
        1485        1486        1491        1490
        1486        1487        1492        1491
        1487        1488        1493        1492
        1488        1489        1494        1493
        1490        1491        1496        1495
        1491        1492        1497        1496
        1492        1493        1498        1497
        1493        1494        1499        1498
        1500        1501        1506        1505
        1501        1502        1507        1506
        1502        1503        1508        1507
        1503        1504        1509        1508
        1505        1506        1511        1510
        1506        1507        1512        1511
        1507        1508        1513        1512
        1508        1509        1514        1513
        1510        1511        1516        1515
        1511        1512        1517        1516
        1512        1513        1518        1517
        1513        1514        1519        1518
        1515        1516        1521        1520
        1516        1517        1522        1521
        1517        1518        1523        1522
        1518        1519        1524        1523
        1525        1526        1531        1530
        1526        1527        1532        1531
        1527        1528        1533        1532
        1528        1529        1534        1533
        1530        1531        1536        1535
        1531        1532        1537        1536
        1532        1533        1538        1537
        1533        1534        1539        1538
        1535        1536        1541        1540
        1536        1537        1542        1541
        1537        1538        1543        1542
        1538        1539        1544        1543
        1540        1541        1546        1545
        1541        1542        1547        1546
        1542        1543        1548        1547
        1543        1544        1549        1548
        1550        1551        1556        1555
        1551        1552        1557        1556
        1552        1553        1558        1557
        1553        1554        1559        1558
        1555        1556        1561        1560
        1556        1557        1562        1561
        1557        1558        1563        1562
        1558        1559        1564        1563
        1560        1561        1566        1565
        1561        1562        1567        1566
        1562        1563        1568        1567
        1563        1564        1569        1568
        1565        1566        1571        1570
        1566        1567        1572        1571
        1567        1568        1573        1572
        1568        1569        1574        1573
        1575        1576        1581        1580
        1576        1577        1582        1581
        1577        1578        1583        1582
        1578        1579        1584        1583
        1580        1581        1586        1585
        1581        1582        1587        1586
        1582        1583        1588        1587
        1583        1584        1589        1588
        1585        1586        1591        1590
        1586        1587        1592        1591
        1587        1588        1593        1592
        1588        1589        1594        1593
        1590        1591        1596        1595
        1591        1592        1597        1596
        1592        1593        1598        1597
        1593        1594        1599        1598
 </DataArray>
 <DataArray  type="Int32"  Name="offsets"  format="ascii"> 
           4
           8
          12
          16
          20
          24
          28
          32
          36
          40
          44
          48
          52
          56
          60
          64
          68
          72
          76
          80
          84
          88
          92
          96
         100
         104
         108
         112
         116
         120
         124
         128
         132
         136
         140
         144
         148
         152
         156
         160
         164
         168
         172
         176
         180
         184
         188
         192
         196
         200
         204
         208
         212
         216
         220
         224
         228
         232
         236
         240
         244
         248
         252
         256
         260
         264
         268
         272
         276
         280
         284
         288
         292
         296
         300
         304
         308
         312
         316
         320
         324
         328
         332
         336
         340
         344
         348
         352
         356
         360
         364
         368
         372
         376
         380
         384
         388
         392
         396
         400
         404
         408
         412
         416
         420
         424
         428
         432
         436
         440
         444
         448
         452
         456
         460
         464
         468
         472
         476
         480
         484
         488
         492
         496
         500
         504
         508
         512
         516
         520
         524
         528
         532
         536
         540
         544
         548
         552
         556
         560
         564
         568
         572
         576
         580
         584
         588
         592
         596
         600
         604
         608
         612
         616
         620
         624
         628
         632
         636
         640
         644
         648
         652
         656
         660
         664
         668
         672
         676
         680
         684
         688
         692
         696
         700
         704
         708
         712
         716
         720
         724
         728
         732
         736
         740
         744
         748
         752
         756
         760
         764
         768
         772
         776
         780
         784
         788
         792
         796
         800
         804
         808
         812
         816
         820
         824
         828
         832
         836
         840
         844
         848
         852
         856
         860
         864
         868
         872
         876
         880
         884
         888
         892
         896
         900
         904
         908
         912
         916
         920
         924
         928
         932
         936
         940
         944
         948
         952
         956
         960
         964
         968
         972
         976
         980
         984
         988
         992
         996
        1000
        1004
        1008
        1012
        1016
        1020
        1024
        1028
        1032
        1036
        1040
        1044
        1048
        1052
        1056
        1060
        1064
        1068
        1072
        1076
        1080
        1084
        1088
        1092
        1096
        1100
        1104
        1108
        1112
        1116
        1120
        1124
        1128
        1132
        1136
        1140
        1144
        1148
        1152
        1156
        1160
        1164
        1168
        1172
        1176
        1180
        1184
        1188
        1192
        1196
        1200
        1204
        1208
        1212
        1216
        1220
        1224
        1228
        1232
        1236
        1240
        1244
        1248
        1252
        1256
        1260
        1264
        1268
        1272
        1276
        1280
        1284
        1288
        1292
        1296
        1300
        1304
        1308
        1312
        1316
        1320
        1324
        1328
        1332
        1336
        1340
        1344
        1348
        1352
        1356
        1360
        1364
        1368
        1372
        1376
        1380
        1384
        1388
        1392
        1396
        1400
        1404
        1408
        1412
        1416
        1420
        1424
        1428
        1432
        1436
        1440
        1444
        1448
        1452
        1456
        1460
        1464
        1468
        1472
        1476
        1480
        1484
        1488
        1492
        1496
        1500
        1504
        1508
        1512
        1516
        1520
        1524
        1528
        1532
        1536
        1540
        1544
        1548
        1552
        1556
        1560
        1564
        1568
        1572
        1576
        1580
        1584
        1588
        1592
        1596
        1600
        1604
        1608
        1612
        1616
        1620
        1624
        1628
        1632
        1636
        1640
        1644
        1648
        1652
        1656
        1660
        1664
        1668
        1672
        1676
        1680
        1684
        1688
        1692
        1696
        1700
        1704
        1708
        1712
        1716
        1720
        1724
        1728
        1732
        1736
        1740
        1744
        1748
        1752
        1756
        1760
        1764
        1768
        1772
        1776
        1780
        1784
        1788
        1792
        1796
        1800
        1804
        1808
        1812
        1816
        1820
        1824
        1828
        1832
        1836
        1840
        1844
        1848
        1852
        1856
        1860
        1864
        1868
        1872
        1876
        1880
        1884
        1888
        1892
        1896
        1900
        1904
        1908
        1912
        1916
        1920
        1924
        1928
        1932
        1936
        1940
        1944
        1948
        1952
        1956
        1960
        1964
        1968
        1972
        1976
        1980
        1984
        1988
        1992
        1996
        2000
        2004
        2008
        2012
        2016
        2020
        2024
        2028
        2032
        2036
        2040
        2044
        2048
        2052
        2056
        2060
        2064
        2068
        2072
        2076
        2080
        2084
        2088
        2092
        2096
        2100
        2104
        2108
        2112
        2116
        2120
        2124
        2128
        2132
        2136
        2140
        2144
        2148
        2152
        2156
        2160
        2164
        2168
        2172
        2176
        2180
        2184
        2188
        2192
        2196
        2200
        2204
        2208
        2212
        2216
        2220
        2224
        2228
        2232
        2236
        2240
        2244
        2248
        2252
        2256
        2260
        2264
        2268
        2272
        2276
        2280
        2284
        2288
        2292
        2296
        2300
        2304
        2308
        2312
        2316
        2320
        2324
        2328
        2332
        2336
        2340
        2344
        2348
        2352
        2356
        2360
        2364
        2368
        2372
        2376
        2380
        2384
        2388
        2392
        2396
        2400
        2404
        2408
        2412
        2416
        2420
        2424
        2428
        2432
        2436
        2440
        2444
        2448
        2452
        2456
        2460
        2464
        2468
        2472
        2476
        2480
        2484
        2488
        2492
        2496
        2500
        2504
        2508
        2512
        2516
        2520
        2524
        2528
        2532
        2536
        2540
        2544
        2548
        2552
        2556
        2560
        2564
        2568
        2572
        2576
        2580
        2584
        2588
        2592
        2596
        2600
        2604
        2608
        2612
        2616
        2620
        2624
        2628
        2632
        2636
        2640
        2644
        2648
        2652
        2656
        2660
        2664
        2668
        2672
        2676
        2680
        2684
        2688
        2692
        2696
        2700
        2704
        2708
        2712
        2716
        2720
        2724
        2728
        2732
        2736
        2740
        2744
        2748
        2752
        2756
        2760
        2764
        2768
        2772
        2776
        2780
        2784
        2788
        2792
        2796
        2800
        2804
        2808
        2812
        2816
        2820
        2824
        2828
        2832
        2836
        2840
        2844
        2848
        2852
        2856
        2860
        2864
        2868
        2872
        2876
        2880
        2884
        2888
        2892
        2896
        2900
        2904
        2908
        2912
        2916
        2920
        2924
        2928
        2932
        2936
        2940
        2944
        2948
        2952
        2956
        2960
        2964
        2968
        2972
        2976
        2980
        2984
        2988
        2992
        2996
        3000
        3004
        3008
        3012
        3016
        3020
        3024
        3028
        3032
        3036
        3040
        3044
        3048
        3052
        3056
        3060
        3064
        3068
        3072
        3076
        3080
        3084
        3088
        3092
        3096
        3100
        3104
        3108
        3112
        3116
        3120
        3124
        3128
        3132
        3136
        3140
        3144
        3148
        3152
        3156
        3160
        3164
        3168
        3172
        3176
        3180
        3184
        3188
        3192
        3196
        3200
        3204
        3208
        3212
        3216
        3220
        3224
        3228
        3232
        3236
        3240
        3244
        3248
        3252
        3256
        3260
        3264
        3268
        3272
        3276
        3280
        3284
        3288
        3292
        3296
        3300
        3304
        3308
        3312
        3316
        3320
        3324
        3328
        3332
        3336
        3340
        3344
        3348
        3352
        3356
        3360
        3364
        3368
        3372
        3376
        3380
        3384
        3388
        3392
        3396
        3400
        3404
        3408
        3412
        3416
        3420
        3424
        3428
        3432
        3436
        3440
        3444
        3448
        3452
        3456
        3460
        3464
        3468
        3472
        3476
        3480
        3484
        3488
        3492
        3496
        3500
        3504
        3508
        3512
        3516
        3520
        3524
        3528
        3532
        3536
        3540
        3544
        3548
        3552
        3556
        3560
        3564
        3568
        3572
        3576
        3580
        3584
        3588
        3592
        3596
        3600
        3604
        3608
        3612
        3616
        3620
        3624
        3628
        3632
        3636
        3640
        3644
        3648
        3652
        3656
        3660
        3664
        3668
        3672
        3676
        3680
        3684
        3688
        3692
        3696
        3700
        3704
        3708
        3712
        3716
        3720
        3724
        3728
        3732
        3736
        3740
        3744
        3748
        3752
        3756
        3760
        3764
        3768
        3772
        3776
        3780
        3784
        3788
        3792
        3796
        3800
        3804
        3808
        3812
        3816
        3820
        3824
        3828
        3832
        3836
        3840
        3844
        3848
        3852
        3856
        3860
        3864
        3868
        3872
        3876
        3880
        3884
        3888
        3892
        3896
        3900
        3904
        3908
        3912
        3916
        3920
        3924
        3928
        3932
        3936
        3940
        3944
        3948
        3952
        3956
        3960
        3964
        3968
        3972
        3976
        3980
        3984
        3988
        3992
        3996
        4000
        4004
        4008
        4012
        4016
        4020
        4024
        4028
        4032
        4036
        4040
        4044
        4048
        4052
        4056
        4060
        4064
        4068
        4072
        4076
        4080
        4084
        4088
        4092
        4096
 </DataArray>
 <DataArray  type="UInt8"  Name="types"  format="ascii">
 9
 9
 9
 9
 9
 9
 9
 9
 9
 9
 9
 9
 9
 9
 9
 9
 9
 9
 9
 9
 9
 9
 9
 9
 9
 9
 9
 9
 9
 9
 9
 9
 9
 9
 9
 9
 9
 9
 9
 9
 9
 9
 9
 9
 9
 9
 9
 9
 9
 9
 9
 9
 9
 9
 9
 9
 9
 9
 9
 9
 9
 9
 9
 9
 9
 9
 9
 9
 9
 9
 9
 9
 9
 9
 9
 9
 9
 9
 9
 9
 9
 9
 9
 9
 9
 9
 9
 9
 9
 9
 9
 9
 9
 9
 9
 9
 9
 9
 9
 9
 9
 9
 9
 9
 9
 9
 9
 9
 9
 9
 9
 9
 9
 9
 9
 9
 9
 9
 9
 9
 9
 9
 9
 9
 9
 9
 9
 9
 9
 9
 9
 9
 9
 9
 9
 9
 9
 9
 9
 9
 9
 9
 9
 9
 9
 9
 9
 9
 9
 9
 9
 9
 9
 9
 9
 9
 9
 9
 9
 9
 9
 9
 9
 9
 9
 9
 9
 9
 9
 9
 9
 9
 9
 9
 9
 9
 9
 9
 9
 9
 9
 9
 9
 9
 9
 9
 9
 9
 9
 9
 9
 9
 9
 9
 9
 9
 9
 9
 9
 9
 9
 9
 9
 9
 9
 9
 9
 9
 9
 9
 9
 9
 9
 9
 9
 9
 9
 9
 9
 9
 9
 9
 9
 9
 9
 9
 9
 9
 9
 9
 9
 9
 9
 9
 9
 9
 9
 9
 9
 9
 9
 9
 9
 9
 9
 9
 9
 9
 9
 9
 9
 9
 9
 9
 9
 9
 9
 9
 9
 9
 9
 9
 9
 9
 9
 9
 9
 9
 9
 9
 9
 9
 9
 9
 9
 9
 9
 9
 9
 9
 9
 9
 9
 9
 9
 9
 9
 9
 9
 9
 9
 9
 9
 9
 9
 9
 9
 9
 9
 9
 9
 9
 9
 9
 9
 9
 9
 9
 9
 9
 9
 9
 9
 9
 9
 9
 9
 9
 9
 9
 9
 9
 9
 9
 9
 9
 9
 9
 9
 9
 9
 9
 9
 9
 9
 9
 9
 9
 9
 9
 9
 9
 9
 9
 9
 9
 9
 9
 9
 9
 9
 9
 9
 9
 9
 9
 9
 9
 9
 9
 9
 9
 9
 9
 9
 9
 9
 9
 9
 9
 9
 9
 9
 9
 9
 9
 9
 9
 9
 9
 9
 9
 9
 9
 9
 9
 9
 9
 9
 9
 9
 9
 9
 9
 9
 9
 9
 9
 9
 9
 9
 9
 9
 9
 9
 9
 9
 9
 9
 9
 9
 9
 9
 9
 9
 9
 9
 9
 9
 9
 9
 9
 9
 9
 9
 9
 9
 9
 9
 9
 9
 9
 9
 9
 9
 9
 9
 9
 9
 9
 9
 9
 9
 9
 9
 9
 9
 9
 9
 9
 9
 9
 9
 9
 9
 9
 9
 9
 9
 9
 9
 9
 9
 9
 9
 9
 9
 9
 9
 9
 9
 9
 9
 9
 9
 9
 9
 9
 9
 9
 9
 9
 9
 9
 9
 9
 9
 9
 9
 9
 9
 9
 9
 9
 9
 9
 9
 9
 9
 9
 9
 9
 9
 9
 9
 9
 9
 9
 9
 9
 9
 9
 9
 9
 9
 9
 9
 9
 9
 9
 9
 9
 9
 9
 9
 9
 9
 9
 9
 9
 9
 9
 9
 9
 9
 9
 9
 9
 9
 9
 9
 9
 9
 9
 9
 9
 9
 9
 9
 9
 9
 9
 9
 9
 9
 9
 9
 9
 9
 9
 9
 9
 9
 9
 9
 9
 9
 9
 9
 9
 9
 9
 9
 9
 9
 9
 9
 9
 9
 9
 9
 9
 9
 9
 9
 9
 9
 9
 9
 9
 9
 9
 9
 9
 9
 9
 9
 9
 9
 9
 9
 9
 9
 9
 9
 9
 9
 9
 9
 9
 9
 9
 9
 9
 9
 9
 9
 9
 9
 9
 9
 9
 9
 9
 9
 9
 9
 9
 9
 9
 9
 9
 9
 9
 9
 9
 9
 9
 9
 9
 9
 9
 9
 9
 9
 9
 9
 9
 9
 9
 9
 9
 9
 9
 9
 9
 9
 9
 9
 9
 9
 9
 9
 9
 9
 9
 9
 9
 9
 9
 9
 9
 9
 9
 9
 9
 9
 9
 9
 9
 9
 9
 9
 9
 9
 9
 9
 9
 9
 9
 9
 9
 9
 9
 9
 9
 9
 9
 9
 9
 9
 9
 9
 9
 9
 9
 9
 9
 9
 9
 9
 9
 9
 9
 9
 9
 9
 9
 9
 9
 9
 9
 9
 9
 9
 9
 9
 9
 9
 9
 9
 9
 9
 9
 9
 9
 9
 9
 9
 9
 9
 9
 9
 9
 9
 9
 9
 9
 9
 9
 9
 9
 9
 9
 9
 9
 9
 9
 9
 9
 9
 9
 9
 9
 9
 9
 9
 9
 9
 9
 9
 9
 9
 9
 9
 9
 9
 9
 9
 9
 9
 9
 9
 9
 9
 9
 9
 9
 9
 9
 9
 9
 9
 9
 9
 9
 9
 9
 9
 9
 9
 9
 9
 9
 9
 9
 9
 9
 9
 9
 9
 9
 9
 9
 9
 9
 9
 9
 9
 9
 9
 9
 9
 9
 9
 9
 9
 9
 9
 9
 9
 9
 9
 9
 9
 9
 9
 9
 9
 9
 9
 9
 9
 9
 9
 9
 9
 9
 9
 9
 9
 9
 9
 9
 9
 9
 9
 9
 9
 9
 9
 9
 9
 9
 9
 9
 9
 9
 9
 9
 9
 9
 9
 9
 9
 9
 9
 9
 9
 9
 9
 9
 9
 9
 9
 9
 9
 9
 9
 9
 9
 9
 9
 9
 9
 9
 9
 9
 9
 9
 9
 9
 9
 9
 9
 9
 9
 9
 9
 9
 9
 9
 9
 9
 9
 9
 9
 9
 9
 9
 9
 9
 9
 9
 9
 9
 9
 9
 9
 9
 9
 9
 9
 9
 9
 9
 9
 9
 9
 9
 9
 9
 9
 9
 9
 9
 9
 9
 9
 9
 9
 9
 9
 9
 9
 9
 9
 9
 9
 9
 9
 9
 9
 9
 9
 9
 9
 9
 9
 9
 9
 9
 9
 9
 9
 9
 9
 9
 9
 9
 9
 9
 9
 9
 9
 9
 9
 9
 9
 9
 9
 9
 9
 9
 9
 9
 9
 9
 9
 9
 9
 9
 9
 9
 9
 9
 9
 9
 9
 9
 9
 9
 9
 9
 9
 9
 9
 9
 9
 9
 9
 9
 9
 9
 </DataArray>
 </Cells> 
 <PointData>
 <DataArray  type="Float64" Name="disp" NumberOfComponents="3" format="ascii">
   6.5324556441249376E-002   6.2777369559331747E-002   0.0000000000000000     
   6.8431229352301004E-002   6.8173894615087216E-002   0.0000000000000000     
   7.1417894826943745E-002   7.3748517865881658E-002   0.0000000000000000     
   7.4284552865177600E-002   7.9501239311715002E-002   0.0000000000000000     
   7.7031203467002568E-002   8.5432058952587320E-002   0.0000000000000000     
   6.0109212570918800E-002   6.1893486079850318E-002   0.0000000000000000     
   6.3044775113346732E-002   6.7304692530808924E-002   0.0000000000000000     
   6.5859655227418684E-002   7.2898909150313357E-002   0.0000000000000000     
   6.8553852913134636E-002   7.8676135938363673E-002   0.0000000000000000     
   7.1127368170494643E-002   8.4636372894959844E-002   0.0000000000000000     
   5.5122843931022604E-002   6.1050364466635740E-002   0.0000000000000000     
   5.7871035403846346E-002   6.6483463307457191E-002   0.0000000000000000     
   6.0503669167478132E-002   7.2101526944099714E-002   0.0000000000000000     
   6.3020745221917904E-002   7.7904555376563350E-002   0.0000000000000000     
   6.5422263567165725E-002   8.3892548604848044E-002   0.0000000000000000     
   5.0365450521560773E-002   6.0248004719688025E-002   0.0000000000000000     
   5.2910010223799882E-002   6.5710206945032032E-002   0.0000000000000000     
   5.5349936647122081E-002   7.1356371247240716E-002   0.0000000000000000     
   5.7685229791527390E-002   7.7186497626314007E-002   0.0000000000000000     
   5.9915889657015796E-002   8.3200586082251990E-002   0.0000000000000000     
   4.5837032342533321E-002   5.9486406839007175E-002   0.0000000000000000     
   4.8161699573207310E-002   6.4984923443533474E-002   0.0000000000000000     
   5.0398457666350559E-002   7.0663442059736320E-002   0.0000000000000000     
   5.2547306621963073E-002   7.6521962687615686E-002   0.0000000000000000     
   5.4608246440044854E-002   8.2560485327171612E-002   0.0000000000000000     
   7.7031203467002568E-002   8.5432058952587320E-002   0.0000000000000000     
   7.9677798320441917E-002   9.1531391297942133E-002   0.0000000000000000     
   8.2244289113518929E-002   9.7789650857222965E-002   0.0000000000000000     
   8.4730675846233602E-002  0.10420683763042983        0.0000000000000000     
   8.7136958518585966E-002  0.11078295161756271        0.0000000000000000     
   7.1127368170494643E-002   8.4636372894959844E-002   0.0000000000000000     
   7.3604342887155200E-002   9.0766752673744774E-002   0.0000000000000000     
   7.6008918950772830E-002   9.7054407928361411E-002   0.0000000000000000     
   7.8341096361347534E-002  0.10349933865880977        0.0000000000000000     
   8.0600875118879339E-002  0.11010154486508983        0.0000000000000000     
   6.5422263567165725E-002   8.3892548604848044E-002   0.0000000000000000     
   6.7732651063822216E-002   9.0051154301654460E-002   0.0000000000000000     
   6.9976334572488044E-002   9.6366020139683192E-002   0.0000000000000000     
   7.2153314093163196E-002  0.10283714611893423        0.0000000000000000     
   7.4263589625847712E-002  0.10946453223940755        0.0000000000000000     
   5.9915889657015796E-002   8.3200586082251990E-002   0.0000000000000000     
   6.2062722850442974E-002   8.9384596181671216E-002   0.0000000000000000     
   6.4146535978664571E-002   9.5724487491188281E-002   0.0000000000000000     
   6.6167329041680614E-002  0.10222026001080319        0.0000000000000000     
   6.8125102039491112E-002  0.10887191374051594        0.0000000000000000     
   5.4608246440044854E-002   8.2560485327171612E-002   0.0000000000000000     
   5.6594558247017451E-002   8.8767078313794975E-002   0.0000000000000000     
   5.8519523169302437E-002   9.5129809982876665E-002   0.0000000000000000     
   6.0383141206899783E-002  0.10164868033441664        0.0000000000000000     
   6.2185412359809525E-002  0.10832368936841497        0.0000000000000000     
   8.7136958518585966E-002  0.11078295161756271        0.0000000000000000     
   8.9451638194120234E-002  0.11750517646026433        0.0000000000000000     
   9.1663215936380688E-002  0.12436069580017735        0.0000000000000000     
   9.3771691745367286E-002  0.13134950963730180        0.0000000000000000     
   9.5777065621080071E-002  0.13847161797163765        0.0000000000000000     
   8.0600875118879339E-002  0.11010154486508983        0.0000000000000000     
   8.2775267879486220E-002  0.11684961849292910        0.0000000000000000     
   8.4851287299286260E-002  0.12373215148805511        0.0000000000000000     
   8.6828933378279363E-002  0.13074914385046787        0.0000000000000000     
   8.8708206116465640E-002  0.13790059558016737        0.0000000000000000     
   7.4263589625847712E-002  0.10946453223940755        0.0000000000000000     
   7.6294248925666969E-002  0.11623763374669777        0.0000000000000000     
   7.8232379747746342E-002  0.12314590588639941        0.0000000000000000     
   8.0077982092085859E-002  0.13018934865851245        0.0000000000000000     
   8.1831055958685534E-002  0.13736796206303692        0.0000000000000000     
   6.8125102039491112E-002  0.10887191374051594        0.0000000000000000     
   7.0008581332662426E-002  0.11566922222157036        0.0000000000000000     
   7.1806493281760975E-002  0.12260195899521020        0.0000000000000000     
   7.3518837886786731E-002  0.12967012406143555        0.0000000000000000     
   7.5145615147739722E-002  0.13687371742024629        0.0000000000000000     
   6.2185412359809525E-002  0.10832368936841497        0.0000000000000000     
   6.3918265100472632E-002  0.11514438391754685        0.0000000000000000     
   6.5573627901330131E-002  0.12210031081448755        0.0000000000000000     
   6.7151500762382008E-002  0.12919147005923709        0.0000000000000000     
   6.8651883683628248E-002  0.13641786165179548        0.0000000000000000     
   9.5777065621080071E-002  0.13847161797163765        0.0000000000000000     
   9.7685325668205189E-002  0.14571555814367335        0.0000000000000000     
   9.9502459991428760E-002  0.15306986749389737        0.0000000000000000     
  0.10122846859075083       0.16053454602230971        0.0000000000000000     
  0.10286335146617137       0.16810959372891032        0.0000000000000000     
   8.8708206116465640E-002  0.13790059558016737        0.0000000000000000     
   9.0495824290835220E-002  0.14517372348082350        0.0000000000000000     
   9.2198506678378311E-002  0.15255574435610617        0.0000000000000000     
   9.3816253279094944E-002  0.16004665820601532        0.0000000000000000     
   9.5349064092985103E-002  0.16764646503055106        0.0000000000000000     
   8.1831055958685534E-002  0.13736796206303692        0.0000000000000000     
   8.3498024067861595E-002  0.14466821771042662        0.0000000000000000     
   8.5085309139930398E-002  0.15207658721113540        0.0000000000000000     
   8.6592911174891887E-002  0.15959307056516317        0.0000000000000000     
   8.8020830172746117E-002  0.16721766777251007        0.0000000000000000     
   7.5145615147739722E-002  0.13687371742024629        0.0000000000000000     
   7.6691924999284330E-002  0.14419904083248272        0.0000000000000000     
   7.8162867376084993E-002  0.15163239605898501        0.0000000000000000     
   7.9558442278141669E-002  0.15917378309975325        0.0000000000000000     
   8.0878649705454414E-002  0.16682320195478739        0.0000000000000000     
   6.8651883683628248E-002  0.13641786165179548        0.0000000000000000     
   7.0077527085103439E-002  0.14376619284699177        0.0000000000000000     
   7.1431181386842110E-002  0.15122317089965512        0.0000000000000000     
   7.2712846588844290E-002  0.15878879580978553        0.0000000000000000     
   7.3922522691109965E-002  0.16646306757738297        0.0000000000000000     
  0.10286335146617137       0.16810959372891032        0.0000000000000000     
  0.10440977876139153       0.17578459741443039        0.0000000000000000     
  0.10587042062011250       0.18354914387960117        0.0000000000000000     
  0.10724527704233422       0.19140323312442256        0.0000000000000000     
  0.10853434802805673       0.19934686514889460        0.0000000000000000     
   9.5349064092985103E-002  0.16764646503055106        0.0000000000000000     
   9.6797291573747071E-002  0.17534600825408656        0.0000000000000000     
   9.8161288175079103E-002  0.18313613130099504        0.0000000000000000     
   9.9441053896981241E-002  0.19101683417127657        0.0000000000000000     
  0.10063658873945346       0.19898811686493117        0.0000000000000000     
   8.8020830172746117E-002  0.16721766777251007        0.0000000000000000     
   8.9368003828782114E-002  0.17494182629439675        0.0000000000000000     
   9.0633369838288957E-002  0.18275699359204392        0.0000000000000000     
   9.1816928201266620E-002  0.19066316966545163        0.0000000000000000     
   9.2918678917715158E-002  0.19866035451461980        0.0000000000000000     
   8.0878649705454414E-002  0.16682320195478739        0.0000000000000000     
   8.2121915526496683E-002  0.17457205153536098        0.0000000000000000     
   8.3286665609742003E-002  0.18241173075274775        0.0000000000000000     
   8.4372899955190414E-002  0.19034223960694760        0.0000000000000000     
   8.5380618562841848E-002  0.19836357809796054        0.0000000000000000     
   7.3922522691109965E-002  0.16646306757738297        0.0000000000000000     
   7.5059026666890738E-002  0.17423668397697936        0.0000000000000000     
   7.6121175489438253E-002  0.18210034278310655        0.0000000000000000     
   7.7108969158752538E-002  0.19005404399576459        0.0000000000000000     
   7.8022407674833524E-002  0.19809778761495342        0.0000000000000000     
  0.10853434802805673       0.19934686514889460        0.0000000000000000     
  0.10974269730305844       0.20737612786702847        0.0000000000000000     
  0.11087538859311780       0.21548710919283534        0.0000000000000000     
  0.11193242189823481       0.22367980912631513        0.0000000000000000     
  0.11291379721840944       0.23195422766746795        0.0000000000000000     
  0.10063658873945346       0.19898811686493117        0.0000000000000000     
  0.10175340787441467       0.20704335525381160        0.0000000000000000     
  0.10279702647378391       0.21517592520977091        0.0000000000000000     
  0.10376744453756105       0.22338582673280907        0.0000000000000000     
  0.10466466206574622       0.23167305982292599        0.0000000000000000     
   9.2918678917715158E-002  0.19866035451461980        0.0000000000000000     
   9.3943531793917512E-002  0.20674042968753303        0.0000000000000000     
   9.4896396636156663E-002  0.21489527673217579        0.0000000000000000     
   9.5777273444432640E-002  0.22312489564854815        0.0000000000000000     
   9.6586162218745414E-002  0.23142928643665001        0.0000000000000000     
   8.5380618562841848E-002  0.19836357809796054        0.0000000000000000     
   8.6313069061566911E-002  0.20646735116819265        0.0000000000000000     
   8.7173499080236125E-002  0.21464516376004994        0.0000000000000000     
   8.7961908618849505E-002  0.22289701587353239        0.0000000000000000     
   8.8678297677407036E-002  0.23122290750864000        0.0000000000000000     
   7.8022407674833524E-002  0.19809778761495342        0.0000000000000000     
   7.8862019677362893E-002  0.20622411969579055        0.0000000000000000     
   7.9628333806022300E-002  0.21442558629339331        0.0000000000000000     
   8.0321350060811716E-002  0.22270218740776176        0.0000000000000000     
   8.0941068441731115E-002  0.23105392303889594        0.0000000000000000     
  0.11291379721840944       0.23195422766746795        0.0000000000000000     
  0.11384793244647734       0.24032691431194170        0.0000000000000000     
  0.11476324547527413       0.24881441855538428        0.0000000000000000     
  0.11565973630479980       0.25741674039779583        0.0000000000000000     
  0.11653740493505435       0.26613387983917614        0.0000000000000000     
  0.10466466206574622       0.23167305982292599        0.0000000000000000     
  0.10549374668144434       0.24006123367353660        0.0000000000000000     
  0.10625976600776049       0.24857395747805575        0.0000000000000000     
  0.10696272004469466       0.25721123123648332        0.0000000000000000     
  0.10760260879224684       0.26597305494881945        0.0000000000000000     
   9.6586162218745414E-002  0.23142928643665001        0.0000000000000000     
   9.7313856977846308E-002  0.23983510366435692        0.0000000000000000     
   9.7951151740486631E-002  0.24836900189954433        0.0000000000000000     
   9.8498046506666409E-002  0.25703098114221218        0.0000000000000000     
   9.8954541276385574E-002  0.26582104139236051        0.0000000000000000     
   8.8678297677407036E-002  0.23122290750864000        0.0000000000000000     
   8.9308263335683230E-002  0.23964852428440261        0.0000000000000000     
   8.9837402673452554E-002  0.24819955181985007        0.0000000000000000     
   9.0265715690714995E-002  0.25687599011498236        0.0000000000000000     
   9.0593202387470567E-002  0.26567783916979942        0.0000000000000000     
   8.0941068441731115E-002  0.23105392303889594        0.0000000000000000     
   8.1476965754955111E-002  0.23950149553367370        0.0000000000000000     
   8.1918518806658222E-002  0.24806560723897295        0.0000000000000000     
   8.2265727596840477E-002  0.25674625815479374        0.0000000000000000     
   8.2518592125501833E-002  0.26554344828113607        0.0000000000000000     
  0.11653740493505435       0.26613387983917614        0.0000000000000000     
  0.11733646758891465       0.27513052130131399        0.0000000000000000     
  0.11799714048925752       0.28457134920599803        0.0000000000000000     
  0.11851942363608298       0.29445636355322824        0.0000000000000000     
  0.11890331702939101       0.30478556434300463        0.0000000000000000     
  0.10760260879224684       0.26597305494881945        0.0000000000000000     
  0.10816043266427543       0.27499157132751045        0.0000000000000000     
  0.10861719207463884       0.28439892308500286        0.0000000000000000     
  0.10897288702333702       0.29419511022129657        0.0000000000000000     
  0.10922751751037002       0.30438013273639164        0.0000000000000000     
   9.8954541276385574E-002  0.26582104139236051        0.0000000000000000     
   9.9331684248684285E-002  0.27483744179553343        0.0000000000000000     
   9.9640523622602617E-002  0.28417844149727506        0.0000000000000000     
   9.9881059398140570E-002  0.29384404049758522        0.0000000000000000     
  0.10005329157529814       0.30383423879646421        0.0000000000000000     
   9.0593202387470567E-002  0.26567783916979942        0.0000000000000000     
   9.0850222342141254E-002  0.27466813270538298        0.0000000000000000     
   9.1067135133148930E-002  0.28390990444281455        0.0000000000000000     
   9.1243940760493664E-002  0.29340315438209441        0.0000000000000000     
   9.1380639224175442E-002  0.30314788252322222        0.0000000000000000     
   8.2518592125501833E-002  0.26554344828113607        0.0000000000000000     
   8.2716046944646265E-002  0.27448364405705900        0.0000000000000000     
   8.2897026606277763E-002  0.28359331192162168        0.0000000000000000     
   8.3061531110396311E-002  0.29287245187482391        0.0000000000000000     
   8.3209560457001897E-002  0.30232106391666586        0.0000000000000000     
   4.5837032342533321E-002   5.9486406839007175E-002   0.0000000000000000     
   4.8161699573207310E-002   6.4984923443533474E-002   0.0000000000000000     
   5.0398457666350559E-002   7.0663442059736320E-002   0.0000000000000000     
   5.2547306621963073E-002   7.6521962687615686E-002   0.0000000000000000     
   5.4608246440044854E-002   8.2560485327171612E-002   0.0000000000000000     
   4.1472559900793189E-002   5.8785522827187298E-002   0.0000000000000000     
   4.3579005530860179E-002   6.4317267108096113E-002   0.0000000000000000     
   4.5613700932360550E-002   7.0025443321604097E-002   0.0000000000000000     
   4.7576646105294294E-002   7.5910051467711265E-002   0.0000000000000000     
   4.9467841049661426E-002   8.1971091546417588E-002   0.0000000000000000     
   3.7207003703193312E-002   5.8165304686822496E-002   0.0000000000000000     
   3.9114830175550015E-002   6.3716892243854586E-002   0.0000000000000000     
   4.0960135152349031E-002   6.9445078972861590E-002   0.0000000000000000     
   4.2742918633590359E-002   7.5349864873843556E-002   0.0000000000000000     
   4.4463180619274019E-002   8.1431249946800455E-002   0.0000000000000000     
   3.3040363749733702E-002   5.7625752417912769E-002   0.0000000000000000     
   3.4769173507276811E-002   6.3183798850808881E-002   0.0000000000000000     
   3.6437760326316002E-002   6.8922349013508813E-002   0.0000000000000000     
   3.8046124206851280E-002   7.4841402906012627E-002   0.0000000000000000     
   3.9594265148882625E-002   8.0940960528320241E-002   0.0000000000000000     
   2.8972640040414343E-002   5.7166866020458132E-002   0.0000000000000000     
   3.0542035526040581E-002   6.2717986928958996E-002   0.0000000000000000     
   3.2046576454261483E-002   6.8457253443545751E-002   0.0000000000000000     
   3.3486262825077037E-002   7.4384665564218397E-002   0.0000000000000000     
   3.4861094638487258E-002   8.0500223290976919E-002   0.0000000000000000     
   5.4608246440044854E-002   8.2560485327171612E-002   0.0000000000000000     
   5.6594558247017451E-002   8.8767078313794975E-002   0.0000000000000000     
   5.8519523169302437E-002   9.5129809982876665E-002   0.0000000000000000     
   6.0383141206899783E-002  0.10164868033441664        0.0000000000000000     
   6.2185412359809525E-002  0.10832368936841497        0.0000000000000000     
   4.9467841049661426E-002   8.1971091546417588E-002   0.0000000000000000     
   5.1293383065463924E-002   8.8198581313578467E-002   0.0000000000000000     
   5.3059369452703807E-002   9.4582538525049373E-002   0.0000000000000000     
   5.4765800211381076E-002  0.10112296318083025        0.0000000000000000     
   5.6412675341495716E-002  0.10781985528092114        0.0000000000000000     
   4.4463180619274019E-002   8.1431249946800455E-002   0.0000000000000000     
   4.6124423117700653E-002   8.7679085796574366E-002   0.0000000000000000     
   4.7730148137170927E-002   9.4083224028007423E-002   0.0000000000000000     
   4.9280355677684871E-002  0.10064366464109964        0.0000000000000000     
   5.0775045739242450E-002  0.10736040763585100        0.0000000000000000     
   3.9594265148882625E-002   8.0940960528320241E-002   0.0000000000000000     
   4.1087678403727595E-002   8.7208591762782645E-002   0.0000000000000000     
   4.2531859222703791E-002   9.3631866491750843E-002   0.0000000000000000     
   4.3926807605811163E-002  0.10021078471522482        0.0000000000000000     
   4.5272523553049740E-002  0.10694534643320458        0.0000000000000000     
   3.4861094638487258E-002   8.0500223290976919E-002   0.0000000000000000     
   3.6183148923544808E-002   8.6787099212203331E-002   0.0000000000000000     
   3.7464502709302384E-002   9.3228465916279632E-002   0.0000000000000000     
   3.8705155995759966E-002   9.9824323403205781E-002   0.0000000000000000     
   3.9905108782917573E-002  0.10657467167298182        0.0000000000000000     
   6.2185412359809525E-002  0.10832368936841497        0.0000000000000000     
   6.3918265100472632E-002  0.11514438391754685        0.0000000000000000     
   6.5573627901330131E-002  0.12210031081448755        0.0000000000000000     
   6.7151500762382008E-002  0.12919147005923709        0.0000000000000000     
   6.8651883683628248E-002  0.13641786165179548        0.0000000000000000     
   5.6412675341495716E-002  0.10781985528092114        0.0000000000000000     
   5.7995000623651191E-002  0.11466249175746072        0.0000000000000000     
   5.9507781838450985E-002  0.12164014954258767        0.0000000000000000     
   6.0951018985895077E-002  0.12875282863630202        0.0000000000000000     
   6.2324712065983487E-002  0.13600052903860374        0.0000000000000000     
   5.0775045739242450E-002  0.10736040763585100        0.0000000000000000     
   5.2210488296751720E-002  0.11422291866414543        0.0000000000000000     
   5.3582953325120704E-002  0.12122066337786680        0.0000000000000000     
   5.4892440824349388E-002  0.12835364177701514        0.0000000000000000     
   5.6138950794437793E-002  0.13562185386159045        0.0000000000000000     
   4.5272523553049740E-002  0.10694534643320458        0.0000000000000000     
   4.6564728119774204E-002  0.11382566463760097        0.0000000000000000     
   4.7799142361339274E-002  0.12084185232032493        0.0000000000000000     
   4.8975766277744942E-002  0.12799390948137646        0.0000000000000000     
   5.0094599868991209E-002  0.13528183612075553        0.0000000000000000     
   3.9905108782917573E-002  0.10657467167298182        0.0000000000000000     
   4.1057720092718665E-002  0.11347072967782737        0.0000000000000000     
   4.2156348947106716E-002  0.12050371636996209        0.0000000000000000     
   4.3200995346081732E-002  0.12767363174938595        0.0000000000000000     
   4.4191659289643706E-002  0.13498047581609901        0.0000000000000000     
   6.8651883683628248E-002  0.13641786165179548        0.0000000000000000     
   7.0077527085103439E-002  0.14376619284699177        0.0000000000000000     
   7.1431181386842110E-002  0.15122317089965512        0.0000000000000000     
   7.2712846588844290E-002  0.15878879580978553        0.0000000000000000     
   7.3922522691109965E-002  0.16646306757738297        0.0000000000000000     
   6.2324712065983487E-002  0.13600052903860374        0.0000000000000000     
   6.3629348755252710E-002  0.14337046521733013        0.0000000000000000     
   6.4865416730239281E-002  0.15084985164031847        0.0000000000000000     
   6.6032915990943200E-002  0.15843868830756869        0.0000000000000000     
   6.7131846537364454E-002  0.16613697521908086        0.0000000000000000     
   5.6138950794437793E-002  0.13562185386159045        0.0000000000000000     
   5.7321908439665982E-002  0.14301264940687422        0.0000000000000000     
   5.8440738964313996E-002  0.15051337818814792        0.0000000000000000     
   5.9495442368381862E-002  0.15812404020541151        0.0000000000000000     
   6.0486018651869547E-002  0.16584463545866507        0.0000000000000000     
   5.0094599868991209E-002  0.13528183612075553        0.0000000000000000     
   5.1155206138343262E-002  0.14269274541562391        0.0000000000000000     
   5.2157148089066289E-002  0.15021375054314343        0.0000000000000000     
   5.3100425721160291E-002  0.15784485150331398        0.0000000000000000     
   5.3985039034625260E-002  0.16558604829613566        0.0000000000000000     
   4.4191659289643706E-002  0.13498047581609901        0.0000000000000000     
   4.5129241851284543E-002  0.14241075324357935        0.0000000000000000     
   4.6014644104496127E-002  0.14995096870530500        0.0000000000000000     
   4.6847866049278479E-002  0.15760112220127614        0.0000000000000000     
   4.7628907685631584E-002  0.16536121373149260        0.0000000000000000     
   7.3922522691109965E-002  0.16646306757738297        0.0000000000000000     
   7.5059026666890738E-002  0.17423668397697936        0.0000000000000000     
   7.6121175489438253E-002  0.18210034278310655        0.0000000000000000     
   7.7108969158752538E-002  0.19005404399576459        0.0000000000000000     
   7.8022407674833524E-002  0.19809778761495342        0.0000000000000000     
   6.7131846537364454E-002  0.16613697521908086        0.0000000000000000     
   6.8161611811556277E-002  0.17393456317506412        0.0000000000000000     
   6.9121615255571922E-002  0.18182130297572777        0.0000000000000000     
   7.0011856869411360E-002  0.18979719462107175        0.0000000000000000     
   7.0832336653074590E-002  0.19786223811109607        0.0000000000000000     
   6.0486018651869547E-002  0.16584463545866507        0.0000000000000000     
   6.1411945522085259E-002  0.17366452868542781        0.0000000000000000     
   6.2272700686337147E-002  0.18157308462321892        0.0000000000000000     
   6.3068284144625217E-002  0.18957030327203830        0.0000000000000000     
   6.3798695896949462E-002  0.19765618463188614        0.0000000000000000     
   5.3985039034625260E-002  0.16558604829613566        0.0000000000000000     
   5.4810027798477663E-002  0.17342658050807033        0.0000000000000000     
   5.5574431781733949E-002  0.18135568772557989        0.0000000000000000     
   5.6278250984394096E-002  0.18937336994866436        0.0000000000000000     
   5.6921485406458139E-002  0.19747962717732367        0.0000000000000000     
   4.7628907685631584E-002  0.16536121373149260        0.0000000000000000     
   4.8355858640733516E-002  0.17322071864299171        0.0000000000000000     
   4.9026808541762328E-002  0.18116911228281080        0.0000000000000000     
   4.9641757388718032E-002  0.18920639465094974        0.0000000000000000     
   5.0200705181600622E-002  0.19733256574740865        0.0000000000000000     
   7.8022407674833524E-002  0.19809778761495342        0.0000000000000000     
   7.8862019677362893E-002  0.20622411969579055        0.0000000000000000     
   7.9628333806022300E-002  0.21442558629339331        0.0000000000000000     
   8.0321350060811716E-002  0.22270218740776176        0.0000000000000000     
   8.0941068441731115E-002  0.23105392303889594        0.0000000000000000     
   7.0832336653074590E-002  0.19786223811109607        0.0000000000000000     
   7.1580982853400296E-002  0.20601005806901465        0.0000000000000000     
   7.2255723717227091E-002  0.21423427911804149        0.0000000000000000     
   7.2856559244554989E-002  0.22253490125817649        0.0000000000000000     
   7.3383489435384003E-002  0.23091192448941969        0.0000000000000000     
   6.3798695896949462E-002  0.19765618463188614        0.0000000000000000     
   6.4460557801773885E-002  0.20582448908655310        0.0000000000000000     
   6.5050491717562456E-002  0.21406897701982994        0.0000000000000000     
   6.5568497644315188E-002  0.22238964843171660        0.0000000000000000     
   6.6014575582032067E-002  0.23078650332221312        0.0000000000000000     
   5.6921485406458139E-002  0.19747962717732367        0.0000000000000000     
   5.7500744522483688E-002  0.20566741274840583        0.0000000000000000     
   5.8012637807028401E-002  0.21392967999875864        0.0000000000000000     
   5.8457165260092273E-002  0.22226642892838214        0.0000000000000000     
   5.8834326881675302E-002  0.23067765953727631        0.0000000000000000     
   5.0200705181600622E-002  0.19733256574740865        0.0000000000000000     
   5.0701543015529704E-002  0.20553882905457282        0.0000000000000000     
   5.1142161985624920E-002  0.21381638805482767        0.0000000000000000     
   5.1522562091886263E-002  0.22216524274817312        0.0000000000000000     
   5.1842743334313726E-002  0.23058539313460916        0.0000000000000000     
   8.0941068441731115E-002  0.23105392303889594        0.0000000000000000     
   8.1476965754955111E-002  0.23950149553367370        0.0000000000000000     
   8.1918518806658222E-002  0.24806560723897295        0.0000000000000000     
   8.2265727596840477E-002  0.25674625815479374        0.0000000000000000     
   8.2518592125501833E-002  0.26554344828113607        0.0000000000000000     
   7.3383489435384003E-002  0.23091192448941969        0.0000000000000000     
   7.3833457764188259E-002  0.23937900592967390        0.0000000000000000     
   7.4203407705441954E-002  0.24794980269684180        0.0000000000000000     
   7.4493339259145031E-002  0.25662431479092351        0.0000000000000000     
   7.4703252425297531E-002  0.26540254221191900        0.0000000000000000     
   6.6014575582032067E-002  0.23078650332221312        0.0000000000000000     
   6.6391232891909013E-002  0.23926604398990692        0.0000000000000000     
   6.6700976935141973E-002  0.24783477273338544        0.0000000000000000     
   6.6943807711730946E-002  0.25649268955264865        0.0000000000000000     
   6.7119725221675905E-002  0.26523979444769646        0.0000000000000000     
   5.8834326881675302E-002  0.23067765953727631        0.0000000000000000     
   5.9150291138117365E-002  0.23916260971437295        0.0000000000000000     
   5.9411226495758328E-002  0.24772051734860387        0.0000000000000000     
   5.9617132954598175E-002  0.25635138243996908        0.0000000000000000     
   5.9768010514636927E-002  0.26505520498846857        0.0000000000000000     
   5.1842743334313726E-002  0.23058539313460916        0.0000000000000000     
   5.2110632502813295E-002  0.23906870310307182        0.0000000000000000     
   5.2334156387290970E-002  0.24760703654249705        0.0000000000000000     
   5.2513314987746744E-002  0.25620039345288487        0.0000000000000000     
   5.2648108304180610E-002  0.26484877383423527        0.0000000000000000     
   8.2518592125501833E-002  0.26554344828113607        0.0000000000000000     
   8.2716046944646265E-002  0.27448364405705900        0.0000000000000000     
   8.2897026606277763E-002  0.28359331192162168        0.0000000000000000     
   8.3061531110396311E-002  0.29287245187482391        0.0000000000000000     
   8.3209560457001897E-002  0.30232106391666586        0.0000000000000000     
   7.4703252425297531E-002  0.26540254221191900        0.0000000000000000     
   7.4873979845259828E-002  0.27427829400758830        0.0000000000000000     
   7.5046354160392251E-002  0.28324537922569148        0.0000000000000000     
   7.5220375370694828E-002  0.29230379786622873        0.0000000000000000     
   7.5396043476167574E-002  0.30145354992919982        0.0000000000000000     
   6.7119725221675905E-002  0.26523979444769646        0.0000000000000000     
   6.7268842833042297E-002  0.27404640071399733        0.0000000000000000     
   6.7431273913895542E-002  0.28288282164701978        0.0000000000000000     
   6.7607018464235627E-002  0.29174905724676364        0.0000000000000000     
   6.7796076484062565E-002  0.30064510751322898        0.0000000000000000     
   5.9768010514636927E-002  0.26505520498846857        0.0000000000000000     
   5.9900635907993709E-002  0.27378796417628631        0.0000000000000000     
   6.0051785866787610E-002  0.28250563918560645        0.0000000000000000     
   6.0221460391018659E-002  0.29120823001642870        0.0000000000000000     
   6.0409659480686856E-002  0.29989573666875330        0.0000000000000000     
   5.2648108304180610E-002  0.26484877383423527        0.0000000000000000     
   5.2769359070114041E-002  0.27350298439445514        0.0000000000000000     
   5.2907890019068496E-002  0.28211383184145139        0.0000000000000000     
   5.3063701151043974E-002  0.29068131617522386        0.0000000000000000     
   5.3236792466040468E-002  0.29920543739577271        0.0000000000000000     
   2.8972640040414343E-002   5.7166866020458132E-002   0.0000000000000000     
   3.0542035526040581E-002   6.2717986928958996E-002   0.0000000000000000     
   3.2046576454261483E-002   6.8457253443545751E-002   0.0000000000000000     
   3.3486262825077037E-002   7.4384665564218397E-002   0.0000000000000000     
   3.4861094638487258E-002   8.0500223290976919E-002   0.0000000000000000     
   2.5055502114572525E-002   5.6750441971828311E-002   0.0000000000000000     
   2.6455861832565160E-002   6.2300508888468345E-002   0.0000000000000000     
   2.7788625335083819E-002   6.8044144902455694E-002   0.0000000000000000     
   2.9053792622128514E-002   7.3981350013790415E-002   0.0000000000000000     
   3.0251363693699233E-002   8.0112124222472450E-002   0.0000000000000000     
   2.1340619511545516E-002   5.6338276749393075E-002   0.0000000000000000     
   2.2533098027574389E-002   6.1912417139500318E-002   0.0000000000000000     
   2.3665948767681407E-002   6.7677376029722000E-002   0.0000000000000000     
   2.4739171731866575E-002   7.3633153420058106E-002   0.0000000000000000     
   2.5752766920129896E-002   7.9779749310508685E-002   0.0000000000000000     
   1.7827992231333318E-002   5.5930370353152403E-002   0.0000000000000000     
   1.8773744111068278E-002   6.1553711682054910E-002   0.0000000000000000     
   1.9678546752054240E-002   6.7356946825344613E-002   0.0000000000000000     
   2.0542400154291231E-002   7.3340075783021527E-002   0.0000000000000000     
   2.1365304317779235E-002   7.9503098555085666E-002   0.0000000000000000     
   1.4517620273935931E-002   5.5526722783106316E-002   0.0000000000000000     
   1.5177800083046807E-002   6.1224392516132140E-002   0.0000000000000000     
   1.5826419288202321E-002   6.7082857289323589E-002   0.0000000000000000     
   1.6463477889402469E-002   7.3102117102680650E-002   0.0000000000000000     
   1.7088975886647255E-002   7.9282171956203351E-002   0.0000000000000000     
   3.4861094638487258E-002   8.0500223290976919E-002   0.0000000000000000     
   3.6183148923544808E-002   8.6787099212203331E-002   0.0000000000000000     
   3.7464502709302384E-002   9.3228465916279632E-002   0.0000000000000000     
   3.8705155995759966E-002   9.9824323403205781E-002   0.0000000000000000     
   3.9905108782917573E-002  0.10657467167298182        0.0000000000000000     
   3.0251363693699233E-002   8.0112124222472450E-002   0.0000000000000000     
   3.1399366799286871E-002   8.6416356200034586E-002   0.0000000000000000     
   3.2515830188382319E-002   9.2873934618009579E-002   0.0000000000000000     
   3.3600753860985572E-002   9.9484859476397472E-002   0.0000000000000000     
   3.4654137817096635E-002  0.10624913077519821        0.0000000000000000     
   2.5752766920129896E-002   7.9779749310508685E-002   0.0000000000000000     
   2.6724864153088421E-002   8.6098110781474571E-002   0.0000000000000000     
   2.7673593251359211E-002   9.2569184913356597E-002   0.0000000000000000     
   2.8598954214942268E-002   9.9192971706154820E-002   0.0000000000000000     
   2.9500947043837589E-002  0.10596947115986921        0.0000000000000000     
   2.1365304317779235E-002   7.9503098555085666E-002   0.0000000000000000     
   2.2159640984949450E-002   8.5832362956523273E-002   0.0000000000000000     
   2.2937791898233053E-002   9.2314216802320673E-002   0.0000000000000000     
   2.3699757057630055E-002   9.8948660092477839E-002   0.0000000000000000     
   2.4445536463140453E-002  0.10573569282699481        0.0000000000000000     
   1.7088975886647255E-002   7.9282171956203351E-002   0.0000000000000000     
   1.7703697294869956E-002   8.5619112725180690E-002   0.0000000000000000     
   1.8308426129003848E-002   9.2109030284901777E-002   0.0000000000000000     
   1.8903162389048933E-002   9.8751924635366542E-002   0.0000000000000000     
   1.9487906075005210E-002  0.10554779577657501        0.0000000000000000     
   3.9905108782917573E-002  0.10657467167298182        0.0000000000000000     
   4.1057720092718665E-002  0.11347072967782737        0.0000000000000000     
   4.2156348947106716E-002  0.12050371636996209        0.0000000000000000     
   4.3200995346081732E-002  0.12767363174938595        0.0000000000000000     
   4.4191659289643706E-002  0.13498047581609901        0.0000000000000000     
   3.4654137817096635E-002  0.10624913077519821        0.0000000000000000     
   3.5666741752115559E-002  0.11315908118678249        0.0000000000000000     
   3.6629325361442401E-002  0.12020704338352098        0.0000000000000000     
   3.7541888645077175E-002  0.12739301736541370        0.0000000000000000     
   3.8404431603019852E-002  0.13471700313246060        0.0000000000000000     
   2.9500947043837589E-002  0.10596947115986921        0.0000000000000000     
   3.0369070634495343E-002  0.11289168656642423        0.0000000000000000     
   3.1192823883365705E-002  0.11995262121774439        0.0000000000000000     
   3.1972206790448661E-002  0.12715227511382962        0.0000000000000000     
   3.2707219355744208E-002  0.13449064825468002        0.0000000000000000     
   2.4445536463140453E-002  0.10573569282699481        0.0000000000000000     
   2.5164706739858041E-002  0.11266854581675260        0.0000000000000000     
   2.5846844512876624E-002  0.11974044987263228        0.0000000000000000     
   2.6491949782196204E-002  0.12695140499463384        0.0000000000000000     
   2.7100022547816779E-002  0.13430141118275729        0.0000000000000000     
   1.9487906075005210E-002  0.10554779577657501        0.0000000000000000     
   2.0053650068203636E-002  0.11248965893776761        0.0000000000000000     
   2.0591387249975165E-002  0.11957052934818470        0.0000000000000000     
   2.1101117620319812E-002  0.12679040700782632        0.0000000000000000     
   2.1582841179237554E-002  0.13414929191669242        0.0000000000000000     
   4.4191659289643706E-002  0.13498047581609901        0.0000000000000000     
   4.5129241851284543E-002  0.14241075324357935        0.0000000000000000     
   4.6014644104496127E-002  0.14995096870530500        0.0000000000000000     
   4.6847866049278479E-002  0.15760112220127614        0.0000000000000000     
   4.7628907685631584E-002  0.16536121373149260        0.0000000000000000     
   3.8404431603019852E-002  0.13471700313246060        0.0000000000000000     
   3.9219300981691879E-002  0.14216489807133062        0.0000000000000000     
   3.9988843527514667E-002  0.14972259956869258        0.0000000000000000     
   4.0713059240488222E-002  0.15739010762454647        0.0000000000000000     
   4.1391948120612525E-002  0.16516742223889236        0.0000000000000000     
   3.2707219355744208E-002  0.13449064825468002        0.0000000000000000     
   3.3400668932767344E-002  0.14195340507946796        0.0000000000000000     
   3.4055362875033038E-002  0.14952621002736585        0.0000000000000000     
   3.4671301182541296E-002  0.15720906309837374        0.0000000000000000     
   3.5248483855292105E-002  0.16500196429249150        0.0000000000000000     
   2.7100022547816779E-002  0.13430141118275729        0.0000000000000000     
   2.7673345704510927E-002  0.14177627426799139        0.0000000000000000     
   2.8214202147051233E-002  0.14936180008132488        0.0000000000000000     
   2.8722591875437693E-002  0.15705798862275774        0.0000000000000000     
   2.9198514889670318E-002  0.16486483989229006        0.0000000000000000     
   2.1582841179237554E-002  0.13414929191669242        0.0000000000000000     
   2.2037331296922633E-002  0.14163350563690094        0.0000000000000000     
   2.2465361343569263E-002  0.14922936973056963        0.0000000000000000     
   2.2866931319177438E-002  0.15693688419769866        0.0000000000000000     
   2.3242041223747165E-002  0.16475604903828792        0.0000000000000000     
   4.7628907685631584E-002  0.16536121373149260        0.0000000000000000     
   4.8355858640733516E-002  0.17322071864299171        0.0000000000000000     
   4.9026808541762328E-002  0.18116911228281080        0.0000000000000000     
   4.9641757388718032E-002  0.18920639465094974        0.0000000000000000     
   5.0200705181600622E-002  0.19733256574740865        0.0000000000000000     
   4.1391948120612525E-002  0.16516742223889236        0.0000000000000000     
   4.2022750665833324E-002  0.17304422347336801        0.0000000000000000     
   4.2602707374096327E-002  0.18101019138961114        0.0000000000000000     
   4.3131818245401542E-002  0.18906532598762177        0.0000000000000000     
   4.3610083279748954E-002  0.19720962726739993        0.0000000000000000     
   3.5248483855292105E-002  0.16500196429249150        0.0000000000000000     
   3.5784016490757624E-002  0.17289437538237518        0.0000000000000000     
   3.6275004686409963E-002  0.18087575814068052        0.0000000000000000     
   3.6721448442249165E-002  0.18894611256740759        0.0000000000000000     
   3.7123347758275194E-002  0.19710543866255639        0.0000000000000000     
   2.9198514889670318E-002  0.16486483989229006        0.0000000000000000     
   2.9639656115506410E-002  0.17277117437001330        0.0000000000000000     
   3.0043700478703278E-002  0.18076581253601898        0.0000000000000000     
   3.0410647979260928E-002  0.18884875439030727        0.0000000000000000     
   3.0740498617179351E-002  0.19701999993287800        0.0000000000000000     
   2.3242041223747165E-002  0.16475604903828792        0.0000000000000000     
   2.3589669540079683E-002  0.17267462043628223        0.0000000000000000     
   2.3908794750976226E-002  0.18068035457562648        0.0000000000000000     
   2.4199416856436805E-002  0.18877325145632065        0.0000000000000000     
   2.4461535856461415E-002  0.19695331107836475        0.0000000000000000     
   5.0200705181600622E-002  0.19733256574740865        0.0000000000000000     
   5.0701543015529704E-002  0.20553882905457282        0.0000000000000000     
   5.1142161985624920E-002  0.21381638805482767        0.0000000000000000     
   5.1522562091886263E-002  0.22216524274817312        0.0000000000000000     
   5.1842743334313726E-002  0.23058539313460916        0.0000000000000000     
   4.3610083279748954E-002  0.19720962726739993        0.0000000000000000     
   4.4036945134451000E-002  0.20543225981475893        0.0000000000000000     
   4.4411846466820122E-002  0.21372238821551209        0.0000000000000000     
   4.4734787276856314E-002  0.22208001246965939        0.0000000000000000     
   4.5005767564559561E-002  0.23050513257720084        0.0000000000000000     
   3.7123347758275194E-002  0.19710543866255639        0.0000000000000000     
   3.7480942732786647E-002  0.20534122683866890        0.0000000000000000     
   3.7794473464082108E-002  0.21364096750828704        0.0000000000000000     
   3.8063939952161563E-002  0.22200466067141095        0.0000000000000000     
   3.8289342197025032E-002  0.23043230632804049        0.0000000000000000     
   3.0740498617179351E-002  0.19701999993287800        0.0000000000000000     
   3.1033535810536635E-002  0.20526573012630264        0.0000000000000000     
   3.1290042977410872E-002  0.21357212593315253        0.0000000000000000     
   3.1510020117802039E-002  0.22193918735342769        0.0000000000000000     
   3.1693467231710161E-002  0.23036691438712806        0.0000000000000000     
   2.4461535856461415E-002  0.19695331107836475        0.0000000000000000     
   2.4694724367700975E-002  0.20520576967766024        0.0000000000000000     
   2.4898555006806412E-002  0.21351586349010854        0.0000000000000000     
   2.5073027773777734E-002  0.22188359251570966        0.0000000000000000     
   2.5218142668614926E-002  0.23030895675446364        0.0000000000000000     
   5.1842743334313726E-002  0.23058539313460916        0.0000000000000000     
   5.2110632502813295E-002  0.23906870310307182        0.0000000000000000     
   5.2334156387290970E-002  0.24760703654249705        0.0000000000000000     
   5.2513314987746744E-002  0.25620039345288487        0.0000000000000000     
   5.2648108304180610E-002  0.26484877383423527        0.0000000000000000     
   4.5005767564559561E-002  0.23050513257720084        0.0000000000000000     
   4.5233222731740512E-002  0.23898282687819403        0.0000000000000000     
   4.5425588180209808E-002  0.24749817371269656        0.0000000000000000     
   4.5582863909967464E-002  0.25605117308070846        0.0000000000000000     
   4.5705049921013458E-002  0.26464182498222982        0.0000000000000000     
   3.8289342197025032E-002  0.23043230632804049        0.0000000000000000     
   3.8479027570642699E-002  0.23890348376193007        0.0000000000000000     
   3.8641343444984738E-002  0.24739777225683407        0.0000000000000000     
   3.8776289820051164E-002  0.25591517181275247        0.0000000000000000     
   3.8883866695841970E-002  0.26445568242968526        0.0000000000000000     
   3.1693467231710161E-002  0.23036691438712806        0.0000000000000000     
   3.1848047019519848E-002  0.23883067375427994        0.0000000000000000     
   3.1981422181615753E-002  0.24730583217490953        0.0000000000000000     
   3.2093592717997853E-002  0.25579238964901674        0.0000000000000000     
   3.2184558628666163E-002  0.26429034617660169        0.0000000000000000     
   2.5218142668614926E-002  0.23030895675446364        0.0000000000000000     
   2.5340281078371971E-002  0.23876439685524364        0.0000000000000000     
   2.5445824390102831E-002  0.24722235346692287        0.0000000000000000     
   2.5534772603807515E-002  0.25568282658950137        0.0000000000000000     
   2.5607125719486014E-002  0.26414581622297906        0.0000000000000000     
   5.2648108304180610E-002  0.26484877383423527        0.0000000000000000     
   5.2769359070114041E-002  0.27350298439445514        0.0000000000000000     
   5.2907890019068496E-002  0.28211383184145139        0.0000000000000000     
   5.3063701151043974E-002  0.29068131617522386        0.0000000000000000     
   5.3236792466040468E-002  0.29920543739577271        0.0000000000000000     
   4.5705049921013458E-002  0.26464182498222982        0.0000000000000000     
   4.5816357331812538E-002  0.27322012363127746        0.0000000000000000     
   4.5940997260829473E-002  0.28173606324186856        0.0000000000000000     
   4.6078969708064250E-002  0.29018964381400297        0.0000000000000000     
   4.6230274673516855E-002  0.29858086534768080        0.0000000000000000     
   3.8883866695841970E-002  0.26445568242968526        0.0000000000000000     
   3.8982975705498440E-002  0.27296804414952686        0.0000000000000000     
   3.9092518482161845E-002  0.28140099701417176        0.0000000000000000     
   3.9212495025832191E-002  0.28975454102361975        0.0000000000000000     
   3.9342905336509484E-002  0.29802867617787121        0.0000000000000000     
   3.2184558628666163E-002  0.26429034617660169        0.0000000000000000     
   3.2269214191171729E-002  0.27274674594920345        0.0000000000000000     
   3.2362453683065624E-002  0.28110863315836099        0.0000000000000000     
   3.2464277104347829E-002  0.28937600780407441        0.0000000000000000     
   3.2574684455018349E-002  0.29754886988634366        0.0000000000000000     
   2.5607125719486014E-002  0.26414581622297906        0.0000000000000000     
   2.5675072788832409E-002  0.27255622903030702        0.0000000000000000     
   2.5750802863540784E-002  0.28085897167443619        0.0000000000000000     
   2.5834315943611137E-002  0.28905404415536667        0.0000000000000000     
   2.5925612029043463E-002  0.29714144647309837        0.0000000000000000     
   1.4517620273935931E-002   5.5526722783106316E-002   0.0000000000000000     
   1.5177800083046807E-002   6.1224392516132140E-002   0.0000000000000000     
   1.5826419288202321E-002   6.7082857289323589E-002   0.0000000000000000     
   1.6463477889402469E-002   7.3102117102680650E-002   0.0000000000000000     
   1.7088975886647255E-002   7.9282171956203351E-002   0.0000000000000000     
   1.1135002452802712E-002   5.5235374978259526E-002   0.0000000000000000     
   1.1530152227215974E-002   6.0987798680480321E-002   0.0000000000000000     
   1.1940982319996610E-002   6.6886250373691891E-002   0.0000000000000000     
   1.2367492731144618E-002   7.2930730057894230E-002   0.0000000000000000     
   1.2809683460659993E-002   7.9121237733087338E-002   0.0000000000000000     
   7.4056375813830178E-003   5.5164367877616804E-002   0.0000000000000000     
   7.6156868272817552E-003   6.0907269213847759E-002   0.0000000000000000     
   7.8536517913080778E-003   6.6798269030482485E-002   0.0000000000000000     
   8.1195324734619889E-003   7.2837367327520969E-002   0.0000000000000000     
   8.4133288737434850E-003   7.9024564104963210E-002   0.0000000000000000     
   3.3295256596768495E-003   5.5313701481178125E-002   0.0000000000000000     
   3.4344038832441479E-003   6.0982804116234475E-002   0.0000000000000000     
   3.5644277021367275E-003   6.6818913259695398E-002   0.0000000000000000     
   3.7195971163545890E-003   7.2822028911560879E-002   0.0000000000000000     
   3.8999121258977321E-003   7.8992151071830941E-002   0.0000000000000000     
  -1.0933333123157932E-003   5.5683375788943494E-002   0.0000000000000000     
  -1.0136966048968467E-003   6.1214403387640476E-002   0.0000000000000000     
  -9.2668994751744348E-004   6.6948183061330643E-002   0.0000000000000000     
  -8.3231334017758369E-004   7.2884714810013990E-002   0.0000000000000000     
  -7.3056678287726669E-004   7.9023998633690543E-002   0.0000000000000000     
   1.7088975886647255E-002   7.9282171956203351E-002   0.0000000000000000     
   1.7703697294869956E-002   8.5619112725180690E-002   0.0000000000000000     
   1.8308426129003848E-002   9.2109030284901777E-002   0.0000000000000000     
   1.8903162389048933E-002   9.8751924635366542E-002   0.0000000000000000     
   1.9487906075005210E-002  0.10554779577657501        0.0000000000000000     
   1.2809683460659993E-002   7.9121237733087338E-002   0.0000000000000000     
   1.3256756483208001E-002   8.5461706205736399E-002   0.0000000000000000     
   1.3697913773453895E-002   9.1956068282306541E-002   0.0000000000000000     
   1.4133155331397676E-002   9.8604323962797780E-002   0.0000000000000000     
   1.4562481157039340E-002  0.10540647324721007        0.0000000000000000     
   8.4133288737434850E-003   7.9024564104963210E-002   0.0000000000000000     
   8.7185419503216319E-003   8.5363489516479860E-002   0.0000000000000000     
   9.0186726613654868E-003   9.1857773715741609E-002   0.0000000000000000     
   9.3137210068750531E-003   9.8507416702748388E-002   0.0000000000000000     
   9.6036869868503291E-003  0.10531241847750025        0.0000000000000000     
   3.8999121258977321E-003   7.8992151071830941E-002   0.0000000000000000     
   4.0890536962108473E-003   8.5324462657411115E-002   0.0000000000000000     
   4.2707027927386251E-003   9.1814146585206924E-002   0.0000000000000000     
   4.4448594154810643E-003   9.8461202855218408E-002   0.0000000000000000     
   4.6115235644381665E-003  0.10526563146744555        0.0000000000000000     
  -7.3056678287726669E-004   7.9023998633690543E-002   0.0000000000000000     
  -6.3170827912434964E-004   8.5344625628530124E-002   0.0000000000000000     
  -5.4599583242669015E-004   9.1825186890702543E-002   0.0000000000000000     
  -4.7342944278428779E-004   9.8465682420207812E-002   0.0000000000000000     
  -4.1400911019714168E-004  0.10526611221704593        0.0000000000000000     
   1.9487906075005210E-002  0.10554779577657501        0.0000000000000000     
   2.0053650068203636E-002  0.11248965893776761        0.0000000000000000     
   2.0591387249975165E-002  0.11957052934818470        0.0000000000000000     
   2.1101117620319812E-002  0.12679040700782632        0.0000000000000000     
   2.1582841179237554E-002  0.13414929191669242        0.0000000000000000     
   1.4562481157039340E-002  0.10540647324721007        0.0000000000000000     
   1.4979184353678248E-002  0.11235505412587356        0.0000000000000000     
   1.5376558024613744E-002  0.11944260458911826        0.0000000000000000     
   1.5754602169845831E-002  0.12666912463694416        0.0000000000000000     
   1.6113316789374509E-002  0.13403461426935134        0.0000000000000000     
   9.6036869868503291E-003  0.10531241847750025        0.0000000000000000     
   9.8845933304280067E-003  0.11226475957747478        0.0000000000000000     
   1.0152462766744775E-002  0.11935642054014960        0.0000000000000000     
   1.0407295295800640E-002  0.12658740136552465        0.0000000000000000     
   1.0649090917595595E-002  0.13395770205360003        0.0000000000000000     
   4.6115235644381665E-003  0.10526563146744555        0.0000000000000000     
   4.7698769984529073E-003  0.11221877529257132        0.0000000000000000     
   4.9191014763682629E-003  0.11931197720127874        0.0000000000000000     
   5.0591969981842325E-003  0.12654523719356781        0.0000000000000000     
   5.1901635639008178E-003  0.13391855526943849        0.0000000000000000     
  -4.1400911019714168E-004  0.10526611221704593        0.0000000000000000     
  -3.6496464224704717E-004  0.11221710127116316        0.0000000000000000     
  -3.2352584651579503E-004  0.11930927457250569        0.0000000000000000     
  -2.8969272300338901E-004  0.12654263212107356        0.0000000000000000     
  -2.6346527170982353E-004  0.13391717391686669        0.0000000000000000     
   2.1582841179237554E-002  0.13414929191669242        0.0000000000000000     
   2.2037331296922633E-002  0.14163350563690094        0.0000000000000000     
   2.2465361343569263E-002  0.14922936973056963        0.0000000000000000     
   2.2866931319177438E-002  0.15693688419769866        0.0000000000000000     
   2.3242041223747165E-002  0.16475604903828792        0.0000000000000000     
   1.6113316789374509E-002  0.13403461426935134        0.0000000000000000     
   1.6452131903645882E-002  0.14152578484099976        0.0000000000000000     
   1.6770477533106051E-002  0.14912934770654945        0.0000000000000000     
   1.7068353677755034E-002  0.15684530286600051        0.0000000000000000     
   1.7345760337592806E-002  0.16467365031935283        0.0000000000000000     
   1.0649090917595595E-002  0.13395770205360003        0.0000000000000000     
   1.0877253718324084E-002  0.14145379753509113        0.0000000000000000     
   1.1091187784180551E-002  0.14906216274071360        0.0000000000000000     
   1.1290893115164992E-002  0.15678279767046738        0.0000000000000000     
   1.1476369711277409E-002  0.16461570232435252        0.0000000000000000     
   5.1901635639008178E-003  0.13391855526943849        0.0000000000000000     
   5.3126967409572465E-003  0.14141754371917512        0.0000000000000000     
   5.4274920967927473E-003  0.14902781483306210        0.0000000000000000     
   5.5345496314073220E-003  0.15674936861109937        0.0000000000000000     
   5.6338693448009696E-003  0.16458220505328691        0.0000000000000000     
  -2.6346527170982353E-004  0.13391717391686669        0.0000000000000000     
  -2.4153902845463603E-004  0.14141702339325168        0.0000000000000000     
  -2.2060952905735432E-004  0.14902630398359490        0.0000000000000000     
  -2.0067677351798022E-004  0.15674501568789637        0.0000000000000000     
  -1.8174076183651239E-004  0.16457315850615609        0.0000000000000000     
   2.3242041223747165E-002  0.16475604903828792        0.0000000000000000     
   2.3589669540079683E-002  0.17267462043628223        0.0000000000000000     
   2.3908794750976226E-002  0.18068035457562648        0.0000000000000000     
   2.4199416856436805E-002  0.18877325145632065        0.0000000000000000     
   2.4461535856461415E-002  0.19695331107836475        0.0000000000000000     
   1.7345760337592806E-002  0.16467365031935283        0.0000000000000000     
   1.7602901537358585E-002  0.17260134999641091        0.0000000000000000     
   1.7839981301791562E-002  0.18061536182697918        0.0000000000000000     
   1.8056999630891735E-002  0.18871568581105763        0.0000000000000000     
   1.8253956524659110E-002  0.19690232194864626        0.0000000000000000     
   1.1476369711277409E-002  0.16461570232435252        0.0000000000000000     
   1.1648196880224259E-002  0.17254799946562802        0.0000000000000000     
   1.1806953929712002E-002  0.18056681185755311        0.0000000000000000     
   1.1952640859740633E-002  0.18867213950012776        0.0000000000000000     
   1.2085257670310160E-002  0.19686398239335196        0.0000000000000000     
   5.6338693448009696E-003  0.16458220505328691        0.0000000000000000     
   5.7255555686767058E-003  0.17251456884393365        0.0000000000000000     
   5.8097126347375514E-003  0.18053470466734839        0.0000000000000000     
   5.8863405429835031E-003  0.18864261252353118        0.0000000000000000     
   5.9554392934145634E-003  0.19683829241248188        0.0000000000000000     
  -1.8174076183651239E-004  0.16457315850615609        0.0000000000000000     
  -1.6502239728407577E-004  0.17250105813132774        0.0000000000000000     
  -1.5174258313179053E-004  0.18051904025636498        0.0000000000000000     
  -1.4190131937965851E-004  0.18862710488126777        0.0000000000000000     
  -1.3549860602767722E-004  0.19682525200603612        0.0000000000000000     
   2.4461535856461415E-002  0.19695331107836475        0.0000000000000000     
   2.4694724367700975E-002  0.20520576967766024        0.0000000000000000     
   2.4898555006806412E-002  0.21351586349010854        0.0000000000000000     
   2.5073027773777734E-002  0.22188359251570966        0.0000000000000000     
   2.5218142668614926E-002  0.23030895675446364        0.0000000000000000     
   1.8253956524659110E-002  0.19690232194864626        0.0000000000000000     
   1.8429719167967946E-002  0.20515960596639815        0.0000000000000000     
   1.8583154745692495E-002  0.21347187359096642        0.0000000000000000     
   1.8714263257832767E-002  0.22183912482235113        0.0000000000000000     
   1.8823044704388756E-002  0.23026135966055222        0.0000000000000000     
   1.2085257670310160E-002  0.19686398239335196        0.0000000000000000     
   1.2203730975025818E-002  0.20512549946617281        0.0000000000000000     
   1.2306987387492857E-002  0.21343984964753759        0.0000000000000000     
   1.2395026907711274E-002  0.22180703293744619        0.0000000000000000     
   1.2467849535681070E-002  0.23022704933589869        0.0000000000000000     
   5.9554392934145634E-003  0.19683829241248188        0.0000000000000000     
   6.0167597888746054E-003  0.20510345017698434        0.0000000000000000     
   6.0700529322075016E-003  0.21341979165982203        0.0000000000000000     
   6.1153187234132527E-003  0.22178731686099498        0.0000000000000000     
   6.1525571624918580E-003  0.23020602578050320        0.0000000000000000     
  -1.3549860602767722E-004  0.19682525200603612        0.0000000000000000     
  -1.3119439048569939E-004  0.20509345809883259        0.0000000000000000     
  -1.2764862016357182E-004  0.21341169962781967        0.0000000000000000     
  -1.2486129506129572E-004  0.22177997659299736        0.0000000000000000     
  -1.2283241517887285E-004  0.23019828899436565        0.0000000000000000     
   2.5218142668614926E-002  0.23030895675446364        0.0000000000000000     
   2.5340281078371971E-002  0.23876439685524364        0.0000000000000000     
   2.5445824390102831E-002  0.24722235346692287        0.0000000000000000     
   2.5534772603807515E-002  0.25568282658950137        0.0000000000000000     
   2.5607125719486014E-002  0.26414581622297906        0.0000000000000000     
   1.8823044704388756E-002  0.23026135966055222        0.0000000000000000     
   1.8914311857945745E-002  0.23870908902366639        0.0000000000000000     
   1.8992877491089001E-002  0.24715282382979042        0.0000000000000000     
   1.9058741603818527E-002  0.25559256407892428        0.0000000000000000     
   1.9111904196134316E-002  0.26402830977106811        0.0000000000000000     
   1.2467849535681070E-002  0.23022704933589869        0.0000000000000000     
   1.2528721468987857E-002  0.23866918621839331        0.0000000000000000     
   1.2580908905217250E-002  0.24710273096042829        0.0000000000000000     
   1.2624411844369257E-002  0.25552768356200367        0.0000000000000000     
   1.2659230286443867E-002  0.26394404402311944        0.0000000000000000     
   6.1525571624918580E-003  0.23020602578050320        0.0000000000000000     
   6.1835099114983085E-003  0.23864468843942443        0.0000000000000000     
   6.2099186324875901E-003  0.24707207485883656        0.0000000000000000     
   6.2317833254597055E-003  0.25548818503873943        0.0000000000000000     
   6.2491039904146520E-003  0.26389301897913320        0.0000000000000000     
  -1.2283241517887285E-004  0.23019828899436565        0.0000000000000000     
  -1.2132281452290126E-004  0.23863559568675979        0.0000000000000000     
  -1.2009332709998581E-004  0.24706085552501511        0.0000000000000000     
  -1.1914395291012702E-004  0.25547406850913162        0.0000000000000000     
  -1.1847469195332182E-004  0.26387523463910922        0.0000000000000000     
   2.5607125719486014E-002  0.26414581622297906        0.0000000000000000     
   2.5675072788832409E-002  0.27255622903030702        0.0000000000000000     
   2.5750802863540784E-002  0.28085897167443619        0.0000000000000000     
   2.5834315943611137E-002  0.28905404415536667        0.0000000000000000     
   2.5925612029043463E-002  0.29714144647309837        0.0000000000000000     
   1.9111904196134316E-002  0.26402830977106811        0.0000000000000000     
   1.9162258930342523E-002  0.27240287798357637        0.0000000000000000     
   1.9219699468749272E-002  0.28065908579380400        0.0000000000000000     
   1.9284225811354562E-002  0.28879693320175093        0.0000000000000000     
   1.9355837958158404E-002  0.29681642020741705        0.0000000000000000     
   1.2659230286443867E-002  0.26394404402311944        0.0000000000000000     
   1.2692480047564106E-002  0.27229307739975028        0.0000000000000000     
   1.2731276943853004E-002  0.28051604874787095        0.0000000000000000     
   1.2775620975310559E-002  0.28861295806748122        0.0000000000000000     
   1.2825512141936765E-002  0.29658380535858131        0.0000000000000000     
   6.2491039904146520E-003  0.26389301897913320        0.0000000000000000     
   6.2657361404971695E-003  0.27222682727882869        0.0000000000000000     
   6.2855352888519902E-003  0.28042986053663688        0.0000000000000000     
   6.3085014354791148E-003  0.28850211875255771        0.0000000000000000     
   6.3346345803785451E-003  0.29644360192659136        0.0000000000000000     
  -1.1847469195332182E-004  0.26387523463910922        0.0000000000000000     
  -1.1797279085829686E-004  0.27220412762081148        0.0000000000000000     
  -1.1752549625377781E-004  0.28040052116010189        0.0000000000000000     
  -1.1713280813976389E-004  0.28846441525698041        0.0000000000000000     
  -1.1679472651625594E-004  0.29639580991144704        0.0000000000000000     
  -1.0933333123157932E-003   5.5683375788943494E-002   0.0000000000000000     
  -1.0136966048968467E-003   6.1214403387640476E-002   0.0000000000000000     
  -9.2668994751744348E-004   6.6948183061330643E-002   0.0000000000000000     
  -8.3231334017758369E-004   7.2884714810013990E-002   0.0000000000000000     
  -7.3056678287726669E-004   7.9023998633690543E-002   0.0000000000000000     
  -5.3532485250458320E-003   5.6052536404587683E-002   0.0000000000000000     
  -5.3155662455713435E-003   6.1457568642528784E-002   0.0000000000000000     
  -5.2883416801320759E-003   6.7098302597439430E-002   0.0000000000000000     
  -5.2715748287280317E-003   7.2974738269319592E-002   0.0000000000000000     
  -5.2652656913592102E-003   7.9086875658169284E-002   0.0000000000000000     
  -8.9405291689641890E-003   5.6200328931785476E-002   0.0000000000000000     
  -9.0581566472094539E-003   6.1567801495362486E-002   0.0000000000000000     
  -9.1891680181848123E-003   6.7181496030072965E-002   0.0000000000000000     
  -9.3335632818902625E-003   7.3041412535916936E-002   0.0000000000000000     
  -9.4913424383257991E-003   7.9147551012894390E-002   0.0000000000000000     
  -1.1855175244070863E-002   5.6126753370536846E-002   0.0000000000000000     
  -1.2241467809811186E-002   6.1545101946141559E-002   0.0000000000000000     
  -1.2629168961675650E-002   6.7197763359231291E-002   0.0000000000000000     
  -1.3018278699664267E-002   7.3084737609806064E-002   0.0000000000000000     
  -1.3408797023777026E-002   7.9206024697865862E-002   0.0000000000000000     
  -1.4097186750365857E-002   5.5831809720841813E-002   0.0000000000000000     
  -1.4865499733376530E-002   6.1389469994865997E-002   0.0000000000000000     
  -1.5608344510604590E-002   6.7147104584914366E-002   0.0000000000000000     
  -1.6325721082050056E-002   7.3104713490986947E-002   0.0000000000000000     
  -1.7017629447712901E-002   7.9262296713083713E-002   0.0000000000000000     
  -7.3056678287726669E-004   7.9023998633690543E-002   0.0000000000000000     
  -6.3170827912434964E-004   8.5344625628530124E-002   0.0000000000000000     
  -5.4599583242669015E-004   9.1825186890702543E-002   0.0000000000000000     
  -4.7342944278428779E-004   9.8465682420207812E-002   0.0000000000000000     
  -4.1400911019714168E-004  0.10526611221704593        0.0000000000000000     
  -5.2652656913592102E-003   7.9086875658169284E-002   0.0000000000000000     
  -5.2724372015948125E-003   8.5397705227298726E-002   0.0000000000000000     
  -5.2961122930040442E-003   9.1870217440018137E-002   0.0000000000000000     
  -5.3362909655869008E-003   9.8504412296327531E-002   0.0000000000000000     
  -5.3929732193433869E-003  0.10530028979622687        0.0000000000000000     
  -9.4913424383257991E-003   7.9147551012894390E-002   0.0000000000000000     
  -9.6618262971113929E-003   8.5457428251178733E-002   0.0000000000000000     
  -9.8443356678670196E-003   9.1928561040943407E-002   0.0000000000000000     
  -1.0038870550592674E-002   9.8560949382188415E-002   0.0000000000000000     
  -1.0245430945288358E-002  0.10535459327491375        0.0000000000000000     
  -1.3408797023777026E-002   7.9206024697865862E-002   0.0000000000000000     
  -1.3799875565674094E-002   8.5523794700170158E-002   0.0000000000000000     
  -1.4190665957015619E-002   9.2000217693478367E-002   0.0000000000000000     
  -1.4581168197801605E-002   9.8635293677790517E-002   0.0000000000000000     
  -1.4971382288032050E-002  0.10542902265310658        0.0000000000000000     
  -1.7017629447712901E-002   7.9262296713083713E-002   0.0000000000000000     
  -1.7686585007282908E-002   8.5596804574272975E-002   0.0000000000000000     
  -1.8335103160449843E-002   9.2085187397623003E-002   0.0000000000000000     
  -1.8963183907213695E-002   9.8727445183133783E-002   0.0000000000000000     
  -1.9570827247574470E-002  0.10552357793080533        0.0000000000000000     
  -4.1400911019714168E-004  0.10526611221704593        0.0000000000000000     
  -3.6496464224704717E-004  0.11221710127116316        0.0000000000000000     
  -3.2352584651579503E-004  0.11930927457250569        0.0000000000000000     
  -2.8969272300338901E-004  0.12654263212107356        0.0000000000000000     
  -2.6346527170982353E-004  0.13391717391686669        0.0000000000000000     
  -5.3929732193433869E-003  0.10530028979622687        0.0000000000000000     
  -5.4604702174154227E-003  0.11224804743310471        0.0000000000000000     
  -5.5330931229449279E-003  0.11933788270034955        0.0000000000000000     
  -5.6108419359319050E-003  0.12656979559796139        0.0000000000000000     
  -5.6937166563763523E-003  0.13394378612594024        0.0000000000000000     
  -1.0245430945288358E-002  0.10535459327491375        0.0000000000000000     
  -1.0457178352795781E-002  0.11229992369825043        0.0000000000000000     
  -1.0667274273956660E-002  0.11938737163132945        0.0000000000000000     
  -1.0875718708770998E-002  0.12661693707415084        0.0000000000000000     
  -1.1082511657238787E-002  0.13398862002671455        0.0000000000000000     
  -1.4971382288032050E-002  0.10542902265310658        0.0000000000000000     
  -1.5355089048388126E-002  0.11237273006660030        0.0000000000000000     
  -1.5726069299551004E-002  0.11945774136544537        0.0000000000000000     
  -1.6084323041520666E-002  0.12668405654964182        0.0000000000000000     
  -1.6429850274297136E-002  0.13405167561918968        0.0000000000000000     
  -1.9570827247574470E-002  0.10552357793080533        0.0000000000000000     
  -2.0154202304192455E-002  0.11246646653815430        0.0000000000000000     
  -2.0709478199727939E-002  0.11954899190269734        0.0000000000000000     
  -2.1236654934180914E-002  0.12677115402443445        0.0000000000000000     
  -2.1735732507551390E-002  0.13413295290336563        0.0000000000000000     
  -2.6346527170982353E-004  0.13391717391686669        0.0000000000000000     
  -2.4153902845463603E-004  0.14141702339325168        0.0000000000000000     
  -2.2060952905735432E-004  0.14902630398359490        0.0000000000000000     
  -2.0067677351798022E-004  0.15674501568789637        0.0000000000000000     
  -1.8174076183651239E-004  0.16457315850615609        0.0000000000000000     
  -5.6937166563763523E-003  0.13394378612594024        0.0000000000000000     
  -5.7761655205967833E-003  0.14144269945215834        0.0000000000000000     
  -5.8526367649117108E-003  0.14904938074448806        0.0000000000000000     
  -5.9231303893211322E-003  0.15676383000292937        0.0000000000000000     
  -5.9876463938250534E-003  0.16458604722748219        0.0000000000000000     
  -1.1082511657238787E-002  0.13398862002671455        0.0000000000000000     
  -1.1281894666154420E-002  0.14148503479073279        0.0000000000000000     
  -1.1468109282312277E-002  0.14908879566791763        0.0000000000000000     
  -1.1641155505712358E-002  0.15679990265826915        0.0000000000000000     
  -1.1801033336354665E-002  0.16461835576178727        0.0000000000000000     
  -1.6429850274297136E-002  0.13405167561918968        0.0000000000000000     
  -1.6758726465127549E-002  0.14154402940897498        0.0000000000000000     
  -1.7067027081259054E-002  0.14914454875388367        0.0000000000000000     
  -1.7354752122691657E-002  0.15685323365391579        0.0000000000000000     
  -1.7621901589425355E-002  0.16467008410907136        0.0000000000000000     
  -2.1735732507551390E-002  0.13413295290336563        0.0000000000000000     
  -2.2206660917516163E-002  0.14161968330688482        0.0000000000000000     
  -2.2649390161752044E-002  0.14921664000238605        0.0000000000000000     
  -2.3063920240259023E-002  0.15692382298986926        0.0000000000000000     
  -2.3450251153037116E-002  0.16474123226933446        0.0000000000000000     
  -1.8174076183651239E-004  0.16457315850615609        0.0000000000000000     
  -1.6502239728407577E-004  0.17250105813132774        0.0000000000000000     
  -1.5174258313179053E-004  0.18051904025636498        0.0000000000000000     
  -1.4190131937965851E-004  0.18862710488126777        0.0000000000000000     
  -1.3549860602767722E-004  0.19682525200603612        0.0000000000000000     
  -5.9876463938250534E-003  0.16458604722748219        0.0000000000000000     
  -6.0485623144377479E-003  0.17250820494043645        0.0000000000000000     
  -6.1082556871735021E-003  0.18052247566408211        0.0000000000000000     
  -6.1667265120323072E-003  0.18862885939841914        0.0000000000000000     
  -6.2239747890141719E-003  0.19682735614344751        0.0000000000000000     
  -1.1801033336354665E-002  0.16461835576178727        0.0000000000000000     
  -1.1950089479563974E-002  0.17253674688388593        0.0000000000000000     
  -1.2090670640665050E-002  0.18054766792997909        0.0000000000000000     
  -1.2222776819657903E-002  0.18865111890006669        0.0000000000000000     
  -1.2346408016542527E-002  0.19684709979414888        0.0000000000000000     
  -1.7621901589425355E-002  0.16467008410907136        0.0000000000000000     
  -1.7869603892662747E-002  0.17258668396167612        0.0000000000000000     
  -1.8098987443606447E-002  0.18059461705405588        0.0000000000000000     
  -1.8310052242256448E-002  0.18869388338621060        0.0000000000000000     
  -1.8502798288612742E-002  0.19688448295814029        0.0000000000000000     
  -2.3450251153037116E-002  0.16474123226933446        0.0000000000000000     
  -2.3807105553734074E-002  0.17265801617380711        0.0000000000000000     
  -2.4133206095997676E-002  0.18066332303631250        0.0000000000000000     
  -2.4428552779827927E-002  0.18875715285685069        0.0000000000000000     
  -2.4693145605224821E-002  0.19693950563542170        0.0000000000000000     
  -1.3549860602767722E-004  0.19682525200603612        0.0000000000000000     
  -1.3119439048569939E-004  0.20509345809883259        0.0000000000000000     
  -1.2764862016357182E-004  0.21341169962781967        0.0000000000000000     
  -1.2486129506129572E-004  0.22177997659299736        0.0000000000000000     
  -1.2283241517887285E-004  0.23019828899436565        0.0000000000000000     
  -6.2239747890141719E-003  0.19682735614344751        0.0000000000000000     
  -6.2772928755136428E-003  0.20509680872780464        0.0000000000000000     
  -6.3239731289252629E-003  0.21341605998012805        0.0000000000000000     
  -6.3640155492490358E-003  0.22178510990041769        0.0000000000000000     
  -6.3974201364849605E-003  0.23020395848867356        0.0000000000000000     
  -1.2346408016542527E-002  0.19684709979414888        0.0000000000000000     
  -1.2458696978667768E-002  0.20511478755998747        0.0000000000000000     
  -1.2556776453382467E-002  0.21343335914534464        0.0000000000000000     
  -1.2640646440686628E-002  0.22180281455022030        0.0000000000000000     
  -1.2710306940580245E-002  0.23022315377461441        0.0000000000000000     
  -1.8502798288612742E-002  0.19688448295814029        0.0000000000000000     
  -1.8675406699948077E-002  0.20514739459538114        0.0000000000000000     
  -1.8826058593535189E-002  0.21346359712346941        0.0000000000000000     
  -1.8954753969374068E-002  0.22183309054240510        0.0000000000000000     
  -1.9061492827464725E-002  0.23025587485218821        0.0000000000000000     
  -2.4693145605224821E-002  0.19693950563542170        0.0000000000000000     
  -2.4927422039354580E-002  0.20519462983398562        0.0000000000000000     
  -2.5131819549383431E-002  0.21350677391450243        0.0000000000000000     
  -2.5306338135311371E-002  0.22187593787697224        0.0000000000000000     
  -2.5450977797138397E-002  0.23030212172139500        0.0000000000000000     
  -1.2283241517887285E-004  0.23019828899436565        0.0000000000000000     
  -1.2132281452290126E-004  0.23863559568675979        0.0000000000000000     
  -1.2009332709998581E-004  0.24706085552501511        0.0000000000000000     
  -1.1914395291012702E-004  0.25547406850913162        0.0000000000000000     
  -1.1847469195332182E-004  0.26387523463910922        0.0000000000000000     
  -6.3974201364849605E-003  0.23020395848867356        0.0000000000000000     
  -6.4254997278889005E-003  0.23864220341721809        0.0000000000000000     
  -6.4495671607167184E-003  0.24706944235837369        0.0000000000000000     
  -6.4696224349684115E-003  0.25548567531214050        0.0000000000000000     
  -6.4856655506439799E-003  0.26389090227851841        0.0000000000000000     
  -1.2710306940580245E-002  0.23022315377461441        0.0000000000000000     
  -1.2768743847412818E-002  0.23866480708761803        0.0000000000000000     
  -1.2818943055533842E-002  0.24709820475832212        0.0000000000000000     
  -1.2860904564943324E-002  0.25552334678672656        0.0000000000000000     
  -1.2894628375641254E-002  0.26394023317283155        0.0000000000000000     
  -1.9061492827464725E-002  0.23025587485218821        0.0000000000000000     
  -1.9151055173094657E-002  0.23870340669795961        0.0000000000000000     
  -1.9228221011551368E-002  0.24714714272486010        0.0000000000000000     
  -1.9292990342834868E-002  0.25558708293288984        0.0000000000000000     
  -1.9345363166945146E-002  0.26402322732204869        0.0000000000000000     
  -2.5450977797138397E-002  0.23030212172139500        0.0000000000000000     
  -2.5572433704934405E-002  0.23875800224824284        0.0000000000000000     
  -2.5677401028769285E-002  0.24721625625798793        0.0000000000000000     
  -2.5765879768643030E-002  0.25567688375063025        0.0000000000000000     
  -2.5837869924555640E-002  0.26413988472616973        0.0000000000000000     
  -1.1847469195332182E-004  0.26387523463910922        0.0000000000000000     
  -1.1797279085829686E-004  0.27220412762081148        0.0000000000000000     
  -1.1752549625377781E-004  0.28040052116010189        0.0000000000000000     
  -1.1713280813976389E-004  0.28846441525698041        0.0000000000000000     
  -1.1679472651625594E-004  0.29639580991144704        0.0000000000000000     
  -6.4856655506439799E-003  0.26389090227851841        0.0000000000000000     
  -6.5013346350554623E-003  0.27222505114689077        0.0000000000000000     
  -6.5202678155148845E-003  0.28042804980664082        0.0000000000000000     
  -6.5424650920222482E-003  0.28849989825776862        0.0000000000000000     
  -6.5679264645775552E-003  0.29644059650027410        0.0000000000000000     
  -1.2894628375641254E-002  0.26394023317283155        0.0000000000000000     
  -1.2927037280647502E-002  0.27228967057825842        0.0000000000000000     
  -1.2965054072981918E-002  0.28051246566462851        0.0000000000000000     
  -1.3008678752644507E-002  0.28860861843194180        0.0000000000000000     
  -1.3057911319635270E-002  0.29657812888019830        0.0000000000000000     
  -1.9345363166945146E-002  0.26402322732204869        0.0000000000000000     
  -1.9395080727634413E-002  0.27239798591491438        0.0000000000000000     
  -1.9451884268654875E-002  0.28065376873406483        0.0000000000000000     
  -1.9515773790006540E-002  0.28879057577949985        0.0000000000000000     
  -1.9586749291689402E-002  0.29680840705121964        0.0000000000000000     
  -2.5837869924555640E-002  0.26413988472616973        0.0000000000000000     
  -2.5905464976016195E-002  0.27254999715685890        0.0000000000000000     
  -2.5980758402533766E-002  0.28085195901494991        0.0000000000000000     
  -2.6063750204108348E-002  0.28904577030044304        0.0000000000000000     
  -2.6154440380739951E-002  0.29713143101333800        0.0000000000000000     
  -1.4097186750365857E-002   5.5831809720841813E-002   0.0000000000000000     
  -1.4865499733376530E-002   6.1389469994865997E-002   0.0000000000000000     
  -1.5608344510604590E-002   6.7147104584914366E-002   0.0000000000000000     
  -1.6325721082050056E-002   7.3104713490986947E-002   0.0000000000000000     
  -1.7017629447712901E-002   7.9262296713083713E-002   0.0000000000000000     
  -1.6450091822389878E-002   5.5617185658708351E-002   0.0000000000000000     
  -1.7593999748498620E-002   6.1306020964607993E-002   0.0000000000000000     
  -1.8685917345126254E-002   6.7162204576793394E-002   0.0000000000000000     
  -1.9725844612272784E-002   7.3185736495264567E-002   0.0000000000000000     
  -2.0713781549938210E-002   7.9376616720021526E-002   0.0000000000000000     
  -1.9697418594683630E-002   5.5784568860144434E-002   0.0000000000000000     
  -2.1090715185770589E-002   6.1499870178439706E-002   0.0000000000000000     
  -2.2421110145395263E-002   6.7375748204539537E-002   0.0000000000000000     
  -2.3688603473557650E-002   7.3412202938443916E-002   0.0000000000000000     
  -2.4893195170257749E-002   7.9609234380152841E-002   0.0000000000000000     
  -2.3839167067247119E-002   5.6333959325150063E-002   0.0000000000000000     
  -2.5355646045192439E-002   6.1971017636361155E-002   0.0000000000000000     
  -2.6813922911411606E-002   6.7787735468152782E-002   0.0000000000000000     
  -2.8213997665904628E-002   7.3784112820524939E-002   0.0000000000000000     
  -2.9555870308671510E-002   7.9960149693477658E-002   0.0000000000000000     
  -2.8875337240080342E-002   5.7265357053725235E-002   0.0000000000000000     
  -3.0388792326764166E-002   6.2719463338372305E-002   0.0000000000000000     
  -3.1864355643175302E-002   6.8398166367633129E-002   0.0000000000000000     
  -3.3302027189313743E-002   7.4301466141507677E-002   0.0000000000000000     
  -3.4701806965179501E-002   8.0429362659995993E-002   0.0000000000000000     
  -1.7017629447712901E-002   7.9262296713083713E-002   0.0000000000000000     
  -1.7686585007282908E-002   8.5596804574272975E-002   0.0000000000000000     
  -1.8335103160449843E-002   9.2085187397623003E-002   0.0000000000000000     
  -1.8963183907213695E-002   9.8727445183133783E-002   0.0000000000000000     
  -1.9570827247574470E-002  0.10552357793080533        0.0000000000000000     
  -2.0713781549938210E-002   7.9376616720021526E-002   0.0000000000000000     
  -2.1655836741916599E-002   8.5725685080654229E-002   0.0000000000000000     
  -2.2558118772002037E-002   9.2223781406752720E-002   0.0000000000000000     
  -2.3420627640194515E-002   9.8870905698316983E-002   0.0000000000000000     
  -2.4243363346494035E-002  0.10566705795534700        0.0000000000000000     
  -2.4893195170257749E-002   7.9609234380152841E-002   0.0000000000000000     
  -2.6041512889553930E-002   8.5959663426480953E-002   0.0000000000000000     
  -2.7140184285504552E-002   9.2456310974242950E-002   0.0000000000000000     
  -2.8189209358109639E-002   9.9099177023438789E-002   0.0000000000000000     
  -2.9188588107369171E-002  0.10588826157406850        0.0000000000000000     
  -2.9555870308671510E-002   7.9960149693477658E-002   0.0000000000000000     
  -3.0843613450194884E-002   8.6298739611753147E-002   0.0000000000000000     
  -3.2081299700957404E-002   9.2782776100093681E-002   0.0000000000000000     
  -3.3268929060959060E-002   9.9412259158499244E-002   0.0000000000000000     
  -3.4406501530199876E-002  0.10618718878696982        0.0000000000000000     
  -3.4701806965179501E-002   8.0429362659995993E-002   0.0000000000000000     
  -3.6062138423839471E-002   8.6742913636470825E-002   0.0000000000000000     
  -3.7381465018360573E-002   9.3203176784304939E-002   0.0000000000000000     
  -3.8659786748742798E-002   9.9810152103498334E-002   0.0000000000000000     
  -3.9897103614986135E-002  0.10656383959405101        0.0000000000000000     
  -1.9570827247574470E-002  0.10552357793080533        0.0000000000000000     
  -2.0154202304192455E-002  0.11246646653815430        0.0000000000000000     
  -2.0709478199727939E-002  0.11954899190269734        0.0000000000000000     
  -2.1236654934180914E-002  0.12677115402443445        0.0000000000000000     
  -2.1735732507551390E-002  0.13413295290336563        0.0000000000000000     
  -2.4243363346494035E-002  0.10566705795534700        0.0000000000000000     
  -2.5024649155749982E-002  0.11260666424483740        0.0000000000000000     
  -2.5762808332811724E-002  0.11968415063378277        0.0000000000000000     
  -2.6457840877679280E-002  0.12689951712218311        0.0000000000000000     
  -2.7109746790352631E-002  0.13425276371003847        0.0000000000000000     
  -2.9188588107369171E-002  0.10588826157406850        0.0000000000000000     
  -3.0136560638601907E-002  0.11281885431857445        0.0000000000000000     
  -3.1031367057126610E-002  0.11988624494939908        0.0000000000000000     
  -3.1873007362943281E-002  0.12709043346654236        0.0000000000000000     
  -3.2661481556051926E-002  0.13443141987000429        0.0000000000000000     
  -3.4406501530199876E-002  0.10618718878696982        0.0000000000000000     
  -3.5489936752748245E-002  0.11310303675936549        0.0000000000000000     
  -3.6515154372672602E-002  0.12015527484954623        0.0000000000000000     
  -3.7482154389972946E-002  0.12734390305751211        0.0000000000000000     
  -3.8390936804649292E-002  0.13466892138326308        0.0000000000000000     
  -3.9897103614986135E-002  0.10656383959405101        0.0000000000000000     
  -4.1084777498188979E-002  0.11345921156721049        0.0000000000000000     
  -4.2214170279449695E-002  0.12049124033422430        0.0000000000000000     
  -4.3285281958768261E-002  0.12765992589509242        0.0000000000000000     
  -4.4298112536144706E-002  0.13496526824981492        0.0000000000000000     
  -2.1735732507551390E-002  0.13413295290336563        0.0000000000000000     
  -2.2206660917516163E-002  0.14161968330688482        0.0000000000000000     
  -2.2649390161752044E-002  0.14921664000238605        0.0000000000000000     
  -2.3063920240259023E-002  0.15692382298986926        0.0000000000000000     
  -2.3450251153037116E-002  0.16474123226933446        0.0000000000000000     
  -2.7109746790352631E-002  0.13425276371003847        0.0000000000000000     
  -2.7722279416018122E-002  0.14173114182970323        0.0000000000000000     
  -2.8299192099862064E-002  0.14932190291353181        0.0000000000000000     
  -2.8840484841884482E-002  0.15702504696152428        0.0000000000000000     
  -2.9346157642085355E-002  0.16484057397368057        0.0000000000000000     
  -3.2661481556051926E-002  0.13443141987000429        0.0000000000000000     
  -3.3402163353331238E-002  0.14189755032267085        0.0000000000000000     
  -3.4100426471659943E-002  0.14947717098742791        0.0000000000000000     
  -3.4756270911038015E-002  0.15717028186427554        0.0000000000000000     
  -3.5369696671465486E-002  0.16497688295321367        0.0000000000000000     
  -3.8390936804649292E-002  0.13466892138326308        0.0000000000000000     
  -3.9246312729455550E-002  0.14211890878578770        0.0000000000000000     
  -4.0053093277145665E-002  0.14968244422407431        0.0000000000000000     
  -4.0811278447719659E-002  0.15735952769812300        0.0000000000000000     
  -4.1520868241177504E-002  0.16515015920793374        0.0000000000000000     
  -4.4298112536144706E-002  0.13496526824981492        0.0000000000000000     
  -4.5254727544391027E-002  0.14239521721905377        0.0000000000000000     
  -4.6157192516319251E-002  0.14993772262347099        0.0000000000000000     
  -4.7005507451929385E-002  0.15759278446306668        0.0000000000000000     
  -4.7799672351221414E-002  0.16536040273784075        0.0000000000000000     
  -2.3450251153037116E-002  0.16474123226933446        0.0000000000000000     
  -2.3807105553734074E-002  0.17265801617380711        0.0000000000000000     
  -2.4133206095997676E-002  0.18066332303631250        0.0000000000000000     
  -2.4428552779827927E-002  0.18875715285685069        0.0000000000000000     
  -2.4693145605224821E-002  0.19693950563542170        0.0000000000000000     
  -2.9346157642085355E-002  0.16484057397368057        0.0000000000000000     
  -2.9812647898761452E-002  0.17275509498612707        0.0000000000000000     
  -3.0236393010209528E-002  0.18075522103499006        0.0000000000000000     
  -3.0617392976429576E-002  0.18884095212026958        0.0000000000000000     
  -3.0955647797421607E-002  0.19701228824196559        0.0000000000000000     
  -3.5369696671465486E-002  0.16497688295321367        0.0000000000000000     
  -3.5936284363728387E-002  0.17288227186448440        0.0000000000000000     
  -3.6451614598612757E-002  0.18087174620832977        0.0000000000000000     
  -3.6915687376118618E-002  0.18894530598474976        0.0000000000000000     
  -3.7328502696245963E-002  0.19710295119374432        0.0000000000000000     
  -4.1520868241177504E-002  0.16515015920793374        0.0000000000000000     
  -4.2178014948634865E-002  0.17303954680887906        0.0000000000000000     
  -4.2778870861207373E-002  0.18101289855633157        0.0000000000000000     
  -4.3323435978895049E-002  0.18907021445029118        0.0000000000000000     
  -4.3811710301697865E-002  0.19721149449075795        0.0000000000000000     
  -4.7799672351221414E-002  0.16536040273784075        0.0000000000000000     
  -4.8537839653480901E-002  0.17322691981931107        0.0000000000000000     
  -4.9218161797993376E-002  0.18117867807899546        0.0000000000000000     
  -4.9840638784758855E-002  0.18921567751689389        0.0000000000000000     
  -5.0405270613777343E-002  0.19733791813300641        0.0000000000000000     
  -2.4693145605224821E-002  0.19693950563542170        0.0000000000000000     
  -2.4927422039354580E-002  0.20519462983398562        0.0000000000000000     
  -2.5131819549383431E-002  0.21350677391450243        0.0000000000000000     
  -2.5306338135311371E-002  0.22187593787697224        0.0000000000000000     
  -2.5450977797138397E-002  0.23030212172139500        0.0000000000000000     
  -3.0955647797421607E-002  0.19701228824196559        0.0000000000000000     
  -3.1253610764111775E-002  0.20525707608146734        0.0000000000000000     
  -3.1513735167426213E-002  0.21356316232016409        0.0000000000000000     
  -3.1736021007364952E-002  0.22193054695805581        0.0000000000000000     
  -3.1920468283927972E-002  0.23035922999514252        0.0000000000000000     
  -3.7328502696245963E-002  0.19710295119374432        0.0000000000000000     
  -3.7692840641444146E-002  0.20533531614349293        0.0000000000000000     
  -3.8011481294162583E-002  0.21363303514217477        0.0000000000000000     
  -3.8284424654401253E-002  0.22199610818978999        0.0000000000000000     
  -3.8511670722160163E-002  0.23042453528633858        0.0000000000000000     
  -4.3811710301697865E-002  0.19721149449075795        0.0000000000000000     
  -4.4245111671351735E-002  0.20542935002006224        0.0000000000000000     
  -4.4625057929592538E-002  0.21371639238053453        0.0000000000000000     
  -4.4951549076420287E-002  0.22207262157217486        0.0000000000000000     
  -4.5224585111834956E-002  0.23049803759498314        0.0000000000000000     
  -5.0405270613777343E-002  0.19733791813300641        0.0000000000000000     
  -5.0910423853834513E-002  0.20553917771117544        0.0000000000000000     
  -5.1354465073716077E-002  0.21381323403524344        0.0000000000000000     
  -5.1737394273422027E-002  0.22216008710521037        0.0000000000000000     
  -5.2059211452952364E-002  0.23057973692107628        0.0000000000000000     
  -2.5450977797138397E-002  0.23030212172139500        0.0000000000000000     
  -2.5572433704934405E-002  0.23875800224824284        0.0000000000000000     
  -2.5677401028769285E-002  0.24721625625798793        0.0000000000000000     
  -2.5765879768643030E-002  0.25567688375063025        0.0000000000000000     
  -2.5837869924555640E-002  0.26413988472616973        0.0000000000000000     
  -3.1920468283927972E-002  0.23035922999514252        0.0000000000000000     
  -3.2075350652834164E-002  0.23882401557828917        0.0000000000000000     
  -3.2208941769802400E-002  0.24729970785436081        0.0000000000000000     
  -3.2321241634832666E-002  0.25578630682335735        0.0000000000000000     
  -3.2412250247924976E-002  0.26428381248527888        0.0000000000000000     
  -3.8511670722160163E-002  0.23042453528633858        0.0000000000000000     
  -3.8702277226696009E-002  0.23889686852792008        0.0000000000000000     
  -3.8865301897265489E-002  0.24739166001063423        0.0000000000000000     
  -3.9000744733868609E-002  0.25590890973448099        0.0000000000000000     
  -3.9108605736505375E-002  0.26444861769946032        0.0000000000000000     
  -4.5224585111834956E-002  0.23049803759498314        0.0000000000000000     
  -4.5453213426519937E-002  0.23897656109713553        0.0000000000000000     
  -4.5646481411158575E-002  0.24749211272680810        0.0000000000000000     
  -4.5804389065750871E-002  0.25604469248400097        0.0000000000000000     
  -4.5926936390296838E-002  0.26463430036871399        0.0000000000000000     
  -5.2059211452952364E-002  0.23057973692107628        0.0000000000000000     
  -5.2328159252305953E-002  0.23906309328593553        0.0000000000000000     
  -5.2552480311481645E-002  0.24760106600288256        0.0000000000000000     
  -5.2732174630479460E-002  0.25619365507191733        0.0000000000000000     
  -5.2867242209299364E-002  0.26484086049303990        0.0000000000000000     
  -2.5837869924555640E-002  0.26413988472616973        0.0000000000000000     
  -2.5905464976016195E-002  0.27254999715685890        0.0000000000000000     
  -2.5980758402533766E-002  0.28085195901494991        0.0000000000000000     
  -2.6063750204108348E-002  0.28904577030044304        0.0000000000000000     
  -2.6154440380739951E-002  0.29713143101333800        0.0000000000000000     
  -3.2412250247924976E-002  0.26428381248527888        0.0000000000000000     
  -3.2496826012377251E-002  0.27273936573552743        0.0000000000000000     
  -3.2589827331487423E-002  0.28110010746950498        0.0000000000000000     
  -3.2691254205255482E-002  0.28936603768721159        0.0000000000000000     
  -3.2801106633681423E-002  0.29753715638864725        0.0000000000000000     
  -3.9108605736505375E-002  0.26444861769946032        0.0000000000000000     
  -3.9207799823301998E-002  0.27295975308235587        0.0000000000000000     
  -3.9317241912384698E-002  0.28139128505995115        0.0000000000000000     
  -3.9436932003753485E-002  0.28974321363224620        0.0000000000000000     
  -3.9566870097408342E-002  0.29801553879924103        0.0000000000000000     
  -4.5926936390296838E-002  0.26463430036871399        0.0000000000000000     
  -4.6038386408790426E-002  0.27321115919734418        0.0000000000000000     
  -4.6163002145225597E-002  0.28172549178628847        0.0000000000000000     
  -4.6300783599602345E-002  0.29017729813554688        0.0000000000000000     
  -4.6451730771920691E-002  0.29856657824511940        0.0000000000000000     
  -5.2867242209299364E-002  0.26484086049303990        0.0000000000000000     
  -5.2988585768842529E-002  0.27349358408049240        0.0000000000000000     
  -5.3127108030010112E-002  0.28210272764851702        0.0000000000000000     
  -5.3282808992802091E-002  0.29066829119711368        0.0000000000000000     
  -5.3455688657218475E-002  0.29919027472628240        0.0000000000000000     
  -2.8875337240080342E-002   5.7265357053725235E-002   0.0000000000000000     
  -3.0388792326764166E-002   6.2719463338372305E-002   0.0000000000000000     
  -3.1864355643175302E-002   6.8398166367633129E-002   0.0000000000000000     
  -3.3302027189313743E-002   7.4301466141507677E-002   0.0000000000000000     
  -3.4701806965179501E-002   8.0429362659995993E-002   0.0000000000000000     
  -3.4115385484350530E-002   5.8280906377047172E-002   0.0000000000000000     
  -3.5618072144480428E-002   6.3548155563855735E-002   0.0000000000000000     
  -3.7102950754519901E-002   6.9084233167109876E-002   0.0000000000000000     
  -3.8570021314468954E-002   7.4889139186809645E-002   0.0000000000000000     
  -4.0019283824327574E-002   8.0962873622955012E-002   0.0000000000000000     
  -3.8868768171224921E-002   5.9082751626293097E-002   0.0000000000000000     
  -4.0471403612335886E-002   6.4260042592193964E-002   0.0000000000000000     
  -4.2060250659278986E-002   6.9723128130712381E-002   0.0000000000000000     
  -4.3635309312054234E-002   7.5472008241848312E-002   0.0000000000000000     
  -4.5196579570661616E-002   8.1506682925601801E-002   0.0000000000000000     
  -4.3135485300703512E-002   5.9670892801463003E-002   0.0000000000000000     
  -4.4948786730330544E-002   6.4855124423387006E-002   0.0000000000000000     
  -4.6736255357452586E-002   7.0314851258440586E-002   0.0000000000000000     
  -4.8497891182069590E-002   7.6050073306623736E-002   0.0000000000000000     
  -5.0233694204181598E-002   8.2060790567936442E-002   0.0000000000000000     
  -4.6915536872786295E-002   6.0045329902556899E-002   0.0000000000000000     
  -4.9050221498464414E-002   6.5333401057434876E-002   0.0000000000000000     
  -5.1130964849040651E-002   7.0859402550294520E-002   0.0000000000000000     
  -5.3157766924515029E-002   7.6623334381135874E-002   0.0000000000000000     
  -5.5130627724887533E-002   8.2625196549958882E-002   0.0000000000000000     
  -3.4701806965179501E-002   8.0429362659995993E-002   0.0000000000000000     
  -3.6062138423839471E-002   8.6742913636470825E-002   0.0000000000000000     
  -3.7381465018360573E-002   9.3203176784304939E-002   0.0000000000000000     
  -3.8659786748742798E-002   9.9810152103498334E-002   0.0000000000000000     
  -3.9897103614986135E-002  0.10656383959405101        0.0000000000000000     
  -4.0019283824327574E-002   8.0962873622955012E-002   0.0000000000000000     
  -4.1444010011231540E-002   8.7245554717766571E-002   0.0000000000000000     
  -4.2837471602316574E-002   9.3677300713465000E-002   0.0000000000000000     
  -4.4199668597582696E-002  0.10025811161005026        0.0000000000000000     
  -4.5530600997029873E-002  0.10698798740752234        0.0000000000000000     
  -4.5196579570661616E-002   8.1506682925601801E-002   0.0000000000000000     
  -4.6736150413114907E-002   8.7760032072773012E-002   0.0000000000000000     
  -4.8246110817427905E-002   9.4164935574162154E-002   0.0000000000000000     
  -4.9726460783600601E-002  0.10072139342976920        0.0000000000000000     
  -5.1177200311632996E-002  0.10742940563959416        0.0000000000000000     
  -5.0233694204181598E-002   8.2060790567936442E-002   0.0000000000000000     
  -5.1938559629489595E-002   8.8286345701490201E-002   0.0000000000000000     
  -5.3607382663694567E-002   9.4666081366396426E-002   0.0000000000000000     
  -5.5240163306796528E-002  0.10119999756265520        0.0000000000000000     
  -5.6836901558795491E-002  0.10788809429026645        0.0000000000000000     
  -5.5130627724887533E-002   8.2625196549958882E-002   0.0000000000000000     
  -5.7051237660355567E-002   8.8824495603918044E-002   0.0000000000000000     
  -5.8921287141116559E-002   9.5180738090167818E-002   0.0000000000000000     
  -6.0740776167170475E-002  0.10169392400870822        0.0000000000000000     
  -6.2509704738517344E-002  0.10836405335953923        0.0000000000000000     
  -3.9897103614986135E-002  0.10656383959405101        0.0000000000000000     
  -4.1084777498188979E-002  0.11345921156721049        0.0000000000000000     
  -4.2214170279449695E-002  0.12049124033422430        0.0000000000000000     
  -4.3285281958768261E-002  0.12765992589509242        0.0000000000000000     
  -4.4298112536144706E-002  0.13496526824981492        0.0000000000000000     
  -4.5530600997029873E-002  0.10698798740752234        0.0000000000000000     
  -4.6817241049592687E-002  0.11386091920375108        0.0000000000000000     
  -4.8046561004205665E-002  0.12087089809660620        0.0000000000000000     
  -4.9218560860868781E-002  0.12801792408608770        0.0000000000000000     
  -5.0333240619582047E-002  0.13530199717219568        0.0000000000000000     
  -5.1177200311632996E-002  0.10742940563959416        0.0000000000000000     
  -5.2583485581627946E-002  0.11428170013062880        0.0000000000000000     
  -5.3930472773688280E-002  0.12127100482986486        0.0000000000000000     
  -5.5218161887814046E-002  0.12839731973730237        0.0000000000000000     
  -5.6446552924005196E-002  0.13566064485294127        0.0000000000000000     
  -5.6836901558795491E-002  0.10788809429026645        0.0000000000000000     
  -5.8383511094294738E-002  0.11472155434784366        0.0000000000000000     
  -5.9865905587897589E-002  0.12169156053400032        0.0000000000000000     
  -6.1284085039604051E-002  0.12879811284873632        0.0000000000000000     
  -6.2638049449414132E-002  0.13604121129205177        0.0000000000000000     
  -6.2509704738517344E-002  0.10836405335953923        0.0000000000000000     
  -6.4217317587593067E-002  0.11518048185539570        0.0000000000000000     
  -6.5852859446833556E-002  0.12213256520901251        0.0000000000000000     
  -6.7416330316238823E-002  0.12922030342038965        0.0000000000000000     
  -6.8907730195808869E-002  0.13644369648952717        0.0000000000000000     
  -4.4298112536144706E-002  0.13496526824981492        0.0000000000000000     
  -4.5254727544391027E-002  0.14239521721905377        0.0000000000000000     
  -4.6157192516319251E-002  0.14993772262347099        0.0000000000000000     
  -4.7005507451929385E-002  0.15759278446306668        0.0000000000000000     
  -4.7799672351221414E-002  0.16536040273784075        0.0000000000000000     
  -5.0333240619582047E-002  0.13530199717219568        0.0000000000000000     
  -5.1389647410408919E-002  0.14271018810913616        0.0000000000000000     
  -5.2386828363412817E-002  0.15022956765111523        0.0000000000000000     
  -5.3324783478593742E-002  0.15786013579813299        0.0000000000000000     
  -5.4203512755951713E-002  0.16560189255018934        0.0000000000000000     
  -5.6446552924005196E-002  0.13566064485294127        0.0000000000000000     
  -5.7613311939780441E-002  0.14304753394270184        0.0000000000000000     
  -5.8716104992658474E-002  0.15054454077250415        0.0000000000000000     
  -5.9754932082639288E-002  0.15815166534234829        0.0000000000000000     
  -6.0729793209722910E-002  0.16586890765223419        0.0000000000000000     
  -6.2638049449414132E-002  0.13604121129205177        0.0000000000000000     
  -6.3925721132505609E-002  0.14340725471975088        0.0000000000000000     
  -6.5145022404056230E-002  0.15088264198763782        0.0000000000000000     
  -6.6295953264066024E-002  0.15846737309571260        0.0000000000000000     
  -6.7378513712534976E-002  0.16616144804397523        0.0000000000000000     
  -6.8907730195808869E-002  0.13644369648952717        0.0000000000000000     
  -7.0326874988584392E-002  0.14378935044028326        0.0000000000000000     
  -7.1673580597606062E-002  0.15124387129651617        0.0000000000000000     
  -7.2947847022873921E-002  0.15880725905822593        0.0000000000000000     
  -7.4149674264387955E-002  0.16647951372541250        0.0000000000000000     
  -4.7799672351221414E-002  0.16536040273784075        0.0000000000000000     
  -4.8537839653480901E-002  0.17322691981931107        0.0000000000000000     
  -4.9218161797993376E-002  0.18117867807899546        0.0000000000000000     
  -4.9840638784758855E-002  0.18921567751689389        0.0000000000000000     
  -5.0405270613777343E-002  0.19733791813300641        0.0000000000000000     
  -5.4203512755951713E-002  0.16560189255018934        0.0000000000000000     
  -5.5023314234549120E-002  0.17344274627044298        0.0000000000000000     
  -5.5784485953448405E-002  0.18137060532205238        0.0000000000000000     
  -5.6487027912649534E-002  0.18938546970501752        0.0000000000000000     
  -5.7130940112152549E-002  0.19748733941933844        0.0000000000000000     
  -6.0729793209722910E-002  0.16586890765223419        0.0000000000000000     
  -6.1641994448122205E-002  0.17368538153693733        0.0000000000000000     
  -6.2492841872050092E-002  0.18159020083123312        0.0000000000000000     
  -6.3282335481506566E-002  0.18958336553512162        0.0000000000000000     
  -6.4010475276491646E-002  0.19766487564860274        0.0000000000000000     
  -6.7378513712534976E-002  0.16616144804397523        0.0000000000000000     
  -6.8393880294200113E-002  0.17395482561879419        0.0000000000000000     
  -6.9343229553798430E-002  0.18183746460653782        0.0000000000000000     
  -7.0226561491329942E-002  0.18980936500720622        0.0000000000000000     
  -7.1043876106794648E-002  0.19787052682079931        0.0000000000000000     
  -7.4149674264387955E-002  0.16647951372541250        0.0000000000000000     
  -7.5278971772782866E-002  0.17425107851601349        0.0000000000000000     
  -7.6335648998693439E-002  0.18211239664796641        0.0000000000000000     
  -7.7319705942119676E-002  0.19006346812127128        0.0000000000000000     
  -7.8231142603061549E-002  0.19810429293592810        0.0000000000000000     
  -5.0405270613777343E-002  0.19733791813300641        0.0000000000000000     
  -5.0910423853834513E-002  0.20553917771117544        0.0000000000000000     
  -5.1354465073716077E-002  0.21381323403524344        0.0000000000000000     
  -5.1737394273422027E-002  0.22216008710521037        0.0000000000000000     
  -5.2059211452952364E-002  0.23057973692107628        0.0000000000000000     
  -5.7130940112152549E-002  0.19748733941933844        0.0000000000000000     
  -5.7711761553763577E-002  0.20567050744179860        0.0000000000000000     
  -5.8225031239288808E-002  0.21392926674918139        0.0000000000000000     
  -5.8670749168728227E-002  0.22226361734148678        0.0000000000000000     
  -5.9048915342081863E-002  0.23067355921871482        0.0000000000000000     
  -6.4010475276491646E-002  0.19766487564860274        0.0000000000000000     
  -6.4672109136010000E-002  0.20582904743689792        0.0000000000000000     
  -6.5262084939066337E-002  0.21407019716522849        0.0000000000000000     
  -6.5780402685660669E-002  0.22238832483359436        0.0000000000000000     
  -6.6227062375792956E-002  0.23078343044199565        0.0000000000000000     
  -7.1043876106794648E-002  0.19787052682079931        0.0000000000000000     
  -7.1791466600573811E-002  0.20601479769647338        0.0000000000000000     
  -7.2465626173048678E-002  0.21423602528338465        0.0000000000000000     
  -7.3066354824219290E-002  0.22253420958153305        0.0000000000000000     
  -7.3593652554085634E-002  0.23090935059091869        0.0000000000000000     
  -7.8231142603061549E-002  0.19810429293592810        0.0000000000000000     
  -7.9069833947454982E-002  0.20622775822052497        0.0000000000000000     
  -7.9835654941235845E-002  0.21442675110364989        0.0000000000000000     
  -8.0528605584404153E-002  0.22270127158530292        0.0000000000000000     
  -8.1148685876959892E-002  0.23105131966548403        0.0000000000000000     
  -5.2059211452952364E-002  0.23057973692107628        0.0000000000000000     
  -5.2328159252305953E-002  0.23906309328593553        0.0000000000000000     
  -5.2552480311481645E-002  0.24760106600288256        0.0000000000000000     
  -5.2732174630479460E-002  0.25619365507191733        0.0000000000000000     
  -5.2867242209299364E-002  0.26484086049303990        0.0000000000000000     
  -5.9048915342081863E-002  0.23067355921871482        0.0000000000000000     
  -5.9365680801659021E-002  0.23915770097074890        0.0000000000000000     
  -5.9627196589769033E-002  0.24771465118747246        0.0000000000000000     
  -5.9833462706411891E-002  0.25634440986888557        0.0000000000000000     
  -5.9984479151587604E-002  0.26504697701498819        0.0000000000000000     
  -6.6227062375792956E-002  0.23078343044199565        0.0000000000000000     
  -6.6604344172184110E-002  0.23926162002800441        0.0000000000000000     
  -6.6914528237555060E-002  0.24782899962919283        0.0000000000000000     
  -6.7157614571905749E-002  0.25648556924556104        0.0000000000000000     
  -6.7333603175236220E-002  0.26523132887710876        0.0000000000000000     
  -7.3593652554085634E-002  0.23090935059091869        0.0000000000000000     
  -7.4044149363881248E-002  0.23937485045770210        0.0000000000000000     
  -7.4414475254839713E-002  0.24794411132804370        0.0000000000000000     
  -7.4704630226961027E-002  0.25661713320194363        0.0000000000000000     
  -7.4914614280245193E-002  0.26539391607940183        0.0000000000000000     
  -8.1148685876959892E-002  0.23105131966548403        0.0000000000000000     
  -8.1685096376750407E-002  0.23949739225984187        0.0000000000000000     
  -8.2127037641623019E-002  0.24805998628402498        0.0000000000000000     
  -8.2474509671577725E-002  0.25673910173803338        0.0000000000000000     
  -8.2727512466614542E-002  0.26553473862186716        0.0000000000000000     
  -5.2867242209299364E-002  0.26484086049303990        0.0000000000000000     
  -5.2988585768842529E-002  0.27349358408049240        0.0000000000000000     
  -5.3127108030010112E-002  0.28210272764851702        0.0000000000000000     
  -5.3282808992802091E-002  0.29066829119711368        0.0000000000000000     
  -5.3455688657218475E-002  0.29919027472628240        0.0000000000000000     
  -5.9984479151587604E-002  0.26504697701498819        0.0000000000000000     
  -6.0117117790437651E-002  0.27377826541846412        0.0000000000000000     
  -6.0268250488103504E-002  0.28249418787199732        0.0000000000000000     
  -6.0437877244585193E-002  0.29119474437558768        0.0000000000000000     
  -6.0625998059882676E-002  0.29987993492923526        0.0000000000000000     
  -6.7333603175236220E-002  0.26523132887710876        0.0000000000000000     
  -6.7482702360555105E-002  0.27403644089792295        0.0000000000000000     
  -6.7645120440871079E-002  0.28287106768209014        0.0000000000000000     
  -6.7820857416184141E-002  0.29173520922961027        0.0000000000000000     
  -6.8009913286494292E-002  0.30062886554048346        0.0000000000000000     
  -7.4914614280245193E-002  0.26539391607940183        0.0000000000000000     
  -7.5085339479194879E-002  0.27426811051886885        0.0000000000000000     
  -7.5257717888312814E-002  0.28323336707879532        0.0000000000000000     
  -7.5431749507598955E-002  0.29228968575918129        0.0000000000000000     
  -7.5607434337053303E-002  0.30143706656002689        0.0000000000000000     
  -8.2727512466614542E-002  0.26553473862186716        0.0000000000000000     
  -8.2925029146357007E-002  0.27447327428130180        0.0000000000000000     
  -8.3106042830428703E-002  0.28358108606211313        0.0000000000000000     
  -8.3270553518829601E-002  0.29285817396430103        0.0000000000000000     
  -8.3418561211559716E-002  0.30230453798786550        0.0000000000000000     
  -4.6915536872786295E-002   6.0045329902556899E-002   0.0000000000000000     
  -4.9050221498464414E-002   6.5333401057434876E-002   0.0000000000000000     
  -5.1130964849040651E-002   7.0859402550294520E-002   0.0000000000000000     
  -5.3157766924515029E-002   7.6623334381135874E-002   0.0000000000000000     
  -5.5130627724887533E-002   8.2625196549958882E-002   0.0000000000000000     
  -5.0749670439378843E-002   6.0431706890069062E-002   0.0000000000000000     
  -5.3222623221576455E-002   6.5835941141218365E-002   0.0000000000000000     
  -5.5611288630501965E-002   7.1437130275259414E-002   0.0000000000000000     
  -5.7915666666155399E-002   7.7235274292192166E-002   0.0000000000000000     
  -6.0135757328536751E-002   8.3230373192016663E-002   0.0000000000000000     
  -5.5178633552386697E-002   6.1055667724493785E-002   0.0000000000000000     
  -5.7912907204505606E-002   6.6503813321618338E-002   0.0000000000000000     
  -6.0544136198295247E-002   7.2128382702320429E-002   0.0000000000000000     
  -6.3072320533755569E-002   7.7929375866600106E-002   0.0000000000000000     
  -6.5497460210886621E-002   8.3906792814457315E-002   0.0000000000000000     
  -6.0202426211809865E-002   6.1917212405831076E-002   0.0000000000000000     
  -6.3121073447251944E-002   6.7337017598634766E-002   0.0000000000000000     
  -6.5929507552420483E-002   7.2933159831477634E-002   0.0000000000000000     
  -6.8627728527315551E-002   7.8705639104359640E-002   0.0000000000000000     
  -7.1215736371937094E-002   8.4654455417280824E-002   0.0000000000000000     
  -6.5821048417648353E-002   6.3016340934080928E-002   0.0000000000000000     
  -6.8847121949815404E-002   6.8335553972267676E-002   0.0000000000000000     
  -7.1767402692877735E-002   7.3851461662730961E-002   0.0000000000000000     
  -7.4581890646835319E-002   7.9564064005470794E-002   0.0000000000000000     
  -7.7290585811688198E-002   8.5473361000487191E-002   0.0000000000000000     
  -5.5130627724887533E-002   8.2625196549958882E-002   0.0000000000000000     
  -5.7051237660355567E-002   8.8824495603918044E-002   0.0000000000000000     
  -5.8921287141116559E-002   9.5180738090167818E-002   0.0000000000000000     
  -6.0740776167170475E-002  0.10169392400870822        0.0000000000000000     
  -6.2509704738517344E-002  0.10836405335953923        0.0000000000000000     
  -6.0135757328536751E-002   8.3230373192016663E-002   0.0000000000000000     
  -6.2280779650062457E-002   8.9403628964801488E-002   0.0000000000000000     
  -6.4359952663148881E-002   9.5736243600615278E-002   0.0000000000000000     
  -6.6373276367796052E-002  0.10222821709945799        0.0000000000000000     
  -6.8320750764003943E-002  0.10887954946132965        0.0000000000000000     
  -6.5497460210886621E-002   8.3906792814457315E-002   0.0000000000000000     
  -6.7833780742959773E-002   9.0052892968885412E-002   0.0000000000000000     
  -7.0095507643246513E-002   9.6359935752877712E-002   0.0000000000000000     
  -7.2282640911746784E-002  0.10282792116643422        0.0000000000000000     
  -7.4395180548460643E-002  0.10945684920955491        0.0000000000000000     
  -7.1215736371937094E-002   8.4654455417280824E-002   0.0000000000000000     
  -7.3710240939047586E-002   9.0772287616169775E-002   0.0000000000000000     
  -7.6127952081409475E-002   9.7051814546955148E-002   0.0000000000000000     
  -7.8468869799022761E-002  0.10349303620963686        0.0000000000000000     
  -8.0732994091887431E-002  0.11009595260421502        0.0000000000000000     
  -7.7290585811688198E-002   8.5473361000487191E-002   0.0000000000000000     
  -7.9910160238325825E-002   9.1561812906654633E-002   0.0000000000000000     
  -8.2457285977637726E-002   9.7811879982847544E-002   0.0000000000000000     
  -8.4931963029623900E-002  0.10422356222906601        0.0000000000000000     
  -8.7334191394284333E-002  0.11079685964530997        0.0000000000000000     
  -6.2509704738517344E-002  0.10836405335953923        0.0000000000000000     
  -6.4217317587593067E-002  0.11518048185539570        0.0000000000000000     
  -6.5852859446833556E-002  0.12213256520901251        0.0000000000000000     
  -6.7416330316238823E-002  0.12922030342038965        0.0000000000000000     
  -6.8907730195808869E-002  0.13644369648952717        0.0000000000000000     
  -6.8320750764003943E-002  0.10887954946132965        0.0000000000000000     
  -7.0194793152398030E-002  0.11567791654521928        0.0000000000000000     
  -7.1987820833603750E-002  0.12261099421011590        0.0000000000000000     
  -7.3699833807621129E-002  0.12967878245601946        0.0000000000000000     
  -7.5330832074450099E-002  0.13688128128293003        0.0000000000000000     
  -7.4395180548460643E-002  0.10945684920955491        0.0000000000000000     
  -7.6425825879584713E-002  0.11623329230924878        0.0000000000000000     
  -7.8367276231315716E-002  0.12314382289252473        0.0000000000000000     
  -8.0219531603653665E-002  0.13018844095938281        0.0000000000000000     
  -8.1982591996598519E-002  0.13736714650982296        0.0000000000000000     
  -8.0732994091887431E-002  0.11009595260421502        0.0000000000000000     
  -8.2910415769153131E-002  0.11684660914748422        0.0000000000000000     
  -8.4991225639969484E-002  0.12373105125623912        0.0000000000000000     
  -8.6975423704336488E-002  0.13074927893047972        0.0000000000000000     
  -8.8863009962254116E-002  0.13790129217020602        0.0000000000000000     
  -8.7334191394284333E-002  0.11079685964530997        0.0000000000000000     
  -8.9648562821103284E-002  0.11751786705992559        0.0000000000000000     
  -9.1859669059565038E-002  0.12437267930125900        0.0000000000000000     
  -9.3967510109669583E-002  0.13136129636931018        0.0000000000000000     
  -9.5972085971416918E-002  0.13848371826407915        0.0000000000000000     
  -6.8907730195808869E-002  0.13644369648952717        0.0000000000000000     
  -7.0326874988584392E-002  0.14378935044028326        0.0000000000000000     
  -7.1673580597606062E-002  0.15124387129651617        0.0000000000000000     
  -7.2947847022873921E-002  0.15880725905822593        0.0000000000000000     
  -7.4149674264387955E-002  0.16647951372541250        0.0000000000000000     
  -7.5330832074450099E-002  0.13688128128293003        0.0000000000000000     
  -7.6883060468793313E-002  0.14420548143840006        0.0000000000000000     
  -7.8358763825353298E-002  0.15163837366998206        0.0000000000000000     
  -7.9757942144130081E-002  0.15917995797767601        0.0000000000000000     
  -8.1080595425123622E-002  0.16683023436148189        0.0000000000000000     
  -8.1982591996598519E-002  0.13736714650982296        0.0000000000000000     
  -8.3660564533908841E-002  0.14466730804820241        0.0000000000000000     
  -8.5257556339343163E-002  0.15207629407887829        0.0000000000000000     
  -8.6773567412901501E-002  0.15959410460185056        0.0000000000000000     
  -8.8208597754583840E-002  0.16722073961711925        0.0000000000000000     
  -8.8863009962254116E-002  0.13790129217020602        0.0000000000000000     
  -9.0659387183931003E-002  0.14517483026969030        0.0000000000000000     
  -9.2369958139575714E-002  0.15255763252320484        0.0000000000000000     
  -9.3994722829188249E-002  0.16004969893074961        0.0000000000000000     
  -9.5533681252768607E-002  0.16765102949232463        0.0000000000000000     
  -9.5972085971416918E-002  0.13848371826407915        0.0000000000000000     
  -9.7879528418859774E-002  0.14572804810286372        0.0000000000000000     
  -9.9695969226050896E-002  0.15308238900296173        0.0000000000000000     
 -0.10142140839299027       0.16054674096437316        0.0000000000000000     
 -0.10305584591967790       0.16812110398709806        0.0000000000000000     
  -7.4149674264387955E-002  0.16647951372541250        0.0000000000000000     
  -7.5278971772782866E-002  0.17425107851601349        0.0000000000000000     
  -7.6335648998693439E-002  0.18211239664796641        0.0000000000000000     
  -7.7319705942119676E-002  0.19006346812127128        0.0000000000000000     
  -7.8231142603061549E-002  0.19810429293592810        0.0000000000000000     
  -8.1080595425123622E-002  0.16683023436148189        0.0000000000000000     
  -8.2325441923640164E-002  0.17457981861181371        0.0000000000000000     
  -8.3491199894985935E-002  0.18241932651908541        0.0000000000000000     
  -8.4577869339160894E-002  0.19034875808329699        0.0000000000000000     
  -8.5585450256165096E-002  0.19836811330444853        0.0000000000000000     
  -8.8208597754583840E-002  0.16722073961711925        0.0000000000000000     
  -8.9561463786541728E-002  0.17494672428941324        0.0000000000000000     
  -9.0830981930926702E-002  0.18276258378346133        0.0000000000000000     
  -9.2017152187738788E-002  0.19066831809926352        0.0000000000000000     
  -9.3119974556978014E-002  0.19866392723681986        0.0000000000000000     
  -9.5533681252768607E-002  0.16765102949232463        0.0000000000000000     
  -9.6987037361487546E-002  0.17535179554881211        0.0000000000000000     
  -9.8354995106515811E-002  0.18314216844109418        0.0000000000000000     
  -9.9637554487853372E-002  0.19102214816917082        0.0000000000000000     
 -0.10083471550550031       0.19899173473304207        0.0000000000000000     
 -0.10305584591967790       0.16812110398709806        0.0000000000000000     
 -0.10460216264847760       0.17579503239001029        0.0000000000000000     
 -0.10606323942175318       0.18355808049198397        0.0000000000000000     
 -0.10743907623950465       0.19141024829301892        0.0000000000000000     
 -0.10872967310173198       0.19935153579311526        0.0000000000000000     
  -7.8231142603061549E-002  0.19810429293592810        0.0000000000000000     
  -7.9069833947454982E-002  0.20622775822052497        0.0000000000000000     
  -7.9835654941235845E-002  0.21442675110364989        0.0000000000000000     
  -8.0528605584404153E-002  0.22270127158530292        0.0000000000000000     
  -8.1148685876959892E-002  0.23105131966548403        0.0000000000000000     
  -8.5585450256165096E-002  0.19836811330444853        0.0000000000000000     
  -8.6517601712326003E-002  0.20646959907091941        0.0000000000000000     
  -8.7377982773971158E-002  0.21464542227108935        0.0000000000000000     
  -8.8166593441100574E-002  0.22289558290495823        0.0000000000000000     
  -8.8883433713714238E-002  0.23122008097252608        0.0000000000000000     
  -9.3119974556978014E-002  0.19866392723681986        0.0000000000000000     
  -9.4145160430859381E-002  0.20674199030952356        0.0000000000000000     
  -9.5098421201598046E-002  0.21489508643076805        0.0000000000000000     
  -9.5979756869193938E-002  0.22312321560055329        0.0000000000000000     
  -9.6789167433647141E-002  0.23142637781887920        0.0000000000000000     
 -0.10083471550550031       0.19899173473304207        0.0000000000000000     
 -0.10195251010305513       0.20704493193633730        0.0000000000000000     
 -0.10299697022411647       0.21517574358268596        0.0000000000000000     
 -0.10396809586868429       0.22338416967208802        0.0000000000000000     
 -0.10486588703675861       0.23167021020454345        0.0000000000000000     
 -0.10872967310173198       0.19935153579311526        0.0000000000000000     
 -0.10993965072891324       0.20737842395136072        0.0000000000000000     
 -0.11107362984152644       0.21548739372684314        0.0000000000000000     
 -0.11213161043957158       0.22367844511956253        0.0000000000000000     
 -0.11311359252304867       0.23195157812951880        0.0000000000000000     
  -8.1148685876959892E-002  0.23105131966548403        0.0000000000000000     
  -8.1685096376750407E-002  0.23949739225984187        0.0000000000000000     
  -8.2127037641623019E-002  0.24805998628402498        0.0000000000000000     
  -8.2474509671577725E-002  0.25673910173803338        0.0000000000000000     
  -8.2727512466614542E-002  0.26553473862186716        0.0000000000000000     
  -8.8883433713714238E-002  0.23122008097252608        0.0000000000000000     
  -8.9513922865685144E-002  0.23964439467896520        0.0000000000000000     
  -9.0043480170886356E-002  0.24819400222944799        0.0000000000000000     
  -9.0472105629317859E-002  0.25686890362397435        0.0000000000000000     
  -9.0799799240979653E-002  0.26566909886254425        0.0000000000000000     
  -9.6789167433647141E-002  0.23142637781887920        0.0000000000000000     
  -9.7517366485579030E-002  0.23983100695961357        0.0000000000000000     
  -9.8155067615611130E-002  0.24836353689662391        0.0000000000000000     
  -9.8702270823743443E-002  0.25702396762991020        0.0000000000000000     
  -9.9158976109975941E-002  0.26581229915947252        0.0000000000000000     
 -0.10486588703675861       0.23167021020454345        0.0000000000000000     
 -0.10569542723643209       0.24005722910178690        0.0000000000000000     
 -0.10646179997579740       0.24856859028555275        0.0000000000000000     
 -0.10716500525485448       0.25720429375584103        0.0000000000000000     
 -0.10780504307360336       0.26596433951265186        0.0000000000000000     
 -0.11311359252304867       0.23195157812951880        0.0000000000000000     
 -0.11404810511824431       0.24032306110548513        0.0000000000000000     
 -0.11496367725144506       0.24880916239623452        0.0000000000000000     
 -0.11586030892265096       0.25740988200176695        0.0000000000000000     
 -0.11673800013186197       0.26612521992208243        0.0000000000000000     
  -8.2727512466614542E-002  0.26553473862186716        0.0000000000000000     
  -8.2925029146357007E-002  0.27447327428130180        0.0000000000000000     
  -8.3106042830428703E-002  0.28358108606211313        0.0000000000000000     
  -8.3270553518829601E-002  0.29285817396430103        0.0000000000000000     
  -8.3418561211559716E-002  0.30230453798786550        0.0000000000000000     
  -9.0799799240979653E-002  0.26566909886254425        0.0000000000000000     
  -9.1056941917550843E-002  0.27465762461856880        0.0000000000000000     
  -9.1273914570710477E-002  0.28389751756545889        0.0000000000000000     
  -9.1450717200458595E-002  0.29338877770321464        0.0000000000000000     
  -9.1587349806795212E-002  0.30313140503183600        0.0000000000000000     
  -9.9158976109975941E-002  0.26581229915947252        0.0000000000000000     
  -9.9536248348285727E-002  0.27482685396401663        0.0000000000000000     
  -9.9845152412649893E-002  0.28416595452224830        0.0000000000000000     
 -0.10008568830306848       0.29382960083416776        0.0000000000000000     
 -0.10025785601954149       0.30381779289977473        0.0000000000000000     
 -0.10780504307360336       0.26596433951265186        0.0000000000000000     
 -0.10836294843856166       0.27498096231764529        0.0000000000000000     
 -0.10881975635624697       0.28438639693248152        0.0000000000000000     
 -0.10917546682665924       0.29418064335716038        0.0000000000000000     
 -0.10943007984979851       0.30436370159168180        0.0000000000000000     
 -0.11673800013186197       0.26612521992208243        0.0000000000000000     
 -0.11753704218837867       0.27511994967945491        0.0000000000000000     
 -0.11819772640150161       0.28455884479615817        0.0000000000000000     
 -0.11872005277123084       0.29444190527219227        0.0000000000000000     
 -0.11910402129756631       0.30476913110755721        0.0000000000000000     
 </DataArray>
 <DataArray  type="Float64" Name="stress" NumberOfComponents="3" format="ascii">
   6108970139.0170412        96503369.484573126       -16508697.091754954     
   5862778314.0389423        43911545.907804728       -5344504.9154072097     
   5620631557.6923838        4803284.4361724854        3179799.8743856922     
   5382529869.9773579       -20821414.930330992        9064217.2776263133     
   5148473250.8938770       -32962552.191699743        12308747.294306967     
   5774459061.5240726        74412829.469054699        161608697.77645910     
   5531407399.6070671        36608164.557282925        164392291.20309961     
   5290528903.6518764        6047386.1849091053        168818860.83291271     
   5051823573.6585150       -17269505.648055315        174888406.66588810     
   4815291409.6269703       -33342510.941620350        182600928.70203608     
   5399521315.2957830        40194288.832940340        346143078.07893264     
   5171846569.5533676        20847808.520210981        338362186.30786693     
   4944473087.1030455        2505539.1811585426        336507134.32968199     
   4717400867.9448271       -14832519.184226513        340577922.14439535     
   4490629912.0787191       -31166366.575927258        350574549.75199592     
   4984156900.3321733       -6152252.4237701893        537094443.81566894     
   4784095823.8778305       -3369522.2034151554        516565180.39888179     
   4582464108.0458784       -5822256.5750982761        506244620.36470795     
   4379261752.8363066       -13510455.538843870        506132763.71315002     
   4174488758.2491241       -26434119.094632149        516229610.44420081     
   4528365816.6332407       -64626794.301077604        734462794.98665965     
   4368155162.5804777       -36043827.613577604        699001273.47614980     
   4204501966.4803801       -18936001.083853245        678031318.93798125     
   4037406228.3329468       -13303314.711916685        671552931.37214601     
   3866867948.1381793       -19145768.497755766        679566110.77864504     
   5148473250.8938770       -32962552.191699743        12308747.294306967     
   5000007451.1112165       -15182565.148318529        3292588.8400451383     
   4850294744.3549395       -1558934.6836493015        709005.24339121080     
   4699335130.6250410        7908339.2022788525        4557996.5043195644     
   4547128609.9215298        13219256.509495020        14839562.622848134     
   4815291409.6269703       -33342510.941620350        182600928.70203608     
   4681297246.3035212       -16638342.545101404        174604717.58101019     
   4546458998.4320860       -2747789.3085510731        171556225.48951814     
   4410776666.0126562        8329148.7680182457        173455452.42756692     
   4274250249.0452304        16592471.684614420        180302398.39516228     
   4490629912.0787191       -31166366.575927258        350574549.75199592     
   4366864939.9914703       -16810750.393191099        344068245.46076810     
   4242658705.7818580       -3926007.9516658783        341024804.37101531     
   4118011209.4498796        7487860.7486336231        341444226.48275602     
   3992922450.9955454        17430855.707744598        345326511.79597914     
   4174488758.2491241       -26434119.094632149        516229610.44420081     
   4056710532.1750569       -15699788.692589521        511683172.47933018     
   3938893866.4042511       -5093590.6130075455        509114741.88789010     
   3821038760.9367161        5384475.1441364288        508524318.66987556     
   3703145215.7724447        15734408.578830242        509911902.82530099     
   3866867948.1381793       -19145768.497755766        679566110.77864504     
   3750834022.8542819       -13305457.443304777        677449498.63670015     
   3635164480.2992773       -6250537.2925405502        675826038.04013264     
   3519859320.4731674        2018991.9545316696        674695728.98893654     
   3404918543.3759441        11503130.297902584        674058571.48311722     
   4547128609.9215298        13219256.509495020        14839562.622848134     
   4346216092.5493469        3363238.2214038372        10948501.857926523     
   4146184458.0224199       -3556503.9158451557        10137163.308574162     
   3947033706.3407459       -7539969.9022498131        12405546.974793611     
   3748763837.5043087       -8587159.7378563881        17753652.856577184     
   4274250249.0452304        16592471.684614420        180302398.39516228     
   4082794935.9158988        7997475.7508721352        174726407.81982347     
   3891933388.6520562        1381699.3687782288        173054462.36470681     
   3701665607.2537088       -3254857.4616734982        175286562.02983350     
   3511991591.7208691       -5912194.7404346466        181422706.81520668     
   3992922450.9955454        17430855.707744598        345326511.79597914     
   3813279550.4080935        10803444.618034840        337730621.60050052     
   3633943298.7063880        5198196.4808118343        334863099.42992836     
   3454913695.8904309        615111.29607748985        336723945.28425854     
   3276190741.9602180       -2945810.9361696243        343313159.16348433     
   3703145215.7724447        15734408.578830242        509911902.82530099     
   3537669936.0259333        11781144.822893620        499961143.19998491     
   3372214188.1854100        7892987.4202647209        495563074.50422907     
   3206777972.2508783        4069936.3709360361        496717696.73804325     
   3041361288.2223420        311991.67491114140        503425009.90142518     
   3404918543.3759441        11503130.297902584        674058571.48311722     
   3255966092.7694106        10930576.365440249        661417972.61824751     
   3106746057.0891194        9466072.1871026754        655154387.58760357     
   2957258436.3350677        7109617.7629100084        655267816.39119947     
   2807503230.5072536        3861213.0928416252        661758259.02901995     
   3748763837.5043087       -8587159.7378563881        17753652.856577184     
   3575625394.1832657       -2510671.1715869904        10170687.922492418     
   3401331947.6305490       -284193.37756061554        7504791.8521488663     
   3225883497.8461523       -1907726.3558140993        9755964.6455561351     
   3049280044.8300776       -7381270.1063039303        16924206.302690528     
   3511991591.7208691       -5912194.7404346466        181422706.81520668     
   3350609334.7924361       -264015.47912740707        172743572.52746302     
   3188513304.7185707        3004919.9640839100        168289430.28682336     
   3025703501.4992666        3894611.5891615152        168060280.09327677     
   2862179925.1345282        2405059.3961226940        172056121.94684571     
   3276190741.9602180       -2945810.9361696243        343313159.16348433     
   3124587309.0911317        1680850.3201828003        334052623.95603263     
   2972711333.1628618        5399034.7125781775        328325003.97904706     
   2820562814.1754069        8208742.2410254478        326130299.23253077     
   2668141752.1287594        10109972.905503869        327468509.71647030     
   3041361288.2223420        311991.67491114140        503425009.90142518     
   2897559317.0793614        3323926.2263499498        494097842.20821786     
   2753926032.9634423        6898150.8679814339        487611512.92883962     
   2610461435.8745708        11034665.599786282        483966022.06328928     
   2467165525.8127656        15733470.421794057        483161369.61156690     
   2807503230.5072536        3861213.0928416252        661758259.02901995     
   2669525358.7571301        4665212.2393920422        652879227.28400981     
   2532157404.1203012        7502268.4302681684        646148957.13618934     
   2395399366.5967727        12372381.665478468        641567448.58556056     
   2259251246.1865444        19275551.945022702        639134701.63211751     
   3049280044.8300776       -7381270.1063039303        16924206.302690528     
   2883790942.4582720       -9984817.7506488562        11585107.466741769     
   2719150705.4584818       -9758814.1549738646        7073247.3903605090     
   2555359333.8307023       -6703259.3192354441        3388626.0735313748     
   2392416827.5749536       -818153.24341607094        531243.51626461395     
   2862179925.1345282        2405059.3961226940        172056121.94684571     
   2700018721.1434693        945341.11073136330        165375263.20046750     
   2538321480.7563925        1032168.1719486713        160163126.90456411     
   2377088203.9733295        2665540.5798900127        156419713.05914265     
   2216318890.7942567        5845458.3344416618        154145021.66421014     
   2668141752.1287594        10109972.905503869        327468509.71647030     
   2511141257.0639234        10343927.142678499        318996838.99696040     
   2354219823.8350673        10841420.833100557        312635374.41885704     
   2197377452.4422035        11602453.976836085        308384115.98216820     
   2040614142.8853114        12627026.573818445        306243063.68687505     
   2467165525.8127656        15733470.421794057        483161369.61156690     
   2317158550.2196593        18210940.345188498        472449834.85624403     
   2166845734.6945162        19668943.828471303        464489989.93325216     
   2016227079.2373481        20107480.871663451        459281834.84259087     
   1865302583.8481362        19526551.474722743        456825369.58426416     
   2259251246.1865444        19275551.945022702        639134701.63211751     
   2118070600.6106670        24546380.718303442        625734250.77829647     
   1976199213.3347375        27514737.158087015        615726973.44773495     
   1833637084.3587606        28180621.264367819        609112869.64043331     
   1690384213.6827357        26544033.037166059        605891939.35637844     
   2392416827.5749536       -818153.24341607094        531243.51626461395     
   2249588975.5247407        7300110.2203339338       -6553167.3206348652     
   2103405946.7572172        4234451.2930483818       -11363173.324744431     
   1953867741.2723572       -10015130.025367618       -13898774.496056398     
   1800974359.0701869       -35448633.734797239       -14159970.834573328     
   2216318890.7942567        5845458.3344416618        154145021.66421014     
   2077955109.0797079        13116280.408280134        143498893.18110943     
   1937392799.9456897        13058677.750549793        134207823.52108367     
   1794631963.3922191        5672650.3613189459        126271812.68415780     
   1649672599.4192963       -9041801.7594422102        119690860.67028256     
   2040614142.8853114        12627026.573818445        306243063.68687505     
   1904087728.6215181        18262396.392245889        293384641.73841959     
   1766519436.2361209        20424839.138666868        280961932.60333437     
   1627909265.7291384        19114354.813123107        268974936.28159535     
   1488257217.1005549        14330943.415597677        257423652.77323225     
   1865302583.8481362        19526551.474722743        456825369.58426416     
   1727986834.1501892        22738458.172266603        443104078.35130435     
   1590785855.6285038        26332935.457355320        428899153.92197585     
   1453699648.2830899        30309983.330023229        414210596.29629290     
   1316728212.1139503        34669601.790251851        399038405.47426170     
   1690384213.6827357        26544033.037166059        605891939.35637844     
   1549652425.6657238        26544465.748353124        592657203.01973760     
   1410192058.1228414        30782966.706648588        578019487.47701907     
   1272003111.0540879        39259535.912035346        561978792.72823131     
   1135085584.4594774        51974173.364565611        544535118.77337730     
   1800974359.0701869       -35448633.734797239       -14159970.834573328     
   1770382085.3317199       -16960804.194594383       -8299090.5543141207     
   1747912681.0867667        28603256.990686417       -41353125.937083364     
   1733566146.3353496        101243549.82107866       -113322076.98287210     
   1727342481.0774522        200960074.29652399       -224205943.69170722     
   1649672599.4192963       -9041801.7594422102        119690860.67028256     
   1527097052.5596724       -14009105.913486838        135442038.09182814     
   1408719155.8663642       -4984242.8464616537        124764490.39725898     
   1294538909.3393524        18032787.441547513        87658217.586579591     
   1184556312.9786580        55041984.950626910        24123219.659791891     
   1488257217.1005549        14330943.415597677        257423652.77323225     
   1309373227.2538307       -3389045.3924908042        278485704.78763264     
   1130761668.2462056       -20200931.403576553        285605222.23286343     
   952422540.07767987       -36104714.617672980        278782205.10889000     
   774355842.74825752       -51100395.034752011        258016653.41573799     
   1316728212.1139503        34669601.790251851        399038405.47426170     
   1117210609.4141815        14899377.368323028        420831909.53312534     
   914040218.22631359       -17046808.680591524        441169069.56971419     
   707217038.55032718       -61168956.356577396        460049885.58403981     
   496741070.38623691       -117467065.65959033        477474357.57609838     
   1135085584.4594774        51974173.364565611        544535118.77337730     
   950609199.04073620        40856162.369044542        562480652.32827711     
   758554805.80667257        4478125.3224488199        591456032.40783930     
   558922404.75729132       -57159937.775208533        631461259.01204836     
   351711995.89258695       -144058026.92393744        682496332.14091218     
   1727342481.0774522        200960074.29652399       -224205943.69170722     
   1456794131.7342522        184826665.66404206       -96696735.324776664     
   1154022345.0630157        61281799.271405876        60061092.957901344     
   819027121.06375337       -169674524.88130641        246067541.15634221     
   451808459.73644763       -508042306.79415166        461322609.27055615     
   1184556312.9786580        55041984.950626910        24123219.659791891     
   977574783.99067497        11916109.647900105        155477463.12113076     
   732745895.15043879       -157367631.82893673        312709671.55612004     
   450069646.45798254       -452809239.47985226        495819844.96481597     
   129546037.91331744       -874408713.30484128        704807983.34717250     
   774355842.74825752       -51100395.034752011        258016653.41573799     
   621310691.42378247       -124107869.81525633        386654689.02658105     
   424794257.72290307       -342019619.18378365        537800034.66902471     
   184806541.64559272       -704835643.14041114        711452690.34305501     
  -98652456.808121920       -1212555941.6850500        907612656.04869604     
   496741070.38623691       -117467065.65959033        477474357.57609838     
   388001854.03361875       -223245272.72535750        596834942.39158249     
   230167432.78039649       -492674162.79314023        735332182.29656172     
   23237806.626576006       -925753735.86293113        892966077.29107249     
  -232787024.42785543       -1522483991.9347339        1069736627.3750832     
   351711995.89258695       -144058026.92393744        682496332.14091218     
   277648271.82015693       -285496099.08247483        786018223.21613812     
   148865420.32294241       -609331262.65696597        905306114.43878341     
  -34636558.599068820       -1115563517.6474657        1040360005.8088561     
  -272857664.94587106       -1804192864.0539021        1191179897.3263724     
   4528365816.6332407       -64626794.301077604        734462794.98665965     
   4368155162.5804777       -36043827.613577604        699001273.47614980     
   4204501966.4803801       -18936001.083853245        678031318.93798125     
   4037406228.3329468       -13303314.711916685        671552931.37214601     
   3866867948.1381793       -19145768.497755766        679566110.77864504     
   4101954295.9597683       -37671777.309365034        833364180.87820911     
   3967365279.9968657       -27100367.692678690        809741943.41889524     
   3831699321.3591619       -20118766.991971016        795493604.53425479     
   3694956420.0466628       -16726975.207260847        790619164.22427964     
   3557136576.0593691       -16924992.338525295        795118622.48896885     
   3724212730.5375595        3884226.2577254772        921001768.99560547     
   3600623442.9568872       -7942494.1086831093        911978681.52212632     
   3478322812.0739527       -15473692.149286747        907211824.22563756     
   3357310837.8887615       -18709367.864078522        906701197.10614741     
   3237587520.4013138       -17649521.253062129        910446800.16365230     
   3395141120.3666039        60041216.400191188        997375559.33885801     
   3267929651.4605417        21429793.138401151        1005711487.7858284     
   3144372438.6247449       -5000776.5557966232        1013185978.0121295     
   3024469481.8592329       -19250492.682393312        1019799030.0177516     
   2908220781.1640062       -21319355.241375685        1025550643.8027021     
   3114739465.4469166        130799193.11804032        1062485551.9079627     
   2969283905.5078216        61016494.048569441        1090940362.2100158     
   2829848201.0115442        11299979.788488030        1113416065.8937256     
   2696432351.9580879       -18350349.662185907        1129912662.9590950     
   2569036358.3474488       -27934494.303467989        1140430153.4061165     
   3866867948.1381793       -19145768.497755766        679566110.77864504     
   3750834022.8542819       -13305457.443304777        677449498.63670015     
   3635164480.2992773       -6250537.2925405502        675826038.04013264     
   3519859320.4731674        2018991.9545316696        674695728.98893654     
   3404918543.3759441        11503130.297902584        674058571.48311722     
   3557136576.0593691       -16924992.338525295        795118622.48896885     
   3444533430.7265482       -11112787.313817501        790638221.28553081     
   3331982093.4924445       -5127888.6267151833        788310216.04440951     
   3219482564.3570662        1029703.7228032351        788134606.76560366     
   3107034843.3204083        7359989.7347235680        790111393.44911361     
   3237587520.4013138       -17649521.253062129        910446800.16365230     
   3133155853.3536749       -10443212.757884383        903237939.49686265     
   3028463419.7745905       -4106126.0341960192        899840719.20932329     
   2923510219.6640582        1361738.9179998636        900255139.30104482     
   2818296253.0220814        5960382.0987137556        904481199.77201998     
   2908220781.1640062       -21319355.241375685        1025550643.8027021     
   2816701290.7356725       -11296733.775485635        1015248653.2706887     
   2724608459.1457233       -3185249.5149776936        1010417547.5348732     
   2631942286.3941536        3015097.5401322842        1011057326.5952545     
   2538702772.4809728        7304307.3898679018        1017167990.4518301     
   2569036358.3474488       -27934494.303467989        1140430153.4061165     
   2495169742.8725333       -13673350.366627932        1126670362.6070175     
   2420417211.6058311       -2365259.0690732002        1120040701.0210557     
   2344778764.5473413        5989779.5891889334        1120541168.6482401     
   2268254401.6970716        11391765.608181000        1128171765.4885499     
   3404918543.3759441        11503130.297902584        674058571.48311722     
   3255966092.7694106        10930576.365440249        661417972.61824751     
   3106746057.0891194        9466072.1871026754        655154387.58760357     
   2957258436.3350677        7109617.7629100084        655267816.39119947     
   2807503230.5072536        3861213.0928416252        661758259.02901995     
   3107034843.3204083        7359989.7347235680        790111393.44911361     
   2973538729.7774124        7454975.6678477526        780006446.01068735     
   2840043039.5685163        7551372.7146258354        775259927.12561786     
   2706547772.6937046        7649180.8750277758        775871836.79390466     
   2573052929.1529884        7748400.1490765810        781842175.01553810     
   2818296253.0220814        5960382.0987137556        904481199.77201998     
   2697346232.8829799        5849834.7995400429        897224580.23586547     
   2576664644.4858236        6634059.9735198021        894307803.97219014     
   2456251487.8306074        8313057.6206322908        895730870.98099148     
   2336106762.9173393        10886827.740903020        901493781.26226914     
   2538702772.4809728        7304307.3898679018        1017167990.4518301     
   2427388602.0861092        6115153.7604999542        1013072375.2937797     
   2316610871.8410425        6714133.9637867212        1012298018.1273261     
   2206369581.7457695        9101247.9997210503        1014844918.9524673     
   2096664731.8002908        13276495.868302941        1020713077.7692126     
   2268254401.6970716        11391765.608181000        1128171765.4885499     
   2163665837.3867979        8250932.5507243872        1127549831.1844237     
   2059881721.6341732        7791594.6854306459        1129230569.5910182     
   1956902054.4391885        10013752.012270331        1133213980.7083378     
   1854726835.8018591        14917404.531294703        1139500064.5363703     
   2807503230.5072536        3861213.0928416252        661758259.02901995     
   2669525358.7571301        4665212.2393920422        652879227.28400981     
   2532157404.1203012        7502268.4302681684        646148957.13618934     
   2395399366.5967727        12372381.665478468        641567448.58556056     
   2259251246.1865444        19275551.945022702        639134701.63211751     
   2573052929.1529884        7748400.1490765810        781842175.01553810     
   2441819743.8810010        9144220.6514449120        773059922.31775796     
   2310993676.2074575        11897099.815304279        767180554.23154843     
   2180574726.1323714        16007037.640684843        764204070.75690675     
   2050562893.6557367        21474034.127565026        764130471.89384151     
   2336106762.9173393        10886827.740903020        901493781.26226914     
   2213772901.3074303        13520860.754262090        892571708.17772293     
   2091643357.7811270        16835954.046287537        887306642.71913648     
   1969718132.3384371        20832107.617024302        885698584.88650572     
   1847997224.9793415        25509321.466427445        887747534.67982626     
   2096664731.8002908        13276495.868302941        1020713077.7692126     
   1985384831.0364280        17795132.547844887        1011414584.8639177     
   1874106448.8413203        22318831.123246312        1006527222.5989646     
   1762829585.2149689        26847591.594500661        1006050990.9743488     
   1651554240.1573751        31381413.961616993        1009985889.9900763     
   1854726835.8018591        14917404.531294703        1139500064.5363703     
   1756655533.0679901        21967036.032213569        1129588552.3763409     
   1658382949.3880217        28345731.046130657        1124842293.8710315     
   1559909084.7619755        34053489.573130190        1125261289.0204442     
   1461233939.1898329        39090311.613140464        1130845537.8245883     
   2259251246.1865444        19275551.945022702        639134701.63211751     
   2118070600.6106670        24546380.718303442        625734250.77829647     
   1976199213.3347375        27514737.158087015        615726973.44773495     
   1833637084.3587606        28180621.264367819        609112869.64043331     
   1690384213.6827357        26544033.037166059        605891939.35637844     
   2050562893.6557367        21474034.127565026        764130471.89384151     
   1918018951.1124454        26136605.444257498        752214133.60298741     
   1785038357.6848564        29343673.813292146        743688606.61162448     
   1651621113.3729823        31095239.234703243        738553890.91974819     
   1517767218.1768067        31391301.708460271        736809986.52735913     
   1847997224.9793415        25509321.466427445        887747534.67982626     
   1724083236.2578819        29561610.563310564        877611748.23698890     
   1599986687.4678755        33005366.098393857        870864410.86987102     
   1475707578.6093383        35840588.071698844        867505522.57847261     
   1351245909.6822622        38067276.483199716        867535083.36279678     
   1651554240.1573751        31381413.961616993        1009985889.9900763     
   1536263456.0469723        34821396.075452328        1001927094.6802986     
   1421044202.6837869        38499814.013356805        997254386.22247326     
   1305896480.0678155        42416667.775307536        995967764.61659968     
   1190820288.1990674        46571957.361335814        998067229.86268032     
   1461233939.1898329        39090311.613140464        1130845537.8245883     
   1354559610.4797254        41915961.980706215        1125160172.9329135     
   1248210903.3325918        45827017.558187604        1122858532.6694310     
   1142187817.7484324        50823478.345584750        1123940617.0341287     
   1036490353.7272429        56905344.342876315        1128406426.0270185     
   1690384213.6827357        26544033.037166059        605891939.35637844     
   1549652425.6657238        26544465.748353124        592657203.01973760     
   1410192058.1228414        30782966.706648588        578019487.47701907     
   1272003111.0540879        39259535.912035346        561978792.72823131     
   1135085584.4594774        51974173.364565611        544535118.77337730     
   1517767218.1768067        31391301.708460271        736809986.52735913     
   1375118644.0945196        28890208.360423684        727598448.50082135     
   1232802049.1453383        27495712.122742355        718892714.10534585     
   1090817433.3292606        27207812.995400548        710692783.34093714     
   949164796.64628983        28026510.978424311        702998656.20759594     
   1351245909.6822622        38067276.483199716        867535083.36279678     
   1212134214.7836578        34700756.650613606        861250728.74848461     
   1072415057.6771355        29309362.791627049        857380960.60238838     
   932088438.36269403        21893094.906244218        855925778.92449450     
   791154356.84032750        12451952.994447351        856885183.71480358     
   1190820288.1990674        46571957.361335814        998067229.86268032     
   1060699137.7331249        43976110.618907332        993614043.76275003     
   929031083.71822906        36223918.713303566        993484226.96816456     
   795816126.15439725        23315381.644571960        997677779.47891521     
   661054265.04160333        5250499.4126467705        1006194701.2950211     
   1036490353.7272429        56905344.342876315        1128406426.0270185     
   920813412.94291949        56716270.265275985        1124688393.5435944     
   802650127.26862180        48239379.887766480        1127202513.2026527     
   682000496.70435357        31474673.210353196        1135948785.0041943     
   558864521.25010800        6422150.2330148816        1150927208.9482141     
   1135085584.4594774        51974173.364565611        544535118.77337730     
   950609199.04073620        40856162.369044542        562480652.32827711     
   758554805.80667257        4478125.3224488199        591456032.40783930     
   558922404.75729132       -57159937.775208533        631461259.01204836     
   351711995.89258695       -144058026.92393744        682496332.14091218     
   949164796.64628983        28026510.978424311        702998656.20759594     
   790452191.92397642        11102175.561161458        720792127.15422773     
   623083403.90032625       -34676104.193901986        748713965.44002318     
   447058432.57534641       -109308328.28671858        786764171.06496823     
   262377277.94903186       -212794496.71734262        834942744.02907681     
   791154356.84032750        12451952.994447351        856885183.71480358     
   655629877.99873662       -11051403.289275616        873268720.65282702     
   510371040.36979610       -67002622.197488040        898879145.74450517     
   355377843.95350373       -155401703.73021796        933716458.98984408     
   190650288.74986085       -276248647.88743591        977780660.38883388     
   661054265.04160333        5250499.4126467705        1006194701.2950211     
   546142257.26501846       -25604574.182244539        1019910432.8240701     
   420417715.21507680       -92501428.688347399        1041951573.3212759     
   283880638.89176309       -195440064.10567674        1072318122.7866465     
   136531028.29509181       -334420480.43421364        1111010081.2201734     
   558864521.25010800        6422150.2330148816        1150927208.9482141     
   461989329.72282553       -32557337.117772609        1160717263.6679523     
   353223428.43617284       -111172523.66644388        1177931248.1703415     
   232566817.39011919       -229423409.41311854        1202569162.4553976     
   100019496.58470196       -387309994.35767752        1234631006.5231133     
   351711995.89258695       -144058026.92393744        682496332.14091218     
   277648271.82015693       -285496099.08247483        786018223.21613812     
   148865420.32294241       -609331262.65696597        905306114.43878341     
  -34636558.599068820       -1115563517.6474657        1040360005.8088561     
  -272857664.94587106       -1804192864.0539021        1191179897.3263724     
   262377277.94903186       -212794496.71734262        834942744.02907681     
   223573168.01006886       -352681658.93617892        884541379.26224530     
   140569786.07942554       -639899727.79396594        945138892.15687668     
   13367132.157084048       -1074448703.2907486        1016735282.7129580     
  -158034793.75695401       -1656328585.4265113        1099330550.9305253     
   190650288.74986085       -276248647.88743591        977780660.38883388     
   173485442.98448572       -418671005.15451825        985729204.45188653     
   122641180.66051728       -673358084.28359103        999909503.69043827     
   38117501.777949393       -1040309885.2746415        1020321558.1044934     
  -80085593.663203597       -1519526408.1276705        1046965367.6940519     
   136531028.29509181       -334420480.43421364        1111010081.2201734     
   127385096.74340057       -483464137.73751479        1089581698.7850716     
   95079604.066217780       -709706332.12582278        1069617949.0394994     
   39614550.263544798       -1013147063.5991035        1051118831.9834572     
  -39010064.664642453       -1393786332.1573861        1034084347.6169851     
   100019496.58470196       -387309994.35767752        1234631006.5231133     
   85272129.286820173       -547061056.68516660        1196098862.2617826     
   57885056.296525359       -748944471.32068264        1154264228.2040391     
   17858277.613841832       -992960238.26416075        1109127104.3498573     
  -34808206.761236191       -1279108357.5156484        1060687490.6992781     
   3114739465.4469166        130799193.11804032        1062485551.9079627     
   2969283905.5078216        61016494.048569441        1090940362.2100158     
   2829848201.0115442        11299979.788488030        1113416065.8937256     
   2696432351.9580879       -18350349.662185907        1129912662.9590950     
   2569036358.3474488       -27934494.303467989        1140430153.4061165     
   2763680566.3012486        33658469.667919993        1209062476.4543636     
   2628345266.2931280        15156582.007605910        1212836467.2595184     
   2493855893.1863513       -525549.31489753723        1218540346.6124299     
   2360212446.9809213       -13387924.299585581        1226174114.5130894     
   2227414927.6768322       -23430542.946461439        1235737770.9614959     
   2319363504.9250064       -91459702.451369524        1377213192.6870794     
   2216745593.8938336       -51901639.988739491        1350270114.0302923     
   2109799681.2225397       -26770249.659874916        1333165919.0873454     
   1998525766.9111114       -16065531.464781523        1325900607.8582425     
   1882923850.9595542       -19787485.403449535        1328474180.3429799     
   1781788281.3181818       -244555323.23983455        1566937700.6061165     
   1734484888.3099480       -140158171.94046414        1503241302.5223289     
   1677679565.1201072       -67434121.246438861        1457292783.3184743     
   1611372311.7486660       -26383171.157759726        1429092142.9945552     
   1535563128.1956160       -17005321.674437642        1418639381.5505695     
   1150954895.4807878       -425628392.69747192        1778236000.2114689     
   1181563149.5414662       -249613013.84755898        1671750032.7356312     
   1197495544.8790607       -122517164.07458198        1590920939.3058155     
   1198752081.4935749       -44340843.378546298        1535748719.9220300     
   1185332759.3850145       -15084051.759424567        1506233374.5842662     
   2569036358.3474488       -27934494.303467989        1140430153.4061165     
   2495169742.8725333       -13673350.366627932        1126670362.6070175     
   2420417211.6058311       -2365259.0690732002        1120040701.0210557     
   2344778764.5473413        5989779.5891889334        1120541168.6482401     
   2268254401.6970716        11391765.608181000        1128171765.4885499     
   2227414927.6768322       -23430542.946461439        1235737770.9614959     
   2170834249.2811756       -10178618.715280771        1219763307.7221224     
   2113690824.6032112        1197484.5748670101        1210188486.8011234     
   2055984653.6429279        10697766.923958540        1207013308.1984930     
   1997715736.4003313        18322228.331999063        1210237771.9142294     
   1882923850.9595542       -19787485.403449535        1328474180.3429799     
   1841542004.2295420       -8170912.5019997358        1310662075.7577205     
   1799920580.7266839        2647071.1566349268        1298519126.5960588     
   1758059580.4509840        12666465.572458863        1292045332.8580003     
   1715959003.4024389        21887270.745471239        1291240694.5435433     
   1535563128.1956160       -17005321.674437642        1418639381.5505695     
   1507293007.7176235       -7650231.7268075347        1399366666.7137990     
   1479106479.9762521        1983500.6762315631        1385032620.4058650     
   1451003544.9715130        11895875.534706175        1375637242.6267636     
   1422984202.7034013        22086892.848605037        1371180533.3764944     
   1185332759.3850145       -15084051.759424567        1506233374.5842662     
   1168087259.7454164       -8616576.3897085190        1485877080.5903690     
   1151248522.3519144       -793226.86634111404        1469728968.2305398     
   1134816547.2045097        8385996.8106861115        1457789037.5047746     
   1118791334.3032064        18921094.641381621        1450057288.4130754     
   2268254401.6970716        11391765.608181000        1128171765.4885499     
   2163665837.3867979        8250932.5507243872        1127549831.1844237     
   2059881721.6341732        7791594.6854306459        1129230569.5910182     
   1956902054.4391885        10013752.012270331        1133213980.7083378     
   1854726835.8018591        14917404.531294703        1139500064.5363703     
   1997715736.4003313        18322228.331999063        1210237771.9142294     
   1900456732.4042199        14255632.774270058        1207112547.7290289     
   1803764410.3345602        12077976.971381068        1207536411.6517587     
   1707638770.1913598        11789260.923353195        1211509363.6824167     
   1612079811.9746101        13389484.630166471        1219031403.8210013     
   1715959003.4024389        21887270.745471239        1291240694.5435433     
   1629590746.5696507        17963268.742210150        1285334786.0742118     
   1543551405.0321257        15135651.056495070        1284224381.1100190     
   1457840978.7898674        13404417.688330352        1287909479.6509600     
   1372459467.8428659        12769568.637696564        1296390081.6970332     
   1422984202.7034013        22086892.848605037        1371180533.3764944     
   1351067879.8830981        19373840.454562604        1362216546.2199748     
   1279242705.7268672        16964616.940765202        1359294477.9658027     
   1207508680.2347045        14859222.307189703        1362414328.6139686     
   1135865803.4066186        13057656.553875566        1371576098.1644783     
   1118791334.3032064        18921094.641381621        1450057288.4130754     
   1064888132.3445525        18487347.911310613        1437757828.1663134     
   1010838312.4187785        17564874.624172091        1432746702.2191024     
   956641874.52589083        16153674.779982805        1435023910.5714374     
   902298818.66587400        14253748.378702164        1444589453.2233264     
   1854726835.8018591        14917404.531294703        1139500064.5363703     
   1756655533.0679901        21967036.032213569        1129588552.3763409     
   1658382949.3880217        28345731.046130657        1124842293.8710315     
   1559909084.7619755        34053489.573130190        1125261289.0204442     
   1461233939.1898329        39090311.613140464        1130845537.8245883     
   1612079811.9746101        13389484.630166471        1219031403.8210013     
   1526724369.5065367        18963073.305045724        1209977914.2331448     
   1441403768.3494475        24652799.683212757        1205881227.2318013     
   1356118008.5033507        30458663.764684081        1206741342.8169696     
   1270867089.9682448        36380665.549452305        1212558260.9886460     
   1372459467.8428659        12769568.637696564        1296390081.6970332     
   1299224311.1599801        16688442.142358601        1288470090.6479461     
   1226260118.0451601        21510527.540567458        1285298451.1171579     
   1153566888.4984050        27235824.832335055        1286875163.1046715     
   1081144622.5197213        33864334.017663538        1293200226.6104884     
   1135865803.4066186        13057656.553875566        1371576098.1644783     
   1074155358.0283139        15143142.544122815        1365065081.6207504     
   1012951998.4751618        18918914.618208945        1363093965.5271089     
   952255724.74714720        24384972.776089072        1365662749.8835533     
   892066536.84428418        31541317.017807394        1372771434.6900918     
   902298818.66587400        14253748.378702164        1444589453.2233264     
   851517510.11155200        14327174.510381550        1439762887.1515470     
   801479409.63945651        16877960.916147530        1439267770.4616456     
   752184517.24957633        21906107.595968097        1443104103.1536248     
   703632832.94192576        29411614.549881488        1451271885.2274735     
   1461233939.1898329        39090311.613140464        1130845537.8245883     
   1354559610.4797254        41915961.980706215        1125160172.9329135     
   1248210903.3325918        45827017.558187604        1122858532.6694310     
   1142187817.7484324        50823478.345584750        1123940617.0341287     
   1036490353.7272429        56905344.342876315        1128406426.0270185     
   1270867089.9682448        36380665.549452305        1212558260.9886460     
   1174002224.4910765        38911137.155432642        1207726892.5819819     
   1077163608.1889827        41529106.011663675        1207125658.6712961     
   980351241.06195748        44234572.118123770        1210754559.2566009     
   883565123.11000419        47027535.474820524        1218613594.3378737     
   1081144622.5197213        33864334.017663538        1293200226.6104884     
   996507534.18350089        36825121.034494281        1288873586.9029310     
   911597322.63444459        38875497.341874331        1289623491.5591574     
   826413987.87255096        40015462.939796597        1295449940.5791686     
   740957529.89782202        40245017.828265011        1306352933.9629555     
   892066536.84428418        31541317.017807394        1372771434.6900918     
   822075539.55699873        35657913.617864698        1368600255.8957603     
   751512046.66897237        37866191.548791409        1370352031.3330073     
   680376058.18020606        38166150.810581267        1378026761.0018387     
   608667574.09070349        36557791.403246999        1391624444.9022460     
   703632832.94192576        29411614.549881488        1451271885.2274735     
   650706240.61157012        35409514.905567080        1446906899.5604756     
   596907780.29257309        38501188.632445335        1449311277.9928575     
   542237451.98492634        38686635.730492532        1458485020.5246141     
   486695255.68863654        35965856.199724391        1474428127.1557503     
   1036490353.7272429        56905344.342876315        1128406426.0270185     
   920813412.94291949        56716270.265275985        1124688393.5435944     
   802650127.26862180        48239379.887766480        1127202513.2026527     
   682000496.70435357        31474673.210353196        1135948785.0041943     
   558864521.25010800        6422150.2330148816        1150927208.9482141     
   883565123.11000419        47027535.474820524        1218613594.3378737     
   783278265.28349352        45285352.317226976        1215567014.9055083     
   680667405.83010375        35796497.070041806        1218485218.4705086     
   575732544.74983478        18560969.733253241        1227368205.0328803     
   468473682.04268974       -6421229.6931159794        1242215974.5926237     
   740957529.89782202        40245017.828265011        1306352933.9629555     
   655296843.18595231        36720552.037728429        1304167208.0552480     
   567474498.11029506        25990558.367901593        1307678895.9997985     
   477490494.67085963        8055036.8188160658        1316887997.7966149     
   385344832.86764127       -17086012.609545857        1331794513.4456899     
   608667574.09070349        36557791.403246999        1391624444.9022460     
   536869146.65029877        31021869.426797032        1390488972.9928098     
   463071404.10920846        18821563.781395495        1394783545.7905324     
   387274346.46743524       -43125.532949090004        1404508163.2954071     
   309477973.72497088       -25572198.516264006        1419662825.5074332     
   486695255.68863654        35965856.199724391        1474428127.1557503     
   427995175.67653489        28189304.484439179        1474532309.7182093     
   367458123.82683444        14289513.310491547        1479799167.8427029     
   305084100.13955718       -5733517.3220482469        1490228701.5292428     
   240873104.61467981       -31879787.413255036        1505820910.7778323     
   558864521.25010800        6422150.2330148816        1150927208.9482141     
   461989329.72282553       -32557337.117772609        1160717263.6679523     
   353223428.43617284       -111172523.66644388        1177931248.1703415     
   232566817.39011919       -229423409.41311854        1202569162.4553976     
   100019496.58470196       -387309994.35767752        1234631006.5231133     
   468473682.04268974       -6421229.6931159794        1242215974.5926237     
   390598484.36860734       -41431022.185472518        1241145675.0739031     
   302623534.97464925       -110106653.74407607        1246350742.2307432     
   204548833.86084202       -212448124.36884451        1257831176.0631206     
   96374381.027156889       -348455434.05987561        1275586976.5710595     
   385344832.86764127       -17086012.609545857        1331794513.4456899     
   323188020.16930050       -49110592.906724036        1321953310.7346201     
   252722413.79060170       -108831152.13842462        1317238911.5919931     
   173948013.73155627       -196247690.30461949        1317651316.0178077     
   86864819.992149368       -311360207.40534568        1323190524.0120604     
   309477973.72497088       -25572198.516264006        1419662825.5074332     
   259757937.12492013       -55596049.281481758        1403140170.6501064     
   203520064.88401663       -107346018.84954152        1390595756.2541115     
   140764357.00227273       -180822107.22039717        1382029582.3194494     
   71490813.479694068       -276024314.39404678        1377441648.8461206     
   240873104.61467981       -31879787.413255036        1505820910.7778323     
   200308235.23545709       -60887391.309770972        1484706254.8203509     
   155016488.25489086       -105651253.87742895        1466421276.2170904     
   104997863.67301427       -166171375.11612287        1450965974.9680502     
   50252361.489794344       -242447755.02596128        1438340351.0732374     
   100019496.58470196       -387309994.35767752        1234631006.5231133     
   85272129.286820173       -547061056.68516660        1196098862.2617826     
   57885056.296525359       -748944471.32068264        1154264228.2040391     
   17858277.613841832       -992960238.26416075        1109127104.3498573     
  -34808206.761236191       -1279108357.5156484        1060687490.6992781     
   96374381.027156889       -348455434.05987561        1275586976.5710595     
   79611709.542886645       -489659122.26828957        1221361807.3931561     
   51441154.884720147       -668889087.72302473        1164608730.7638967     
   11862717.052655160       -886145330.42409062        1105327746.6832821     
  -39123603.953306317       -1141427850.3714726        1043518855.1513076     
   86864819.992149368       -311360207.40534568        1323190524.0120604     
   70299936.735982537       -433352593.77032036        1254709456.1891546     
   43558992.824417353       -589265182.31995761        1184475063.2599797     
   6641988.2574628294       -779097973.05422580        1112487345.2245009     
  -40451076.964887202       -1002850965.9731499        1038746302.0827534     
   71490813.479694068       -276024314.39404678        1377441648.8461206     
   57336810.866107196       -378141471.19124091        1296141808.6498027     
   34238570.115630418       -510072755.11140162        1213863225.6922765     
   2196091.2282586396       -671818166.15455627        1130605899.9735341     
  -38790625.796013594       -863377704.32069099        1046369831.4935716     
   50252361.489794344       -242447755.02596128        1438340351.0732374     
   40722331.933267578       -324025754.53104401        1345658864.7751002     
   23479886.758348554       -431311806.09742576        1252773218.0608196     
  -1474974.0349597633       -564305909.72510540        1159683410.9303873     
  -34142250.446658045       -723008065.41408753        1066389443.3838024     
   1150954895.4807878       -425628392.69747192        1778236000.2114689     
   1181563149.5414662       -249613013.84755898        1671750032.7356312     
   1197495544.8790607       -122517164.07458198        1590920939.3058155     
   1198752081.4935749       -44340843.378546298        1535748719.9220300     
   1185332759.3850145       -15084051.759424567        1506233374.5842662     
   702501371.93385577       -137110297.68977147        1568062789.2546055     
   749900177.41565037       -79468316.968306899        1509696790.0310042     
   793280731.01676631       -35220509.182429582        1465906663.5764935     
   832643032.73720658       -4366874.3321419358        1436692409.8910697     
   867987082.57696724        13092587.582548261        1422054028.9747367     
   438520324.79521430        206749540.24041122        1304207039.6057746     
   471049678.04973358        136520121.73891985        1306394883.2838871     
   510218386.26597816        88421886.443178877        1312077598.4541500     
   556026449.44394755        62454834.353186741        1321255185.1165633     
   608473867.58364236        58618965.468947947        1333927643.2711282     
   359011754.06486762        605951121.09308565        986668751.26499033     
   345011651.44371676        398352302.27411580        1061844312.4942807     
   348308510.62669641        248410022.80224219        1129433743.9387891     
   368902331.61380023        156124282.67745149        1189437045.5985091     
   406793114.40503347        121495081.89975902        1241854217.4734416     
   463975659.74281150        1060494444.8682456        615447924.23225033     
   371786097.59759915        706028224.63727808        776045077.66219330     
   307551104.09891737        444743899.89474881        917975100.03041148     
   271270679.24676478        276641470.64064872        1041237991.3369075     
   262944823.04114220        201720936.87498209        1145833751.5816767     
   1185332759.3850145       -15084051.759424567        1506233374.5842662     
   1168087259.7454164       -8616576.3897085190        1485877080.5903690     
   1151248522.3519144       -793226.86634111404        1469728968.2305398     
   1134816547.2045097        8385996.8106861115        1457789037.5047746     
   1118791334.3032064        18921094.641381621        1450057288.4130754     
   867987082.57696724        13092587.582548261        1422054028.9747367     
   856133644.14978218        11441812.892122030        1421418537.1092434     
   845034068.50984240        12303914.159184098        1422596045.3254175     
   834688355.65714276        15678891.383712232        1425586553.6232586     
   825096505.59169221        21566744.565738142        1430390062.0027733     
   608473867.58364236        58618965.468947947        1333927643.2711282     
   595169114.50487626        46796927.959182680        1353417904.1653764     
   582965324.75450122        38644768.210722327        1372325983.5888944     
   571862498.33252037        34162486.223575085        1390651881.5416839     
   561860635.23892844        33350081.997723162        1408395598.0237427     
   406793114.40503347        121495081.89975902        1241854217.4734416     
   385193670.81069374        97448768.811456233        1281875181.7587681     
   365042291.08589160        78229335.288276449        1318918783.0209680     
   346338975.23063499        63836781.330249064        1352985021.2600410     
   329083723.24491066        54271106.937331975        1384073896.4759905     
   262944823.04114220        201720936.87498209        1145833751.5816767     
   226207313.06723660        163397335.44894239        1206790369.8894215     
   191264967.50402012        131057615.39186785        1262374443.6216416     
   158117786.35148960        104701776.70374563        1312585972.7783380     
   126765769.60964163        84329819.384565368        1357424957.3595102     
   1118791334.3032064        18921094.641381621        1450057288.4130754     
   1064888132.3445525        18487347.911310613        1437757828.1663134     
   1010838312.4187785        17564874.624172091        1432746702.2191024     
   956641874.52589083        16153674.779982805        1435023910.5714374     
   902298818.66587400        14253748.378702164        1444589453.2233264     
   825096505.59169221        21566744.565738142        1430390062.0027733     
   787629425.39241564        20385441.736633629        1427842930.7566316     
   750261282.20524406        19533928.947882295        1430823148.7410116     
   712992076.03018308        19012206.199498981        1439330715.9559062     
   675821806.86722672        18820273.491462052        1453365632.4013219     
   561860635.23892844        33350081.997723162        1408395598.0237427     
   535798290.88750464        29911807.296117872        1415887276.5873272     
   510080438.52741599        27621839.232294798        1427145319.3123944     
   484707078.15866953        26480177.806276888        1442169726.1989491     
   459678209.78125507        26486823.018036321        1460960497.2469907     
   329083723.24491066        54271106.937331975        1384073896.4759905     
   309394728.82982516        47066444.589778118        1401890865.6583970     
   290295781.38529938        41828605.477423869        1421713213.9332547     
   271786880.91134679        38557589.600313589        1443540941.3005681     
   253868027.40795588        37253396.958409823        1467374047.7603364     
   126765769.60964163        84329819.384565368        1357424957.3595102     
   108418739.21937096        71849353.617596015        1385853697.9698389     
   90907310.778893307        62154227.683268636        1414526832.6035907     
   74231484.288214758        55244441.581605665        1443444361.2607646     
   58391259.747326702        51119995.312577680        1472606283.9413586     
   902298818.66587400        14253748.378702164        1444589453.2233264     
   851517510.11155200        14327174.510381550        1439762887.1515470     
   801479409.63945651        16877960.916147530        1439267770.4616456     
   752184517.24957633        21906107.595968097        1443104103.1536248     
   703632832.94192576        29411614.549881488        1451271885.2274735     
   675821806.86722672        18820273.491462052        1453365632.4013219     
   636393824.90228462        18398369.733328223        1452796009.3290784     
   597161857.21565604        18629846.902907968        1456742571.9182880     
   558125903.80734158        19514705.000197172        1465205320.1689460     
   519285964.67734861        21052944.025230646        1478184254.0810561     
   459678209.78125507        26486823.018036321        1460960497.2469907     
   432131372.34732682        25727934.752562761        1464009424.4030616     
   404233355.38780928        23798448.068461552        1471759273.5001602     
   375984158.90269953        20698362.965717539        1484210044.5382769     
   347383782.89199990        16427679.444341689        1501361737.5174220     
   253868027.40795588        37253396.958409823        1467374047.7603364     
   238730152.44668418        36315869.568104357        1473403132.3735001     
   222693904.15591380        32383764.412803695        1484317875.2072549     
   205759282.53564394        25457081.492503770        1500118276.2616079     
   187926287.58588099        15535820.807228327        1520804335.5365646     
   58391259.747326702        51119995.312577680        1472606283.9413586     
   56190165.200350143        50162174.179928526        1480977133.2403846     
   52543503.519965872        44385795.935921758        1494418377.0395784     
   47451274.706179589        33790860.580575287        1512930015.3389447     
   40913478.758990318        18377368.113883428        1536512048.1384788     
   703632832.94192576        29411614.549881488        1451271885.2274735     
   650706240.61157012        35409514.905567080        1446906899.5604756     
   596907780.29257309        38501188.632445335        1449311277.9928575     
   542237451.98492634        38686635.730492532        1458485020.5246141     
   486695255.68863654        35965856.199724391        1474428127.1557503     
   519285964.67734861        21052944.025230646        1478184254.0810561     
   481302512.17845583        22834621.825511143        1477011266.8692586     
   443114139.54582191        23933232.513323680        1481536612.9412222     
   404720846.77944422        24348776.088652909        1491760292.2969508     
   366122633.87931538        24081252.551483691        1507682304.9364436     
   347383782.89199990        16427679.444341689        1501361737.5174220     
   321283382.17995906        13075108.275835454        1504158854.5915360     
   295645009.18907940        11262629.511197105        1511583274.1338015     
   270468663.91935796        10990243.150421813        1523634996.1442187     
   245754346.37079182        12257949.193495631        1540314020.6227856     
   187926287.58588099        15535820.807228327        1520804335.5365646     
   170648850.61608285        6130974.2565450743        1528349662.7273133     
   154500389.22235024        489379.62608160079        1539451261.5705974     
   139480903.40467298       -1388963.0841970891        1554109132.0664217     
   125590393.16306056        495946.12573857605        1572323274.2147861     
   40913478.758990318        18377368.113883428        1536512048.1384788     
   29398917.486828346        2002219.7676512096        1549583691.2765810     
   19680279.645631120       -8386517.1420325479        1565140575.2516103     
   11757565.235397406       -12788842.615171961        1583182700.0635593     
   5630774.2561201118       -11204756.651787890        1603710065.7124381     
   486695255.68863654        35965856.199724391        1474428127.1557503     
   427995175.67653489        28189304.484439179        1474532309.7182093     
   367458123.82683444        14289513.310491547        1479799167.8427029     
   305084100.13955718       -5733517.3220482469        1490228701.5292428     
   240873104.61467981       -31879787.413255036        1505820910.7778323     
   366122633.87931538        24081252.551483691        1507682304.9364436     
   321881836.57547307        19505147.944743752        1505929199.8689456     
   276121252.31846368        9863086.8274401724        1509397379.6822510     
   228840881.10828027       -4844930.8004408777        1518086844.3763518     
   180040722.94493133       -24618904.938875146        1531997593.9512587     
   245754346.37079182        12257949.193495631        1540314020.6227856     
   216140286.97165942        10932528.254232801        1537073676.9571624     
   185323625.50378075        5598433.7524809614        1539113227.4910955     
   153304361.96715024       -3744334.3117763326        1546432672.2245841     
   120082496.36177446       -17095775.938517757        1559032011.1576340     
   125590393.16306056        495946.12573857605        1572323274.2147861     
   110770526.86508690        2471445.4128891602        1567965740.9828591     
   95065243.382790416        1495554.0856299587        1568946711.2692432     
   78474542.716159672       -2431727.8560765050        1575266185.0739481     
   60998424.865205668       -9310400.4121939465        1586924162.3969629     
   5630774.2561201118       -11204756.651787890        1603710065.7124381     
   5772556.2557583163       -5878100.5792779531        1598605391.9460251     
   5346105.9554958101       -2445552.1731023309        1598897831.0166948     
   4351423.3553144541       -907111.43332391838        1604587382.9244316     
   2788508.4552353597       -1262778.3598706012        1615674047.6692431     
   240873104.61467981       -31879787.413255036        1505820910.7778323     
   200308235.23545709       -60887391.309770972        1484706254.8203509     
   155016488.25489086       -105651253.87742895        1466421276.2170904     
   104997863.67301427       -166171375.11612287        1450965974.9680502     
   50252361.489794344       -242447755.02596128        1438340351.0732374     
   180040722.94493133       -24618904.938875146        1531997593.9512587     
   149031661.33992693       -46692712.974346578        1506426299.0230572     
   114506894.68947858       -80485537.827968642        1483775841.3682618     
   76466422.993601799       -125997379.49968338        1464046220.9868569     
   34910246.252288483       -183228237.98951989        1447237437.8788610     
   120082496.36177446       -17095775.938517757        1559032011.1576340     
   98889699.442925781       -32157651.039370120        1530417111.9072611     
   75392370.034532309       -54901301.105367675        1504814209.8494678     
   49590508.136594459       -85326726.136515498        1482223304.9842491     
   21484113.749119133       -123433926.13278760        1462644397.3116074     
   60998424.865205668       -9310400.4121939465        1586924162.3969629     
   49882349.544448704       -17282205.504846450        1556678693.4729600     
   37672914.290051669       -28898543.709630776        1529536381.6607089     
   24370119.101991307       -44159415.026629798        1505497226.9602139     
   9973963.9802947678       -63064819.455746777        1484561229.3714752     
   2788508.4552353597       -1262778.3598706012        1615674047.6692431     
   2009611.6445113595       -2066376.3707308755        1585211043.7201507     
   1348527.4560389426       -2477265.6407518447        1557942356.8019898     
   805255.88979553105       -2495446.1700098095        1533867986.9147666     
   379796.94581353921       -2120917.9583963752        1512987934.0584714     
   50252361.489794344       -242447755.02596128        1438340351.0732374     
   40722331.933267578       -324025754.53104401        1345658864.7751002     
   23479886.758348554       -431311806.09742576        1252773218.0608196     
  -1474974.0349597633       -564305909.72510540        1159683410.9303873     
  -34142250.446658045       -723008065.41408753        1066389443.3838024     
   34910246.252288483       -183228237.98951989        1447237437.8788610     
   30434936.384640455       -243495084.41904014        1347021519.3111236     
   20138904.308516726       -323164338.21014881        1245980048.6720028     
   4022150.0239198208       -422235999.36282778        1144113025.9615047     
  -17915326.469154984       -540710067.87711084        1041420451.1796310     
   21484113.749119133       -123433926.13278760        1462644397.3116074     
   20288118.841119014       -162922240.90551451        1357101022.1191709     
   15163095.134558365       -215507318.34011066        1250110703.2001154     
   6109042.6294351816       -281189158.43657631        1141673440.5544550     
  -6874038.6742469519       -359967761.19491273        1031789234.1821830     
   9973963.9802947678       -63064819.455746777        1484561229.3714752     
   10281879.302705627       -82307223.990458190        1375897373.1992369     
   8552459.2364735827       -108340746.48731661        1265165181.6451561     
   4785703.7815964222       -141165386.94632262        1152364654.7092342     
  -1018387.0619300902       -180781145.36749196        1037495792.3914593     
   379796.94581353921       -2120917.9583963752        1512987934.0584714     
   416217.76940360875       -1650033.6738617790        1403410572.5513377     
   306996.61426586297       -1664622.6517511522        1291143484.0071182     
   52133.480396435945       -2164684.8920818917        1176186668.4258354     
  -348371.63220414612       -3150220.3948484273        1058540125.8074679     
   463975659.74281150        1060494444.8682456        615447924.23225033     
   371786097.59759915        706028224.63727808        776045077.66219330     
   307551104.09891737        444743899.89474881        917975100.03041148     
   271270679.24676478        276641470.64064872        1041237991.3369075     
   262944823.04114220        201720936.87498209        1145833751.5816767     
   254144930.99266028        572518496.42609406        1006953933.1437329     
   180317830.92433450        393357532.69042802        1108174578.6605999     
   120248236.44765647        260054920.92692593        1201732266.8763423     
   73936147.562633753        172610661.13560763        1287626997.7909608     
   41381564.269263163        131024753.31645958        1365858771.4044514     
  -210573335.18314984        8076286.7562497407        1472047915.1983392     
  -234597476.71574038        13652728.453527302        1497328812.5714433     
  -259061175.71155521        17763978.606721595        1525950926.4040184     
  -283964432.17059439        20410037.215835795        1557914256.6960669     
  -309307246.09285897        21590904.280864134        1593218803.4475923     
  -930179138.78462195       -632832184.14129567        2010729870.3960733     
  -872959825.32262003       -433086188.07341433        1943507779.3947191     
  -830377132.37871826       -282128927.06586671        1890631078.6134384     
  -802431059.95291996       -179960401.11866277        1852099768.0522308     
  -789121608.04522347       -126580610.23180234        1827913847.7110934     
  -1904672479.8117530       -1350206916.2665386        2622999798.7369308     
  -1734769214.8963032       -946859216.89039207        2446711479.1304297     
  -1593699633.5538356       -639623796.09084880        2295772723.5046024     
  -1481463735.7843442       -428500653.86789286        2170183531.8594475     
  -1398061521.5878339       -313489790.22154593        2069943904.1949606     
   262944823.04114220        201720936.87498209        1145833751.5816767     
   226207313.06723660        163397335.44894239        1206790369.8894215     
   191264967.50402012        131057615.39186785        1262374443.6216416     
   158117786.35148960        104701776.70374563        1312585972.7783380     
   126765769.60964163        84329819.384565368        1357424957.3595102     
   41381564.269263163        131024753.31645958        1365858771.4044514     
   3158700.8173212186        109238127.98786961        1385805697.4259009     
  -34645997.981354490        88845384.836835444        1406166363.1711257     
  -72032532.126765013        69846523.863351375        1426940768.6401274     
  -109000901.61891153        52241545.067413315        1448128913.8329062     
  -309307246.09285897        21590904.280864134        1593218803.4475923     
  -332483222.16769624        21300927.306258693        1570549537.4657536     
  -356618033.34668404        17814833.317816943        1554080295.5069923     
  -381711679.62982994        11132622.315514132        1543811077.5713084     
  -407764161.01712918        1254294.2993668914        1539741883.6587017     
  -789121608.04522347       -126580610.23180234        1827913847.7110934     
  -780718455.88780844       -100414266.59587023        1761021890.0089796     
  -774651138.59196889       -82034039.165191621        1706116240.6292412     
  -770919656.15770316       -71439927.939759016        1663196899.5718827     
  -769524008.58501375       -68631932.919582069        1632263866.8369014     
  -1398061521.5878339       -313489790.22154593        2069943904.1949606     
  -1341547000.3430252       -255907453.71854550        1957222755.0555775     
  -1288745313.7172062       -210701232.61217761        1862274198.5378735     
  -1239656461.7103910       -177871126.90248773        1785098234.6418447     
  -1194280444.3225653       -157417136.58943120        1725694863.3674974     
   126765769.60964163        84329819.384565368        1357424957.3595102     
   108418739.21937096        71849353.617596015        1385853697.9698389     
   90907310.778893307        62154227.683268636        1414526832.6035907     
   74231484.288214758        55244441.581605665        1443444361.2607646     
   58391259.747326702        51119995.312577680        1472606283.9413586     
  -109000901.61891153        52241545.067413315        1448128913.8329062     
  -121606866.43554848        43027470.073101155        1456755394.5503793     
  -133917469.04899412        34797935.756096534        1468799903.0458388     
  -145932709.45924258        27552942.116413876        1484262439.3192899     
  -157652587.66629905        21292489.154038548        1503143003.3707314     
  -407764161.01712918        1254294.2993668914        1539741883.6587017     
  -405561535.24708670       -1973132.4183776677        1527935824.7789505     
  -403603787.02045035       -6016817.6141424626        1522721427.4317551     
  -401890916.33722115       -10876761.287934154        1524098691.6171145     
  -400422923.19739777       -16552963.439742461        1532067617.3350346     
  -769524008.58501375       -68631932.919582069        1632263866.8369014     
  -743445267.21524537       -63152453.856851786        1599394988.6555567     
  -718151643.13547659       -60290032.427454323        1576291405.7613373     
  -693643136.34572041       -60044668.631431788        1562953118.1542418     
  -669919746.84597349       -62416362.468773246        1559380125.8342676     
  -1194280444.3225653       -157417136.58943120        1725694863.3674974     
  -1135258062.3400166       -140510494.24229467        1671132886.1801951     
  -1077561037.3940735       -128021708.68383905        1629509838.0345848     
  -1021189369.4847442       -119950779.91409886        1600825718.9306643     
  -966143058.61201882       -116297707.93303820        1585080528.8684323     
   58391259.747326702        51119995.312577680        1472606283.9413586     
   56190165.200350143        50162174.179928526        1480977133.2403846     
   52543503.519965872        44385795.935921758        1494418377.0395784     
   47451274.706179589        33790860.580575287        1512930015.3389447     
   40913478.758990318        18377368.113883428        1536512048.1384788     
  -157652587.66629905        21292489.154038548        1503143003.3707314     
  -146127496.39492342        21452692.663400516        1501011316.0054321     
  -135262273.50596184        19413334.898047246        1504109832.9289997     
  -125056918.99939913        15174415.858032450        1512438554.1414337     
  -115511432.87524357        8735935.5433261469        1525997479.6427374     
  -400422923.19739777       -16552963.439742461        1532067617.3350346     
  -374715046.71139896       -15137755.469503090        1520350041.8482416     
  -348881339.85680717       -13303112.937288374        1514022480.4390159     
  -322921802.63362277       -11049035.843097001        1513084933.1073523     
  -296836435.04184574       -8375524.1869316399        1517537399.8532515     
  -669919746.84597349       -62416362.468773246        1559380125.8342676     
  -629572485.74907053       -59609170.218757987        1538993310.7688153     
  -588313695.53257918       -53763547.570115745        1524156319.5696206     
  -546143376.19649196       -44879494.522820219        1514869152.2366920     
  -503061527.74081910       -32957011.076905742        1511131808.7700181     
  -966143058.61201882       -116297707.93303820        1585080528.8684323     
  -910699813.50793982       -111961551.58437556        1556941122.7671525     
  -853559340.53327036       -101967969.00041059        1534511350.3208261     
  -794721639.68800783       -86316960.181137025        1517791211.5294561     
  -734186710.97216201       -65008525.126584083        1506780706.3930430     
   40913478.758990318        18377368.113883428        1536512048.1384788     
   29398917.486828346        2002219.7676512096        1549583691.2765810     
   19680279.645631120       -8386517.1420325479        1565140575.2516103     
   11757565.235397406       -12788842.615171961        1583182700.0635593     
   5630774.2561201118       -11204756.651787890        1603710065.7124381     
  -115511432.87524357        8735935.5433261469        1525997479.6427374     
  -115941275.68984221       -521180.25110847503        1532810346.2104793     
  -115596549.10979393       -7196398.0633871146        1544022055.5505469     
  -114477253.13510418       -11289717.893528886        1559632607.6629415     
  -112583387.76576501       -12801139.741505593        1579642002.5476584     
  -296836435.04184574       -8375524.1869316399        1517537399.8532515     
  -280714125.29774183       -8874377.1992385685        1516899910.1416011     
  -264838600.19530830       -10195845.683780953        1522574865.1376748     
  -249209859.73454520       -12339929.640560761        1534562264.8414743     
  -233827903.91544873       -15306629.069559529        1552862109.2530000     
  -503061527.74081910       -32957011.076905742        1511131808.7700181     
  -464919631.33687055       -23057371.076743171        1501852383.0699377     
  -428045873.61090553       -17384860.003193423        1500799004.0129867     
  -392440254.56292641       -15939477.856261492        1507971671.5991559     
  -358102774.19293529       -18721224.635959342        1523370385.8284543     
  -734186710.97216201       -65008525.126584083        1506780706.3930430     
  -668557793.80722427       -43070161.883601993        1487667764.9955034     
  -605218369.35658991       -28763441.021635383        1478694472.1764829     
  -544168437.62025762       -22088362.540674686        1479860827.9359913     
  -485407998.59822166       -23044926.440699100        1491166832.2740173     
   5630774.2561201118       -11204756.651787890        1603710065.7124381     
   5772556.2557583163       -5878100.5792779531        1598605391.9460251     
   5346105.9554958101       -2445552.1731023309        1598897831.0166948     
   4351423.3553144541       -907111.43332391838        1604587382.9244316     
   2788508.4552353597       -1262778.3598706012        1615674047.6692431     
  -112583387.76576501       -12801139.741505593        1579642002.5476584     
  -98742331.320907578       -9146416.6875388026        1573366614.8302124     
  -84632775.537125021       -4596695.8371553048        1572617848.3916764     
  -70254720.414398730        848022.80970711261        1577395703.2320569     
  -55608165.952741094        7187739.2530080937        1587700179.3513458     
  -233827903.91544873       -15306629.069559529        1552862109.2530000     
  -205917548.90583682       -13212831.798313625        1546392194.4964890     
  -176901962.91844478       -7434931.2678029612        1545578409.4607399     
  -146781145.95327660        2027072.5219625086        1550420754.1457441     
  -115555098.01032779        15173179.570997059        1560919228.5515044     
  -358102774.19293529       -18721224.635959342        1523370385.8284543     
  -315753096.49901062       -18077345.911537677        1517682130.9448662     
  -271461456.18847191       -10960258.465070322        1517779514.2238832     
  -225227853.26130921        2630037.7034779340        1523662535.6654904     
  -177052287.71752188        22693542.594107136        1535331195.2697024     
  -485407998.59822166       -23044926.440699100        1491166832.2740173     
  -428248974.10044223       -23739959.027255714        1487236424.1753404     
  -368311255.34719676       -15172677.428928703        1489221162.6811006     
  -305594842.33849281        2656918.3542626351        1497121047.7913048     
  -240099735.07432401        29748828.322334811        1510936079.5059397     
   2788508.4552353597       -1262778.3598706012        1615674047.6692431     
   2009611.6445113595       -2066376.3707308755        1585211043.7201507     
   1348527.4560389426       -2477265.6407518447        1557942356.8019898     
   805255.88979553105       -2495446.1700098095        1533867986.9147666     
   379796.94581353921       -2120917.9583963752        1512987934.0584714     
  -55608165.952741094        7187739.2530080937        1587700179.3513458     
  -45767318.478376888        14312749.280367523        1557438585.8991785     
  -34726614.949364595        25437279.489885140        1530322030.7034752     
  -22486055.365729637        40561329.881479219        1506350513.7642384     
  -9045639.7274512313        59684900.455218434        1485524035.0814724     
  -115555098.01032779        15173179.570997059        1560919228.5515044     
  -95235302.749339849        30184558.687055163        1532121429.6007082     
  -72633608.001318574        52802269.426556163        1506419390.1319118     
  -47750013.766280651        83026311.789446950        1483813110.1451187     
  -20584520.044208452        120856685.77578217        1464302589.6403306     
  -177052287.71752188        22693542.594107136        1535331195.2697024     
  -146394341.16838118        45549051.849320129        1509259574.8247366     
  -112372451.69981933        79617704.169270217        1486234435.0873046     
  -74986619.311846256        124899499.55392376        1466255776.0574076     
  -34236844.004456677        181394438.00330028        1449323597.7350652     
  -240099735.07432401        29748828.322334811        1510936079.5059397     
  -199244433.73550642        60406228.767146602        1488853021.5712578     
  -153943146.04487014        105883583.71801928        1469767165.5696521     
  -104195872.00244223        166180893.17486477        1453678511.5011146     
  -50002611.608196080        241298157.13777101        1440587059.3656585     
   379796.94581353921       -2120917.9583963752        1512987934.0584714     
   416217.76940360875       -1650033.6738617790        1403410572.5513377     
   306996.61426586297       -1664622.6517511522        1291143484.0071182     
   52133.480396435945       -2164684.8920818917        1176186668.4258354     
  -348371.63220414612       -3150220.3948484273        1058540125.8074679     
  -9045639.7274512313        59684900.455218434        1485524035.0814724     
  -9430552.2322562411        79292073.479364261        1376522967.9999473     
  -7961781.7411684915        105078189.82315576        1265471458.7629747     
  -4639328.2541662753        137043249.48666108        1152369507.3705573     
   536808.22874434292        175187252.46986008        1037217113.8226937     
  -20584520.044208452        120856685.77578217        1464302589.6403306     
  -19564237.644191526        160148106.00947767        1358210362.7881637     
  -14690947.273631021        212282886.14498669        1250706978.6621747     
  -5964648.9325325936        277261026.18228602        1141792437.2623713     
   6614657.3791078031        355082526.12139302        1031466738.5887429     
  -34236844.004456677        181394438.00330028        1449323597.7350652     
  -29984838.466387108        240918063.91652799        1348472756.9159935     
  -19880499.983140469        319949466.31368065        1246850043.7047234     
  -3923828.5547183752        418488645.19475365        1144455458.1012661     
   17885175.818881303        536535600.55974901        1041289000.1056257     
  -50002611.608196080        241298157.13777101        1440587059.3656585     
  -40692354.698852077        321601947.20048422        1347310150.3834176     
  -23530439.869682938        428077930.32928467        1253900653.8906238     
   1483132.8792853355        560726106.52407968        1160358569.8872709     
   34348363.548069507        719546475.78492939        1066683898.3733525     
  -1904672479.8117530       -1350206916.2665386        2622999798.7369308     
  -1734769214.8963032       -946859216.89039207        2446711479.1304297     
  -1593699633.5538356       -639623796.09084880        2295772723.5046024     
  -1481463735.7843442       -428500653.86789286        2170183531.8594475     
  -1398061521.5878339       -313489790.22154593        2069943904.1949606     
  -2483317914.6280169       -790346600.65789175        2071418016.4415026     
  -2323733240.6128531       -591135795.95309258        1964235125.7935927     
  -2176617260.1880817       -433487303.21627247        1870873807.7043362     
  -2041969973.3537025       -317401122.44742930        1791334062.1737325     
  -1919791380.1097202       -242877253.64656860        1725615889.2017751     
  -2779213412.2588406       -145661303.89361095        1432966406.3736956     
  -2662884447.4925909       -160468529.36474764        1413981432.9973948     
  -2542659186.3341494       -162288100.19524586        1397290040.7577286     
  -2418537628.7835131       -151120016.38509953        1382892229.6546919     
  -2290519774.8406882       -126964277.93431211        1370787999.6882844     
  -2792358972.7042236        583848974.02630091        707644968.53350401     
  -2752222835.5355201        345142582.87463403        795950400.74183500     
  -2691825411.9920359        173973812.97223675        875021422.66477287     
  -2611166702.0737753        70342664.319097400        944858034.30232120     
  -2510246705.7807355        34249136.915216923        1005460235.6544805     
  -2522754595.9641662        1398184233.1018453       -104546297.07905945     
  -2591748404.7416353        925697540.76507330        110142029.02691318     
  -2624115937.1617451        575298436.28616893        304067953.42547464     
  -2619857193.2244887        346986919.66515172        477231476.11662620     
  -2578972172.9298639        240762990.90202498        629632597.10036659     
  -1398061521.5878339       -313489790.22154593        2069943904.1949606     
  -1341547000.3430252       -255907453.71854550        1957222755.0555775     
  -1288745313.7172062       -210701232.61217761        1862274198.5378735     
  -1239656461.7103910       -177871126.90248773        1785098234.6418447     
  -1194280444.3225653       -157417136.58943120        1725694863.3674974     
  -1919791380.1097202       -242877253.64656860        1725615889.2017751     
  -1830835586.5333769       -200906177.84034634        1658672050.8776035     
  -1744302936.5717015       -167012247.41635150        1602513043.4244995     
  -1660193430.2246988       -141195462.37459874        1557138866.8424611     
  -1578507067.4923663       -123455822.71508050        1522549521.1314898     
  -2290519774.8406882       -126964277.93431211        1370787999.6882844     
  -2189087742.5059876       -106593972.89683223        1351126111.6843703     
  -2088789162.7816312       -90001843.227162480        1335261292.8009095     
  -1989624035.6676166       -77187888.925299406        1323193543.0379052     
  -1891592361.1639502       -68152109.991261482        1314922862.3953564     
  -2510246705.7807355        34249136.915216923        1005460235.6544805     
  -2416303468.2608538        27029161.112008810        1034584937.4758670     
  -2322203992.3469930        20329979.955401897        1060518946.6671031     
  -2227948278.0391474        14151593.445412755        1083262263.2281787     
  -2133536325.3373215        8494001.5820199251        1102814887.1590998     
  -2578972172.9298639        240762990.90202498        629632597.10036659     
  -2512482763.7979779        199963224.18617094        709048528.25210500     
  -2444547425.2677865        163983222.13133609        778286005.02307963     
  -2375166157.3392830        132822984.73754406        837345027.41328442     
  -2304338960.0124741        106482512.00476336        886225595.42272210     
  -1194280444.3225653       -157417136.58943120        1725694863.3674974     
  -1135258062.3400166       -140510494.24229467        1671132886.1801951     
  -1077561037.3940735       -128021708.68383905        1629509838.0345848     
  -1021189369.4847442       -119950779.91409886        1600825718.9306643     
  -966143058.61201882       -116297707.93303820        1585080528.8684323     
  -1578507067.4923663       -123455822.71508050        1522549521.1314898     
  -1491406050.6637175       -109129545.99578005        1489748065.4866397     
  -1405203489.6725578       -97798122.068111420        1466202099.6727598     
  -1319899384.5188947       -89461550.932094216        1451911623.6898396     
  -1235493735.2027175       -84119832.587702930        1446876637.5378864     
  -1891592361.1639502       -68152109.991261482        1314922862.3953564     
  -1786936821.5198452       -59563432.508985996        1304379979.6919301     
  -1682752836.5141113       -52546603.821290255        1299409147.6087449     
  -1579040406.1467583       -47101623.928193271        1300010366.1458001     
  -1475799530.4177790       -43228492.829673052        1306183635.3030951     
  -2133536325.3373215        8494001.5820199251        1102814887.1590998     
  -2021850374.9083974        8187846.2180870771        1115028628.7960644     
  -1910209077.9187360        7732846.0566124916        1129130981.8425465     
  -1798612434.3683362        7129001.0975948572        1145121946.2985396     
  -1687060444.2571983        6376311.3410443068        1163001522.1640489     
  -2304338960.0124741        106482512.00476336        886225595.42272210     
  -2196146710.8293834        94124290.185410023        921694012.79904497     
  -2087572213.8864360        83040227.565581679        955367602.37415969     
  -1978615469.1836371        73230324.145255208        987246364.14806068     
  -1869276476.7209795        64694579.924460053        1017330298.1207503     
  -966143058.61201882       -116297707.93303820        1585080528.8684323     
  -910699813.50793982       -111961551.58437556        1556941122.7671525     
  -853559340.53327036       -101967969.00041059        1534511350.3208261     
  -794721639.68800783       -86316960.181137025        1517791211.5294561     
  -734186710.97216201       -65008525.126584083        1506780706.3930430     
  -1235493735.2027175       -84119832.587702930        1446876637.5378864     
  -1166859117.1238432       -83305399.982614279        1430265883.4504437     
  -1097191522.1314845       -79047710.999255776        1418905411.1679399     
  -1026490950.2256662       -71346765.637692511        1412795220.6903782     
  -954757401.40637374       -60202563.897883207        1411935312.0177612     
  -1475799530.4177790       -43228492.829673052        1306183635.3030951     
  -1395285973.2212849       -46329514.125306189        1300326573.7795141     
  -1314403690.0684338       -48201448.899752319        1299260442.2108636     
  -1233152680.9592252       -48844297.153008401        1302985240.5971413     
  -1151532945.8936663       -48258058.885089993        1311500968.9383514     
  -1687060444.2571983        6376311.3410443068        1163001522.1640489     
  -1595980381.8002694       -1033894.0124684572        1167123193.7543657     
  -1505195844.3441021       -9429182.7018557787        1175576443.4495988     
  -1414706831.8886948       -18809554.727105737        1188361271.2497489     
  -1324513344.4340465       -29175010.088224649        1205477677.1548164     
  -1869276476.7209795        64694579.924460053        1017330298.1207503     
  -1768942342.8607974        52581460.355909705        1030655743.3749979     
  -1669567984.9584889        37269087.594441891        1047853414.8841461     
  -1571153403.0140615        18757461.640038729        1068923312.6481971     
  -1473698597.0275130       -2953417.5072918534        1093865436.6671476     
  -734186710.97216201       -65008525.126584083        1506780706.3930430     
  -668557793.80722427       -43070161.883601993        1487667764.9955034     
  -605218369.35658991       -28763441.021635383        1478694472.1764829     
  -544168437.62025762       -22088362.540674686        1479860827.9359913     
  -485407998.59822166       -23044926.440699100        1491166832.2740173     
  -954757401.40637374       -60202563.897883207        1411935312.0177612     
  -868176169.76278377       -45167387.878597468        1397711354.3317564     
  -782999341.78068876       -34813557.397625476        1391057956.2562764     
  -699226917.46008539       -29141072.454957604        1391975117.7913177     
  -616858896.80096483       -28149933.050571948        1400462838.9368787     
  -1151532945.8936663       -48258058.885089993        1311500968.9383514     
  -1051339653.9657246       -42328146.347807348        1303198598.8588336     
  -951665676.64646077       -38129282.506117463        1299897699.4218385     
  -852511013.93587708       -35661467.360029668        1301598270.6273601     
  -753875665.83397162       -34924700.909533888        1308300312.4754012     
  -1324513344.4340465       -29175010.088224649        1205477677.1548164     
  -1218048246.4160409       -34552437.291219890        1204129498.5767350     
  -1111217373.9539068       -38710616.347111642        1205213701.6731625     
  -1004020727.0476391       -41649547.255896211        1208730286.4441149     
  -896458305.69723463       -43369230.017557681        1214679252.8895807     
  -1473698597.0275130       -2953417.5072918534        1093865436.6671476     
  -1368301947.1137426       -21840260.708861351        1100504053.4854472     
  -1261654433.7030258       -36557558.920607805        1107005963.0102577     
  -1153756056.7953687       -47105312.142553031        1113371165.2415826     
  -1044606816.3907661       -53483520.374682009        1119599660.1794181     
  -485407998.59822166       -23044926.440699100        1491166832.2740173     
  -428248974.10044223       -23739959.027255714        1487236424.1753404     
  -368311255.34719676       -15172677.428928703        1489221162.6811006     
  -305594842.33849281        2656918.3542626351        1497121047.7913048     
  -240099735.07432401        29748828.322334811        1510936079.5059397     
  -616858896.80096483       -28149933.050571948        1400462838.9368787     
  -544226613.25969326       -28209126.850894064        1397706637.3325243     
  -468956703.24552214       -19476232.408218488        1400791064.0526671     
  -391049166.75843114       -1951249.7224716842        1409716119.0973091     
  -310504003.79843390        24365821.206286460        1424481802.4664519     
  -753875665.83397162       -34924700.909533888        1308300312.4754012     
  -665983032.62046838       -34411928.735007912        1306553738.2857213     
  -575593840.71661270       -25577294.259310365        1310573274.1406014     
  -482708090.12239730       -8420797.4824141860        1320358920.0400426     
  -387325780.83782780        17057561.595666230        1335910675.9840436     
  -896458305.69723463       -43369230.017557681        1214679252.8895807     
  -793518232.18276179       -42348364.679591477        1213777727.0349298     
  -688222667.76047742       -33475862.982248217        1218567792.9449022     
  -580571612.43039262       -16751724.925565511        1229049450.6194980     
  -470565066.19250321        7824049.4904515445        1245222700.0587120     
  -1044606816.3907661       -53483520.374682009        1119599660.1794181     
  -926832211.94656026       -52018434.684576571        1119378603.5801592     
  -806843184.37711442       -43171938.577009439        1124774620.4655778     
  -684639733.68241453       -26944032.051926047        1135787710.8356845     
  -560221859.86246228       -3334715.1093348861        1152417874.6904624     
  -240099735.07432401        29748828.322334811        1510936079.5059397     
  -199244433.73550642        60406228.767146602        1488853021.5712578     
  -153943146.04487014        105883583.71801928        1469767165.5696521     
  -104195872.00244223        166180893.17486477        1453678511.5011146     
  -50002611.608196080        241298157.13777101        1440587059.3656585     
  -310504003.79843390        24365821.206286460        1424481802.4664519     
  -260374788.89274371        55199191.822321653        1407003447.6763206     
  -203889079.07299656        107220878.81854618        1393621062.1188903     
  -141046874.33919379        180430882.19495296        1384334645.7941515     
  -71848174.691329703        274829201.95157039        1379144198.7021253     
  -387325780.83782780        17057561.595666230        1335910675.9840436     
  -324783317.22348177        49008702.925446495        1325265950.9944167     
  -253973850.13282785        108516522.50958163        1319815962.5371172     
  -174897379.56586939        195581020.34807068        1319560710.6121438     
  -87553905.522604629        310202196.44091403        1324500195.2194939     
  -470565066.19250321        7824049.4904515445        1245222700.0587120     
  -392470018.72770846        41834762.076538056        1243640531.5255547     
  -304197459.22436982        109770514.79110719        1248351866.8243461     
  -205747387.68247065        211631307.63421392        1259356705.9550865     
  -97119804.102022886        347417140.60580802        1276655048.9177806     
  -560221859.86246228       -3334715.1093348861        1152417874.6904624     
  -463434893.40544796        33677369.275545806        1162127189.2697246     
  -354559906.34762621        110982855.66311011        1179228774.9805641     
  -233596898.68899685        228581744.05336764        1203722631.8229759     
  -100545870.42956969        386474034.44629008        1235608759.7969663     
  -50002611.608196080        241298157.13777101        1440587059.3656585     
  -40692354.698852077        321601947.20048422        1347310150.3834176     
  -23530439.869682938        428077930.32928467        1253900653.8906238     
   1483132.8792853355        560726106.52407968        1160358569.8872709     
   34348363.548069507        719546475.78492939        1066683898.3733525     
  -71848174.691329703        274829201.95157039        1379144198.7021253     
  -57653069.974515527        376069767.48476839        1297462204.4087169     
  -34423257.365646034        507426025.99149346        1214838809.2922704     
  -2158736.8647395968        668897977.47168314        1131274013.3527899     
   39140491.528223991        860485621.92537808        1046767816.5902584     
  -87553905.522604629        310202196.44091403        1324500195.2194939     
  -70784848.176834524        431686268.89104927        1255793340.5825241     
  -43798032.966771245        587229534.22216702        1185336271.8100381     
  -6593459.8924320340        776831992.43420649        1113128988.9020321     
   40828871.046187162        1000493643.5271695        1039171491.8585131     
  -97119804.102022886        347417140.60580802        1276655048.9177806     
  -80087689.305794209        488451451.41936785        1222303558.9048548     
  -51654766.673065126        667488455.02127671        1165393041.4439323     
  -11821036.203805745        884528151.41161525        1105923496.5350158     
   39413502.101960123        1139570540.5903034        1043894924.1780912     
  -100545870.42956969        386474034.44629008        1235608759.7969663     
  -85561593.361424506        546365315.06963205        1196992859.3756921     
  -57993458.484515250        748202788.38886273        1155009118.1939392     
  -17841465.798854351        991986454.40393066        1109657536.2517154     
   34894384.695542753        1277716313.1147807        1060938113.5490130     
  -2522754595.9641662        1398184233.1018453       -104546297.07905945     
  -2591748404.7416353        925697540.76507330        110142029.02691318     
  -2624115937.1617451        575298436.28616893        304067953.42547464     
  -2619857193.2244887        346986919.66515172        477231476.11662620     
  -2578972172.9298639        240762990.90202498        629632597.10036659     
  -2614114811.6886396        960464346.15855467        100519024.99456431     
  -2664149268.4197321        679711303.14287758        266110340.11974728     
  -2694815621.3430285        463518606.15317678        422801947.14469665     
  -2706113870.4585333        311886255.18945467        570593846.06939733     
  -2698044015.7662454        224814250.25170863        709486036.89385545     
  -2956022873.7389593        447580105.31750906        387207708.12229937     
  -2953204568.1174765        368728734.71478713        483567477.62553477     
  -2948276331.2377691        296910468.30614543        582890232.63569677     
  -2941238163.0998383        232125306.09157646        685175973.15278471     
  -2932090063.7036896        174373248.07108009        790424699.17679799     
  -3548478782.1151171       -140468489.42128849        755519752.30415452     
  -3458914303.8348656       -7250164.5191926956        762513441.54427016     
  -3384498066.8459597        75474022.745075941        784332809.89848578     
  -3325230071.1484017        107704072.37151718        820977857.36679065     
  -3281110316.7421889        89439984.360133171        872448583.94919133     
  -4391482536.8171206       -803681438.05783772        1205455157.5401225     
  -4181278475.5718999       -448225394.55906641        1102948231.8759584     
  -4003480828.1676011       -200790730.53002381        1027129678.9330560     
  -3858089594.6042199       -61377445.970710278        977999498.71141374     
  -3745104774.8817582       -29985540.881134510        955557691.21103585     
  -2578972172.9298639        240762990.90202498        629632597.10036659     
  -2512482763.7979779        199963224.18617094        709048528.25210500     
  -2444547425.2677865        163983222.13133609        778286005.02307963     
  -2375166157.3392830        132822984.73754406        837345027.41328442     
  -2304338960.0124741        106482512.00476336        886225595.42272210     
  -2698044015.7662454        224814250.25170863        709486036.89385545     
  -2651132040.8949442        181094086.58162642        753384037.37891316     
  -2602687594.9650807        142482159.77340984        793074865.18757260     
  -2552710677.9766660        108978469.82703733        828558520.31983340     
  -2501201289.9296975        80583016.742518783        859835002.77569747     
  -2932090063.7036896        174373248.07108009        790424699.17679799     
  -2887694718.2233381        132850928.90766931        798905734.26546204     
  -2841680360.0241847        96725318.806934595        809150878.38209593     
  -2794046989.1062255        65996417.768884420        821160131.52670574     
  -2744794605.4694648        40664225.793506145        834933493.69928586     
  -3281110316.7421889        89439984.360133171        872448583.94919133     
  -3222170795.7831678        55233751.164272070        845613618.91175020     
  -3161525720.4450874        26712699.231925964        826514044.60664976     
  -3099175090.7279634        3876828.5630613565        815149861.03389561     
  -3035118906.6317787       -13273860.842269778        811521068.19348049     
  -3745104774.8817582       -29985540.881134510        955557691.21103585     
  -3654560273.5744309       -51757446.648555517        893507691.31777871     
  -3562223676.2278004       -67555698.951635361        845164363.86123598     
  -3468094982.8418722       -77380297.790390611        810527708.84140551     
  -3372174193.4166422       -81231243.164807320        789597726.25828636     
  -2304338960.0124741        106482512.00476336        886225595.42272210     
  -2196146710.8293834        94124290.185410023        921694012.79904497     
  -2087572213.8864360        83040227.565581679        955367602.37415969     
  -1978615469.1836371        73230324.145255208        987246364.14806068     
  -1869276476.7209795        64694579.924460053        1017330298.1207503     
  -2501201289.9296975        80583016.742518783        859835002.77569747     
  -2393895495.1915145        71420372.324108243        880320962.08426464     
  -2286477850.6379843        62630560.623527646        901182420.22081959     
  -2178948356.2691045        54213581.640774488        922419377.18536139     
  -2071307012.0848761        46169435.375851631        944031832.97789037     
  -2744794605.4694648        40664225.793506145        834933493.69928586     
  -2632174331.9499063        36557438.743931651        840121530.67150259     
  -2519712606.5595064        31922157.930491924        847855393.10090876     
  -2407409429.2982664        26758383.353188753        858135080.98750079     
  -2295264800.1661878        21066115.012025595        870960594.33127749     
  -3035118906.6317787       -13273860.842269778        811521068.19348049     
  -2910983221.1045647       -10464510.555128217        801095718.56076121     
  -2787276481.6510162       -9084980.5135453939        795386521.01442552     
  -2663998688.2711320       -9135270.7175062895        794393475.55447531     
  -2541149840.9649177       -10615381.167032719        798116582.18090868     
  -3372174193.4166422       -81231243.164807320        789597726.25828636     
  -3230322162.6554871       -69645475.573067307        763243525.75203443     
  -3089169475.9125080       -60390854.708576322        743775803.96136904     
  -2948716133.1876993       -53467380.571323633        731194560.88628411     
  -2808962134.4810615       -48875053.161305189        725499796.52678633     
  -1869276476.7209795        64694579.924460053        1017330298.1207503     
  -1768942342.8607974        52581460.355909705        1030655743.3749979     
  -1669567984.9584889        37269087.594441891        1047853414.8841461     
  -1571153403.0140615        18757461.640038729        1068923312.6481971     
  -1473698597.0275130       -2953417.5072918534        1093865436.6671476     
  -2071307012.0848761        46169435.375851631        944031832.97789037     
  -1959974744.6888893        38231631.295490623        948548707.76498115     
  -1849414284.1053736        27721137.840216756        956689924.67358816     
  -1739625630.3343267        14637955.010051250        968455483.70371449     
  -1630608783.3757510       -1017917.1950201392        983845384.85536027     
  -2295264800.1661878        21066115.012025595        870960594.33127749     
  -2173642639.6154962        17091154.305508971        866888195.98751676     
  -2052604316.7318630        11170068.042116761        866192255.63189459     
  -1932149831.5152977        3302856.2218453884        868872773.26440597     
  -1812279183.9657919       -6510481.1552928686        874929748.88505387     
  -2541149840.9649177       -10615381.167032719        798116582.18090868     
  -2409946027.6406140       -10839970.614028692        785674208.04260755     
  -2279138082.8379641       -12384121.799866557        776360407.75906122     
  -2148726006.5569725       -15247834.724568367        770175181.33026576     
  -2018709798.7976320       -19431109.388103366        767118528.75622463     
  -2808962134.4810615       -48875053.161305189        725499796.52678633     
  -2668884908.7642441       -45561743.463106632        704906743.93025589     
  -2529015582.4236732       -42941431.685741544        687194381.05509150     
  -2389354155.4593472       -41014117.829186082        672362707.90129864     
  -2249900627.8712707       -39779801.893460155        660411724.46887636     
  -1473698597.0275130       -2953417.5072918534        1093865436.6671476     
  -1368301947.1137426       -21840260.708861351        1100504053.4854472     
  -1261654433.7030258       -36557558.920607805        1107005963.0102577     
  -1153756056.7953687       -47105312.142553031        1113371165.2415826     
  -1044606816.3907661       -53483520.374682009        1119599660.1794181     
  -1630608783.3757510       -1017917.1950201392        983845384.85536027     
  -1522744280.1323707       -16700035.118497491        983836791.58954597     
  -1413897338.8263130       -29107359.499714971        985123702.34504974     
  -1304067959.4575770       -38239890.338670850        987706117.12187052     
  -1193256142.0261590       -44097627.635368824        991584035.92001569     
  -1812279183.9657919       -6510481.1552928686        874929748.88505387     
  -1697854795.0647850       -17760264.102279544        867960782.52847719     
  -1582716393.5353632       -26630004.954551220        863719531.50803053     
  -1466863979.3775280       -33119703.712111473        862205995.82370782     
  -1350297552.5912840       -37229360.374975145        863420175.47551143     
  -2018709798.7976320       -19431109.388103366        767118528.75622463     
  -1893633491.9109759       -25020947.660186172        752876026.30224943     
  -1768111597.8301756       -29125495.285115957        742793450.49920619     
  -1642144116.5552273       -31744752.262876570        736870801.34709156     
  -1515731048.0861311       -32878718.593488097        735108078.84591579     
  -2249900627.8712707       -39779801.893460155        660411724.46887636     
  -2110080370.6709535       -38482085.792238832        638582522.91085255     
  -1970082951.7107551       -36593830.491410851        622345459.31857061     
  -1829908370.9906728       -34115035.990969062        611700533.69202590     
  -1689556628.5107141       -31045702.290948510        606647746.03121912     
  -1044606816.3907661       -53483520.374682009        1119599660.1794181     
  -926832211.94656026       -52018434.684576571        1119378603.5801592     
  -806843184.37711442       -43171938.577009439        1124774620.4655778     
  -684639733.68241453       -26944032.051926047        1135787710.8356845     
  -560221859.86246228       -3334715.1093348861        1152417874.6904624     
  -1193256142.0261590       -44097627.635368824        991584035.92001569     
  -1062467034.1129019       -40465173.540299475        989627832.98490047     
  -930354647.17625546       -32421789.367265821        991565551.14015067     
  -796918981.21620905       -19967475.116238654        997397190.38576651     
  -662160036.23278344       -3102230.7872684300        1007122750.7217523     
  -1350297552.5912840       -37229360.374975145        863420175.47551143     
  -1211417233.7641506       -32906525.641476274        858689158.08570826     
  -1072104780.0154918       -27143241.169545054        856128909.39195442     
  -932360191.34529614       -19939506.959165871        855739429.39425540     
  -792183467.75356698       -11295323.010337323        857520718.09260654     
  -1515731048.0861311       -32878718.593488097        735108078.84591579     
  -1373682810.9003208       -29342490.988148630        726562578.88258660     
  -1232093582.8948271       -27336293.983853340        718464695.22099662     
  -1090963364.0696611       -26860127.580656350        710814427.86114311     
  -950292154.42481887       -27913991.778538346        703611776.80302608     
  -1689556628.5107141       -31045702.290948510        606647746.03121912     
  -1549263765.5213976       -29773069.580276310        593248095.37553656     
  -1410321055.8142581       -33000947.810192227        578572908.62726939     
  -1272728499.3893065       -40729336.980743051        562622185.78643239     
  -1136486096.2465415       -52958237.091900706        545395926.85301208     
  -560221859.86246228       -3334715.1093348861        1152417874.6904624     
  -463434893.40544796        33677369.275545806        1162127189.2697246     
  -354559906.34762621        110982855.66311011        1179228774.9805641     
  -233596898.68899685        228581744.05336764        1203722631.8229759     
  -100545870.42956969        386474034.44629008        1235608759.7969663     
  -662160036.23278344       -3102230.7872684300        1007122750.7217523     
  -547224501.16905856        26418322.035396785        1020888756.5093596     
  -421346971.63230181        92412189.768169254        1042951743.5310566     
  -284527447.62249190        194879372.41112947        1073311711.7868484     
  -136765929.13964000        333819869.96421838        1111968661.2767410     
  -792183467.75356698       -11295323.010337323        857520718.09260654     
  -656514478.07593727        11509164.052262306        874006384.60616255     
  -511049520.05302894        66966878.932447046        899693742.45633554     
  -355788593.68483365        155077821.63025752        934582791.64311993     
  -190731698.97136533        275841992.14565015        978673532.16652620     
  -950292154.42481887       -27913991.778538346        703611776.80302608     
  -791304824.12607980       -11050104.673848808        721480073.56014740     
  -623667551.60982215        34646923.155891299        749454771.75640023     
  -447380336.87604272        109177091.71071520        787535871.39179289     
  -262443179.92474967        212540400.99058419        835723372.46632564     
  -1136486096.2465415       -52958237.091900706        545395926.85301208     
  -951595539.31948233       -41259484.142941266        563309823.37130094     
  -759201066.30268085       -4547677.5614907742        592234831.43125117     
  -559302677.19610846        57177182.652512610        632170951.03285980     
  -351900371.99978930        143915096.49902165        683118182.17612851     
  -100545870.42956969        386474034.44629008        1235608759.7969663     
  -85561593.361424506        546365315.06963205        1196992859.3756921     
  -57993458.484515250        748202788.38886273        1155009118.1939392     
  -17841465.798854351        991986454.40393066        1109657536.2517154     
   34894384.695542753        1277716313.1147807        1060938113.5490130     
  -136765929.13964000        333819869.96421838        1111968661.2767410     
  -127557933.66514984        482875164.63373798        1090373267.1864192     
  -95216644.299543202        709041438.94030821        1070203032.4661844     
  -39742061.042828739        1012318692.8839166        1051457957.1160429     
   38865816.104979455        1392706926.4644954        1034138041.1359628     
  -190731698.97136533        275841992.14565015        978673532.16652620     
  -173605699.00321260        418169586.68753588        986406319.83657789     
  -122796969.06158456        672772947.80765128        1000357267.0072757     
  -38305509.146484911        1039652075.5059981        1020526373.6786306     
   79868680.742054939        1518806969.7825150        1046913639.8506252     
  -262443179.92474967        212540400.99058419        835723372.46632564     
  -223704889.37560004        352248581.23102653        885092017.32615638     
  -140734432.77062458        639397314.99089408        945471821.81719422     
  -13531810.109827340        1073986602.2701671        1016862785.9394624     
   157902978.60678542        1656016443.0688314        1099264909.6929245     
  -351900371.99978930        143915096.49902165        683118182.17612851     
  -277855504.78232473        285112148.26422256        786430359.65516067     
  -149029035.42667323        608914540.49004090        905546696.89596379     
   34579036.067164242        1115322273.1764679        1040467193.8985597     
   272968709.69915241        1804335346.3234253        1191191850.6629188     
  -4391482536.8171206       -803681438.05783772        1205455157.5401225     
  -4181278475.5718999       -448225394.55906641        1102948231.8759584     
  -4003480828.1676011       -200790730.53002381        1027129678.9330560     
  -3858089594.6042199       -61377445.970710278        977999498.71141374     
  -3745104774.8817582       -29985540.881134510        955557691.21103585     
  -4986821898.2887449       -526122260.42720568        867107793.15931630     
  -4758323880.6520386       -303901390.57948089        791164681.53198898     
  -4549291673.6399345       -146566556.14710975        733352049.86555588     
  -4359725277.2524300       -54117757.130068302        693669898.16001678     
  -4189624691.4895277       -26554993.528369427        672118226.41537321     
  -5407585379.6977882       -196190318.77780247        467856604.88880765     
  -5185244527.8420649       -114539959.23287535        433574677.71734607     
  -4969428883.3946323       -54640291.048906803        408865337.74642229     
  -4760138446.3554792       -16491314.225876331        393728584.97601944     
  -4557373216.7246132       -93028.763796806335        388164419.40614778     
  -5653772981.0442305        186114386.89038777        7701592.7285793815     
  -5462040417.1419773        119858899.48076510        30178220.432029642     
  -5263892457.4316940        74988064.764591455        53669542.575647436     
  -5059329101.9133673        51501882.741863251        78175559.159422234     
  -4848350350.5870123        49400353.412574768        103696270.18336025     
  -5725384702.3280907        620791856.57734513       -513357243.32135767     
  -5588711548.5517683        399295185.56146145       -419024690.32395685     
  -5432682395.7511120        242318511.29337764       -332235335.64676011     
  -5257297243.9260960        149861833.77314734       -252989179.28977212     
  -5062556093.0767269        121925153.00076270       -181286221.25298661     
  -3745104774.8817582       -29985540.881134510        955557691.21103585     
  -3654560273.5744309       -51757446.648555517        893507691.31777871     
  -3562223676.2278004       -67555698.951635361        845164363.86123598     
  -3468094982.8418722       -77380297.790390611        810527708.84140551     
  -3372174193.4166422       -81231243.164807320        789597726.25828636     
  -4189624691.4895277       -26554993.528369427        672118226.41537321     
  -4067526461.6670694       -40996468.131464243        636305474.21331501     
  -3944162551.8283539       -51219009.347020626        609366510.47133636     
  -3819532961.9733806       -57222617.175062180        591301335.18944180     
  -3693637692.1021523       -59007291.615579605        582109948.36762166     
  -4557373216.7246132       -93028.763796806335        388164419.40614778     
  -4417529498.3202562       -11346544.182515621        377974762.86840695     
  -4276946515.9226918       -20135846.290541172        371826010.81411517     
  -4135624269.5319095       -26460935.087836504        369718163.24326384     
  -3993562759.1479149       -30321810.574417591        371651220.15586668     
  -4848350350.5870123        49400353.412574768        103696270.18336025     
  -4704569383.5340004        37192325.198242664        118515557.28305133     
  -4560575568.5108185        25693790.217815161        132542864.88955846     
  -4416368905.5174646        14904748.471286297        145778193.00288072     
  -4271949394.5539389        4825199.9586703777        158221541.62301704     
  -5062556093.0767269        121925153.00076270       -181286221.25298661     
  -4928646117.3082943        104620140.01085305       -142072142.54274377     
  -4795049709.5927391        86269900.178010225       -108482927.30232342     
  -4661766869.9300461        66874433.502288580       -80518575.531711996     
  -4528797598.3202276        46433739.983666420       -58179087.230927691     
  -3372174193.4166422       -81231243.164807320        789597726.25828636     
  -3230322162.6554871       -69645475.573067307        763243525.75203443     
  -3089169475.9125080       -60390854.708576322        743775803.96136904     
  -2948716133.1876993       -53467380.571323633        731194560.88628411     
  -2808962134.4810615       -48875053.161305189        725499796.52678633     
  -3693637692.1021523       -59007291.615579605        582109948.36762166     
  -3535360281.4353061       -49910048.731628656        562314999.43184316     
  -3377578918.8600411       -42466299.486268163        548842754.33280516     
  -3220293604.3763480       -36676043.879487634        541693213.07051623     
  -3063504337.9842296       -32539281.911288500        540866375.64496732     
  -3993562759.1479149       -30321810.574417591        371651220.15586668     
  -3820470753.9434958       -24196328.008696318        358652701.37158734     
  -3647671500.9040570       -19046685.992904902        351413111.54521912     
  -3475165000.0295911       -14872884.527030230        349932450.67674518     
  -3302951251.3201056       -11674923.611078978        354210718.76618034     
  -4271949394.5539389        4825199.9586703777        158221541.62301704     
  -4085653580.1800690        7495686.5957086086        152256631.57127118     
  -3899447222.0445604        9867985.7715120316        151486875.59859243     
  -3713330320.1474390        11942097.486039162        155912273.70497334     
  -3527302874.4886913        13718021.739324808        165532825.89042917     
  -4528797598.3202276        46433739.983666420       -58179087.230927691     
  -4330908760.1449976        45165995.081619978       -56873209.969099388     
  -4132906082.2815466        44277715.806990862       -50935953.507064998     
  -3934789564.7298784        43768902.159739256       -40367317.844780006     
  -3736559207.4899907        43639554.139901400       -25167302.982293397     
  -2808962134.4810615       -48875053.161305189        725499796.52678633     
  -2668884908.7642441       -45561743.463106632        704906743.93025589     
  -2529015582.4236732       -42941431.685741544        687194381.05509150     
  -2389354155.4593472       -41014117.829186082        672362707.90129864     
  -2249900627.8712707       -39779801.893460155        660411724.46887636     
  -3063504337.9842296       -32539281.911288500        540866375.64496732     
  -2916442516.2487326       -32093451.272229671        525564126.17632788     
  -2769394117.5857134       -31692364.208088279        513415679.09125757     
  -2622359141.9951839       -31336020.718911409        504421034.38975769     
  -2475337589.4771242       -31024420.804645658        498580192.07182312     
  -3302951251.3201056       -11674923.611078978        354210718.76618034     
  -3148124511.6739306       -13862475.463549018        344426161.44649583     
  -2993116718.7964759       -15446516.545072198        338068519.17257959     
  -2837927872.6877251       -16427046.855631828        335137791.94442797     
  -2682557973.3477006       -16804066.395244479        335633979.76204789     
  -3527302874.4886913        13718021.739324808        165532825.89042917     
  -3363930895.0398455        9131183.9629082680        161492849.74075592     
  -3200183386.0559464        5796111.3033385277        161152901.29905021     
  -3036060347.5369911        3712803.7606220245        164512980.56532145     
  -2871561779.4829798        2881261.3347574472        171573087.53954875     
  -3736559207.4899907        43639554.139901400       -25167302.982293397     
  -3563861666.3464756        36887527.007144451       -23235808.940892559     
  -3390594119.3641319        32035519.337136269       -17331174.529320400     
  -3216756566.5429735        29083531.129839659       -7453399.7475804435     
  -3042349007.8829865        28031562.385327816        6397515.4043225059     
  -2249900627.8712707       -39779801.893460155        660411724.46887636     
  -2110080370.6709535       -38482085.792238832        638582522.91085255     
  -1970082951.7107551       -36593830.491410851        622345459.31857061     
  -1829908370.9906728       -34115035.990969062        611700533.69202590     
  -1689556628.5107141       -31045702.290948510        606647746.03121912     
  -2475337589.4771242       -31024420.804645658        498580192.07182312     
  -2322894844.3172393       -29048510.831409812        482436976.18880260     
  -2170413652.6124954       -26944445.708631277        470254722.18463355     
  -2017894014.3628941       -24712225.436333418        462033430.05930787     
  -1865335929.5684214       -22351850.014477491        457773099.81283426     
  -2682557973.3477006       -16804066.395244479        335633979.76204789     
  -2522153243.3336525       -15548113.481623769        325014915.13650542     
  -2361848781.9897528       -14626389.468506932        316725636.30292207     
  -2201644589.3160229       -14038894.355936646        310766143.26129782     
  -2041540665.3124447       -13785628.143897891        307136436.01162887     
  -2871561779.4829798        2881261.3347574472        171573087.53954875     
  -2707855567.7201676        2019106.2571573257        166316339.75396577     
  -2544388339.8425403        360338.22892856598        161758201.67344064     
  -2381160095.8500776       -2095042.7498512268        157898673.29799810     
  -2218170835.7427993       -5347036.6792261600        154737754.62761679     
  -3042349007.8829865        28031562.385327816        6397515.4043225059     
  -2880001817.4768214        23653148.384850144        6341250.0411731154     
  -2718032326.1708217        18015737.383789301        5352418.2961937571     
  -2556440533.9650550        11119329.381977558        3431020.1694074906     
  -2395226440.8594656        2963924.3795521259        577055.66078100831     
  -1689556628.5107141       -31045702.290948510        606647746.03121912     
  -1549263765.5213976       -29773069.580276310        593248095.37553656     
  -1410321055.8142581       -33000947.810192227        578572908.62726939     
  -1272728499.3893065       -40729336.980743051        562622185.78643239     
  -1136486096.2465415       -52958237.091900706        545395926.85301208     
  -1865335929.5684214       -22351850.014477491        457773099.81283426     
  -1728277335.6727808       -24820395.263164997        443808916.88729370     
  -1591375258.6962156       -27810663.575441837        429495719.51135308     
  -1454629698.6387217       -31322654.951292932        414833507.68501925     
  -1318040655.5003047       -35356369.390722394        399822281.40828866     
  -2041540665.3124447       -13785628.143897891        307136436.01162887     
  -1905069135.8185556       -19201189.944422483        294000296.57319361     
  -1767560486.8806052       -21159686.931420207        281441664.32654613     
  -1629014718.4986234       -19661119.104975283        269460539.27168250     
  -1489431830.6726131       -14705486.465101063        258056921.40859738     
  -2218170835.7427993       -5347036.6792261600        154737754.62761679     
  -2079639165.9586945       -12915453.623947024        143822234.43325108     
  -1938876740.3674247       -13048017.878121376        134410743.07284796     
  -1795883558.9690285       -5744729.4418685436        126503280.54641354     
  -1650659621.7634571        8994411.6849596500        120099846.85393955     
  -2395226440.8594656        2963924.3795521259        577055.66078100831     
  -2251987426.0932136       -5963186.3017853498       -6725269.5325549822     
  -2105324019.1566925       -3475656.4155937433       -11597044.249740353     
  -1955236220.0498922        10426514.038207889       -14038268.490786793     
  -1801724028.7728643        35743325.059444666       -14048942.255683573     
  -1136486096.2465415       -52958237.091900706        545395926.85301208     
  -951595539.31948233       -41259484.142941266        563309823.37130094     
  -759201066.30268085       -4547677.5614907742        592234831.43125117     
  -559302677.19610846        57177182.652512610        632170951.03285980     
  -351900371.99978930        143915096.49902165        683118182.17612851     
  -1318040655.5003047       -35356369.390722394        399822281.40828866     
  -1118201720.1659307       -15190404.268948793        421532731.60365766     
  -914761402.92189229        16980167.218381345        441776850.83850086     
  -707719703.76818550        61155345.071260124        460554639.11281723     
  -497076622.70481759        117335129.28969282        477866096.42660457     
  -1489431830.6726131       -14705486.465101063        258056921.40859738     
  -1310294352.6514513        3232740.1133303046        279010968.73761284     
  -1131458026.9007158        20167125.790349901        286021242.60391676     
  -952922853.42039895        36097670.565980136        279087743.00750721     
  -774688832.21050048        51024374.440194249        258210469.94839448     
  -1650659621.7634571        8994411.6849596500        120099846.85393955     
  -1527873436.7760541        14009949.003863931        135744534.77316493     
  -1409290938.2391515        5013198.1544148922        124968006.72749135     
  -1294912126.1527400       -17995840.863338292        87770262.716924384     
  -1184737000.5168588       -55017168.049506903        24151302.741452347     
  -1801724028.7728643        35743325.059444666       -14048942.255683573     
  -1770938972.5397196        17141222.402705431       -8266570.2896893397     
  -1748260136.9371817       -28481615.689345241       -41382856.790768735     
  -1733687521.9652357       -101125189.21672457       -113397801.75893810     
  -1727221127.6238892       -200789498.17943639       -224311405.19418687     
  -351900371.99978930        143915096.49902165        683118182.17612851     
  -277855504.78232473        285112148.26422256        786430359.65516067     
  -149029035.42667323        608914540.49004090        905546696.89596379     
   34579036.067164242        1115322273.1764679        1040467193.8985597     
   272968709.69915241        1804335346.3234253        1191191850.6629188     
  -497076622.70481759        117335129.28969282        477866096.42660457     
  -388263481.23048556        222957451.03704336        597119815.74866247     
  -230310060.51925758        492380703.57405257        735523754.74142051     
  -23216360.571120679        925604886.90071654        893077913.40485907     
   233017618.61387935        1522630001.0170021        1069782291.7390221     
  -774688832.21050048        51024374.440194249        258210469.94839448     
  -621547245.31094670        123940017.52022398        386824187.72862232     
  -424906702.07579672        341852181.71889794        537934185.08848941     
  -184767202.50503516        704760867.03628290        711540462.02797508     
   98871253.401358485        1212666073.4724178        907643018.54707313     
  -1184737000.5168588       -55017168.049506903        24151302.741452347     
  -977706797.02375484       -11940152.286391079        155543475.59504917     
  -732818960.09630597        157328974.92454880        312777987.93719018     
  -450073489.73453593        452790213.58323002        495854839.76788431     
  -129470385.93843925        874443563.68965054        704774031.08711338     
  -1727221127.6238892       -200789498.17943639       -224311405.19418687     
  -1456742136.3688571       -184683058.38261437       -96722320.652066797     
  -1154046834.5807898       -61188916.809019387        60055163.287535086     
  -819135222.25968385        169692926.54139978        246021046.62460184     
  -452007299.40550292        507962471.66869038        461175329.35912544     
 </DataArray>
 <DataArray  type="Float64" Name="VM" NumberOfComponents="1" format="ascii">
   6061362096.7953215     
   5840953673.4632206     
   5618234154.9785976     
   5392993575.0397882     
   5165077412.6857758     
   5744438440.6638775     
   5520542344.9189205     
   5295586672.2367554     
   5069538442.0372915     
   4842388489.8533602     
   5412842246.6748047     
   5194619987.1128387     
   4977463507.6640501     
   4761516759.8720074     
   4547020179.4647646     
   5073256643.7587414     
   4868698294.1674042     
   4668462523.0292015     
   4472783582.6228142     
   4282158698.6581306     
   4735106561.5891380     
   4550311204.1398621     
   4374584691.1965370     
   4208026489.3822765     
   4051234224.7878766     
   5165077412.6857758     
   5007619243.0879316     
   4851074554.9994068     
   4695392592.9057140     
   4540606162.4291830     
   4842388489.8533602     
   4699379766.7389736     
   4557530504.7482080     
   4416847579.3327713     
   4277393714.6293564     
   4547020179.4647646     
   4415693734.2354050     
   4285524328.5610919     
   4156559848.4938240     
   4028881318.4985976     
   4282158698.6581306     
   4160083572.5214357     
   4038881950.4299245     
   3918620020.4863334     
   3799380963.6293025     
   4051234224.7878766     
   3936451820.3931246     
   3821963382.9059191     
   3707822828.1228542     
   3594092411.2692757     
   4540606162.4291830     
   4344576835.9535437     
   4148001014.4848537     
   3950867517.1754742     
   3753190757.0963931     
   4277393714.6293564     
   4090013978.9042263     
   3902769973.9703350     
   3715718422.1128988     
   3528969547.6479001     
   4028881318.4985976     
   3852558501.5467620     
   3677374179.2578530     
   3503491531.8800554     
   3331167553.5447016     
   3799380963.6293025     
   3636406605.9659305     
   3475920348.4141960     
   3318218732.4151764     
   3163738283.2997894     
   3594092411.2692757     
   3446486078.9289112     
   3303064304.8605490     
   3164258327.3850217     
   3030679941.8979797     
   3753190757.0963931     
   3576924770.1445985     
   3401498890.2621636     
   3226882027.6861839     
   3053118098.0867548     
   3528969547.6479001     
   3364073218.9386024     
   3200313874.2418728     
   3037736934.0180101     
   2876457182.4954419     
   3331167553.5447016     
   3176880573.8535352     
   3023968249.3250570     
   2872554893.3440042     
   2722832101.8290110     
   3163738283.2997894     
   3019706575.8276877     
   2877230290.5549240     
   2736511362.0378966     
   2597820418.2120104     
   3030679941.8979797     
   2897013524.1542244     
   2765032712.8524203     
   2635010584.2992878     
   2507293147.2080884     
   3053118098.0867548     
   2888865982.9639635     
   2724070772.2687640     
   2558724280.4393139     
   2392826186.0161595     
   2876457182.4954419     
   2714700072.2978702     
   2552922582.4645357     
   2391154656.1037359     
   2229446177.5190334     
   2722832101.8290110     
   2566172109.8592410     
   2410429019.8041358     
   2255750341.6043816     
   2102344661.3492036     
   2597820418.2120104     
   2448874085.8694658     
   2302225138.9729576     
   2158206225.0529737     
   2017270518.1732526     
   2507293147.2080884     
   2368430848.5615520     
   2233630432.0796027     
   2103426142.3270223     
   1978521894.6666424     
   2392826186.0161595     
   2245976499.1971087     
   2101384092.0984318     
   1959042424.3729022     
   1819123097.1004908     
   2229446177.5190334     
   2086286228.5190668     
   1944838507.8916101     
   1805100954.3433270     
   1667151810.2589779     
   2102344661.3492036     
   1961971975.4795902     
   1822565784.8346581     
   1684155589.5287857     
   1546799147.0279157     
   2017270518.1732526     
   1880475326.3152831     
   1743922720.0193629     
   1607734743.2502401     
   1472080048.8476970     
   1978521894.6666424     
   1847896164.3371975     
   1717119366.9533896     
   1586523073.9896283     
   1456599104.2585931     
   1819123097.1004908     
   1778981204.3845296     
   1735266877.0175683     
   1696618734.1270475     
   1681598953.5627313     
   1667151810.2589779     
   1551982140.4841683     
   1427667480.6652834     
   1294551626.4563847     
   1158770355.6585402     
   1546799147.0279157     
   1396986085.2899907     
   1243617101.7634807     
   1084415853.3176804     
   917347203.27286506     
   1472080048.8476970     
   1327793012.1099088     
   1198011697.2646351     
   1087241923.7138646     
   1001422091.2692798     
   1456599104.2585931     
   1347457711.4884951     
   1273377107.6744404     
   1242513359.2048335     
   1261952736.6375992     
   1681598953.5627313     
   1383909828.1809642     
   1129435465.5241294     
   1010054756.6816654     
   1153356549.9741805     
   1158770355.6585402     
   1008298213.9547051     
   985065287.53868592     
   1161424360.1412635     
   1544315977.4922085     
   917347203.27286506     
   962831673.07289767     
   1144727995.3896604     
   1476380632.1889353     
   1957468977.1602478     
   1001422091.2692798     
   1164319249.8744128     
   1425216713.3481979     
   1808656326.3916719     
   2334682449.9407668     
   1261952736.6375992     
   1446145921.2822335     
   1715485744.0594313     
   2110471321.0577879     
   2663457149.5348644     
   4735106561.5891380     
   4550311204.1398621     
   4374584691.1965370     
   4208026489.3822765     
   4051234224.7878766     
   4366401686.9307222     
   4220815655.4756331     
   4081402178.7228913     
   3948420465.2860565     
   3822349075.7501712     
   4049696610.8726516     
   3935513376.7170901     
   3823858182.3306527     
   3714972469.4339919     
   3609178085.8518829     
   3782990059.6292071     
   3693800099.6941452     
   3603118763.3276868     
   3510837356.0548863     
   3416938159.7957678     
   3563415721.1471982     
   3494230566.5198441     
   3419835860.1263828     
   3339262271.5599551     
   3251804988.3709917     
   4051234224.7878766     
   3936451820.3931246     
   3821963382.9059191     
   3707822828.1228542     
   3594092411.2692757     
   3822349075.7501712     
   3711945420.8970165     
   3603264629.4489183     
   3496458551.7994647     
   3391707532.3025723     
   3609178085.8518829     
   3506709454.9330568     
   3407812019.0991783     
   3312749726.2370448     
   3221845728.0945001     
   3416938159.7957678     
   3325348520.9728541     
   3239600410.5962000     
   3160048176.8471842     
   3087136831.5782108     
   3251804988.3709917     
   3173063922.1904154     
   3102841198.3664451     
   3041515437.4182162     
   2989579063.6801376     
   3594092411.2692757     
   3446486078.9289112     
   3303064304.8605490     
   3164258327.3850217     
   3030679941.8979797     
   3391707532.3025723     
   3262675384.2092924     
   3138078891.6364970     
   3018391592.1846385     
   2904230695.0596910     
   3221845728.0945001     
   3110461016.1347356     
   3003582910.1006193     
   2901693108.8475008     
   2805379413.1663871     
   3087136831.5782108     
   2992717139.8003807     
   2902657197.7939506     
   2817410065.2543578     
   2737500404.3207116     
   2989579063.6801376     
   2911661302.1242957     
   2837711875.8767552     
   2768120620.9684458     
   2703321594.8406878     
   3030679941.8979797     
   2897013524.1542244     
   2765032712.8524203     
   2635010584.2992878     
   2507293147.2080884     
   2904230695.0596910     
   2780845855.1906667     
   2660646011.4772077     
   2544067885.3100700     
   2431649973.0945101     
   2805379413.1663871     
   2694641705.2766795     
   2588818226.2735724     
   2488488711.5018997     
   2394345499.2382135     
   2737500404.3207116     
   2641139488.0338144     
   2551516489.4570079     
   2469286739.1719532     
   2395204080.6517367     
   2703321594.8406878     
   2622144845.3734140     
   2549478371.8395696     
   2485959482.9413314     
   2432292638.3831711     
   2507293147.2080884     
   2368430848.5615520     
   2233630432.0796027     
   2103426142.3270223     
   1978521894.6666424     
   2431649973.0945101     
   2307992119.3078365     
   2189534570.8846002     
   2076980310.8780668     
   1971198854.1152964     
   2394345499.2382135     
   2287570186.7016697     
   2187110668.0395627     
   2093753727.8752692     
   2008414234.3966568     
   2395204080.6517367     
   2306381756.5386457     
   2224789396.0265236     
   2151192315.3639359     
   2086427008.1383743     
   2432292638.3831711     
   2361729718.0967927     
   2298991658.2969460     
   2244739096.4206319     
   2199652658.4883113     
   1978521894.6666424     
   1847896164.3371975     
   1717119366.9533896     
   1586523073.9896283     
   1456599104.2585931     
   1971198854.1152964     
   1854792972.8435118     
   1742722106.2165093     
   1635908578.7670252     
   1535486519.2523613     
   2008414234.3966568     
   1911457552.7736986     
   1823405502.7617047     
   1745476634.3249626     
   1678983473.6613514     
   2086427008.1383743     
   2010516784.4030354     
   1947252040.1957393     
   1897734178.4260423     
   1863017116.0743473     
   2199652658.4883113     
   2143282744.3179407     
   2102287191.9604955     
   2077447596.5119145     
   2069464183.3340185     
   1456599104.2585931     
   1347457711.4884951     
   1273377107.6744404     
   1242513359.2048335     
   1261952736.6375992     
   1535486519.2523613     
   1474715585.7027869     
   1446637228.7439568     
   1455221751.2446322     
   1503776556.5564501     
   1678983473.6613514     
   1650761362.5359175     
   1650186445.2815740     
   1679627548.3806643     
   1741692507.8893266     
   1863017116.0743473     
   1852987472.2404170     
   1865793678.9257762     
   1903645228.3523383     
   1969560040.5208154     
   2069464183.3340185     
   2066719371.8211966     
   2083017267.4801209     
   2120989502.3233230     
   2184420437.7566853     
   1261952736.6375992     
   1446145921.2822335     
   1715485744.0594313     
   2110471321.0577879     
   2663457149.5348644     
   1503776556.5564501     
   1612594128.9341555     
   1788587339.3938782     
   2066454185.1631665     
   2476332936.6575089     
   1741692507.8893266     
   1786897346.7456536     
   1884274514.5119097     
   2060708582.2701490     
   2341386656.7229280     
   1969560040.5208154     
   1968023245.8714378     
   2003109951.2390935     
   2093495652.5386386     
   2257826774.5482736     
   2184420437.7566853     
   2155261854.5874729     
   2145832919.7036836     
   2166681867.1087542     
   2228896631.0988216     
   3563415721.1471982     
   3494230566.5198441     
   3419835860.1263828     
   3339262271.5599551     
   3251804988.3709917     
   3454205859.8943954     
   3358795724.5409284     
   3267284784.8642631     
   3180076925.8427882     
   3097621556.4922605     
   3360072733.6653781     
   3240585700.5443144     
   3136948407.0988884     
   3049673422.9515376     
   2979527319.0258679     
   3322078245.2243366     
   3170234630.5862331     
   3050146832.5431762     
   2960851730.4648390     
   2902062909.5944967     
   3388525579.0205345     
   3183956059.3229647     
   3031304685.9419622     
   2927063158.4915233     
   2868682247.2902079     
   3251804988.3709917     
   3173063922.1904154     
   3102841198.3664451     
   3041515437.4182162     
   2989579063.6801376     
   3097621556.4922605     
   3032851565.2508054     
   2976378293.2585344     
   2928452880.2958899     
   2889399186.2239399     
   2979527319.0258679     
   2925729998.8595667     
   2879828528.3091230     
   2841972722.0886369     
   2812355647.5699968     
   2902062909.5944967     
   2856256830.4825487     
   2817760135.8959622     
   2786651271.9944940     
   2763032887.5532255     
   2868682247.2902079     
   2828083998.1766720     
   2794028759.8469911     
   2766551822.4702377     
   2745702409.1939955     
   2989579063.6801376     
   2911661302.1242957     
   2837711875.8767552     
   2768120620.9684458     
   2703321594.8406878     
   2889399186.2239399     
   2820675257.8381610     
   2757962772.9361949     
   2701722075.2660112     
   2652453274.0682015     
   2812355647.5699968     
   2753701588.8956099     
   2703167430.1765804     
   2661216070.1029367     
   2628338651.9139729     
   2763032887.5532255     
   2714127142.3026700     
   2675461132.1025372     
   2647427766.3139777     
   2630435868.7030087     
   2745702409.1939955     
   2704826108.3500962     
   2676310278.8373404     
   2660423313.5571728     
   2657442615.0487652     
   2703321594.8406878     
   2622144845.3734140     
   2549478371.8395696     
   2485959482.9413314     
   2432292638.3831711     
   2652453274.0682015     
   2587360657.3600688     
   2530843050.8727102     
   2483415439.6979771     
   2445625550.1420622     
   2628338651.9139729     
   2578186534.8625383     
   2536488794.2182178     
   2503633972.2358956     
   2480021919.9877281     
   2630435868.7030087     
   2593835189.7194023     
   2565412481.5988007     
   2545440846.2083139     
   2534195107.5440636     
   2657442615.0487652     
   2632838584.4268708     
   2616027889.1400633     
   2607188590.8367996     
   2606499469.3174787     
   2432292638.3831711     
   2361729718.0967927     
   2298991658.2969460     
   2244739096.4206319     
   2199652658.4883113     
   2445625550.1420622     
   2389545203.4485474     
   2342803775.6594725     
   2305961761.1379170     
   2279562305.0518007     
   2480021919.9877281     
   2437472505.2220945     
   2405507936.7107954     
   2384546838.2820182     
   2374971965.6855783     
   2534195107.5440636     
   2503390932.7706785     
   2484218463.6170998     
   2476948558.7068157     
   2481817264.1438913     
   2606499469.3174787     
   2585004831.9060707     
   2576103476.6108618     
   2579937292.3811402     
   2596627872.7586017     
   2199652658.4883113     
   2143282744.3179407     
   2102287191.9604955     
   2077447596.5119145     
   2069464183.3340185     
   2279562305.0518007     
   2238953790.2719407     
   2212316134.8814654     
   2200096463.9126420     
   2202684403.7842298     
   2374971965.6855783     
   2347180395.6025457     
   2331957572.7688813     
   2329548850.9207740     
   2340170176.8995795     
   2481817264.1438913     
   2464328489.5656443     
   2458116569.1283031     
   2463316395.6330280     
   2480054878.4495921     
   2596627872.7586017     
   2587401441.2482343     
   2588319067.7830629     
   2599462085.6893210     
   2620916824.8435998     
   2069464183.3340185     
   2066719371.8211966     
   2083017267.4801209     
   2120989502.3233230     
   2184420437.7566853     
   2202684403.7842298     
   2189016756.5201139     
   2190250182.4853039     
   2208358723.0126905     
   2246254169.0579858     
   2340170176.8995795     
   2316336756.4527693     
   2304033845.2826891     
   2304674149.4556942     
   2320352648.3236737     
   2480054878.4495921     
   2447736431.3064399     
   2424058647.2340913     
   2409975486.5008020     
   2406879733.0262794     
   2620916824.8435998     
   2582457143.6391778     
   2550047855.1311617     
   2524280471.3857837     
   2505984573.4874020     
   2184420437.7566853     
   2155261854.5874729     
   2145832919.7036836     
   2166681867.1087542     
   2228896631.0988216     
   2246254169.0579858     
   2181802161.9317298     
   2133871532.8171835     
   2112144560.5768726     
   2127563448.1724899     
   2320352648.3236737     
   2223980366.3500328     
   2140967576.8803701     
   2079686708.8741102     
   2050307681.3599932     
   2406879733.0262794     
   2282084720.7146454     
   2167764389.6523046     
   2070659061.3470209     
   1999526014.9091444     
   2505984573.4874020     
   2356319041.0663562     
   2214730353.6090574     
   2086194583.3253129     
   1977569358.6714752     
   3388525579.0205345     
   3183956059.3229647     
   3031304685.9419622     
   2927063158.4915233     
   2868682247.2902079     
   2825790211.0152574     
   2732363809.5928969     
   2665543395.3876057     
   2624729467.7662630     
   2609391074.2624927     
   2290687577.6898103     
   2301351897.6134229     
   2321135418.8349342     
   2348507030.3517351     
   2382456168.4238391     
   1788593944.9796717     
   1876918070.3015156     
   1980748540.0169744     
   2084982150.1242480     
   2181151994.3534427     
   1408618725.2213469     
   1476803021.9399006     
   1638181367.7061818     
   1824171929.6323640     
   1998898396.3870678     
   2868682247.2902079     
   2828083998.1766720     
   2794028759.8469911     
   2766551822.4702377     
   2745702409.1939955     
   2609391074.2624927     
   2604724934.3594375     
   2602916683.4787383     
   2603988202.0184669     
   2607968924.4432149     
   2382456168.4238391     
   2413251791.8978367     
   2443081915.0871372     
   2471921421.6170592     
   2499759185.3500214     
   2181151994.3534427     
   2247208428.7907615     
   2308562097.0668426     
   2365083943.1716948     
   2416684374.2483358     
   1998898396.3870678     
   2099984703.7719588     
   2193047961.9754295     
   2277730074.2294989     
   2353783866.2277884     
   2745702409.1939955     
   2704826108.3500962     
   2676310278.8373404     
   2660423313.5571728     
   2657442615.0487652     
   2607968924.4432149     
   2592474842.4917169     
   2586577403.5000157     
   2590401965.2904706     
   2604070880.4544325     
   2499759185.3500214     
   2507221204.7429543     
   2521326426.1511602     
   2542118718.5720534     
   2569639452.6279531     
   2416684374.2483358     
   2445255045.2299480     
   2477434962.4626346     
   2513226352.1161733     
   2552633763.9086676     
   2353783866.2277884     
   2402269458.8297691     
   2451353808.3977942     
   2501011046.9277239     
   2551224340.3357906     
   2657442615.0487652     
   2632838584.4268708     
   2616027889.1400633     
   2607188590.8367996     
   2606499469.3174787     
   2604070880.4544325     
   2593352217.8183842     
   2590776154.6397672     
   2596434781.8885012     
   2610412746.7232227     
   2569639452.6279531     
   2570263096.6623006     
   2579258987.1170316     
   2596661052.6423821     
   2622498780.2633514     
   2552633763.9086676     
   2561716535.1489620     
   2579346483.1613326     
   2605534770.9916754     
   2640298381.4571981     
   2551224340.3357906     
   2565684073.5118666     
   2588871875.9951882     
   2620813179.1988816     
   2661553602.7980142     
   2606499469.3174787     
   2585004831.9060707     
   2576103476.6108618     
   2579937292.3811402     
   2596627872.7586017     
   2610412746.7232227     
   2601128604.0313616     
   2602147188.9592113     
   2613538535.8666315     
   2635360847.3997097     
   2622498780.2633514     
   2624247460.6352491     
   2634170659.2397871     
   2652299449.8457308     
   2678662886.2490454     
   2640298381.4571981     
   2652483826.5346622     
   2670866069.4002385     
   2695443594.0259542     
   2726226759.2151995     
   2661553602.7980142     
   2684108472.2772884     
   2711017845.1969171     
   2742235319.1928406     
   2777746977.0027342     
   2596627872.7586017     
   2587401441.2482343     
   2588319067.7830629     
   2599462085.6893210     
   2620916824.8435998     
   2635360847.3997097     
   2627009379.4511251     
   2628394598.9809256     
   2639557413.9729953     
   2660545628.5242634     
   2678662886.2490454     
   2670629073.6857972     
   2672067972.1340108     
   2682993160.5189109     
   2703425125.7214441     
   2726226759.2151995     
   2718005178.2588038     
   2719131995.7618890     
   2729605403.2403078     
   2749429086.6923237     
   2777746977.0027342     
   2768884144.1301098     
   2769380879.8800192     
   2779231137.0742583     
   2798431842.4061127     
   2620916824.8435998     
   2582457143.6391778     
   2550047855.1311617     
   2524280471.3857837     
   2505984573.4874020     
   2660545628.5242634     
   2615207433.6997809     
   2575573361.8010683     
   2541977779.9895935     
   2514890943.9960284     
   2703425125.7214441     
   2653398378.8489137     
   2608876141.1813774     
   2570005650.1713095     
   2536993352.1266432     
   2749429086.6923237     
   2696923184.7750359     
   2649865599.4467201     
   2608291745.1847467     
   2572250335.5830240     
   2798431842.4061127     
   2745668337.6659451     
   2698437410.3145885     
   2656738957.6334438     
   2620573012.5063171     
   2505984573.4874020     
   2356319041.0663562     
   2214730353.6090574     
   2086194583.3253129     
   1977569358.6714752     
   2514890943.9960284     
   2347557841.5355353     
   2183746273.1981363     
   2026568913.6834331     
   1880603894.3489795     
   2536993352.1266432     
   2356996012.4794087     
   2176757081.6351676     
   1997768053.1989400     
   1822338245.3645110     
   2572250335.5830240     
   2384744685.2515473     
   2194234776.0137396     
   2001114448.8579175     
   1806015313.3744612     
   2620573012.5063171     
   2430779152.4670258     
   2236326869.0267820     
   2037216247.3284805     
   1833447719.9084189     
   1408618725.2213469     
   1476803021.9399006     
   1638181367.7061818     
   1824171929.6323640     
   1998898396.3870678     
   1813486440.9071076     
   1949478900.1089156     
   2093632818.4286139     
   2235273737.8813267     
   2368579418.3139000     
   2558687593.3680172     
   2604689230.5207787     
   2656616061.5075736     
   2714431540.2375264     
   2778102559.2576523     
   3578570432.8103466     
   3450104799.2112398     
   3355340091.6008263     
   3289786647.9433188     
   3250023872.5952449     
   4849692552.0226355     
   4496951808.9018698     
   4212047733.2333517     
   3984046826.6833901     
   3803758293.2068486     
   1998898396.3870678     
   2099984703.7719588     
   2193047961.9754295     
   2277730074.2294989     
   2353783866.2277884     
   2368579418.3139000     
   2402700603.1728659     
   2438049119.1418538     
   2474586493.9775996     
   2512277214.8661656     
   2778102559.2576523     
   2741889598.8669462     
   2716494722.1494284     
   2701876222.7947893     
   2697999230.0601907     
   3250023872.5952449     
   3137642961.2698755     
   3045613909.8509421     
   2973721257.1301413     
   2921800748.6500297     
   3803758293.2068486     
   3607504378.4891763     
   3440627099.6067863     
   3302667756.6769867     
   3193298296.6068497     
   2353783866.2277884     
   2402269458.8297691     
   2451353808.3977942     
   2501011046.9277239     
   2551224340.3357906     
   2512277214.8661656     
   2527504869.9470983     
   2548710321.2990599     
   2575884578.5726027     
   2609019200.8209510     
   2697999230.0601907     
   2677208897.2359753     
   2667685409.7318106     
   2669436983.0315714     
   2682476073.3830256     
   2921800748.6500297     
   2860758936.7245731     
   2816054522.2575111     
   2787752488.8706393     
   2775945504.9252257     
   3193298296.6068497     
   3086599061.3435888     
   3000913707.3132071     
   2936435322.5995975     
   2893447458.0189214     
   2551224340.3357906     
   2565684073.5118666     
   2588871875.9951882     
   2620813179.1988816     
   2661553602.7980142     
   2609019200.8209510     
   2604621508.7463417     
   2609279176.4319925     
   2623009397.9514003     
   2645833182.9037871     
   2682476073.3830256     
   2658826982.4056945     
   2644625903.2370548     
   2639907316.8630061     
   2644703222.9897943     
   2775945504.9252257     
   2732743622.4958696     
   2699357544.2120748     
   2675866544.3041406     
   2662355290.2194648     
   2893447458.0189214     
   2830572937.4985113     
   2777786988.7607450     
   2735234109.0779476     
   2703089367.9518571     
   2661553602.7980142     
   2684108472.2772884     
   2711017845.1969171     
   2742235319.1928406     
   2777746977.0027342     
   2645833182.9037871     
   2657424485.6785550     
   2676676072.2225318     
   2703572025.2989140     
   2738102310.2394228     
   2644703222.9897943     
   2641844814.4889393     
   2649952045.9379907     
   2669049761.6087589     
   2699161509.7308731     
   2662355290.2194648     
   2640576418.7202268     
   2633111645.3777843     
   2640065115.6069789     
   2661551418.9877152     
   2703089367.9518571     
   2656971171.6760106     
   2628558630.3922763     
   2618119860.6455445     
   2625966749.0542884     
   2777746977.0027342     
   2768884144.1301098     
   2769380879.8800192     
   2779231137.0742583     
   2798431842.4061127     
   2738102310.2394228     
   2726788968.8079629     
   2725101006.6456132     
   2733043657.9413538     
   2750621603.7925482     
   2699161509.7308731     
   2685859698.4080362     
   2682624123.5263448     
   2689472047.5430942     
   2706426252.1806121     
   2661551418.9877152     
   2646581943.2248678     
   2642309619.0892386     
   2648767530.0978656     
   2666009394.3193564     
   2625966749.0542884     
   2609484757.6783519     
   2604541060.7661209     
   2611191586.7365632     
   2629535904.0002885     
   2798431842.4061127     
   2745668337.6659451     
   2698437410.3145885     
   2656738957.6334438     
   2620573012.5063171     
   2750621603.7925482     
   2698110339.6507301     
   2651111634.1174917     
   2609662529.7977595     
   2573816033.7252803     
   2706426252.1806121     
   2656133229.1854186     
   2611474119.5162539     
   2572594405.9082727     
   2539697631.5922174     
   2666009394.3193564     
   2619879297.8469934     
   2579649544.3087349     
   2545644647.5804634     
   2518313552.6693759     
   2629535904.0002885     
   2589485049.4294906     
   2555749682.6698751     
   2528899340.9136581     
   2509713893.3898907     
   2620573012.5063171     
   2430779152.4670258     
   2236326869.0267820     
   2037216247.3284805     
   1833447719.9084189     
   2573816033.7252803     
   2385701234.5569940     
   2194583209.7209725     
   2000825981.6306570     
   1805008266.8099756     
   2539697631.5922174     
   2358679613.6001015     
   2177430211.0038085     
   1997406550.4370990     
   1820865042.5668800     
   2518313552.6693759     
   2349744841.8335075     
   2184726240.3086243     
   2026357596.0369494     
   1879213303.9801266     
   2509713893.3898907     
   2358792984.6978869     
   2216004920.4630880     
   2086355762.3349931     
   1976779025.1062124     
   4849692552.0226355     
   4496951808.9018698     
   4212047733.2333517     
   3984046826.6833901     
   3803758293.2068486     
   4207273646.7479959     
   3993769484.1112180     
   3805593830.9556665     
   3639903082.4974079     
   3494505005.9635024     
   3674316089.0551877     
   3561941192.2491236     
   3454861532.7567711     
   3353184282.3832755     
   3257140739.6317606     
   3357193527.7419147     
   3247210242.4054856     
   3168830310.6024561     
   3112087109.0322108     
   3069419516.2647319     
   3446632470.3852687     
   3163802246.4567766     
   3000662343.3241220     
   2928541865.5258670     
   2918783473.0134435     
   3803758293.2068486     
   3607504378.4891763     
   3440627099.6067863     
   3302667756.6769867     
   3193298296.6068497     
   3494505005.9635024     
   3358284528.4988093     
   3237794007.4601560     
   3133019463.2716303     
   3044096113.2165251     
   3257140739.6317606     
   3169660734.0503178     
   3087379760.2063913     
   3010566450.2625470     
   2939543631.6549864     
   3069419516.2647319     
   3019215404.7988710     
   2968898172.6380877     
   2918193655.0314083     
   2866840366.4206147     
   2918783473.0134435     
   2891921252.3544807     
   2867185848.8449206     
   2842177503.8359432     
   2814760342.7137208     
   3193298296.6068497     
   3086599061.3435888     
   3000913707.3132071     
   2936435322.5995975     
   2893447458.0189214     
   3044096113.2165251     
   2954909930.3404932     
   2880274439.8596601     
   2820673607.0222936     
   2776679204.1123796     
   2939543631.6549864     
   2862599572.0835004     
   2794885991.6654625     
   2737022589.6222811     
   2689684634.7770567     
   2866840366.4206147     
   2798993945.7585726     
   2736519722.8371863     
   2679886683.6908360     
   2629579518.5228839     
   2814760342.7137208     
   2754485445.1382170     
   2697478019.6109152     
   2643698670.0463867     
   2593105242.3574142     
   2893447458.0189214     
   2830572937.4985113     
   2777786988.7607450     
   2735234109.0779476     
   2703089367.9518571     
   2776679204.1123796     
   2721814801.8358583     
   2676420183.0101576     
   2640740091.2289553     
   2615031773.5628119     
   2689684634.7770567     
   2637588680.0586381     
   2594389594.4755440     
   2560494178.0014782     
   2536314372.3902898     
   2629579518.5228839     
   2575273581.9065080     
   2529318207.7151952     
   2492337606.9431920     
   2464969245.4404731     
   2593105242.3574142     
   2532131350.8717594     
   2478923123.8620257     
   2434365800.9481406     
   2399389216.2223139     
   2703089367.9518571     
   2656971171.6760106     
   2628558630.3922763     
   2618119860.6455445     
   2625966749.0542884     
   2615031773.5628119     
   2564634046.9838696     
   2528273654.7834277     
   2506426828.6927619     
   2499566216.4415817     
   2536314372.3902898     
   2481448215.3457441     
   2437219144.7922230     
   2404187835.7855301     
   2382890785.3671565     
   2464969245.4404731     
   2406768043.2264266     
   2356036259.1980190     
   2313236263.8763547     
   2278810378.1811485     
   2399389216.2223139     
   2340121932.5973988     
   2285469747.1898413     
   2235578217.0629897     
   2190594630.4771585     
   2625966749.0542884     
   2609484757.6783519     
   2604541060.7661209     
   2611191586.7365632     
   2629535904.0002885     
   2499566216.4415817     
   2478382080.3053970     
   2469375025.9519787     
   2472662296.5840216     
   2488376444.8596835     
   2382890785.3671565     
   2354367820.2450738     
   2338813215.0921159     
   2336462337.8556161     
   2347528712.6887050     
   2278810378.1811485     
   2240006580.6285820     
   2215051833.2766747     
   2204383382.6494999     
   2208373414.9509406     
   2190594630.4771585     
   2138349101.5798345     
   2100804749.7541380     
   2078713968.5699124     
   2072725825.0936618     
   2629535904.0002885     
   2589485049.4294906     
   2555749682.6698751     
   2528899340.9136581     
   2509713893.3898907     
   2488376444.8596835     
   2454422654.0483451     
   2429293566.8633628     
   2413927499.0389466     
   2409679520.0617633     
   2347528712.6887050     
   2322238744.7920761     
   2308588624.2760925     
   2307979428.8131719     
   2322488493.8915315     
   2208373414.9509406     
   2193656096.0490751     
   2193883479.5915580     
   2211017938.6673532     
   2247980505.3324270     
   2072725825.0936618     
   2069572938.0206149     
   2085454747.4296744     
   2122983192.2056942     
   2185981939.8646579     
   2509713893.3898907     
   2358792984.6978869     
   2216004920.4630880     
   2086355762.3349931     
   1976779025.1062124     
   2409679520.0617633     
   2284000533.8705626     
   2168786155.1743402     
   2070800767.5764616     
   1998863736.9689953     
   2322488493.8915315     
   2225527155.3585267     
   2141854925.9599791     
   2079856212.9556229     
   2049740878.7379491     
   2247980505.3324270     
   2183161875.9928656     
   2134739055.7268693     
   2112388734.9165657     
   2127066010.5898638     
   2185981939.8646579     
   2156608320.2273068     
   2146788231.3958485     
   2167042565.1801553     
   2228443517.9434385     
   3446632470.3852687     
   3163802246.4567766     
   3000662343.3241220     
   2928541865.5258670     
   2918783473.0134435     
   3208919491.8977332     
   3095641337.4940977     
   3043396518.9336348     
   3039910697.4966416     
   3073540793.6646833     
   3272803941.2071400     
   3263100059.9064612     
   3267284243.4714241     
   3285711223.0472102     
   3318606613.4092951     
   3718254146.4697480     
   3699100333.0547090     
   3682594064.8842797     
   3667275547.3743210     
   3653853646.7341585     
   4556428001.7546234     
   4411272481.5781746     
   4292936052.5003128     
   4185841836.9144802     
   4080892233.1850944     
   2918783473.0134435     
   2891921252.3544807     
   2867185848.8449206     
   2842177503.8359432     
   2814760342.7137208     
   3073540793.6646833     
   3040421520.9638009     
   3008658115.8319998     
   2977570533.2909822     
   2946524148.3400359     
   3318606613.4092951     
   3264171288.0011439     
   3213026754.7245512     
   3165179786.6278791     
   3120658227.0043535     
   3653853646.7341585     
   3564911662.5627294     
   3482784479.8115864     
   3407392570.7398009     
   3338792380.3576994     
   4080892233.1850944     
   3945175142.0463734     
   3820505357.6054592     
   3706234449.9991531     
   3602030692.7688069     
   2814760342.7137208     
   2754485445.1382170     
   2697478019.6109152     
   2643698670.0463867     
   2593105242.3574142     
   2946524148.3400359     
   2869094701.8018804     
   2794905401.2195134     
   2724234969.4082685     
   2657379110.2023230     
   3120658227.0043535     
   3023791704.2846298     
   2930355202.0904865     
   2840764335.0717072     
   2755495176.3667927     
   3338792380.3576994     
   3220051840.5422544     
   3105090904.1360497     
   2994297763.5972528     
   2888174191.8806362     
   3602030692.7688069     
   3458681321.3052530     
   3319588055.9080119     
   3184974399.3987904     
   3055228098.5877786     
   2593105242.3574142     
   2532131350.8717594     
   2478923123.8620257     
   2434365800.9481406     
   2399389216.2223139     
   2657379110.2023230     
   2572378207.4658184     
   2493619128.8858380     
   2421919535.5959978     
   2358194529.6692958     
   2755495176.3667927     
   2648895982.6871824     
   2546979397.7411342     
   2450390822.2438545     
   2359895254.8741317     
   2888174191.8806362     
   2762912503.2350926     
   2640947763.9108901     
   2522697357.6933527     
   2408682951.3934994     
   3055228098.5877786     
   2914464621.8587589     
   2775945349.7670341     
   2639869886.5916843     
   2506504658.7080975     
   2399389216.2223139     
   2340121932.5973988     
   2285469747.1898413     
   2235578217.0629897     
   2190594630.4771585     
   2358194529.6692958     
   2279781491.3604646     
   2206853921.7053590     
   2139831357.3113692     
   2079158906.1675434     
   2359895254.8741317     
   2261181050.3717151     
   2168314294.8966889     
   2081922737.7809575     
   2002723642.9082177     
   2408682951.3934994     
   2289008579.7047782     
   2175039337.8430123     
   2067474619.9909947     
   1967190379.3046553     
   2506504658.7080975     
   2365604080.0325570     
   2229891180.2296095     
   2099960409.3228066     
   1976657893.4598327     
   2190594630.4771585     
   2138349101.5798345     
   2100804749.7541380     
   2078713968.5699124     
   2072725825.0936618     
   2079158906.1675434     
   2006382430.9899788     
   1945778483.3233809     
   1898412381.1559932     
   1865288200.0466321     
   2002723642.9082177     
   1908086012.7538855     
   1822063430.4985771     
   1745844271.6575410     
   1680702117.7550850     
   1967190379.3046553     
   1852360039.0686803     
   1741750714.7748642     
   1636273377.4091053     
   1537047988.7369444     
   1976657893.4598327     
   1846837356.3854527     
   1716913638.8482471     
   1587227298.1300862     
   1458282919.3213778     
   2072725825.0936618     
   2069572938.0206149     
   2085454747.4296744     
   2122983192.2056942     
   2185981939.8646579     
   1865288200.0466321     
   1855060887.1457870     
   1867687312.5942683     
   1905354681.0619752     
   1971095817.2098205     
   1680702117.7550850     
   1652380444.8759279     
   1651734257.3197184     
   1681114082.2483454     
   1743125022.8032653     
   1537047988.7369444     
   1476191694.1901758     
   1448039070.8388784     
   1456554404.5564895     
   1505034979.4274449     
   1458282919.3213778     
   1349047050.9731123     
   1274825723.5691683     
   1243779884.1661115     
   1262988739.1687858     
   2185981939.8646579     
   2156608320.2273068     
   2146788231.3958485     
   2167042565.1801553     
   2228443517.9434385     
   1971095817.2098205     
   1969206844.0527623     
   2003826866.2913158     
   2093631224.7894683     
   2257285739.0603356     
   1743125022.8032653     
   1787902024.3839471     
   1884797336.2493680     
   2060725695.0752387     
   2340925675.1466732     
   1505034979.4274449     
   1613408289.2467966     
   1788958138.9669549     
   2066444553.0400229     
   2476082370.6879053     
   1262988739.1687858     
   1446765609.9946685     
   1715743855.7152057     
   2110518575.7073085     
   2663536172.5296063     
   4556428001.7546234     
   4411272481.5781746     
   4292936052.5003128     
   4185841836.9144802     
   4080892233.1850944     
   4977664818.3225927     
   4813082756.8339977     
   4654479365.1752682     
   4496412842.9095993     
   4335623772.5949488     
   5373660185.4468393     
   5183620696.2333508     
   4992813890.1043262     
   4800599509.3238697     
   4606651878.3011398     
   5749105488.8364592     
   5523192736.3220520     
   5302599115.6390457     
   5087078005.4666328     
   4876546983.9930067     
   6124564612.7406120     
   5843921979.8231554     
   5587516151.1394825     
   5351776495.7435570     
   5134217267.1941376     
   4080892233.1850944     
   3945175142.0463734     
   3820505357.6054592     
   3706234449.9991531     
   3602030692.7688069     
   4335623772.5949488     
   4194562191.3786135     
   4058448984.0094600     
   3927143314.1709285     
   3800663847.3465419     
   4606651878.3011398     
   4460175633.6562052     
   4315242839.2484961     
   4171897692.3193140     
   4030228871.6994376     
   4876546983.9930067     
   4727733922.2849207     
   4579234760.5230656     
   4431039965.2347097     
   4283140213.7832403     
   5134217267.1941376     
   4987853952.4800453     
   4842408317.0965185     
   4697631880.1069231     
   4553307282.3445663     
   3602030692.7688069     
   3458681321.3052530     
   3319588055.9080119     
   3184974399.3987904     
   3055228098.5877786     
   3800663847.3465419     
   3643268835.0357180     
   3488566262.6305189     
   3336738379.3613338     
   3188109582.7049828     
   4030228871.6994376     
   3858760961.9047470     
   3688748788.6774907     
   3520321776.8375812     
   3353722896.8348980     
   4283140213.7832403     
   4097900973.2915349     
   3913196969.8437099     
   3729106534.3021884     
   3545792537.5509291     
   4553307282.3445663     
   4354781756.3694992     
   4156158353.1097746     
   3957473261.5686975     
   3758821767.3912358     
   3055228098.5877786     
   2914464621.8587589     
   2775945349.7670341     
   2639869886.5916843     
   2506504658.7080975     
   3188109582.7049828     
   3040019931.9387326     
   2893711546.7971921     
   2749344804.7123380     
   2607145835.0721993     
   3353722896.8348980     
   3197362577.5778427     
   3042305709.6979523     
   2888674038.9107404     
   2736653481.8712878     
   3545792537.5509291     
   3380099249.8027968     
   3215224205.4299607     
   3051252542.3827949     
   2888331879.8371301     
   3758821767.3912358     
   3582673920.1916041     
   3406857101.3579068     
   3231422281.1981535     
   3056481283.2534757     
   2506504658.7080975     
   2365604080.0325570     
   2229891180.2296095     
   2099960409.3228066     
   1976657893.4598327     
   2607145835.0721993     
   2455085323.5018826     
   2305723171.8018560     
   2159413107.0675559     
   2016668703.3695893     
   2736653481.8712878     
   2576662198.8591118     
   2417631830.1550250     
   2259702219.2786894     
   2103076979.6164937     
   2888331879.8371301     
   2724139621.0823922     
   2559946511.4693861     
   2395774432.6554685     
   2231654347.0356784     
   3056481283.2534757     
   2891921797.8347859     
   2727100583.8870058     
   2562025187.8594489     
   2396709985.9729271     
   1976657893.4598327     
   1846837356.3854527     
   1716913638.8482471     
   1587227298.1300862     
   1458282919.3213778     
   2016668703.3695893     
   1880308788.0854769     
   1744245156.0181546     
   1608610059.0377343     
   1473585314.8874326     
   2103076979.6164937     
   1962749608.7797365     
   1823443174.8356140     
   1685192632.0035961     
   1548063543.2652464     
   2231654347.0356784     
   2088123773.0750835     
   1946359039.4109600     
   1806356314.2700448     
   1668195647.4570773     
   2396709985.9729271     
   2249041928.0334883     
   2103684243.7013960     
   1960621050.9001987     
   1820021644.6809576     
   1458282919.3213778     
   1349047050.9731123     
   1274825723.5691683     
   1243779884.1661115     
   1262988739.1687858     
   1473585314.8874326     
   1329168699.0822759     
   1199212203.8035123     
   1088218601.5939989     
   1002120386.7495227     
   1548063543.2652464     
   1398091178.8366010     
   1244526693.0113547     
   1085095943.4629741     
   917764799.36906481     
   1668195647.4570773     
   1552829250.9393625     
   1428300438.8452957     
   1294962968.2904952     
   1158964033.4342971     
   1820021644.6809576     
   1779629099.9274206     
   1735675389.5815711     
   1696807718.4354000     
   1681590973.5513985     
   1262988739.1687858     
   1446765609.9946685     
   1715743855.7152057     
   2110518575.7073085     
   2663536172.5296063     
   1002120386.7495227     
   1164766506.6506758     
   1425435825.3649547     
   1808739080.4336777     
   2334780968.0716672     
   917764799.36906481     
   963127997.31175423     
   1144894521.4328456     
   1476452837.0298660     
   1957519926.6445215     
   1158964033.4342971     
   1008444593.6866000     
   985169985.14915049     
   1161460314.2541389     
   1544262923.6208210     
   1681590973.5513985     
   1383920341.9429884     
   1129501293.5379062     
   1010128071.5383500     
   1153250740.1196079     
 </DataArray>
 <DataArray  type="Float64" Name="strain" NumberOfComponents="3" format="ascii">
  0.10133365213619450       -2.8936461203675656E-002  -7.1537687397604799E-004
   9.7493414171110016E-002  -2.8582032471731300E-002  -2.3159521300097907E-004
   9.3653176206025535E-002  -2.8023103047859044E-002   1.3779132789004667E-004
   8.9812938240940943E-002  -2.7259672932058970E-002   3.9278274869714025E-004
   8.5972700275856462E-002  -2.6291742124331052E-002   5.3337904941996861E-004
   9.5868920211389264E-002  -2.7632081483136117E-002   7.0030435703132277E-003
   9.2007082503998028E-002  -2.7046900922080619E-002   7.1236659521343171E-003
   8.8145244796606737E-002  -2.6351854748510900E-002   7.3154839694262175E-003
   8.4283407089215528E-002  -2.5546942962426829E-002   7.5784976221884848E-003
   8.0421569381824265E-002  -2.4632165563828523E-002   7.9127069104215630E-003
   8.9791050477431689E-002  -2.6327701762596578E-002   1.4999533383420416E-002
   8.6093203783288413E-002  -2.5511769372429993E-002   1.4662361406674235E-002
   8.2395357089144972E-002  -2.4680606449162590E-002   1.4581975820952886E-002
   7.8697510395001585E-002  -2.3834212992794576E-002   1.4758376626257133E-002
   7.4999663700858282E-002  -2.2972589003325716E-002   1.5191563822586490E-002
   8.3100042934321744E-002  -2.5023322042057039E-002   2.3274092565345655E-002
   7.9751778008980923E-002  -2.3976637822779409E-002   2.2384491150618212E-002
   7.6403513083640129E-002  -2.3009358149814363E-002   2.1937266882470677E-002
   7.3055248158299335E-002  -2.2121483023162268E-002   2.1932419760903168E-002
   6.9706983232958569E-002  -2.1313012442822826E-002   2.2369949785915368E-002
   7.5795897582059402E-002  -2.3718942321517500E-002   3.1826721116088585E-002
   7.2982805181075860E-002  -2.2441506273128686E-002   3.0290055183966491E-002
   7.0169712780092264E-002  -2.1338109850466122E-002   2.9381357153979187E-002
   6.7356620379108695E-002  -2.0408753053530012E-002   2.9100627026126327E-002
   6.4543527978125098E-002  -1.9653435882320158E-002   2.9447864800407952E-002
   8.5972700275856462E-002  -2.6291742124331052E-002   5.3337904941996861E-004
   8.3409370344261879E-002  -2.5253080008028062E-002   1.4267884973528933E-004
   8.0846040412667242E-002  -2.4277455966502187E-002   3.0723560546952466E-005
   7.8282710481072632E-002  -2.3364869999753894E-002   1.9751318185384781E-004
   7.5719380549478021E-002  -2.2515322107782731E-002   6.4304771365675251E-004
   8.0421569381824265E-002  -2.4632165563828523E-002   7.9127069104215630E-003
   7.8104812484450864E-002  -2.3683791940602633E-002   7.5662044285104424E-003
   7.5788055587077519E-002  -2.2778091480636281E-002   7.4341031045457862E-003
   7.3471298689704173E-002  -2.1915064183929640E-002   7.5164029385278996E-003
   7.1154541792330772E-002  -2.1094710050482579E-002   7.8131039304570327E-003
   7.4999663700858282E-002  -2.2972589003325716E-002   1.5191563822586490E-002
   7.2865136085157128E-002  -2.2114503873177205E-002   1.4909623969966618E-002
   7.0730608469455961E-002  -2.1278726994770389E-002   1.4777741522743998E-002
   6.8596080853754821E-002  -2.0465258368105501E-002   1.4795916480919429E-002
   6.6461553238053694E-002  -1.9674097993181983E-002   1.4964148844492431E-002
   6.9706983232958569E-002  -2.1313012442822826E-002   2.2369949785915368E-002
   6.7690341146380562E-002  -2.0545215805751776E-002   2.2172937474104308E-002
   6.5673699059802554E-002  -1.9779362508904712E-002   2.2061638815141903E-002
   6.3657056973224588E-002  -1.9015452552281306E-002   2.2036053809027942E-002
   6.1640414886646594E-002  -1.8253485935881719E-002   2.2096182455763044E-002
   6.4543527978125098E-002  -1.9653435882320158E-002   2.9447864800407952E-002
   6.2580427668121219E-002  -1.8975927738326487E-002   2.9356144940923673E-002
   6.0617327358117326E-002  -1.8279998023038729E-002   2.9285794981739083E-002
   5.8654227048113468E-002  -1.7565646736456976E-002   2.9236814922853918E-002
   5.6691126738109554E-002  -1.6832873878581345E-002   2.9209204764268415E-002
   7.5719380549478021E-002  -2.2515322107782731E-002   6.4304771365675251E-004
   7.2420118684715429E-002  -2.1675026492390004E-002   4.7443508051014938E-004
   6.9120856819952892E-002  -2.0790197355376183E-002   4.3927707670488036E-004
   6.5821594955190355E-002  -1.9860834696741228E-002   5.3757370224105649E-004
   6.2522333090427762E-002  -1.8886938516485818E-002   7.6932495711834470E-004
   7.1154541792330772E-002  -2.1094710050482579E-002   7.8131039304570327E-003
   6.8006594886510618E-002  -2.0280683417064960E-002   7.5714776721923505E-003
   6.4858647980690382E-002  -1.9436638620447311E-002   7.4990267024706292E-003
   6.1710701074870186E-002  -1.8562575660629771E-002   7.5957510212927848E-003
   5.8562754169049991E-002  -1.7658494537611591E-002   7.8616506286589560E-003
   6.6461553238053694E-002  -1.9674097993181983E-002   1.4964148844492431E-002
   6.3500641950378051E-002  -1.8886340341739888E-002   1.4634993602688356E-002
   6.0539730662702407E-002  -1.8083079885518411E-002   1.4510734308630230E-002
   5.7578819375026791E-002  -1.7264316624517530E-002   1.4591370962317871E-002
   5.4617908087351147E-002  -1.6430050558737253E-002   1.4876903563750987E-002
   6.1640414886646594E-002  -1.8253485935881719E-002   2.2096182455763044E-002
   5.8902259876317753E-002  -1.7491997266414774E-002   2.1664982871999347E-002
   5.6164104865988843E-002  -1.6729521150589302E-002   2.1474399895183259E-002
   5.3425949855659960E-002  -1.5966057588405459E-002   2.1524433525315207E-002
   5.0687794845331147E-002  -1.5201606579863192E-002   2.1815083762395091E-002
   5.6691126738109554E-002  -1.6832873878581345E-002   2.9209204764268415E-002
   5.4211448664329642E-002  -1.6097654191089716E-002   2.8661445480124059E-002
   5.1731770590549814E-002  -1.5375962415660555E-002   2.8390023462129488E-002
   4.9252092516769916E-002  -1.4667798552293505E-002   2.8394938710285311E-002
   4.6772414442990018E-002  -1.3973162600988909E-002   2.8676191224590863E-002
   6.2522333090427762E-002  -1.8886938516485818E-002   7.6932495711834470E-004
   5.9606309925579026E-002  -1.7919971490442776E-002   4.4072980997467148E-004
   5.6690286760730291E-002  -1.7011396294445424E-002   3.2520764692645088E-004
   5.3774263595881611E-002  -1.6161212928494331E-002   4.2275846797409922E-004
   5.0858240431032820E-002  -1.5369421392588789E-002   7.3338227311658954E-004
   5.8562754169049991E-002  -1.7658494537611591E-002   7.8616506286589560E-003
   5.5844808990602901E-002  -1.6757446931947639E-002   7.4855548095233981E-003
   5.3126863812155756E-002  -1.5892484524191453E-002   7.2925419790956791E-003
   5.0408918633708638E-002  -1.5063607314343641E-002   7.2826121373753272E-003
   4.7690973455261521E-002  -1.4270815302403927E-002   7.4557652843633138E-003
   5.4617908087351147E-002  -1.6430050558737253E-002   1.4876903563750987E-002
   5.2068050899917950E-002  -1.5594922373452613E-002   1.4475613704761414E-002
   4.9518193712484809E-002  -1.4773572753938008E-002   1.4227416839092039E-002
   4.6968336525051654E-002  -1.3966001700193277E-002   1.4132312966742999E-002
   4.4418479337618472E-002  -1.3172209212218733E-002   1.4190302087713713E-002
   5.0687794845331147E-002  -1.5201606579863192E-002   2.1815083762395091E-002
   4.8276035653524278E-002  -1.4432397814957643E-002   2.1410906495689441E-002
   4.5864276461717465E-002  -1.3654660983684189E-002   2.1129832226916383E-002
   4.3452517269910583E-002  -1.2868396086043083E-002   2.0971860956075870E-002
   4.1040758078103791E-002  -1.2073603122033927E-002   2.0936992683167899E-002
   4.6772414442990018E-002  -1.3973162600988909E-002   2.8676191224590863E-002
   4.4468763251421878E-002  -1.3269873256462450E-002   2.8291433182307091E-002
   4.2165112059853682E-002  -1.2535749213430369E-002   2.7999788142568205E-002
   3.9861460868285487E-002  -1.1770790471892556E-002   2.7801256105374289E-002
   3.7557809676717291E-002  -1.0974997031849010E-002   2.7695837070725093E-002
   5.0858240431032820E-002  -1.5369421392588789E-002   7.3338227311658954E-004
   4.8113106463057775E-002  -1.4585368341468841E-002   5.0202132355881002E-004
   4.5367972495082898E-002  -1.3758400429875306E-002   3.0650738691562207E-004
   4.2622838527107881E-002  -1.2888517657807436E-002   1.4684046318635957E-004
   3.9877704559132976E-002  -1.1975720025265035E-002   2.3020552371466607E-005
   4.7690973455261521E-002  -1.4270815302403927E-002   7.4557652843633138E-003
   4.4995585313504172E-002  -1.3484337920538492E-002   7.1662614053535911E-003
   4.2300197171746795E-002  -1.2674404600916150E-002   6.9404021658644455E-003
   3.9604809029989377E-002  -1.1841015343535148E-002   6.7781875658961821E-003
   3.6909420888232070E-002  -1.0984170148397254E-002   6.6796176054491063E-003
   4.4418479337618472E-002  -1.3172209212218733E-002   1.4190302087713713E-002
   4.1800634648685331E-002  -1.2383307499608309E-002   1.3823196356534950E-002
   3.9182789959752287E-002  -1.1590408771956995E-002   1.3547532891483804E-002
   3.6564945270819209E-002  -1.0793513029263749E-002   1.3363311692560623E-002
   3.3947100581886103E-002  -9.9926202715295842E-003   1.3270532759764586E-002
   4.1040758078103791E-002  -1.2073603122033927E-002   2.0936992683167899E-002
   3.8528254468601711E-002  -1.1282277078678488E-002   2.0472826177103907E-002
   3.6015750859099582E-002  -1.0506412942998061E-002   2.0127899563774261E-002
   3.3503247249597481E-002  -9.7460107149923494E-003   1.9902212843178939E-002
   3.0990743640095325E-002  -9.0010703946619697E-003   1.9795766015318114E-002
   3.7557809676717291E-002  -1.0974997031849010E-002   2.7695837070725093E-002
   3.5178444773252937E-002  -1.0181246657748277E-002   2.7115150867059512E-002
   3.2799079869788528E-002  -9.4224171140389057E-003   2.6681502182735184E-002
   3.0419714966324174E-002  -8.6985084007210056E-003   2.6394891017752109E-002
   2.8040350062859765E-002  -8.0095205177942441E-003   2.6255317372109732E-002
   3.9877704559132976E-002  -1.1975720025265035E-002   2.3020552371466607E-005
   3.7456649040977341E-002  -1.1126276373951471E-002  -2.8397058389417751E-004
   3.5035593522821706E-002  -1.0446455545568611E-002  -4.9240417740559206E-004
   3.2614538004666127E-002  -9.9362575401179126E-003  -6.0228022816244398E-004
   3.0193482486510437E-002  -9.5956823575975569E-003  -6.1359873616484428E-004
   3.6909420888232070E-002  -1.0984170148397254E-002   6.6796176054491063E-003
   3.4567003749287062E-002  -1.0171170871927204E-002   6.2182853711814090E-003
   3.2224586610342082E-002  -9.4693193705526202E-003   5.8156723525802922E-003
   2.9882169471397060E-002  -8.8786156442724473E-003   5.4717785496468385E-003
   2.7539752332452150E-002  -8.3990596930871853E-003   5.1866039623789106E-003
   3.3947100581886103E-002  -9.9926202715295842E-003   1.3270532759764586E-002
   3.1643483495064073E-002  -9.2160653699034922E-003   1.2713334475331517E-002
   2.9339866408242016E-002  -8.4921831955361571E-003   1.2175017079477823E-002
   2.7036249321420028E-002  -7.8209737484269751E-003   1.1655580572202465E-002
   2.4732632234597929E-002  -7.2024370285761474E-003   1.1155024953506731E-002
   3.0990743640095325E-002  -9.0010703946619697E-003   1.9795766015318114E-002
   2.8686088278308486E-002  -8.2609598678798357E-003   1.9201176728556521E-002
   2.6381432916521619E-002  -7.5150470205199299E-003   1.8585630003285621E-002
   2.4076777554734714E-002  -6.7633318525817283E-003   1.7949125839506027E-002
   2.1772122192947913E-002  -6.0058143640655537E-003   1.7291664237218007E-002
   2.8040350062859765E-002  -8.0095205177942441E-003   2.6255317372109732E-002
   2.5694818099020300E-002  -7.3058543658560682E-003   2.5681812130855297E-002
   2.3349286135180780E-002  -6.5379108455033974E-003   2.5047511124004163E-002
   2.1003754171341288E-002  -5.7056899567365163E-003   2.4352414351556689E-002
   1.8658222207501796E-002  -4.8091916995546269E-003   2.3596521813513016E-002
   3.0193482486510437E-002  -9.5956823575975569E-003  -6.1359873616484428E-004
   2.9591172109834973E-002  -9.1345904965685065E-003  -3.5962725735361190E-004
   2.8988861733159343E-002  -8.2628424555890589E-003  -1.7919687906069459E-003
   2.8386551356483769E-002  -6.9804382346587701E-003  -4.9106233359244578E-003
   2.7784240979808250E-002  -5.2873778337785282E-003  -9.7155908933073132E-003
   2.7539752332452150E-002  -8.3990596930871853E-003   5.1866039623789106E-003
   2.5521663072228640E-002  -7.8689703613564754E-003   5.8691549839792190E-003
   2.3503573812005046E-002  -7.1266664934395152E-003   5.4064612505478893E-003
   2.1485484551781467E-002  -6.1721480893376368E-003   3.7985227620851159E-003
   1.9467395291557832E-002  -5.0054151490495080E-003   1.0453395185909820E-003
   2.4732632234597929E-002  -7.2024370285761474E-003   1.1155024953506731E-002
   2.1839832347859633E-002  -6.6033502261440002E-003   1.2067713874130748E-002
   1.8947032461121310E-002  -5.9904905312906376E-003   1.2376226296757414E-002
   1.6054232574383029E-002  -5.3638579440162815E-003   1.2080562221385233E-002
   1.3161432687644720E-002  -4.7234524643204878E-003   1.1180721648015313E-002
   2.1772122192947913E-002  -6.0058143640655537E-003   1.7291664237218007E-002
   1.8545679936728079E-002  -5.3377300909321912E-003   1.8236049413102098E-002
   1.5319237680508184E-002  -4.8543145691414269E-003   1.9117326348020949E-002
   1.2092795424288341E-002  -4.5555677986945931E-003   1.9935495041975060E-002
   8.8663531680685664E-003  -4.4414897795910235E-003   2.0690555494964263E-002
   1.8658222207501796E-002  -4.8091916995546269E-003   2.3596521813513016E-002
   1.5639205838833714E-002  -4.0721099557196050E-003   2.4374161600892008E-002
   1.2620189470165633E-002  -3.7181386069925493E-003   2.5629761404339702E-002
   9.6011731014975649E-003  -3.7472776533732655E-003   2.7363321223855430E-002
   6.5821567328294694E-003  -4.1595270948618923E-003   2.9574841059439527E-002
   2.7784240979808250E-002  -5.2873778337785282E-003  -9.7155908933073132E-003
   2.3355768867250659E-002  -4.2035262309372268E-003  -4.1901918640736557E-003
   1.8927296754693235E-002  -4.7487484041249806E-003   2.6026473615090584E-003
   1.4498824642135755E-002  -6.9230443533405406E-003   1.0662926783441495E-002
   1.0070352529578219E-002  -1.0726414078584767E-002   1.9990646401724099E-002
   1.9467395291557832E-002  -5.0054151490495080E-003   1.0453395185909820E-003
   1.6233332518271748E-002  -4.6892720924883724E-003   6.7373567352490005E-003
   1.2999269744985331E-002  -6.2865233395678066E-003   1.3550752434098534E-002
   9.7652069716989698E-003  -9.7971688902874499E-003   2.1485526615142025E-002
   6.5311441984128304E-003  -1.5221208744647274E-002   3.0541679278377476E-002
   1.3161432687644720E-002  -4.7234524643204878E-003   1.1180721648015313E-002
   1.0975717539472657E-002  -5.1750179540398511E-003   1.6755036524485178E-002
   8.7900023913006359E-003  -7.8242982750109102E-003   2.3304668168991072E-002
   6.6042872431286009E-003  -1.2671293427234817E-002   3.0829616581532382E-002
   4.4185720949565521E-003  -1.9716003410710226E-002   3.9329881762110164E-002
   8.8663531680685664E-003  -4.4414897795910235E-003   2.0690555494964263E-002
   7.5829239308537674E-003  -5.6607638155907192E-003   2.5862847503635239E-002
   6.2994946936389754E-003  -9.3620732104543192E-003   3.1864394566184340E-002
   5.0160654564242561E-003  -1.5545417964181733E-002   3.8695196682613141E-002
   3.7326362192094120E-003  -2.4210798076772955E-002   4.6355253852920275E-002
   6.5821567328294694E-003  -4.1595270948618923E-003   2.9574841059439527E-002
   6.0549516924149893E-003  -6.1465096771420313E-003   3.4060789672699321E-002
   5.5277466520005369E-003  -1.0899848145897478E-002   3.9229931625680614E-002
   5.0005416115861817E-003  -1.8419542501129087E-002   4.5082266918383768E-002
   4.4733365711716599E-003  -2.8705592742835684E-002   5.1617795550809475E-002
   7.5795897582059402E-002  -2.3718942321517500E-002   3.1826721116088585E-002
   7.2982805181075860E-002  -2.2441506273128686E-002   3.0290055183966491E-002
   7.0169712780092264E-002  -2.1338109850466122E-002   2.9381357153979187E-002
   6.7356620379108695E-002  -2.0408753053530012E-002   2.9100627026126327E-002
   6.4543527978125098E-002  -1.9653435882320158E-002   2.9447864800407952E-002
   6.8554263819209621E-002  -2.1137634434954922E-002   3.6112447838055728E-002
   6.6258256505077828E-002  -2.0288499194862308E-002   3.5088817548152129E-002
   6.3962249190945883E-002  -1.9493809389995329E-002   3.4471389529817709E-002
   6.1666241876814014E-002  -1.8753565020354326E-002   3.4260163783052119E-002
   5.9370234562682117E-002  -1.8067766085938936E-002   3.4455140307855320E-002
   6.2050791044337361E-002  -1.8556326548392371E-002   3.9910076656476237E-002
   6.0050103186491538E-002  -1.8135492116595819E-002   3.9519076199292139E-002
   5.8049415328645645E-002  -1.7649508929524542E-002   3.9312512383110960E-002
   5.6048727470799753E-002  -1.7098376987178449E-002   3.9290385207933057E-002
   5.4048039612953867E-002  -1.6482096289557602E-002   3.9452694673758268E-002
   5.6285479257442442E-002  -1.5975018661829835E-002   4.3219607571350516E-002
   5.4358345225317024E-002  -1.5982485038329358E-002   4.3580831137385895E-002
   5.2431211193191399E-002  -1.5805208469053669E-002   4.3904725713858950E-002
   5.0504077161065850E-002  -1.5443188954002721E-002   4.4191291300769237E-002
   4.8576943128940321E-002  -1.4896426493176296E-002   4.4440527898117088E-002
   5.1258328458525071E-002  -1.3393710775267242E-002   4.6041040582678383E-002
   4.9182982621554183E-002  -1.3829477960062952E-002   4.7274082362434022E-002
   4.7107636784583296E-002  -1.3960908008582920E-002   4.8248029522061447E-002
   4.5032290947612394E-002  -1.3788000920826871E-002   4.8962882061560783E-002
   4.2956945110641492E-002  -1.3310756696795045E-002   4.9418639980931711E-002
   6.4543527978125098E-002  -1.9653435882320158E-002   2.9447864800407952E-002
   6.2580427668121219E-002  -1.8975927738326487E-002   2.9356144940923673E-002
   6.0617327358117326E-002  -1.8279998023038729E-002   2.9285794981739083E-002
   5.8654227048113468E-002  -1.7565646736456976E-002   2.9236814922853918E-002
   5.6691126738109554E-002  -1.6832873878581345E-002   2.9209204764268415E-002
   5.9370234562682117E-002  -1.8067766085938936E-002   3.4455140307855320E-002
   5.7464454448678218E-002  -1.7407880275529697E-002   3.4260989589039670E-002
   5.5558674334674318E-002  -1.6745375277907475E-002   3.4160109361924415E-002
   5.3652894220670419E-002  -1.6080251093071943E-002   3.4152499626509493E-002
   5.1747114106666520E-002  -1.5412507721023316E-002   3.4238160382794924E-002
   5.4048039612953867E-002  -1.6482096289557602E-002   3.9452694673758268E-002
   5.2271480286350674E-002  -1.5839832812733115E-002   3.9140310711530714E-002
   5.0494920959747489E-002  -1.5210752532776220E-002   3.8993097832404011E-002
   4.8718361633144310E-002  -1.4594855449686962E-002   3.9011056036378611E-002
   4.6941802306541117E-002  -1.3992141563465177E-002   3.9194185323454200E-002
   4.8576943128940321E-002  -1.4896426493176296E-002   4.4440527898117088E-002
   4.7001505181138638E-002  -1.4271785349936457E-002   4.3994108308396507E-002
   4.5426067233336941E-002  -1.3676129787644910E-002   4.3784760393177843E-002
   4.3850629285535236E-002  -1.3109459806301899E-002   4.3812484152461029E-002
   4.2275191337733539E-002  -1.2571775405907065E-002   4.4077279586245972E-002
   4.2956945110641492E-002  -1.3310756696795045E-002   4.9418639980931711E-002
   4.1654529133042031E-002  -1.2703737887139799E-002   4.8822382379637430E-002
   4.0352113155442557E-002  -1.2141507042513711E-002   4.8535097044245745E-002
   3.9049697177843082E-002  -1.1624064162916892E-002   4.8556783974757073E-002
   3.7747281200243621E-002  -1.1151409248349009E-002   4.8887443171170497E-002
   5.6691126738109554E-002  -1.6832873878581345E-002   2.9209204764268415E-002
   5.4211448664329642E-002  -1.6097654191089716E-002   2.8661445480124059E-002
   5.1731770590549814E-002  -1.5375962415660555E-002   2.8390023462129488E-002
   4.9252092516769916E-002  -1.4667798552293505E-002   2.8394938710285311E-002
   4.6772414442990018E-002  -1.3973162600988909E-002   2.8676191224590863E-002
   5.1747114106666520E-002  -1.5412507721023316E-002   3.4238160382794924E-002
   4.9521703951284302E-002  -1.4743444054422933E-002   3.3800279327129784E-002
   4.7296293795902139E-002  -1.4074358985932151E-002   3.3594596842110108E-002
   4.5070883640519935E-002  -1.3405252515551393E-002   3.3621112927735869E-002
   4.2845473485137758E-002  -1.2736124643280333E-002   3.3879827584006650E-002
   4.6941802306541117E-002  -1.3992141563465177E-002   3.9194185323454200E-002
   4.4926521374051967E-002  -1.3389233917755899E-002   3.8879731810220836E-002
   4.2911240441562797E-002  -1.2772755556203788E-002   3.8753338172128241E-002
   4.0895959509073626E-002  -1.2142706478809166E-002   3.8815004409176297E-002
   3.8880678576584476E-002  -1.1499086685571647E-002   3.9064730521364999E-002
   4.2275191337733539E-002  -1.2571775405907065E-002   4.4077279586245972E-002
   4.0425900932632652E-002  -1.2035023781088880E-002   4.3899802929397123E-002
   3.8576610527531772E-002  -1.1471152126475433E-002   4.3866247452184134E-002
   3.6727320122430886E-002  -1.0880160442066829E-002   4.3976613154606915E-002
   3.4878029717329999E-002  -1.0262048727863071E-002   4.4230900036665882E-002
   3.7747281200243621E-002  -1.1151409248349009E-002   4.8887443171170497E-002
   3.6019842627026344E-002  -1.0680813644421916E-002   4.8860492684658363E-002
   3.4292404053809067E-002  -1.0169548696747022E-002   4.8933324682277457E-002
   3.2564965480591790E-002  -9.6176144053247703E-003   4.9105939164027973E-002
   3.0837526907374513E-002  -9.0250107701543847E-003   4.9378336129909384E-002
   4.6772414442990018E-002  -1.3973162600988909E-002   2.8676191224590863E-002
   4.4468763251421878E-002  -1.3269873256462450E-002   2.8291433182307091E-002
   4.2165112059853682E-002  -1.2535749213430369E-002   2.7999788142568205E-002
   3.9861460868285487E-002  -1.1770790471892556E-002   2.7801256105374289E-002
   3.7557809676717291E-002  -1.0974997031849010E-002   2.7695837070725093E-002
   4.2845473485137758E-002  -1.2736124643280333E-002   3.3879827584006650E-002
   4.0651274628092787E-002  -1.2056695041880922E-002   3.3499263300436177E-002
   3.8457075771047775E-002  -1.1356683384115551E-002   3.3244490683367101E-002
   3.6262876914002769E-002  -1.0636089669983778E-002   3.3115509732799295E-002
   3.4068678056957791E-002  -9.8949138994859354E-003   3.3112320448733135E-002
   3.8880678576584476E-002  -1.1499086685571647E-002   3.9064730521364999E-002
   3.6828610718019190E-002  -1.0843516827299449E-002   3.8678107354367997E-002
   3.4776542859454015E-002  -1.0177617554800844E-002   3.8449954517829246E-002
   3.2724475000888827E-002  -9.5013888680751113E-003   3.8380272011748581E-002
   3.0672407142323554E-002  -8.8148307671229165E-003   3.8469059836125807E-002
   3.4878029717329999E-002  -1.0262048727863071E-002   4.4230900036665882E-002
   3.3000771521201240E-002  -9.6303386127180590E-003   4.3827965344103104E-002
   3.1123513325072443E-002  -8.9985517254858316E-003   4.3616179645955135E-002
   2.9246255128943646E-002  -8.3666880661665000E-003   4.3595542942221781E-002
   2.7368996932814832E-002  -7.7347476347599253E-003   4.3766055232903306E-002
   3.0837526907374513E-002  -9.0250107701543847E-003   4.9378336129909384E-002
   2.9167757037638770E-002  -8.4171603981363918E-003   4.8948837269641443E-002
   2.7497987167903040E-002  -7.8194858961712632E-003   4.8743166067744703E-002
   2.5828217298167276E-002  -7.2319872642577082E-003   4.8761322524219247E-002
   2.4158447428431512E-002  -6.6546645023968232E-003   4.9003306639065491E-002
   3.7557809676717291E-002  -1.0974997031849010E-002   2.7695837070725093E-002
   3.5178444773252937E-002  -1.0181246657748277E-002   2.7115150867059512E-002
   3.2799079869788528E-002  -9.4224171140389057E-003   2.6681502182735184E-002
   3.0419714966324174E-002  -8.6985084007210056E-003   2.6394891017752109E-002
   2.8040350062859765E-002  -8.0095205177942441E-003   2.6255317372109732E-002
   3.4068678056957791E-002  -9.8949138994859354E-003   3.3112320448733135E-002
   3.1836299491319470E-002  -9.1544846648246025E-003   3.2595945789462788E-002
   2.9603920925681149E-002  -8.4361305582027479E-003   3.2226506286503726E-002
   2.7371542360042855E-002  -7.7398515796198580E-003   3.2004001939855753E-002
   2.5139163794404479E-002  -7.0656477290763631E-003   3.1928432749518898E-002
   3.0672407142323554E-002  -8.8148307671229165E-003   3.8469059836125807E-002
   2.8586912551481478E-002  -8.1277226719008999E-003   3.8029842423602855E-002
   2.6501417960639290E-002  -7.4498440023661461E-003   3.7737457804361080E-002
   2.4415923369797143E-002  -6.7811947585183774E-003   3.7591905978400481E-002
   2.2330428778955039E-002  -6.1217749403579824E-003   3.7593186945721196E-002
   2.7368996932814832E-002  -7.7347476347599253E-003   4.3766055232903306E-002
   2.5430283953738943E-002  -7.1009606789773222E-003   4.3416840769479603E-002
   2.3491570974662999E-002  -6.4635574465296552E-003   4.3214356736307177E-002
   2.1552857995587055E-002  -5.8225379374172853E-003   4.3158603133385987E-002
   1.9614145016511111E-002  -5.1779021516397405E-003   4.3249579960716149E-002
   2.4158447428431512E-002  -6.6546645023968232E-003   4.9003306639065491E-002
   2.2366413698091892E-002  -6.0741986860535224E-003   4.8756940827092921E-002
   2.0574379967752257E-002  -5.4772708906931644E-003   4.8657203082342004E-002
   1.8782346237412616E-002  -4.8638811163157492E-003   4.8704093404812243E-002
   1.6990312507073002E-002  -4.2340293629216097E-003   4.8897611794504137E-002
   2.8040350062859765E-002  -8.0095205177942441E-003   2.6255317372109732E-002
   2.5694818099020300E-002  -7.3058543658560682E-003   2.5681812130855297E-002
   2.3349286135180780E-002  -6.5379108455033974E-003   2.5047511124004163E-002
   2.1003754171341288E-002  -5.7056899567365163E-003   2.4352414351556689E-002
   1.8658222207501796E-002  -4.8091916995546269E-003   2.3596521813513016E-002
   2.5139163794404479E-002  -7.0656477290763631E-003   3.1928432749518898E-002
   2.2774193026439876E-002  -6.3940897477988701E-003   3.1529266101702258E-002
   2.0409222258475260E-002  -5.7057483770143191E-003   3.1152017611231653E-002
   1.8044251490510671E-002  -5.0006236167229601E-003   3.0796687278107276E-002
   1.5679280722546041E-002  -4.2787154669243765E-003   3.0463275102329157E-002
   2.2330428778955039E-002  -6.1217749403579824E-003   3.7593186945721196E-002
   2.0028733129807894E-002  -5.4823251297413944E-003   3.7320864912434332E-002
   1.7727037480660790E-002  -4.8735859085252270E-003   3.7153174959436833E-002
   1.5425341831513679E-002  -4.2955572767094004E-003   3.7090117086728096E-002
   1.3123646182366555E-002  -3.7482392342941817E-003   3.7131691294308156E-002
   1.9614145016511111E-002  -5.1779021516397405E-003   4.3249579960716149E-002
   1.7458438409124210E-002  -4.5705605116838355E-003   4.3056608563052504E-002
   1.5302731801737302E-002  -4.0414234400360863E-003   4.3050983168620466E-002
   1.3147025194350428E-002  -3.5904909366957869E-003   4.3232703777419661E-002
   1.0991318586963488E-002  -3.2177630016639036E-003   4.3601770389450914E-002
   1.6990312507073002E-002  -4.2340293629216097E-003   4.8897611794504137E-002
   1.5063308864388947E-002  -3.6587958936266651E-003   4.8736497053555761E-002
   1.3136305221704864E-002  -3.2092609715470011E-003   4.8845442238781622E-002
   1.1209301579020794E-002  -2.8854245966825481E-003   4.9224447350181749E-002
   9.2822979363367253E-003  -2.6872867690336255E-003   4.9873512387755947E-002
   1.8658222207501796E-002  -4.8091916995546269E-003   2.3596521813513016E-002
   1.5639205838833714E-002  -4.0721099557196050E-003   2.4374161600892008E-002
   1.2620189470165633E-002  -3.7181386069925493E-003   2.5629761404339702E-002
   9.6011731014975649E-003  -3.7472776533732655E-003   2.7363321223855430E-002
   6.5821567328294694E-003  -4.1595270948618923E-003   2.9574841059439527E-002
   1.5679280722546041E-002  -4.2787154669243765E-003   3.0463275102329157E-002
   1.3118692320927133E-002  -3.7672247002671910E-003   3.1234325510016536E-002
   1.0558103919308282E-002  -3.6933520893999983E-003   3.2444271835734340E-002
   7.9975155176893672E-003  -4.0570976343220419E-003   3.4093114079481956E-002
   5.4369271160705779E-003  -4.8584613350342032E-003   3.6180852241259998E-002
   1.3123646182366555E-002  -3.7482392342941817E-003   3.7131691294308156E-002
   1.0982421649758656E-002  -3.4623394448149436E-003   3.7841644561622506E-002
   8.8411971171507078E-003  -3.6685655718071142E-003   3.8951429648928559E-002
   6.6999725845428189E-003  -4.3669176152711514E-003   4.0461046556226579E-002
   4.5587480519348605E-003  -5.5573955752065696E-003   4.2370495283516135E-002
   1.0991318586963488E-002  -3.2177630016639036E-003   4.3601770389450914E-002
   9.2303938253281981E-003  -3.1574541893625019E-003   4.4196118755709703E-002
   7.4694690636930173E-003  -3.6437790542145077E-003   4.5151234843921959E-002
   5.7085443020577680E-003  -4.6767375962200944E-003   4.6467118654088015E-002
   3.9476195404225985E-003  -6.2563298153790192E-003   4.8143770186207517E-002
   9.2822979363367253E-003  -2.6872867690336255E-003   4.9873512387755947E-002
   7.8626088476359546E-003  -2.8525689339103377E-003   5.0297748092277939E-002
   6.4429197589351006E-003  -3.6189925366215958E-003   5.1043687420714801E-002
   5.0232306702342466E-003  -4.9865575771692386E-003   5.2111330373067227E-002
   3.6035415815334204E-003  -6.9552640555514689E-003   5.3500676949334913E-002
   6.5821567328294694E-003  -4.1595270948618923E-003   2.9574841059439527E-002
   6.0549516924149893E-003  -6.1465096771420313E-003   3.4060789672699321E-002
   5.5277466520005369E-003  -1.0899848145897478E-002   3.9229931625680614E-002
   5.0005416115861817E-003  -1.8419542501129087E-002   4.5082266918383768E-002
   4.4733365711716599E-003  -2.8705592742835684E-002   5.1617795550809475E-002
   5.4369271160705779E-003  -4.8584613350342032E-003   3.6180852241259998E-002
   5.4896277615153755E-003  -6.9958934889866597E-003   3.8330126434697298E-002
   5.5423284069602563E-003  -1.1367844393629895E-002   4.0956018660131321E-002
   5.5950290524051441E-003  -1.7974314048964567E-002   4.4058528917561512E-002
   5.6477296978499902E-003  -2.6815302454990420E-002   4.7637657206989426E-002
   4.5587480519348605E-003  -5.5573955752065696E-003   4.2370495283516135E-002
   4.9847790755140203E-003  -7.8452773008310661E-003   4.2714932192915084E-002
   5.4108100990932426E-003  -1.1835840641362436E-002   4.3329411826585659E-002
   5.8368411226723642E-003  -1.7529085596800439E-002   4.4213934184528049E-002
   6.2628721462516246E-003  -2.4925012167145155E-002   4.5368499266742246E-002
   3.9476195404225985E-003  -6.2563298153790192E-003   4.8143770186207517E-002
   4.5404056344109170E-003  -8.6946611126755835E-003   4.7215206947353101E-002
   5.1331917283994107E-003  -1.2303836889094803E-002   4.6350111125044974E-002
   5.7259778223879313E-003  -1.7083857144636116E-002   4.5548482719283148E-002
   6.3187639163762230E-003  -2.3034721879299891E-002   4.4810321730069352E-002
   3.6035415815334204E-003  -6.9552640555514689E-003   5.3500676949334913E-002
   4.1565074382061695E-003  -9.5440449245202119E-003   5.1830950698010581E-002
   4.7094732948788354E-003  -1.2771833136827337E-002   5.0018116555508363E-002
   5.2624391515515012E-003  -1.6638628692471888E-002   4.8062174521827150E-002
   5.8154050082243058E-003  -2.1144431591454627E-002   4.5963124596968719E-002
   5.1258328458525071E-002  -1.3393710775267242E-002   4.6041040582678383E-002
   4.9182982621554183E-002  -1.3829477960062952E-002   4.7274082362434022E-002
   4.7107636784583296E-002  -1.3960908008582920E-002   4.8248029522061447E-002
   4.5032290947612394E-002  -1.3788000920826871E-002   4.8962882061560783E-002
   4.2956945110641492E-002  -1.3310756696795045E-002   4.9418639980931711E-002
   4.5893050423347875E-002  -1.3257428337040911E-002   5.2392707313022424E-002
   4.3729971528180769E-002  -1.2889116631338876E-002   5.2556246914579136E-002
   4.1566892633013677E-002  -1.2478038621180049E-002   5.2803415019871958E-002
   3.9403813737846613E-002  -1.2024194306564366E-002   5.3134211628900543E-002
   3.7240734842679507E-002  -1.1527583687491849E-002   5.3548636741664823E-002
   3.9113356927673620E-002  -1.3121145898814524E-002   5.9679238349773442E-002
   3.7205268098174260E-002  -1.1948755302614827E-002   5.8511704941312664E-002
   3.5297179268675039E-002  -1.0995169233777281E-002   5.7770523160451635E-002
   3.3389090439175761E-002  -1.0260387692301915E-002   5.7455693007190514E-002
   3.1481001609676484E-002  -9.7444106781885975E-003   5.7567214481529128E-002
   3.0919247971502202E-002  -1.2984863460588150E-002   6.7900633692931714E-002
   2.9608872331534784E-002  -1.1008393973890807E-002   6.5140456442634248E-002
   2.8298496691567317E-002  -9.5122998463745174E-003   6.3149353943800557E-002
   2.6988121051599898E-002  -8.4965810780393246E-003   6.1927326196430724E-002
   2.5677745411632456E-002  -7.9612376688853737E-003   6.1474373200524679E-002
   2.1310723554833821E-002  -1.2848581022361805E-002   7.7056893342496990E-002
   2.0940784228262233E-002  -1.0068032645166647E-002   7.2442501418544025E-002
   2.0570844901690588E-002  -8.0294304589716703E-003   6.8939907369918674E-002
   2.0200905575118978E-002  -6.7327744637769790E-003   6.6549111196621297E-002
   1.9830966248547369E-002  -6.1780646595821498E-003   6.5270112898651533E-002
   4.2956945110641492E-002  -1.3310756696795045E-002   4.9418639980931711E-002
   4.1654529133042031E-002  -1.2703737887139799E-002   4.8822382379637430E-002
   4.0352113155442557E-002  -1.2141507042513711E-002   4.8535097044245745E-002
   3.9049697177843082E-002  -1.1624064162916892E-002   4.8556783974757073E-002
   3.7747281200243621E-002  -1.1151409248349009E-002   4.8887443171170497E-002
   3.7240734842679507E-002  -1.1527583687491849E-002   5.3548636741664823E-002
   3.6231463914929332E-002  -1.1023814891660558E-002   5.2856410001291973E-002
   3.5222192987179185E-002  -1.0548496046768274E-002   5.2441501094715348E-002
   3.4212922059429010E-002  -1.0101627152815332E-002   5.2303910021934699E-002
   3.3203651131678863E-002  -9.6832082098016747E-003   5.2443636782949943E-002
   3.1481001609676484E-002  -9.7444106781885975E-003   5.7567214481529128E-002
   3.0733221299669034E-002  -9.3438918961810391E-003   5.6795356616167886E-002
   2.9985440989661556E-002  -8.9554850510228379E-003   5.6269162152495888E-002
   2.9237660679654106E-002  -8.5791901427139383E-003   5.5988631090513344E-002
   2.8489880369646628E-002  -8.2150071712543404E-003   5.5953763430220210E-002
   2.5677745411632456E-002  -7.9612376688853737E-003   6.1474373200524679E-002
   2.5159801287261096E-002  -7.6639689007015760E-003   6.0639222224264627E-002
   2.4641857162889712E-002  -7.3624740552774015E-003   6.0018080217587477E-002
   2.4123913038518352E-002  -7.0567531326124616E-003   5.9610947180493090E-002
   2.3605968914146996E-002  -6.7468061327069229E-003   5.9417823112981424E-002
   1.9830966248547369E-002  -6.1780646595821498E-003   6.5270112898651533E-002
   1.9511203877705482E-002  -5.9840459052222239E-003   6.4388006825582655E-002
   1.9191441506863610E-002  -5.7694630595319235E-003   6.3688255289990059E-002
   1.8871679136021731E-002  -5.5343161225111133E-003   6.3170858291873563E-002
   1.8551916765179866E-002  -5.2786050941596718E-003   6.2835815831233266E-002
   3.7747281200243621E-002  -1.1151409248349009E-002   4.8887443171170497E-002
   3.6019842627026344E-002  -1.0680813644421916E-002   4.8860492684658363E-002
   3.4292404053809067E-002  -1.0169548696747022E-002   4.8933324682277457E-002
   3.2564965480591790E-002  -9.6176144053247703E-003   4.9105939164027973E-002
   3.0837526907374513E-002  -9.0250107701543847E-003   4.9378336129909384E-002
   3.3203651131678863E-002  -9.6832082098016747E-003   5.2443636782949943E-002
   3.1603000709532314E-002  -9.2646897824499308E-003   5.2308210401591254E-002
   3.0002350287385765E-002  -8.8175224354831161E-003   5.2326577838242877E-002
   2.8401699865239230E-002  -8.3417061689009114E-003   5.2498739092904728E-002
   2.6801049443092667E-002  -7.8372409827036082E-003   5.2824694165576724E-002
   2.8489880369646628E-002  -8.2150071712543404E-003   5.5953763430220210E-002
   2.7070029432449794E-002  -7.8485659204780844E-003   5.5697840729882514E-002
   2.5650178495252952E-002  -7.4654961742190440E-003   5.5649723181434158E-002
   2.4230327558056135E-002  -7.0657979324771636E-003   5.5809410784874933E-002
   2.2810476620859284E-002  -6.6494711952527208E-003   5.6176903540204770E-002
   2.3605968914146996E-002  -6.7468061327069229E-003   5.9417823112981424E-002
   2.2420928795778821E-002  -6.4324420585061132E-003   5.9029383669532240E-002
   2.1235888677410629E-002  -6.1134699129549164E-003   5.8902760711851451E-002
   2.0050848559042458E-002  -5.7898896960536933E-003   5.9037954239938642E-002
   1.8865808440674266E-002  -5.4617014078018333E-003   5.9434964253794062E-002
   1.8551916765179866E-002  -5.2786050941596718E-003   6.2835815831233266E-002
   1.7655698799519323E-002  -5.0163181965342529E-003   6.2302839220540251E-002
   1.6759480833858781E-002  -4.7614436516910247E-003   6.2085690429494439E-002
   1.5863262868198266E-002  -4.5139814596297408E-003   6.2184369458095620E-002
   1.4967044902537724E-002  -4.2739316203510014E-003   6.2598876306344142E-002
   3.0837526907374513E-002  -9.0250107701543847E-003   4.9378336129909384E-002
   2.9167757037638770E-002  -8.4171603981363918E-003   4.8948837269641443E-002
   2.7497987167903040E-002  -7.8194858961712632E-003   4.8743166067744703E-002
   2.5828217298167276E-002  -7.2319872642577082E-003   4.8761322524219247E-002
   2.4158447428431512E-002  -6.6546645023968232E-003   4.9003306639065491E-002
   2.6801049443092667E-002  -7.8372409827036082E-003   5.2824694165576724E-002
   2.5350590791917052E-002  -7.3175706257819217E-003   5.2432376283436277E-002
   2.3900132140741395E-002  -6.7961388470270251E-003   5.2254853180044719E-002
   2.2449673489565759E-002  -6.2729456464386858E-003   5.2292124855402022E-002
   2.0999214838390151E-002  -5.7479910240170184E-003   5.2544191309507993E-002
   2.2810476620859284E-002  -6.6494711952527208E-003   5.6176903540204770E-002
   2.1570296308621208E-002  -6.2179808534272574E-003   5.5833703928077669E-002
   2.0330115996383163E-002  -5.7727917978830090E-003   5.5696266215076840E-002
   1.9089935684145076E-002  -5.3139040286197745E-003   5.5764590401202435E-002
   1.7849755371907035E-002  -4.8413175456375468E-003   5.6038676486454497E-002
   1.8865808440674266E-002  -5.4617014078018333E-003   5.9434964253794062E-002
   1.7826873587751285E-002  -5.1183910810728567E-003   5.9152820203565853E-002
   1.6787938734828318E-002  -4.7494447487389929E-003   5.9067405172841390E-002
   1.5749003881905341E-002  -4.3548624108009186E-003   5.9178719161620638E-002
   1.4710069028982366E-002  -3.9346440672579641E-003   5.9486762169903978E-002
   1.4967044902537724E-002  -4.2739316203510014E-003   6.2598876306344142E-002
   1.4120322629307291E-002  -4.0188013087180674E-003   6.2389725109900374E-002
   1.3273600356076873E-002  -3.7260976995948242E-003   6.2368270053337976E-002
   1.2426878082846433E-002  -3.3958207929817470E-003   6.2534511136657076E-002
   1.1580155809616022E-002  -3.0279705888782704E-003   6.2888448359857185E-002
   2.4158447428431512E-002  -6.6546645023968232E-003   4.9003306639065491E-002
   2.2366413698091892E-002  -6.0741986860535224E-003   4.8756940827092921E-002
   2.0574379967752257E-002  -5.4772708906931644E-003   4.8657203082342004E-002
   1.8782346237412616E-002  -4.8638811163157492E-003   4.8704093404812243E-002
   1.6990312507073002E-002  -4.2340293629216097E-003   4.8897611794504137E-002
   2.0999214838390151E-002  -5.7479910240170184E-003   5.2544191309507993E-002
   1.9372148055740779E-002  -5.2214921698648387E-003   5.2334832011885879E-002
   1.7745081273091393E-002  -4.6936662740838520E-003   5.2308778542422829E-002
   1.6118014490442006E-002  -4.1645133366743914E-003   5.2466030901119370E-002
   1.4490947707792634E-002  -3.6340333576363459E-003   5.2806589087974531E-002
   1.7849755371907035E-002  -4.8413175456375468E-003   5.6038676486454497E-002
   1.6424333297885875E-002  -4.3687856536759329E-003   5.5851188765793675E-002
   1.4998911223864705E-002  -3.9100616574743174E-003   5.5883684634230157E-002
   1.3573489149843533E-002  -3.4651455570328116E-003   5.6136164091763974E-002
   1.2148067075822375E-002  -3.0340373523513597E-003   5.6608627138394735E-002
   1.4710069028982366E-002  -3.9346440672579641E-003   5.9486762169903978E-002
   1.3522969424527322E-002  -3.5160791374872491E-003   5.9306011088816279E-002
   1.2335869820072249E-002  -3.1264570408650050E-003   5.9381921357763656E-002
   1.1148770215617197E-002  -2.7657777773913428E-003   5.9714492976746344E-002
   9.9616706111621579E-003  -2.4340413470660682E-003   6.0303725945763997E-002
   1.1580155809616022E-002  -3.0279705888782704E-003   6.2888448359857185E-002
   1.0668056435664999E-002  -2.6633726212983988E-003   6.2699298980953944E-002
   9.7559570617139907E-003  -2.3428524242554427E-003   6.2803488713023825E-002
   8.8438576877629752E-003  -2.0664099977497560E-003   6.3201017556066608E-002
   7.9317583138119874E-003  -1.8340453417811098E-003   6.3891885510082513E-002
   1.6990312507073002E-002  -4.2340293629216097E-003   4.8897611794504137E-002
   1.5063308864388947E-002  -3.6587958936266651E-003   4.8736497053555761E-002
   1.3136305221704864E-002  -3.2092609715470011E-003   4.8845442238781622E-002
   1.1209301579020794E-002  -2.8854245966825481E-003   4.9224447350181749E-002
   9.2822979363367253E-003  -2.6872867690336255E-003   4.9873512387755947E-002
   1.4490947707792634E-002  -3.6340333576363459E-003   5.2806589087974531E-002
   1.2828210993138758E-002  -3.1616354544636849E-003   5.2674570645905361E-002
   1.1165474278484855E-002  -2.8067287446498224E-003   5.2801026133722034E-002
   9.5027375638309791E-003  -2.5693132281949527E-003   5.3185955551424816E-002
   7.8400008491770756E-003  -2.4493889050987150E-003   5.3829358899013691E-002
   1.2148067075822375E-002  -3.0340373523513597E-003   5.6608627138394735E-002
   1.0738011292910563E-002  -2.6644750153009544E-003   5.6513912349060752E-002
   9.3279555099987435E-003  -2.4041965177531155E-003   5.6666085493324608E-002
   7.9178997270869141E-003  -2.2532018597073641E-003   5.7065146571186651E-002
   6.5078439441750846E-003  -2.2114910411639710E-003   5.7711095582646560E-002
   9.9616706111621579E-003  -2.4340413470660682E-003   6.0303725945763997E-002
   8.7927097637043282E-003  -2.1673145761382101E-003   6.0254522163021754E-002
   7.6237489162464967E-003  -2.0016642908561172E-003   6.0440620317589740E-002
   6.4547880687886661E-003  -1.9370904912196611E-003   6.0862020409467643E-002
   5.2858272213308355E-003  -1.9735931772292548E-003   6.1518722438655436E-002
   7.9317583138119874E-003  -1.8340453417811098E-003   6.3891885510082513E-002
   6.9923064055200518E-003  -1.6701541369753548E-003   6.3896400087789074E-002
   6.0528544972281162E-003  -1.5991320639593132E-003   6.4124630606517130E-002
   5.1134025889361945E-003  -1.6209791227319234E-003   6.4576577066267182E-002
   4.1739506806442728E-003  -1.7356953132943165E-003   6.5252239467039397E-002
   9.2822979363367253E-003  -2.6872867690336255E-003   4.9873512387755947E-002
   7.8626088476359546E-003  -2.8525689339103377E-003   5.0297748092277939E-002
   6.4429197589351006E-003  -3.6189925366215958E-003   5.1043687420714801E-002
   5.0232306702342466E-003  -4.9865575771692386E-003   5.2111330373067227E-002
   3.6035415815334204E-003  -6.9552640555514689E-003   5.3500676949334913E-002
   7.8400008491770756E-003  -2.4493889050987150E-003   5.3829358899013691E-002
   6.7171298504041521E-003  -2.6435094582675789E-003   5.3782979253202468E-002
   5.5942588516312008E-003  -3.3482285706078474E-003   5.4008532163332207E-002
   4.4713878528582565E-003  -4.5635462421182854E-003   5.4506017629401896E-002
   3.3485168540853261E-003  -6.2894624728003778E-003   5.5275435651412574E-002
   6.5078439441750846E-003  -2.2114910411639710E-003   5.7711095582646560E-002
   5.6320199673552951E-003  -2.4344499826252364E-003   5.7284643465166873E-002
   4.7561959905354848E-003  -3.0774646045934190E-003   5.7080352835653034E-002
   3.8803720137157022E-003  -4.1405349070681059E-003   5.7098223694105006E-002
   3.0045480368958849E-003  -5.6236608900498419E-003   5.7338256040522617E-002
   5.2858272213308355E-003  -1.9735931772292548E-003   6.1518722438655436E-002
   4.6072791984894113E-003  -2.2253905069826302E-003   6.0802740728171281E-002
   3.9287311756479853E-003  -2.8067006385791085E-003   6.0259149437678169E-002
   3.2501831528065316E-003  -3.7175235720179837E-003   5.9887948567176143E-002
   2.5716351299651351E-003  -4.9578593072992505E-003   5.9689138116665222E-002
   4.1739506806442728E-003  -1.7356953132943165E-003   6.5252239467039397E-002
   3.6429075438064729E-003  -2.0163310313401350E-003   6.4337271042215205E-002
   3.1118644069686591E-003  -2.5359366725649368E-003   6.3544921969407253E-002
   2.5808212701308522E-003  -3.2945122369671190E-003   6.2875192248615513E-002
   2.0497781332930454E-003  -4.2920577245483260E-003   6.2328081879840291E-002
   3.6035415815334204E-003  -6.9552640555514689E-003   5.3500676949334913E-002
   4.1565074382061695E-003  -9.5440449245202119E-003   5.1830950698010581E-002
   4.7094732948788354E-003  -1.2771833136827337E-002   5.0018116555508363E-002
   5.2624391515515012E-003  -1.6638628692471888E-002   4.8062174521827150E-002
   5.8154050082243058E-003  -2.1144431591454627E-002   4.5963124596968719E-002
   3.3485168540853261E-003  -6.2894624728003778E-003   5.5275435651412574E-002
   3.7751574370562258E-003  -8.5590439188525935E-003   5.2925678320370095E-002
   4.2017980200271254E-003  -1.1405357236474012E-002   5.0466378333102191E-002
   4.6284386029980390E-003  -1.4828402425664786E-002   4.7897535689608889E-002
   5.0550791859689248E-003  -1.8828179486424679E-002   4.5219150389889995E-002
   3.0045480368958849E-003  -5.6236608900498419E-003   5.7338256040522617E-002
   3.3384285811179776E-003  -7.5740429131852527E-003   5.4370743101530034E-002
   3.6723091253400772E-003  -1.0038881336121380E-002   5.1327252741265789E-002
   4.0061896695621768E-003  -1.3018176158857746E-002   4.8207784959728370E-002
   4.3400702137842972E-003  -1.6511927381394731E-002   4.5012339756919317E-002
   2.5716351299651351E-003  -4.9578593072992505E-003   5.9689138116665222E-002
   2.8463208703913244E-003  -6.5890419075178841E-003   5.6166145041491450E-002
   3.1210066108175154E-003  -8.6724054357681796E-003   5.2600739779998650E-002
   3.3956923512437585E-003  -1.1207949892050564E-002   4.8992922332186481E-002
   3.6703780916698958E-003  -1.4195675276364783E-002   4.5342692698054771E-002
   2.0497781332930454E-003  -4.2920577245483260E-003   6.2328081879840291E-002
   2.2988343048763460E-003  -5.6040409018504045E-003   5.8311884140254344E-002
   2.5478904764596050E-003  -7.3059295354155063E-003   5.4286839449302182E-002
   2.7969466480428640E-003  -9.3977236252436244E-003   5.0252947806983445E-002
   3.0460028196261368E-003  -1.1879423171334835E-002   4.6210209213298103E-002
   2.1310723554833821E-002  -1.2848581022361805E-002   7.7056893342496990E-002
   2.0940784228262233E-002  -1.0068032645166647E-002   7.2442501418544025E-002
   2.0570844901690588E-002  -8.0294304589716703E-003   6.8939907369918674E-002
   2.0200905575118978E-002  -6.7327744637769790E-003   6.6549111196621297E-002
   1.9830966248547369E-002  -6.1780646595821498E-003   6.5270112898651533E-002
   1.2393907687346453E-002  -5.7976784878321364E-003   6.7949387534366246E-002
   1.2895677875102374E-002  -5.0739728365500336E-003   6.5420194234676848E-002
   1.3397448062858253E-002  -4.5534121414576578E-003   6.3522622088314717E-002
   1.3899218250614152E-002  -4.2359964025550645E-003   6.2256671095279686E-002
   1.4400988438370045E-002  -4.1217256198423646E-003   6.1622341255571922E-002
   6.2749243787181830E-003   1.2532240466974487E-003   5.6515638382916900E-002
   7.1682273588009604E-003  -7.9913027933337100E-005   5.6610444942301774E-002
   8.0615303388837413E-003  -1.0773938239435760E-003   5.6856695933013165E-002
   8.9548333189665257E-003  -1.7392183413332922E-003   5.7254391355051081E-002
   9.8481362990492996E-003  -2.0653865801024129E-003   5.7803531208415554E-002
   2.9537736289490316E-003   8.3041265812270892E-003   4.2755645888149584E-002
   3.7584326793580342E-003   4.9141467806833455E-003   4.6013253541418830E-002
   4.5630917297670628E-003   2.3986244935705545E-003   4.8942128904014198E-002
   5.3677507801760801E-003   7.5755971988852346E-004   5.1542271975935389E-002
   6.1724098305850957E-003  -9.0475403625167594E-006   5.3813682757182471E-002
   2.4304554380389642E-003   1.5355029115756702E-002   2.6669410050064180E-002
   2.6662938367735950E-003   9.9082065892999727E-003   3.3628620032028378E-002
   2.9021322355082119E-003   5.8746428110845600E-003   3.9778921001317830E-002
   3.1379706342428357E-003   3.2543377811103218E-003   4.5120312957932660E-002
   3.3738090329774595E-003   2.0472914993773239E-003   4.9652795901872659E-002
   1.9830966248547369E-002  -6.1780646595821498E-003   6.5270112898651533E-002
   1.9511203877705482E-002  -5.9840459052222239E-003   6.4388006825582655E-002
   1.9191441506863610E-002  -5.7694630595319235E-003   6.3688255289990059E-002
   1.8871679136021731E-002  -5.5343161225111133E-003   6.3170858291873563E-002
   1.8551916765179866E-002  -5.2786050941596718E-003   6.2835815831233266E-002
   1.4400988438370045E-002  -4.1217256198423646E-003   6.1622341255571922E-002
   1.4211685004702428E-002  -4.0899713392135439E-003   6.1594803274733878E-002
   1.4022381571034786E-002  -4.0201051065628102E-003   6.1645828630768090E-002
   1.3833078137367153E-002  -3.9121269218905103E-003   6.1775417323674545E-002
   1.3643774703699513E-002  -3.7660367851961585E-003   6.1983569353453505E-002
   9.8481362990492996E-003  -2.0653865801024129E-003   5.7803531208415554E-002
   9.6855006019520226E-003  -2.1958967732046697E-003   5.8648109180499647E-002
   9.5228649048547422E-003  -2.2707471535938009E-003   5.9467459288852088E-002
   9.3602292077574634E-003  -2.2899377212696834E-003   6.0261581533472969E-002
   9.1975935106601917E-003  -2.2534684762325896E-003   6.1030475914362184E-002
   6.1724098305850957E-003  -9.0475403625167594E-006   5.3813682757182471E-002
   5.9326506694542813E-003  -3.0182220719586483E-004   5.5547924542879948E-002
   5.6928915083234782E-003  -5.2138920062485064E-004   5.7153147264241942E-002
   5.4531323471926716E-003  -6.6774852064902402E-004   5.8629350921268440E-002
   5.2133731860618520E-003  -7.4090016726902075E-004   5.9976535513959595E-002
   3.3738090329774595E-003   2.0472914993773239E-003   4.9652795901872659E-002
   2.9531352072092315E-003   1.5922523588128568E-003   5.2294249361874934E-002
   2.5324613814409966E-003   1.2279687523443633E-003   5.4702892556937804E-002
   2.1117875556727651E-003   9.5444067997164581E-004   5.6878725487061313E-002
   1.6911137299045337E-003   7.7166814169454812E-004   5.8821748152245446E-002
   1.8551916765179866E-002  -5.2786050941596718E-003   6.2835815831233266E-002
   1.7655698799519323E-002  -5.0163181965342529E-003   6.2302839220540251E-002
   1.6759480833858781E-002  -4.7614436516910247E-003   6.2085690429494439E-002
   1.5863262868198266E-002  -4.5139814596297408E-003   6.2184369458095620E-002
   1.4967044902537724E-002  -4.2739316203510014E-003   6.2598876306344142E-002
   1.3643774703699513E-002  -3.7660367851961585E-003   6.1983569353453505E-002
   1.3025229881190425E-002  -3.5983897646848506E-003   6.1873193666120707E-002
   1.2406685058681324E-002  -3.4257409285615159E-003   6.2002336445443840E-002
   1.1788140236172223E-002  -3.2480902768259323E-003   6.2370997691422597E-002
   1.1169595413663136E-002  -3.0654378094784329E-003   6.2979177404057285E-002
   9.1975935106601917E-003  -2.2534684762325896E-003   6.1030475914362184E-002
   8.7804124783111559E-003  -2.1804613328355593E-003   6.1355115318784181E-002
   8.3632314459621271E-003  -2.0900382054321667E-003   6.1842963836870428E-002
   7.9460504136131087E-003  -1.9821990940220666E-003   6.2494021468621125E-002
   7.5288693812640695E-003  -1.8569439986056702E-003   6.3308288214036265E-002
   5.2133731860618520E-003  -7.4090016726902075E-004   5.9976535513959595E-002
   4.9212465908815284E-003  -7.6253290098615700E-004   6.0748604178530535E-002
   4.6291199957012030E-003  -7.5433548230276551E-004   6.1607572603774370E-002
   4.3369934005208785E-003  -7.1630791121817406E-004   6.2553440789691286E-002
   4.0448668053405488E-003  -6.4845018773294905E-004   6.3586208736281249E-002
   1.6911137299045337E-003   7.7166814169454812E-004   5.8821748152245446E-002
   1.4477322189015360E-003   6.5539553086307878E-004   6.0053660245359686E-002
   1.2043507078985452E-003   5.8136724082667735E-004   6.1296162746155597E-002
   9.6096919689555096E-004   5.4958327158568729E-004   6.2549255654633137E-002
   7.1758768589255673E-004   5.6004362313966105E-004   6.3812938970792210E-002
   1.4967044902537724E-002  -4.2739316203510014E-003   6.2598876306344142E-002
   1.4120322629307291E-002  -4.0188013087180674E-003   6.2389725109900374E-002
   1.3273600356076873E-002  -3.7260976995948242E-003   6.2368270053337976E-002
   1.2426878082846433E-002  -3.3958207929817470E-003   6.2534511136657076E-002
   1.1580155809616022E-002  -3.0279705888782704E-003   6.2888448359857185E-002
   1.1169595413663136E-002  -3.0654378094784329E-003   6.2979177404057285E-002
   1.0514571899704769E-002  -2.8753296289559527E-003   6.2954493737593403E-002
   9.8595483857463959E-003  -2.6753118376964813E-003   6.3125511449792476E-002
   9.2045248717880397E-003  -2.4653844357000881E-003   6.3492230540654324E-002
   8.5495013578296558E-003  -2.2455474229662320E-003   6.4054651010179098E-002
   7.5288693812640695E-003  -1.8569439986056702E-003   6.3308288214036265E-002
   7.0735498653593000E-003  -1.7318579491939212E-003   6.3440408390799341E-002
   6.6182303494545132E-003  -1.6245259757980204E-003   6.3776235185006941E-002
   6.1629108335497385E-003  -1.5349480784182055E-003   6.4315768596658662E-002
   5.7075913176449569E-003  -1.4631242570543046E-003   6.5059008625754949E-002
   4.0448668053405488E-003  -6.4845018773294905E-004   6.3586208736281249E-002
   3.7972565262708816E-003  -5.8838626943168160E-004   6.3847469069518339E-002
   3.5496462472012118E-003  -5.7374011389950755E-004   6.4320441258981051E-002
   3.3020359681315468E-003  -6.0451172113649022E-004   6.5005125304669675E-002
   3.0544256890618748E-003  -6.8070109114226618E-004   6.5901521206584462E-002
   7.1758768589255673E-004   5.6004362313966105E-004   6.3812938970792210E-002
   6.8569188243952639E-004   5.5508541033039149E-004   6.4175675773749996E-002
   6.5379607898648912E-004   4.7704574799886656E-004   6.4758129671715070E-002
   6.2190027553345011E-004   3.2592463614535688E-004   6.5560300664687599E-002
   5.9000447208042150E-004   1.0172207476977224E-004   6.6582188752667415E-002
   1.1580155809616022E-002  -3.0279705888782704E-003   6.2888448359857185E-002
   1.0668056435664999E-002  -2.6633726212983988E-003   6.2699298980953944E-002
   9.7559570617139907E-003  -2.3428524242554427E-003   6.2803488713023825E-002
   8.8438576877629752E-003  -2.0664099977497560E-003   6.3201017556066608E-002
   7.9317583138119874E-003  -1.8340453417811098E-003   6.3891885510082513E-002
   8.5495013578296558E-003  -2.2455474229662320E-003   6.4054651010179098E-002
   7.9075354271800416E-003  -2.0259355304670934E-003   6.4003821564334540E-002
   7.2655694965304135E-003  -1.8166834891737149E-003   6.4199919894119634E-002
   6.6236035658808062E-003  -1.6177912990863394E-003   6.4642945999534532E-002
   5.9816376352311712E-003  -1.4292589602051819E-003   6.5332899880579220E-002
   5.7075913176449569E-003  -1.4631242570543046E-003   6.5059008625754949E-002
   5.2893474949534738E-003  -1.3884984396358713E-003   6.5180217032299897E-002
   4.8711036722620046E-003  -1.2905145540921120E-003   6.5501941879131401E-002
   4.4528598495705233E-003  -1.1691726004230928E-003   6.6024183166249473E-002
   4.0346160268790524E-003  -1.0244725786290321E-003   6.6746940893654044E-002
   3.0544256890618748E-003  -6.8070109114226618E-004   6.5901521206584462E-002
   2.8134926389853220E-003  -7.5106134880466302E-004   6.6228485384850239E-002
   2.5725595889087623E-003  -7.6434561901039116E-004   6.6709554668059223E-002
   2.3316265388322022E-003  -7.2055390175998317E-004   6.7344729056211611E-002
   2.0906934887556499E-003  -6.1968619705299322E-004   6.8134008549307401E-002
   5.9000447208042150E-004   1.0172207476977224E-004   6.6582188752667415E-002
   4.7997085927554972E-004  -1.1362425797328823E-004   6.7148626621985175E-002
   3.6993724647068141E-004  -2.3817668392869806E-004   6.7822758260903115E-002
   2.5990363366581656E-004  -2.7193520309651970E-004   6.8604583669420904E-002
   1.4987002086094131E-004  -2.1489981547706538E-004   6.9494102847538985E-002
   7.9317583138119874E-003  -1.8340453417811098E-003   6.3891885510082513E-002
   6.9923064055200518E-003  -1.6701541369753548E-003   6.3896400087789074E-002
   6.0528544972281162E-003  -1.5991320639593132E-003   6.4124630606517130E-002
   5.1134025889361945E-003  -1.6209791227319234E-003   6.4576577066267182E-002
   4.1739506806442728E-003  -1.7356953132943165E-003   6.5252239467039397E-002
   5.9816376352311712E-003  -1.4292589602051819E-003   6.5332899880579220E-002
   5.2671715365341654E-003  -1.2843233837983026E-003   6.5256931994320977E-002
   4.5527054378371942E-003  -1.2162214811349825E-003   6.5407219786230875E-002
   3.8382393391402092E-003  -1.2249532522154161E-003   6.5783763256308581E-002
   3.1237732404432311E-003  -1.3105186970392424E-003   6.6386562404554539E-002
   4.0346160268790524E-003  -1.0244725786290321E-003   6.6746940893654044E-002
   3.5476754749231600E-003  -8.9849263062108387E-004   6.6606526001477040E-002
   3.0607349229672745E-003  -8.3331089831088778E-004   6.6694906524614142E-002
   2.5737943710113856E-003  -8.2892738169869015E-004   6.7012082463065309E-002
   2.0868538190554967E-003  -8.8534208078416832E-004   6.7558053816830804E-002
   2.0906934887556499E-003  -6.1968619705299322E-004   6.8134008549307401E-002
   1.8338182206870026E-003  -5.1266187744394842E-004   6.7945182109257235E-002
   1.5769429526183570E-003  -4.5040031548678611E-004   6.7987690821667210E-002
   1.3200676845497106E-003  -4.3290151118207353E-004   6.8261534686537756E-002
   1.0631924164810642E-003  -4.6016546452926077E-004   6.8766713703868387E-002
   1.4987002086094131E-004  -2.1489981547706538E-004   6.9494102847538985E-002
   1.2559977382569504E-004  -1.2683112426675747E-004   6.9272900317661090E-002
   1.0132952679044183E-004  -6.7489732662517898E-005   6.9285572677390106E-002
   7.7059279755193819E-005  -3.6875640665304243E-005   6.9532119926725366E-002
   5.2789032719942341E-005  -3.4988848274020157E-005   7.0012542065667205E-002
   4.1739506806442728E-003  -1.7356953132943165E-003   6.5252239467039397E-002
   3.6429075438064729E-003  -2.0163310313401350E-003   6.4337271042215205E-002
   3.1118644069686591E-003  -2.5359366725649368E-003   6.3544921969407253E-002
   2.5808212701308522E-003  -3.2945122369671190E-003   6.2875192248615513E-002
   2.0497781332930454E-003  -4.2920577245483260E-003   6.2328081879840291E-002
   3.1237732404432311E-003  -1.3105186970392424E-003   6.6386562404554539E-002
   2.7173245872038482E-003  -1.5233701896054108E-003   6.5278472957665812E-002
   2.3108759339644860E-003  -1.9139601039135368E-003   6.4296953125958012E-002
   1.9044272807251135E-003  -2.4822884399627321E-003   6.3442002909430473E-002
   1.4979786274857410E-003  -3.2283551977534408E-003   6.2713622308083972E-002
   2.0868538190554967E-003  -8.8534208078416832E-004   6.7558053816830804E-002
   1.8089499125789471E-003  -1.0304093478707976E-003   6.6318074849314651E-002
   1.5310460061023767E-003  -1.2919835352621228E-003   6.5208615760143598E-002
   1.2531420996258185E-003  -1.6700646429582307E-003   6.4229676549317466E-002
   9.7523819314925680E-004  -2.1646526709587222E-003   6.3381257216836323E-002
   1.0631924164810642E-003  -4.6016546452926077E-004   6.8766713703868387E-002
   9.1778351993171067E-004  -5.3744850613635098E-004   6.7456076717161598E-002
   7.7237462338234850E-004  -6.7000696661077136E-004   6.6279909871964054E-002
   6.2696572683300410E-004  -8.5784084595378653E-004   6.5238213168275938E-002
   4.8155683028364669E-004  -1.1009501441639202E-003   6.4330986606097262E-002
   5.2789032719942341E-005  -3.4988848274020157E-005   7.0012542065667205E-002
   4.3825409262177040E-005  -4.4487664401404725E-005   6.8692478561206527E-002
   3.4861785804408268E-005  -4.8030397959392124E-005   6.7510835461419560E-002
   2.5898162346641232E-005  -4.5617048949141148E-005   6.6467612766306555E-002
   1.6934538888874195E-005  -3.7247617369007280E-005   6.5562810475867095E-002
   2.0497781332930454E-003  -4.2920577245483260E-003   6.2328081879840291E-002
   2.2988343048763460E-003  -5.6040409018504045E-003   5.8311884140254344E-002
   2.5478904764596050E-003  -7.3059295354155063E-003   5.4286839449302182E-002
   2.7969466480428640E-003  -9.3977236252436244E-003   5.0252947806983445E-002
   3.0460028196261368E-003  -1.1879423171334835E-002   4.6210209213298103E-002
   1.4979786274857410E-003  -3.2283551977534408E-003   6.2713622308083972E-002
   1.7247243618392083E-003  -4.2104260889072043E-003   5.8370932503482020E-002
   1.9514700961926895E-003  -5.4867668250450641E-003   5.3992468775786784E-002
   2.1782158305461360E-003  -7.0573774061667288E-003   4.9578231124998540E-002
   2.4049615648996381E-003  -8.9222578322727397E-003   4.5128219551117343E-002
   9.7523819314925680E-004  -2.1646526709587222E-003   6.3381257216836323E-002
   1.1527465185462230E-003  -2.8168112759641706E-003   5.8807710958497406E-002
   1.3302548439431926E-003  -3.6676041146746358E-003   5.4171463805338341E-002
   1.5077631693401344E-003  -4.7170311870901142E-003   4.9472515757359718E-002
   1.6852714947371145E-003  -5.9650924932106442E-003   4.4710866814561268E-002
   4.8155683028364669E-004  -1.1009501441639202E-003   6.4330986606097262E-002
   5.8290077499738475E-004  -1.4231964630211646E-003   5.9622219505300264E-002
   6.8424471971114276E-004  -1.8484414043043115E-003   5.4823824537956770E-002
   7.8558866442488690E-004  -2.3766849680133591E-003   4.9935801704066814E-002
   8.8693260913862496E-004  -3.0079271541485486E-003   4.4958151003629904E-002
   1.6934538888874195E-005  -3.7247617369007280E-005   6.5562810475867095E-002
   1.5187131192702374E-005  -2.9581650078047694E-005   6.0814458143891303E-002
   1.3439723496520145E-005  -2.9278693933848521E-005   5.5949550973641793E-002
   1.1692315800350059E-005  -3.6338748936680376E-005   5.0968088965119535E-002
   9.9449081041730336E-006  -5.0761815086453055E-005   4.5870072118323613E-002
   2.4304554380389642E-003   1.5355029115756702E-002   2.6669410050064180E-002
   2.6662938367735950E-003   9.9082065892999727E-003   3.3628620032028378E-002
   2.9021322355082119E-003   5.8746428110845600E-003   3.9778921001317830E-002
   3.1379706342428357E-003   3.2543377811103218E-003   4.5120312957932660E-002
   3.3738090329774595E-003   2.0472914993773239E-003   4.9652795901872659E-002
   1.3731563677472011E-003   8.2712502854715986E-003   4.3634670436228429E-002
   1.0385095186201017E-003   5.6543697235521273E-003   4.8020898408626000E-002
   7.0386266949297796E-004   3.7330074998771501E-003   5.2075064897974838E-002
   3.6921582036585771E-004   2.5071636144469583E-003   5.5797169904274968E-002
   3.4568971238754798E-005   1.9768380672613439E-003   5.9187213427526225E-002
  -3.5499370201670793E-003   1.1874714551865784E-003   6.3788742991928035E-002
  -3.9782215875299766E-003   1.4005328578041570E-003   6.4884248544762546E-002
  -4.4065061548928617E-003   1.5913721886698026E-003   6.6124540144174127E-002
  -4.8347907222557529E-003   1.7599894477835689E-003   6.7509617790162901E-002
  -5.2630752896186371E-003   1.9063846351453639E-003   6.9039481482728995E-002
  -1.2338824725703888E-002  -5.8963073750984835E-003   8.7131627717163179E-002
  -1.2383899481676595E-002  -2.8533040079438063E-003   8.4218670440437834E-002
  -1.2428974237649304E-002  -5.5026312253752055E-004   8.1927346739915669E-002
  -1.2474048993622019E-002   1.0128152811202202E-003   8.0257656615596668E-002
  -1.2519123749594713E-002   1.8359312030294117E-003   7.9209600067480720E-002
  -2.4993506748863192E-002  -1.2980086205383545E-002  0.11366332461193368     
  -2.4178524163819756E-002  -7.1071408736916863E-003  0.10602416409565196     
  -2.3363541578776348E-002  -2.6918984337449686E-003   9.9483484685199436E-002
  -2.2548558993732939E-002   2.6564111445684033E-004   9.4041286380576058E-002
  -2.1733576408689503E-002   1.7654777709134040E-003   8.9697569181781622E-002
   3.3738090329774595E-003   2.0472914993773239E-003   4.9652795901872659E-002
   2.9531352072092315E-003   1.5922523588128568E-003   5.2294249361874934E-002
   2.5324613814409966E-003   1.2279687523443633E-003   5.4702892556937804E-002
   2.1117875556727651E-003   9.5444067997164581E-004   5.6878725487061313E-002
   1.6911137299045337E-003   7.7166814169454812E-004   5.8821748152245446E-002
   3.4568971238754798E-005   1.9768380672613439E-003   5.9187213427526225E-002
  -4.9354562631732761E-004   1.8048419623778872E-003   6.0051580221789039E-002
  -1.0216602238734187E-003   1.6539864038540297E-003   6.0933875737415447E-002
  -1.5497748214295072E-003   1.5242713916896813E-003   6.1834099974405525E-002
  -2.0778894189855922E-003   1.4156969258847796E-003   6.2752252932759267E-002
  -5.2630752896186371E-003   1.9063846351453639E-003   6.9039481482728995E-002
  -5.6478916726595638E-003   2.0174315659427927E-003   6.8057146623515988E-002
  -6.0327080557004862E-003   2.0800040553637031E-003   6.7343479471969669E-002
  -6.4175244387414034E-003   2.0941021034077186E-003   6.6898480028090027E-002
  -6.8023408217823215E-003   2.0597257100750943E-003   6.6722148291877073E-002
  -1.2519123749594713E-002   1.8359312030294117E-003   7.9209600067480720E-002
  -1.2509902931817456E-002   2.2300211695078717E-003   7.6310948567055781E-002
  -1.2500682114040190E-002   2.5060217068733175E-003   7.3931703760600459E-002
  -1.2491461296262926E-002   2.6639328151258660E-003   7.2071865648114922E-002
  -1.2482240478485652E-002   2.7037544942653674E-003   7.0731434229599058E-002
  -2.1733576408689503E-002   1.7654777709134040E-003   8.9697569181781622E-002
  -2.1079579403791026E-002   2.4426107730727009E-003   8.4812986052408362E-002
  -2.0425582398892549E-002   2.9320393583830706E-003   8.0698548603307857E-002
  -1.9771585393994078E-002   3.2337635268438261E-003   7.7354256834479940E-002
  -1.9117588389095601E-002   3.3477832784556405E-003   7.4780110745924888E-002
   1.6911137299045337E-003   7.7166814169454812E-004   5.8821748152245446E-002
   1.4477322189015360E-003   6.5539553086307878E-004   6.0053660245359686E-002
   1.2043507078985452E-003   5.8136724082667735E-004   6.1296162746155597E-002
   9.6096919689555096E-004   5.4958327158568729E-004   6.2549255654633137E-002
   7.1758768589255673E-004   5.6004362313966105E-004   6.3812938970792210E-002
  -2.0778894189855922E-003   1.4156969258847796E-003   6.2752252932759267E-002
  -2.2419184576246472E-003   1.3251588333960951E-003   6.3126067097183103E-002
  -2.4059474962637179E-003   1.2495529411799128E-003   6.3647995798653018E-002
  -2.5699765349027790E-003   1.1888792492364443E-003   6.4318039037169233E-002
  -2.7340055735418436E-003   1.1431377575654711E-003   6.5136196812731695E-002
  -6.8023408217823215E-003   2.0597257100750943E-003   6.6722148291877073E-002
  -6.7494932586928905E-003   1.9949221359291391E-003   6.6210552407087855E-002
  -6.6966456956034596E-003   1.9177386415332107E-003   6.5984595188709388E-002
  -6.6437981325140148E-003   1.8281752268872031E-003   6.6044276636741631E-002
  -6.5909505694245838E-003   1.7262318919912811E-003   6.6389596751184832E-002
  -1.2482240478485652E-002   2.7037544942653674E-003   7.0731434229599058E-002
  -1.2074992184303164E-002   2.6646854384620305E-003   6.9307116175074124E-002
  -1.1667743890120671E-002   2.5859243418864773E-003   6.8305960916324612E-002
  -1.1260495595938181E-002   2.4674712045380720E-003   6.7727968453350482E-002
  -1.0853247301755692E-002   2.3093260264169801E-003   6.7573138786151593E-002
  -1.9117588389095601E-002   3.3477832784556405E-003   7.4780110745924888E-002
  -1.8218415234455471E-002   3.3344487409951717E-003   7.2415758401141783E-002
  -1.7319242079815361E-002   3.2541100422397162E-003   7.0612092981498675E-002
  -1.6420068925175241E-002   3.1067671821887397E-003   6.9369114486995453E-002
  -1.5520895770535122E-002   2.8924201608427902E-003   6.8686822917632062E-002
   7.1758768589255673E-004   5.6004362313966105E-004   6.3812938970792210E-002
   6.8569188243952639E-004   5.5508541033039149E-004   6.4175675773749996E-002
   6.5379607898648912E-004   4.7704574799886656E-004   6.4758129671715070E-002
   6.2190027553345011E-004   3.2592463614535688E-004   6.5560300664687599E-002
   5.9000447208042150E-004   1.0172207476977224E-004   6.6582188752667415E-002
  -2.7340055735418436E-003   1.1431377575654711E-003   6.5136196812731695E-002
  -2.5427217365657263E-003   1.0881823596979590E-003   6.5043823693568731E-002
  -2.3514378995896004E-003   9.9986694916393004E-004   6.5178092760256656E-002
  -2.1601540626134813E-003   8.7819152596420313E-004   6.5539004012795457E-002
  -1.9688702256373571E-003   7.2315609009832027E-004   6.6126557451185286E-002
  -6.5909505694245838E-003   1.7262318919912811E-003   6.6389596751184832E-002
  -6.1695620011758007E-003   1.6212793090652766E-003   6.5881835146757134E-002
  -5.7481734329270107E-003   1.5226881503292294E-003   6.5607640819024024E-002
  -5.3267848646782277E-003   1.4304584157831639E-003   6.5567013767985266E-002
  -4.9053962964294377E-003   1.3445901054270348E-003   6.5759953993640902E-002
  -1.0853247301755692E-002   2.3093260264169801E-003   6.7573138786151593E-002
  -1.0194828911390718E-002   2.1543762584327192E-003   6.6689710133315330E-002
  -9.5364105210257403E-003   2.0455093514942999E-003   6.6046773848016896E-002
  -8.8779921306607647E-003   1.9827253056021229E-003   6.5644329930256651E-002
  -8.2195737402957891E-003   1.9660241207556661E-003   6.5482378380034123E-002
  -1.5520895770535122E-002   2.8924201608427902E-003   6.8686822917632062E-002
  -1.4618522467210453E-002   2.6874732078001062E-003   6.7467448653243278E-002
  -1.3716149163885787E-002   2.5683305526595090E-003   6.6495491847235799E-002
  -1.2813775860561113E-002   2.5349921954210888E-003   6.5770952499609764E-002
  -1.1911402557236446E-002   2.5874581360844084E-003   6.5293830610365200E-002
   5.9000447208042150E-004   1.0172207476977224E-004   6.6582188752667415E-002
   4.7997085927554972E-004  -1.1362425797328823E-004   6.7148626621985175E-002
   3.6993724647068141E-004  -2.3817668392869806E-004   6.7822758260903115E-002
   2.5990363366581656E-004  -2.7193520309651970E-004   6.8604583669420904E-002
   1.4987002086094131E-004  -2.1489981547706538E-004   6.9494102847538985E-002
  -1.9688702256373571E-003   7.2315609009832027E-004   6.6126557451185286E-002
  -1.9297486935751611E-003   5.7102004093073644E-004   6.6421781669120772E-002
  -1.8906271615129634E-003   4.5804277782585112E-004   6.6907622407190365E-002
  -1.8515056294507587E-003   3.8422430078337289E-004   6.7584079665394134E-002
  -1.8123840973885558E-003   3.4956460980373194E-004   6.8451153443731871E-002
  -4.9053962964294377E-003   1.3445901054270348E-003   6.5759953993640902E-002
  -4.6341968689661717E-003   1.2556643398347334E-003   6.5732329439469384E-002
  -4.3629974415028997E-003   1.1542622395801921E-003   6.5978244155965912E-002
  -4.0917980140396165E-003   1.0403838046633800E-003   6.6497698143130557E-002
  -3.8205985865763480E-003   9.1402903508458477E-004   6.7290691400963332E-002
  -8.2195737402957891E-003   1.9660241207556661E-003   6.5482378380034123E-002
  -7.6333736668974597E-003   1.9403086387386331E-003   6.5080269933030635E-002
  -7.0471735934991243E-003   1.8504817013346372E-003   6.5034623507229425E-002
  -6.4609735201007993E-003   1.6965433085436073E-003   6.5345439102630090E-002
  -5.8747734467024587E-003   1.4784934603653543E-003   6.6012716719233019E-002
  -1.1911402557236446E-002   2.5874581360844084E-003   6.5293830610365200E-002
  -1.0927279087369061E-002   2.6249529376427549E-003   6.4465603149805151E-002
  -9.9431556175016561E-003   2.5467011630890268E-003   6.4076760460980930E-002
  -8.9590321476342542E-003   2.3527028124233768E-003   6.4127302543892956E-002
  -7.9749086777668662E-003   2.0429578856461239E-003   6.4617229398540754E-002
   1.4987002086094131E-004  -2.1489981547706538E-004   6.9494102847538985E-002
   1.2559977382569504E-004  -1.2683112426675747E-004   6.9272900317661090E-002
   1.0132952679044183E-004  -6.7489732662517898E-005   6.9285572677390106E-002
   7.7059279755193819E-005  -3.6875640665304243E-005   6.9532119926725366E-002
   5.2789032719942341E-005  -3.4988848274020157E-005   7.0012542065667205E-002
  -1.8123840973885558E-003   3.4956460980373194E-004   6.8451153443731871E-002
  -1.5999734385774324E-003   3.4127137847889122E-004   6.8179219975975869E-002
  -1.3875627797663072E-003   3.4655228039970343E-004   6.8146773430305979E-002
  -1.1751521209551813E-003   3.6540731556711226E-004   6.8353813806722466E-002
  -9.6274146214405873E-004   3.9783648398050708E-004   6.8800341105224982E-002
  -3.8205985865763480E-003   9.1402903508458477E-004   6.7290691400963332E-002
  -3.3658949894390458E-003   8.0937388122395704E-004   6.7010328428181193E-002
  -2.9111913923017315E-003   7.6059429346217455E-004   6.6975064409965396E-002
  -2.4564877951644228E-003   7.6769027179909161E-004   6.7184899346315580E-002
  -2.0017841980271150E-003   8.3066181623492330E-004   6.7639833237231856E-002
  -5.8747734467024587E-003   1.4784934603653543E-003   6.6012716719233019E-002
  -5.1721648787591556E-003   1.2774763839694253E-003   6.5766225674277534E-002
  -4.4695563108158465E-003   1.1746363065245208E-003   6.5770445616368273E-002
  -3.7669477428725435E-003   1.1699732280311785E-003   6.6025376545504583E-002
  -3.0643391749292336E-003   1.2634871484893950E-003   6.6531018461687103E-002
  -7.9749086777668662E-003   2.0429578856461239E-003   6.4617229398540754E-002
  -7.0187831065377584E-003   1.7455788867146160E-003   6.4446911714264754E-002
  -6.0626575353086368E-003   1.5886783195871723E-003   6.4532917049514360E-002
  -5.1065319640795272E-003   1.5722561842635083E-003   6.4875245404289877E-002
  -4.1504063928504073E-003   1.6963124807438668E-003   6.5473896778590723E-002
   5.2789032719942341E-005  -3.4988848274020157E-005   7.0012542065667205E-002
   4.3825409262177040E-005  -4.4487664401404725E-005   6.8692478561206527E-002
   3.4861785804408268E-005  -4.8030397959392124E-005   6.7510835461419560E-002
   2.5898162346641232E-005  -4.5617048949141148E-005   6.6467612766306555E-002
   1.6934538888874195E-005  -3.7247617369007280E-005   6.5562810475867095E-002
  -9.6274146214405873E-004   3.9783648398050708E-004   6.8800341105224982E-002
  -8.3435238770811909E-004   4.6738241373134315E-004   6.7489005388964407E-002
  -7.0596331327216905E-004   5.9758773291157530E-004   6.6313954663817259E-002
  -5.7757423883622334E-004   7.8845244151996841E-004   6.5275188929783665E-002
  -4.4918516440027936E-004   1.0399765395575633E-003   6.4372708186863803E-002
  -2.0017841980271150E-003   8.3066181623492330E-004   6.7639833237231856E-002
  -1.7381778392576066E-003   9.7925249186428531E-004   6.6391928616030688E-002
  -1.4745714804880903E-003   1.2432058637825288E-003   6.5278173572382844E-002
  -1.2109651217185788E-003   1.6225219319888524E-003   6.4298568106288478E-002
  -9.4735876294905173E-004   2.1172006964840784E-003   6.3453112217747659E-002
  -3.0643391749292336E-003   1.2634871484893950E-003   6.6531018461687103E-002
  -2.6676509453862868E-003   1.4911225699972414E-003   6.5401248242405258E-002
  -2.2709627158433400E-003   1.8888239946536003E-003   6.4403492187116537E-002
  -1.8742744863003897E-003   2.4565914224579603E-003   6.3537750295820997E-002
  -1.4775862567574460E-003   3.1944248534106212E-003   6.2804022568519496E-002
  -4.1504063928504073E-003   1.6963124807438668E-003   6.5473896778590723E-002
  -3.6227717060941730E-003   2.0029926481299754E-003   6.4516964268087840E-002
  -3.0951370193379318E-003   2.5344421255246719E-003   6.3689910508018255E-002
  -2.5675023325816941E-003   3.2906609129266240E-003   6.2992735498381636E-002
  -2.0398676458254564E-003   4.2716490103371640E-003   6.2425439239178537E-002
   1.6934538888874195E-005  -3.7247617369007280E-005   6.5562810475867095E-002
   1.5187131192702374E-005  -2.9581650078047694E-005   6.0814458143891303E-002
   1.3439723496520145E-005  -2.9278693933848521E-005   5.5949550973641793E-002
   1.1692315800350059E-005  -3.6338748936680376E-005   5.0968088965119535E-002
   9.9449081041730336E-006  -5.0761815086453055E-005   4.5870072118323613E-002
  -4.4918516440027936E-004   1.0399765395575633E-003   6.4372708186863803E-002
  -5.5363623793442535E-004   1.3686873191506854E-003   5.9649328613331054E-002
  -6.5808731146858694E-004   1.7911120724251051E-003   5.4837096546395570E-002
  -7.6253838500274333E-004   2.3072507993818492E-003   4.9936011986057488E-002
  -8.6698945853689452E-004   2.9171035000206125E-003   4.4946074932316726E-002
  -9.4735876294905173E-004   2.1172006964840784E-003   6.3453112217747659E-002
  -1.1268111574505805E-003   2.7669562883789189E-003   5.8855782387487093E-002
  -1.3062635519521170E-003   3.6115028387845999E-003   5.4197302408694234E-002
  -1.4857159464536402E-003   4.6508403477007638E-003   4.9477672281369421E-002
  -1.6651683409551685E-003   5.8849688151276780E-003   4.4696892005512190E-002
  -1.4775862567574460E-003   3.1944248534106212E-003   6.2804022568519496E-002
  -1.7043376273557585E-003   4.1652252576074023E-003   5.8433819466359713E-002
  -1.9310889979540777E-003   5.4318936051437131E-003   5.4030168560538008E-002
  -2.1578403685524076E-003   6.9944298960194860E-003   4.9593069851054862E-002
  -2.3845917391507234E-003   8.8528341302347435E-003   4.5122523337910447E-002
  -2.0398676458254564E-003   4.2716490103371640E-003   6.2425439239178537E-002
  -2.2862156476499557E-003   5.5634942268356635E-003   5.8383439849948093E-002
  -2.5325636494744723E-003   7.2522843715031593E-003   5.4335695001927031E-002
  -2.7789116512989768E-003   9.3380194443382358E-003   5.0282204695115074E-002
  -3.0252596531234882E-003   1.1820699445341809E-002   4.6222968929511943E-002
  -2.4993506748863192E-002  -1.2980086205383545E-002  0.11366332461193368     
  -2.4178524163819756E-002  -7.1071408736916863E-003  0.10602416409565196     
  -2.3363541578776348E-002  -2.6918984337449686E-003   9.9483484685199436E-002
  -2.2548558993732939E-002   2.6564111445684033E-004   9.4041286380576058E-002
  -2.1733576408689503E-002   1.7654777709134040E-003   8.9697569181781622E-002
  -3.7436898907177496E-002  -7.5585377115811037E-004   8.9761447379131776E-002
  -3.5773208363782089E-002   1.7664029371793899E-003   8.5116855451055684E-002
  -3.4109517820386660E-002   3.6582979140025312E-003   8.1071198333854566E-002
  -3.2445827276991232E-002   4.9198311593113588E-003   7.7624476027528408E-002
  -3.0782136733595832E-002   5.5510026731057927E-003   7.4776688532076918E-002
  -4.5591917018179287E-002   1.1468378663067352E-002   6.2095210942860149E-002
  -4.3579064811386112E-002   1.0639946748050494E-002   6.1272528763220438E-002
  -4.1566212604592929E-002   1.0008494261749983E-002   6.0549235099501574E-002
  -3.9553360397799719E-002   9.5740212041659067E-003   5.9925329951703313E-002
  -3.7540508191006572E-002   9.3365275752982368E-003   5.9400813319825663E-002
  -4.9458561081868566E-002   2.3692611097292801E-002   3.0664615303118505E-002
  -4.7596093506631840E-002   1.9513490558921501E-002   3.4491184032146183E-002
  -4.5733625931395121E-002   1.6358690609497458E-002   3.7917594982140160E-002
  -4.3871158356158402E-002   1.4228211249020496E-002   4.0943848153100586E-002
  -4.2008690780921676E-002   1.3122052477490626E-002   4.3569943545027488E-002
  -4.9036831098245331E-002   3.5916843531518250E-002  -4.5303395400925761E-003
  -4.7824294449519286E-002   2.8387034369792730E-002   4.7728212578329043E-003
  -4.6611757800793269E-002   2.2708886957244878E-002   1.3176277981770568E-002
  -4.5399221152067237E-002   1.8882401293874973E-002   2.0680030631720470E-002
  -4.4186684503341192E-002   1.6907577379683070E-002   2.7284079207682554E-002
  -2.1733576408689503E-002   1.7654777709134040E-003   8.9697569181781622E-002
  -2.1079579403791026E-002   2.4426107730727009E-003   8.4812986052408362E-002
  -2.0425582398892549E-002   2.9320393583830706E-003   8.0698548603307857E-002
  -1.9771585393994078E-002   3.2337635268438261E-003   7.7354256834479940E-002
  -1.9117588389095601E-002   3.3477832784556405E-003   7.4780110745924888E-002
  -3.0782136733595832E-002   5.5510026731057927E-003   7.4776688532076918E-002
  -2.9509395553021216E-002   5.8057416353277796E-003   7.1875788871362825E-002
  -2.8236654372446601E-002   5.9379772259193150E-003   6.9442231881728309E-002
  -2.6963913191871986E-002   5.9477094448801820E-003   6.7476017563173313E-002
  -2.5691172011297371E-002   5.8349382922104898E-003   6.5977145915697893E-002
  -3.7540508191006572E-002   9.3365275752982368E-003   5.9400813319825663E-002
  -3.5951825843948966E-002   9.1688724975827335E-003   5.8548798172989379E-002
  -3.4363143496891374E-002   8.9439150934554484E-003   5.7861322688039410E-002
  -3.2774461149833782E-002   8.6616553629164268E-003   5.7338386864975895E-002
  -3.1185778802776197E-002   8.3220933059653945E-003   5.6979990703798777E-002
  -4.2008690780921676E-002   1.3122052477490626E-002   4.3569943545027488E-002
  -4.0406870276574275E-002   1.2532003359837750E-002   4.4832013957287573E-002
  -3.8805049772226895E-002   1.1949852960991665E-002   4.5955821022241133E-002
  -3.7203229267879522E-002   1.1375601280952616E-002   4.6941364739887748E-002
  -3.5601408763532121E-002   1.0809248319720272E-002   4.7788645110227658E-002
  -4.4186684503341192E-002   1.6907577379683070E-002   2.7284079207682554E-002
  -4.2874528850897153E-002   1.5895134222092738E-002   3.0725436224257885E-002
  -4.1562373198453122E-002   1.4955790828527868E-002   3.3725726884333451E-002
  -4.0250217546009104E-002   1.4089547198988816E-002   3.6284951187908990E-002
  -3.8938061893565051E-002   1.3296403333475093E-002   3.8403109134984625E-002
  -1.9117588389095601E-002   3.3477832784556405E-003   7.4780110745924888E-002
  -1.8218415234455471E-002   3.3344487409951717E-003   7.2415758401141783E-002
  -1.7319242079815361E-002   3.2541100422397162E-003   7.0612092981498675E-002
  -1.6420068925175241E-002   3.1067671821887397E-003   6.9369114486995453E-002
  -1.5520895770535122E-002   2.8924201608427902E-003   6.8686822917632062E-002
  -2.5691172011297371E-002   5.8349382922104898E-003   6.5977145915697893E-002
  -2.4311119781083058E-002   5.6382044867222536E-003   6.4555749504421056E-002
  -2.2931067550868742E-002   5.3960487472275998E-003   6.3535424319152919E-002
  -2.1551015320654440E-002   5.1084710737262368E-003   6.2916170359893053E-002
  -2.0170963090440110E-002   4.7754714662185394E-003   6.2697987626641749E-002
  -3.1185778802776197E-002   8.3220933059653945E-003   5.6979990703798777E-002
  -2.9484463196119158E-002   7.9419602324494604E-003   5.6523132453316971E-002
  -2.7783147589462071E-002   7.5379874522157192E-003   5.6307729729712278E-002
  -2.6081831982805007E-002   7.1101749652639039E-003   5.6333782532984676E-002
  -2.4380516376147951E-002   6.6585227715943440E-003   5.6601290863134118E-002
  -3.5601408763532121E-002   1.0809248319720272E-002   4.7788645110227658E-002
  -3.3738445479563728E-002   1.0245715978176771E-002   4.8317907247829459E-002
  -3.1875482195595328E-002   9.6799261572038872E-003   4.8929009213177013E-002
  -3.0012518911626915E-002   9.1118788568015970E-003   4.9621951006270051E-002
  -2.8149555627658529E-002   8.5415740769700654E-003   5.0396732627108788E-002
  -3.8938061893565051E-002   1.3296403333475093E-002   3.8403109134984625E-002
  -3.7073066631416768E-002   1.2549471723903749E-002   3.9940073887958616E-002
  -3.5208071369268512E-002   1.1821864862191875E-002   4.1399262769546918E-002
  -3.3343076107120229E-002   1.1113582748339106E-002   4.2780675779749297E-002
  -3.1478080844971959E-002   1.0424625382345898E-002   4.4084312918565849E-002
  -1.5520895770535122E-002   2.8924201608427902E-003   6.8686822917632062E-002
  -1.4618522467210453E-002   2.6874732078001062E-003   6.7467448653243278E-002
  -1.3716149163885787E-002   2.5683305526595090E-003   6.6495491847235799E-002
  -1.2813775860561113E-002   2.5349921954210888E-003   6.5770952499609764E-002
  -1.1911402557236446E-002   2.5874581360844084E-003   6.5293830610365200E-002
  -2.0170963090440110E-002   4.7754714662185394E-003   6.2697987626641749E-002
  -1.9031124952150980E-002   4.4458722525756444E-003   6.1978188282852564E-002
  -1.7891286813861797E-002   4.1684957606698270E-003   6.1485901150610728E-002
  -1.6751448675572642E-002   3.9433419905001224E-003   6.1221126229916392E-002
  -1.5611610537283480E-002   3.7704109420671483E-003   6.1183863520769655E-002
  -2.4380516376147951E-002   6.6585227715943440E-003   5.6601290863134118E-002
  -2.3023118649728218E-002   6.2042712973513214E-003   5.6347484863778941E-002
  -2.1665720923308471E-002   5.7686609686796314E-003   5.6301285829137418E-002
  -2.0308323196888710E-002   5.3516917855793190E-003   5.6462693759209460E-002
  -1.8950925470468991E-002   4.9533637480501658E-003   5.6831708653995228E-002
  -2.8149555627658529E-002   8.5415740769700654E-003   5.0396732627108788E-002
  -2.6594503559942150E-002   7.9626703421268735E-003   5.0575338396022511E-002
  -2.5039451492225757E-002   7.3688261766895816E-003   5.0941645882815953E-002
  -2.3484399424509386E-002   6.7600415806583786E-003   5.1495655087489121E-002
  -2.1929347356792986E-002   6.1363165540331555E-003   5.2237366010042044E-002
  -3.1478080844971959E-002   1.0424625382345898E-002   4.4084312918565849E-002
  -2.9745279682792836E-002   9.7210693869024811E-003   4.4661748879583241E-002
  -2.8012478520613691E-002   8.9689913846998093E-003   4.5406981311646333E-002
  -2.6279677358434551E-002   8.1683913757376186E-003   4.6320010214755208E-002
  -2.4546876196255424E-002   7.3192693600160341E-003   4.7400835588909729E-002
  -1.1911402557236446E-002   2.5874581360844084E-003   6.5293830610365200E-002
  -1.0927279087369061E-002   2.6249529376427549E-003   6.4465603149805151E-002
  -9.9431556175016561E-003   2.5467011630890268E-003   6.4076760460980930E-002
  -8.9590321476342542E-003   2.3527028124233768E-003   6.4127302543892956E-002
  -7.9749086777668662E-003   2.0429578856461239E-003   6.4617229398540754E-002
  -1.5611610537283480E-002   3.7704109420671483E-003   6.1183863520769655E-002
  -1.4243765889986743E-002   3.5880910508372943E-003   6.0567492021042779E-002
  -1.2875921242690019E-002   3.3347707522763531E-003   6.0279178104438641E-002
  -1.1508076595393303E-002   3.0104500463844670E-003   6.0318921770957101E-002
  -1.0140231948096556E-002   2.6151289331619587E-003   6.0686723020598077E-002
  -1.8950925470468991E-002   4.9533637480501658E-003   5.6831708653995228E-002
  -1.7310686834356374E-002   4.5512291640318336E-003   5.6471939283882791E-002
  -1.5670448198243758E-002   4.1228403414636794E-003   5.6328900308279667E-002
  -1.4030209562131137E-002   3.6681972803455573E-003   5.6402591727185605E-002
  -1.2389970926018524E-002   3.1872999806776270E-003   5.6693013540600717E-002
  -2.1929347356792986E-002   6.1363165540331555E-003   5.2237366010042044E-002
  -2.0128041920477915E-002   5.5143672772265395E-003   5.2178944938325186E-002
  -1.8326736484162887E-002   4.9109099306510057E-003   5.2225927072503710E-002
  -1.6525431047847837E-002   4.3259445143065921E-003   5.2378312412578315E-002
  -1.4724125611532789E-002   3.7594710281935451E-003   5.2636100958548503E-002
  -2.4546876196255424E-002   7.3192693600160341E-003   4.7400835588909729E-002
  -2.2695831148351400E-002   6.4775053904210234E-003   4.7688508984369382E-002
  -2.0844786100447391E-002   5.6989795198383320E-003   4.7970258397111165E-002
  -1.8993741052543381E-002   4.9836917482676268E-003   4.8246083827135244E-002
  -1.7142696004639357E-002   4.3316420757091301E-003   4.8515985274441453E-002
  -7.9749086777668662E-003   2.0429578856461239E-003   6.4617229398540754E-002
  -7.0187831065377584E-003   1.7455788867146160E-003   6.4446911714264754E-002
  -6.0626575353086368E-003   1.5886783195871723E-003   6.4532917049514360E-002
  -5.1065319640795272E-003   1.5722561842635083E-003   6.4875245404289877E-002
  -4.1504063928504073E-003   1.6963124807438668E-003   6.5473896778590723E-002
  -1.0140231948096556E-002   2.6151289331619587E-003   6.0686723020598077E-002
  -8.9293979200737519E-003   2.2509809521168989E-003   6.0567287617742716E-002
  -7.7185638920509430E-003   2.0201796427573027E-003   6.0700946108948911E-002
  -6.5077298640281609E-003   1.9227250050842942E-003   6.1087698494216733E-002
  -5.2968958360053303E-003   1.9586170390969437E-003   6.1727544773546250E-002
  -1.2389970926018524E-002   3.1872999806776270E-003   5.6693013540600717E-002
  -1.0927657566666100E-002   2.7563830175188764E-003   5.6617328659047922E-002
  -9.4653442073136598E-003   2.4516809659278910E-003   5.6791508546092731E-002
  -8.0030308479612181E-003   2.2731938259050836E-003   5.7215553201735180E-002
  -6.5407174886087938E-003   2.2209215974502428E-003   5.7889462625975219E-002
  -1.4724125611532789E-002   3.7594710281935451E-003   5.2636100958548503E-002
  -1.3013562046314740E-002   3.2617850829206180E-003   5.2597034838180290E-002
  -1.1302998481096716E-002   2.8831822890982503E-003   5.2804604360945764E-002
  -9.5924349158787170E-003   2.6236626467258713E-003   5.3258809526844912E-002
  -7.8818713506606450E-003   2.4832261558033752E-003   5.3959650335877518E-002
  -1.7142696004639357E-002   4.3316420757091301E-003   4.8515985274441453E-002
  -1.5187111359019789E-002   3.7671871483231922E-003   4.8506406155140236E-002
  -1.3231526713400193E-002   3.3146836122687484E-003   4.8740233553508372E-002
  -1.1275942067780612E-002   2.9741314675466382E-003   4.9217467469546333E-002
  -9.3203574221610297E-003   2.7455307141567298E-003   4.9938107903253370E-002
  -4.1504063928504073E-003   1.6963124807438668E-003   6.5473896778590723E-002
  -3.6227717060941730E-003   2.0029926481299754E-003   6.4516964268087840E-002
  -3.0951370193379318E-003   2.5344421255246719E-003   6.3689910508018255E-002
  -2.5675023325816941E-003   3.2906609129266240E-003   6.2992735498381636E-002
  -2.0398676458254564E-003   4.2716490103371640E-003   6.2425439239178537E-002
  -5.2968958360053303E-003   1.9586170390969437E-003   6.1727544773546250E-002
  -4.6155757739906704E-003   2.2218604748357462E-003   6.0970149399307227E-002
  -3.9342557119760070E-003   2.8064600423407526E-003   6.0390246025151917E-002
  -3.2529356499613280E-003   3.7124157416118519E-003   5.9987834651079902E-002
  -2.5716155879466802E-003   4.9397275726494883E-003   5.9762915277092099E-002
  -6.5407174886087938E-003   2.2209215974502428E-003   5.7889462625975219E-002
  -5.6580988016852619E-003   2.4407283015415171E-003   5.7428191209758062E-002
  -4.7754801147617057E-003   3.0784779591571665E-003   5.7192025043275085E-002
  -3.8928614278381764E-003   4.1341705702971909E-003   5.7180964126526235E-002
  -3.0102427409146471E-003   5.6078061349615904E-003   5.7395008459511399E-002
  -7.8818713506606450E-003   2.4832261558033752E-003   5.3959650335877518E-002
  -6.7503407891778312E-003   2.6595961282475100E-003   5.3891089699440703E-002
  -5.6188102276950331E-003   3.3504958759736359E-003   5.4095247562388329E-002
  -4.4872796662122471E-003   4.5559253989825854E-003   5.4572123924720412E-002
  -3.3557491047294216E-003   6.2758846972735816E-003   5.5321718786437157E-002
  -9.3203574221610297E-003   2.7455307141567298E-003   4.9938107903253370E-002
  -7.8923017364685294E-003   2.8784639549530033E-003   5.0358844868354735E-002
  -6.4642460507759875E-003   3.6225137927899664E-003   5.1099913582491108E-002
  -5.0361903650834525E-003   4.9776802276677787E-003   5.2161314045662294E-002
  -3.6081346793909452E-003   6.9439632595860168E-003   5.3543046257868543E-002
  -2.0398676458254564E-003   4.2716490103371640E-003   6.2425439239178537E-002
  -2.2862156476499557E-003   5.5634942268356635E-003   5.8383439849948093E-002
  -2.5325636494744723E-003   7.2522843715031593E-003   5.4335695001927031E-002
  -2.7789116512989768E-003   9.3380194443382358E-003   5.0282204695115074E-002
  -3.0252596531234882E-003   1.1820699445341809E-002   4.6222968929511943E-002
  -2.5716155879466802E-003   4.9397275726494883E-003   5.9762915277092099E-002
  -2.8412333369991008E-003   6.5560948079520509E-003   5.6223362191044401E-002
  -3.1108510860515682E-003   8.6292167200197889E-003   5.2643015069331722E-002
  -3.3804688351040764E-003   1.1159093308851752E-002   4.9021873911954228E-002
  -3.6500865841564908E-003   1.4145724574448515E-002   4.5359938718911197E-002
  -3.0102427409146471E-003   5.6078061349615904E-003   5.7395008459511399E-002
  -3.3381788140691548E-003   7.5486953890683273E-003   5.4417711425242710E-002
  -3.6661148872236893E-003   1.0006149068536641E-002   5.1364571778434981E-002
  -3.9940509603782325E-003   1.2980167173365600E-002   4.8235589519088060E-002
  -4.3219870335327280E-003   1.6470749703555221E-002   4.5030764647202237E-002
  -3.3557491047294216E-003   6.2758846972735816E-003   5.5321718786437157E-002
  -3.7770520788600768E-003   8.5412959701851032E-003   5.2966487552543705E-002
  -4.1983550529908018E-003   1.1383081417053270E-002   5.0500365129237071E-002
  -4.6196580271215051E-003   1.4801241037879283E-002   4.7923351516517353E-002
  -5.0409610012521824E-003   1.8795774832661927E-002   4.5235446714383953E-002
  -3.6081346793909452E-003   6.9439632595860168E-003   5.3543046257868543E-002
  -4.1578531313719025E-003   9.5338965513009910E-003   5.1869690572946658E-002
  -4.7075715833529014E-003   1.2760013765570288E-002   5.0050395121737368E-002
  -5.2572900353338933E-003   1.6622314902393118E-002   4.8085159904241004E-002
  -5.8070084873148575E-003   2.1120799961768633E-002   4.5973984920457234E-002
  -4.9036831098245331E-002   3.5916843531518250E-002  -4.5303395400925761E-003
  -4.7824294449519286E-002   2.8387034369792730E-002   4.7728212578329043E-003
  -4.6611757800793269E-002   2.2708886957244878E-002   1.3176277981770568E-002
  -4.5399221152067237E-002   1.8882401293874973E-002   2.0680030631720470E-002
  -4.4186684503341192E-002   1.6907577379683070E-002   2.7284079207682554E-002
  -4.8370901925603435E-002   2.9078313161085778E-002   4.3558244164311199E-003
  -4.7801044322709922E-002   2.4649268061146618E-002   1.1531448071855716E-002
  -4.7231186719816361E-002   2.1199388209268089E-002   1.8321417709603521E-002
  -4.6661329116922834E-002   1.8728673605450247E-002   2.4725733329673885E-002
  -4.6091471514029300E-002   1.7237124249693037E-002   3.0744394932067071E-002
  -5.1504948422236865E-002   2.2239782790653279E-002   1.6779000685299639E-002
  -5.1063719808865218E-002   2.0911501752500505E-002   2.0954590697106507E-002
  -5.0622491195493551E-002   1.9689889461291271E-002   2.5258576747546863E-002
  -5.0181262582121855E-002   1.8574945917025465E-002   2.9690958836620672E-002
  -4.9740033968750222E-002   1.7566671119703114E-002   3.4251736964327914E-002
  -5.8438970588145511E-002   1.5401252420220779E-002   3.2739189266513362E-002
  -5.7612320907985126E-002   1.7173735443854449E-002   3.3042249133585042E-002
  -5.6785671227824706E-002   1.8180390713314398E-002   3.3987755095601049E-002
  -5.5959021547664280E-002   1.8421218228600628E-002   3.5575707152560927E-002
  -5.5132371867503818E-002   1.7896217989713165E-002   3.7806105304464960E-002
  -6.9172968423329484E-002   8.5627220497883072E-003   5.2236390160071977E-002
  -6.7446847620069666E-002   1.3435969135208392E-002   4.7794423381291529E-002
  -6.5720726816809905E-002   1.6670891965337609E-002   4.4508952753765763E-002
  -6.3994606013550115E-002   1.8267490540175929E-002   4.2379978277494595E-002
  -6.2268485210290297E-002   1.8225764859723215E-002   4.1407499952478222E-002
  -4.4186684503341192E-002   1.6907577379683070E-002   2.7284079207682554E-002
  -4.2874528850897153E-002   1.5895134222092738E-002   3.0725436224257885E-002
  -4.1562373198453122E-002   1.4955790828527868E-002   3.3725726884333451E-002
  -4.0250217546009104E-002   1.4089547198988816E-002   3.6284951187908990E-002
  -3.8938061893565051E-002   1.3296403333475093E-002   3.8403109134984625E-002
  -4.6091471514029300E-002   1.7237124249693037E-002   3.0744394932067071E-002
  -4.5091004447823865E-002   1.6273894980835160E-002   3.2646641619752906E-002
  -4.4090537381618396E-002   1.5388140637715569E-002   3.4366577491461478E-002
  -4.3090070315412954E-002   1.4579861220333952E-002   3.5904202547192780E-002
  -4.2089603249207554E-002   1.3849056728690468E-002   3.7259516786946889E-002
  -4.9740033968750222E-002   1.7566671119703114E-002   3.4251736964327914E-002
  -4.8792499948260654E-002   1.6652655739577846E-002   3.4619248484836690E-002
  -4.7844965927771085E-002   1.5820490446903167E-002   3.5063204729890822E-002
  -4.6897431907281510E-002   1.5070175241679201E-002   3.5583605699490581E-002
  -4.5949897886791942E-002   1.4401710123905759E-002   3.6180451393635724E-002
  -5.5132371867503818E-002   1.7896217989713165E-002   3.7806105304464960E-002
  -5.3979015352207491E-002   1.7031416498320372E-002   3.6643256819509175E-002
  -5.2825658836911094E-002   1.6252840256090872E-002   3.5815608599621490E-002
  -5.1672302321614696E-002   1.5560489263024172E-002   3.5323160644802142E-002
  -5.0518945806318299E-002   1.4954363519121064E-002   3.5165912955050824E-002
  -6.2268485210290297E-002   1.8225764859723215E-002   4.1407499952478222E-002
  -6.0650550659664404E-002   1.7410177257062898E-002   3.8718666623770409E-002
  -5.9032616109038497E-002   1.6685190065278410E-002   3.6623789100653559E-002
  -5.7414681558412582E-002   1.6050803284369516E-002   3.5122867383127573E-002
  -5.5796747007786668E-002   1.5507016914336424E-002   3.4215901471192411E-002
  -3.8938061893565051E-002   1.3296403333475093E-002   3.8403109134984625E-002
  -3.7073066631416768E-002   1.2549471723903749E-002   3.9940073887958616E-002
  -3.5208071369268512E-002   1.1821864862191875E-002   4.1399262769546918E-002
  -3.3343076107120229E-002   1.1113582748339106E-002   4.2780675779749297E-002
  -3.1478080844971959E-002   1.0424625382345898E-002   4.4084312918565849E-002
  -4.2089603249207554E-002   1.3849056728690468E-002   3.7259516786946889E-002
  -4.0255360114812448E-002   1.3159817014692710E-002   3.8147241690318134E-002
  -3.8421116980417377E-002   1.2476231930248716E-002   3.9051238209568850E-002
  -3.6586873846022279E-002   1.1798301475358430E-002   3.9971506344698995E-002
  -3.4752630711627194E-002   1.1126025650021909E-002   4.0908046095708583E-002
  -4.5949897886791942E-002   1.4401710123905759E-002   3.6180451393635724E-002
  -4.4052359392884766E-002   1.3770162305481726E-002   3.6405266329098449E-002
  -4.2154820898977569E-002   1.3130598998305730E-002   3.6740400367706046E-002
  -4.0257282405070385E-002   1.2483020202377812E-002   3.7185853509458369E-002
  -3.8359743911163258E-002   1.1827425917698031E-002   3.7741625754355357E-002
  -5.0518945806318299E-002   1.4954363519121064E-002   3.5165912955050824E-002
  -4.8464064465633769E-002   1.4380507596270686E-002   3.4714147804299655E-002
  -4.6409183124949210E-002   1.3784966066362658E-002   3.4466749243958442E-002
  -4.4354301784264666E-002   1.3167738929397221E-002   3.4423717274027266E-002
  -4.2299420443580128E-002   1.2528826185374042E-002   3.4585051894506044E-002
  -5.5796747007786668E-002   1.5507016914336424E-002   3.4215901471192411E-002
  -5.3490475333059451E-002   1.4990852887059647E-002   3.3073886115921491E-002
  -5.1184203658332247E-002   1.4439333134419599E-002   3.2230284838325990E-002
  -4.8877931983605037E-002   1.3852457656416437E-002   3.1685097638405643E-002
  -4.6571660308877827E-002   1.3230226453050220E-002   3.1438324516160743E-002
  -3.1478080844971959E-002   1.0424625382345898E-002   4.4084312918565849E-002
  -2.9745279682792836E-002   9.7210693869024811E-003   4.4661748879583241E-002
  -2.8012478520613691E-002   8.9689913846998093E-003   4.5406981311646333E-002
  -2.6279677358434551E-002   8.1683913757376186E-003   4.6320010214755208E-002
  -2.4546876196255424E-002   7.3192693600160341E-003   4.7400835588909729E-002
  -3.4752630711627194E-002   1.1126025650021909E-002   4.0908046095708583E-002
  -3.2857403901292277E-002   1.0437067578369291E-002   4.1103777336482517E-002
  -3.0962177090957312E-002   9.7090903845304805E-003   4.1456563402522156E-002
  -2.9066950280622370E-002   8.9420940685058202E-003   4.1966404293827628E-002
  -2.7171723470287415E-002   8.1360786302950849E-003   4.2633300010398945E-002
  -3.8359743911163258E-002   1.1827425917698031E-002   3.7741625754355357E-002
  -3.6312833098452478E-002   1.1153065769835963E-002   3.7565155159459060E-002
  -3.4265922285741636E-002   1.0449189384361263E-002   3.7534997744048768E-002
  -3.2219011473030856E-002   9.7157967612739107E-003   3.7651153508124258E-002
  -3.0172100660320070E-002   8.9528879005740802E-003   3.7913622451685669E-002
  -4.2299420443580128E-002   1.2528826185374042E-002   3.4585051894506044E-002
  -4.0111567274273424E-002   1.1869063961302592E-002   3.4045882348512996E-002
  -3.7923714104966734E-002   1.1189288384192045E-002   3.3642284336225986E-002
  -3.5735860935660037E-002   1.0489499454042057E-002   3.3374257857644848E-002
  -3.3548007766353347E-002   9.7696971708531033E-003   3.3241802912769736E-002
  -4.6571660308877827E-002   1.3230226453050220E-002   3.1438324516160743E-002
  -4.4253606428755199E-002   1.2585062152769444E-002   3.0545958903644421E-002
  -4.1935552548632515E-002   1.1929387384022674E-002   2.9778423179053964E-002
  -3.9617498668509860E-002   1.1263202146810303E-002   2.9135717342389608E-002
  -3.7299444788387204E-002   1.0586506441132015E-002   2.8617841393651311E-002
  -2.4546876196255424E-002   7.3192693600160341E-003   4.7400835588909729E-002
  -2.2695831148351400E-002   6.4775053904210234E-003   4.7688508984369382E-002
  -2.0844786100447391E-002   5.6989795198383320E-003   4.7970258397111165E-002
  -1.8993741052543381E-002   4.9836917482676268E-003   4.8246083827135244E-002
  -1.7142696004639357E-002   4.3316420757091301E-003   4.8515985274441453E-002
  -2.7171723470287415E-002   8.1360786302950849E-003   4.2633300010398945E-002
  -2.5295571159947024E-002   7.3353874820202281E-003   4.2632927635546991E-002
  -2.3419418849606639E-002   6.5843640358029809E-003   4.2688693768285491E-002
  -2.1543266539266262E-002   5.8830082916433712E-003   4.2800598408614388E-002
  -1.9667114228925808E-002   5.2313202495413158E-003   4.2968641556534015E-002
  -3.0172100660320070E-002   8.9528879005740802E-003   3.7913622451685669E-002
  -2.8208778597235019E-002   8.1932695736192662E-003   3.7611633909567344E-002
  -2.6245456534149968E-002   7.4697485517676299E-003   3.7427846365347989E-002
  -2.4282134471064910E-002   6.7823248350191156E-003   3.7362259819027341E-002
  -2.2318812407979859E-002   6.1309984233735015E-003   3.7414874270605497E-002
  -3.3548007766353347E-002   9.7696971708531033E-003   3.3241802912769736E-002
  -3.1435453460215333E-002   9.0511516652184432E-003   3.2624627806430807E-002
  -2.9322899154077348E-002   8.3551330677322788E-003   3.2187716188298937E-002
  -2.7210344847939404E-002   7.6816413783948601E-003   3.1931068058373965E-002
  -2.5097790541801411E-002   7.0306765972058538E-003   3.1854683416656350E-002
  -3.7299444788387204E-002   1.0586506441132015E-002   2.8617841393651311E-002
  -3.4975595748888033E-002   9.9090337568174536E-003   2.7671909326136945E-002
  -3.2651746709388862E-002   9.2405175836969278E-003   2.6968303237138058E-002
  -3.0327897669889706E-002   8.5809579217705489E-003   2.6507023126654455E-002
  -2.8004048630390493E-002   7.9303547710377620E-003   2.6288068994686165E-002
  -1.7142696004639357E-002   4.3316420757091301E-003   4.8515985274441453E-002
  -1.5187111359019789E-002   3.7671871483231922E-003   4.8506406155140236E-002
  -1.3231526713400193E-002   3.3146836122687484E-003   4.8740233553508372E-002
  -1.1275942067780612E-002   2.9741314675466382E-003   4.9217467469546333E-002
  -9.3203574221610297E-003   2.7455307141567298E-003   4.9938107903253370E-002
  -1.9667114228925808E-002   5.2313202495413158E-003   4.2968641556534015E-002
  -1.7505458034180202E-002   4.6379156115595177E-003   4.2883872762679021E-002
  -1.5343801839434595E-002   4.1114100797601805E-003   4.2967840549406527E-002
  -1.3182145644688958E-002   3.6518036541437343E-003   4.3220544916716550E-002
  -1.1020489449943383E-002   3.2590963347094437E-003   4.3641985864609267E-002
  -2.2318812407979859E-002   6.1309984233735015E-003   3.7414874270605497E-002
  -2.0025754601195128E-002   5.5086440747961485E-003   3.7209863517047359E-002
  -1.7732696794410474E-002   4.9081365472517097E-003   3.7098919406984690E-002
  -1.5439638987625775E-002   4.3294758407403829E-003   3.7082041940417733E-002
  -1.3146581180841097E-002   3.7726619552622132E-003   3.7159231117346286E-002
  -2.5097790541801411E-002   7.0306765972058538E-003   3.1854683416656350E-002
  -2.2748001060064603E-002   6.3793725380324601E-003   3.1484378418245418E-002
  -2.0398211578327850E-002   5.7048630147432458E-003   3.1133470126243189E-002
  -1.8048422096591070E-002   5.0071480273373662E-003   3.0801958540649536E-002
  -1.5698632614854290E-002   4.2862275758151214E-003   3.0489843661464462E-002
  -2.8004048630390493E-002   7.9303547710377620E-003   2.6288068994686165E-002
  -2.5672197410788578E-002   7.2501010012690492E-003   2.5707417466273252E-002
  -2.3340346191186676E-002   6.5015894822347542E-003   2.5071492707181675E-002
  -2.1008494971584725E-002   5.6848202139341483E-003   2.4380294717412071E-002
  -1.8676643751982858E-002   4.7997931963676965E-003   2.3633823496963857E-002
  -9.3203574221610297E-003   2.7455307141567298E-003   4.9938107903253370E-002
  -7.8923017364685294E-003   2.8784639549530033E-003   5.0358844868354735E-002
  -6.4642460507759875E-003   3.6225137927899664E-003   5.1099913582491108E-002
  -5.0361903650834525E-003   4.9776802276677787E-003   5.2161314045662294E-002
  -3.6081346793909452E-003   6.9439632595860168E-003   5.3543046257868543E-002
  -1.1020489449943383E-002   3.2590963347094437E-003   4.3641985864609267E-002
  -9.2524999629946258E-003   3.1764278731019058E-003   4.4238512782072248E-002
  -7.4845104760458761E-003   3.6469380209643298E-003   4.5194575553012456E-002
  -5.7165209890971784E-003   4.6706267782979510E-003   4.6510174177430100E-002
  -3.9485315021484252E-003   6.2474941451018395E-003   4.8185308655325443E-002
  -1.3146581180841097E-002   3.7726619552622132E-003   3.7159231117346286E-002
  -1.0999453788193600E-002   3.4743917912507249E-003   3.7873609999600377E-002
  -8.8523263955460514E-003   3.6713622491392622E-003   3.8986728839774540E-002
  -6.7051990028985150E-003   4.3635733289284599E-003   4.0498587637868531E-002
  -4.5580716102510063E-003   5.5510250306176623E-003   4.2409186393882803E-002
  -1.5698632614854290E-002   4.2862275758151214E-003   3.0489843661464462E-002
  -1.3133163212065421E-002   3.7723557093995858E-003   3.1264136520939720E-002
  -1.0567693809276493E-002   3.6957864773139656E-003   3.2476373442777345E-002
  -8.0022244064876218E-003   4.0565198795588005E-003   3.4126554426977693E-002
  -5.4367550036987494E-003   4.8545559161334850E-003   3.6214679473540776E-002
  -1.8676643751982858E-002   4.7997931963676965E-003   2.3633823496963857E-002
  -1.5653628234610001E-002   4.0703196275483911E-003   2.4410092346089707E-002
  -1.2630612717237227E-002   3.7202107054885580E-003   2.5663509362020887E-002
  -9.6075971998643706E-003   3.7494664301890857E-003   2.7394074544757258E-002
  -6.5845816824915970E-003   4.1580868016493078E-003   2.9601787894298903E-002
  -3.6081346793909452E-003   6.9439632595860168E-003   5.3543046257868543E-002
  -4.1578531313719025E-003   9.5338965513009910E-003   5.1869690572946658E-002
  -4.7075715833529014E-003   1.2760013765570288E-002   5.0050395121737368E-002
  -5.2572900353338933E-003   1.6622314902393118E-002   4.8085159904241004E-002
  -5.8070084873148575E-003   2.1120799961768633E-002   4.5973984920457234E-002
  -3.9485315021484252E-003   6.2474941451018395E-003   4.8185308655325443E-002
  -4.5403413842545204E-003   8.6857090788880487E-003   4.7249508244744831E-002
  -5.1321512663605948E-003   1.2293440537169520E-002   4.6375464740201322E-002
  -5.7239611484667281E-003   1.7070688519946087E-002   4.5563178141695193E-002
  -6.3157710305728199E-003   2.3017453027216694E-002   4.4812648449225057E-002
  -4.5580716102510063E-003   5.5510250306176623E-003   4.2409186393882803E-002
  -4.9842762501578902E-003   7.8375216064749953E-003   4.2744273859585041E-002
  -5.4104808900646666E-003   1.1826867308768779E-002   4.3348814903648614E-002
  -5.8366855299714065E-003   1.7519062137499063E-002   4.4222809526073992E-002
  -6.2628901698783268E-003   2.4914106092664978E-002   4.5366257726860426E-002
  -5.4367550036987494E-003   4.8545559161334850E-003   3.6214679473540776E-002
  -5.4896577290818004E-003   6.9893341340617754E-003   3.8353987417466776E-002
  -5.5425604544648800E-003   1.1360294080368025E-002   4.0970445612078417E-002
  -5.5954631798479579E-003   1.7967435755051924E-002   4.4064054057376706E-002
  -5.6483659052310661E-003   2.6810759158113262E-002   4.7634812753360067E-002
  -6.5845816824915970E-003   4.1580868016493078E-003   2.9601787894298903E-002
  -6.0564858210265249E-003   6.1411466616486665E-003   3.4078648918390297E-002
  -5.5283899595614250E-003   1.0893720851967381E-002   3.9240356865491766E-002
  -5.0002940980962696E-003   1.8415809372605313E-002   4.5086911735604251E-002
  -4.4721982366312529E-003   2.8707412223561324E-002   5.1618313528726478E-002
  -6.9172968423329484E-002   8.5627220497883072E-003   5.2236390160071977E-002
  -6.7446847620069666E-002   1.3435969135208392E-002   4.7794423381291529E-002
  -6.5720726816809905E-002   1.6670891965337609E-002   4.4508952753765763E-002
  -6.3994606013550115E-002   1.8267490540175929E-002   4.2379978277494595E-002
  -6.2268485210290297E-002   1.8225764859723215E-002   4.1407499952478222E-002
  -8.0483087002676396E-002   1.6165405150990297E-002   3.7574671036903706E-002
  -7.7785891057969903E-002   1.8726596226935510E-002   3.4283802866386187E-002
  -7.5088695113263368E-002   2.0303682432414510E-002   3.1778588827507420E-002
  -7.2391499168556833E-002   2.0896663767427680E-002   3.0059028920267392E-002
  -6.9694303223850285E-002   2.0505540231974817E-002   2.9125123144666171E-002
  -8.9145471401074122E-002   2.3768088252192232E-002   2.0273786211848333E-002
  -8.5848042334536717E-002   2.4017223318662406E-002   1.8788236034418329E-002
  -8.2550613267999340E-002   2.3936472899491384E-002   1.7717497969011634E-002
  -7.9253184201461935E-002   2.3525836994679458E-002   1.7061572015627510E-002
  -7.5955755134924557E-002   2.2785315604226447E-002   1.6820458174266403E-002
  -9.5160121618522442E-002   3.1370771353394278E-002   3.3373568490510652E-004
  -9.1633301449770110E-002   2.9307850410389302E-002   1.3077228853879512E-003
  -8.8106481281017862E-002   2.7569263366568328E-002   2.3256801782780556E-003
  -8.4579661112265433E-002   2.6155010221931223E-002   3.3876075635749636E-003
  -8.1052840943513088E-002   2.5065090976477980E-002   4.4935050412789439E-003
  -9.8527037655021577E-002   3.8973454454596212E-002  -2.2245480543925500E-002
  -9.5141668403670110E-002   3.4598477502116531E-002  -1.8157736580704797E-002
  -9.1756299152318754E-002   3.1202053833645188E-002  -1.4396864544692939E-002
  -8.8370929900967343E-002   2.8784183449182939E-002  -1.0962864435890125E-002
  -8.4985560649615932E-002   2.7344866348729679E-002  -7.8557362542960862E-003
  -6.2268485210290297E-002   1.8225764859723215E-002   4.1407499952478222E-002
  -6.0650550659664404E-002   1.7410177257062898E-002   3.8718666623770409E-002
  -5.9032616109038497E-002   1.6685190065278410E-002   3.6623789100653559E-002
  -5.7414681558412582E-002   1.6050803284369516E-002   3.5122867383127573E-002
  -5.5796747007786668E-002   1.5507016914336424E-002   3.4215901471192411E-002
  -6.9694303223850285E-002   2.0505540231974817E-002   2.9125123144666171E-002
  -6.7587125353793839E-002   1.9654357839477610E-002   2.7573237215910318E-002
  -6.5479947483737463E-002   1.8867162603358092E-002   2.6405882120424579E-002
  -6.3372769613681032E-002   1.8143954523615866E-002   2.5623057858209147E-002
  -6.1265591743624642E-002   1.7484733600251101E-002   2.5224764429263608E-002
  -7.5955755134924557E-002   2.2785315604226447E-002   1.6820458174266403E-002
  -7.3568758917758353E-002   2.1898538421892683E-002   1.6378906390964301E-002
  -7.1181762700592163E-002   2.1049135141437775E-002   1.6112460468611658E-002
  -6.8794766483425973E-002   2.0237105762862272E-002   1.6021120407208100E-002
  -6.6407770266259825E-002   1.9462450286165944E-002   1.6104886206754224E-002
  -8.1052840943513088E-002   2.5065090976477980E-002   4.4935050412789439E-003
  -7.8595451351557891E-002   2.4142719004307381E-002   5.1356741489322240E-003
  -7.6138061759602721E-002   2.3231107679517679E-002   5.7435241452141999E-003
  -7.3680672167647510E-002   2.2330257002108760E-002   6.3170550301248317E-003
  -7.1223282575692340E-002   2.1440166972080871E-002   6.8562668036640725E-003
  -8.4985560649615932E-002   2.7344866348729679E-002  -7.8557362542960862E-003
  -8.2667202655192507E-002   2.6386899586722357E-002  -6.1564595101855635E-003
  -8.0348844660769025E-002   2.5413080217597195E-002  -4.7009268497673479E-003
  -7.8030486666345544E-002   2.4423408241355041E-002  -3.4891382730408531E-003
  -7.5712128671922119E-002   2.3417883657995575E-002  -2.5210937800068667E-003
  -5.5796747007786668E-002   1.5507016914336424E-002   3.4215901471192411E-002
  -5.3490475333059451E-002   1.4990852887059647E-002   3.3073886115921491E-002
  -5.1184203658332247E-002   1.4439333134419599E-002   3.2230284838325990E-002
  -4.8877931983605037E-002   1.3852457656416437E-002   3.1685097638405643E-002
  -4.6571660308877827E-002   1.3230226453050220E-002   3.1438324516160743E-002
  -6.1265591743624642E-002   1.7484733600251101E-002   2.5224764429263608E-002
  -5.8673121113596960E-002   1.6844967261649385E-002   2.4366983308713203E-002
  -5.6080650483569347E-002   1.6180122936195737E-002   2.3783186021088226E-002
  -5.3488179853541692E-002   1.5490200623890279E-002   2.3473372566389039E-002
  -5.0895709223514052E-002   1.4775200324733007E-002   2.3437542944615253E-002
  -6.6407770266259825E-002   1.9462450286165944E-002   1.6104886206754224E-002
  -6.3553530925681445E-002   1.8699081636239206E-002   1.5541617059435450E-002
  -6.0699291585103093E-002   1.7920912737971868E-002   1.5227901500292830E-002
  -5.7845052244524700E-002   1.7127943591364117E-002   1.5163739529325624E-002
  -5.4990812903946362E-002   1.6320174196415876E-002   1.5349131146534481E-002
  -7.1223282575692340E-002   2.1440166972080871E-002   6.8562668036640725E-003
  -6.8131704769313017E-002   2.0553196010828820E-002   6.5977873680884182E-003
  -6.5040126962933570E-002   1.9661702539748003E-002   6.5644312759390051E-003
  -6.1948549156554178E-002   1.8765686558837848E-002   6.7561985272155114E-003
  -5.8856971350174814E-002   1.7865148068098871E-002   7.1730891219185973E-003
  -7.5712128671922119E-002   2.3417883657995575E-002  -2.5210937800068667E-003
  -7.2407642644491399E-002   2.2407310385418655E-002  -2.4645057653276403E-003
  -6.9103156617060735E-002   2.1402492341524249E-002  -2.2072246519728167E-003
  -6.5798670589630015E-002   2.0403429526311717E-002  -1.7492504399404668E-003
  -6.2494184562199351E-002   1.9410121939781644E-002  -1.0905831292327139E-003
  -4.6571660308877827E-002   1.3230226453050220E-002   3.1438324516160743E-002
  -4.4253606428755199E-002   1.2585062152769444E-002   3.0545958903644421E-002
  -4.1935552548632515E-002   1.1929387384022674E-002   2.9778423179053964E-002
  -3.9617498668509860E-002   1.1263202146810303E-002   2.9135717342389608E-002
  -3.7299444788387204E-002   1.0586506441132015E-002   2.8617841393651311E-002
  -5.0895709223514052E-002   1.4775200324733007E-002   2.3437542944615253E-002
  -4.8446908014451062E-002   1.4047321726706502E-002   2.2774445467640875E-002
  -4.5998106805388114E-002   1.3318764517793763E-002   2.2248012760621161E-002
  -4.3549305596325173E-002   1.2589528697994061E-002   2.1858244823556167E-002
  -4.1100504387262177E-002   1.1859614267308194E-002   2.1605141656445670E-002
  -5.4990812903946362E-002   1.6320174196415876E-002   1.5349131146534481E-002
  -5.2399429483914434E-002   1.5509581300643838E-002   1.4925133662681486E-002
  -4.9808046063882574E-002   1.4708141651564512E-002   1.4649635830811782E-002
  -4.7216662643850590E-002   1.3915855249178094E-002   1.4522637650925211E-002
  -4.4625279223818787E-002   1.3132722093484428E-002   1.4544139123022076E-002
  -5.8856971350174814E-002   1.7865148068098871E-002   7.1730891219185973E-003
  -5.6111170837145306E-002   1.6971840874581035E-002   6.9980234887660892E-003
  -5.3365370324115799E-002   1.6097518785335375E-002   6.9832923896255093E-003
  -5.0619569811086292E-002   1.5242181800361989E-002   7.1288958244972627E-003
  -4.7873769298056784E-002   1.4405829919660856E-002   7.4348337933804465E-003
  -6.2494184562199351E-002   1.9410121939781644E-002  -1.0905831292327139E-003
  -5.9582132074143646E-002   1.8434100448518120E-002  -1.0068850541053442E-003
  -5.6670079586087885E-002   1.7486895919106266E-002  -7.5101756293721733E-004
  -5.3758027098032096E-002   1.6568508351545531E-002  -3.2298065572848589E-004
  -5.0845974609976419E-002   1.5678937745837063E-002   2.7722566752064193E-004
  -3.7299444788387204E-002   1.0586506441132015E-002   2.8617841393651311E-002
  -3.4975595748888033E-002   9.9090337568174536E-003   2.7671909326136945E-002
  -3.2651746709388862E-002   9.2405175836969278E-003   2.6968303237138058E-002
  -3.0327897669889706E-002   8.5809579217705489E-003   2.6507023126654455E-002
  -2.8004048630390493E-002   7.9303547710377620E-003   2.6288068994686165E-002
  -4.1100504387262177E-002   1.1859614267308194E-002   2.1605141656445670E-002
  -3.8569671517796944E-002   1.1130332374396035E-002   2.0905602301514781E-002
  -3.6038838648331767E-002   1.0402994167918622E-002   2.0377704628000787E-002
  -3.3508005778866569E-002   9.6775996478755816E-003   2.0021448635903341E-002
  -3.0977172909401302E-002   8.9541488142674819E-003   1.9836834325222819E-002
  -4.4625279223818787E-002   1.3132722093484428E-002   1.4544139123022076E-002
  -4.1958146821486089E-002   1.2351630991974533E-002   1.4083979655915235E-002
  -3.9291014419153350E-002   1.1565470752140317E-002   1.3724777573126623E-002
  -3.6623882016820694E-002   1.0774241373981169E-002   1.3466532874656240E-002
  -3.3956749614487920E-002   9.9779428574972573E-003   1.3309245560503918E-002
  -4.7873769298056784E-002   1.4405829919660856E-002   7.4348337933804465E-003
  -4.5141021659955247E-002   1.3572929609553461E-002   7.2070413893385171E-003
  -4.2408274021853654E-002   1.2727947336361511E-002   7.0095220725157614E-003
  -3.9675526383752040E-002   1.1870883100086202E-002   6.8422758429132514E-003
  -3.6942778745650523E-002   1.1001736900726894E-002   6.7053027005300608E-003
  -5.0845974609976419E-002   1.5678937745837063E-002   2.7722566752064193E-004
  -4.8118296033204611E-002   1.4794228227131612E-002   2.7478750178416833E-004
  -4.5390617456432636E-002   1.3890423920583927E-002   2.3193812616839615E-004
  -4.2662938879660800E-002   1.2967524826191568E-002   1.4867754067432459E-004
  -3.9935260302888853E-002   1.2025530943956531E-002   2.5005745300510362E-005
  -2.8004048630390493E-002   7.9303547710377620E-003   2.6288068994686165E-002
  -2.5672197410788578E-002   7.2501010012690492E-003   2.5707417466273252E-002
  -2.3340346191186676E-002   6.5015894822347542E-003   2.5071492707181675E-002
  -2.1008494971584725E-002   5.6848202139341483E-003   2.4380294717412071E-002
  -1.8676643751982858E-002   4.7997931963676965E-003   2.3633823496963857E-002
  -3.0977172909401302E-002   8.9541488142674819E-003   1.9836834325222819E-002
  -2.8680520284897190E-002   8.2277134239778227E-003   1.9231719731782726E-002
  -2.6383867660393051E-002   7.4933652338903811E-003   1.8611481178825301E-002
  -2.4087215035888898E-002   6.7511042440053931E-003   1.7976118666350835E-002
  -2.1790562411384801E-002   6.0009304543228170E-003   1.7325632194359175E-002
  -3.3956749614487920E-002   9.9779428574972573E-003   1.3309245560503918E-002
  -3.1655146313920482E-002   9.2053258466857357E-003   1.2740012851505056E-002
  -2.9353543013352985E-002   8.4851409855460219E-003   1.2195805454150332E-002
  -2.7051939712785515E-002   7.8173882740768634E-003   1.1676623368439575E-002
  -2.4750336412218049E-002   7.2020677122780485E-003   1.1182466594372553E-002
  -3.6942778745650523E-002   1.1001736900726894E-002   6.7053027005300608E-003
  -3.4596075497858508E-002   1.0182938269394357E-002   6.2322968254408806E-003
  -3.2249372250066473E-002   9.4769167372017668E-003   5.8244655331567453E-003
  -2.9902669002274465E-002   8.8836723041473328E-003   5.4818088236779205E-003
  -2.7555965754482416E-002   8.4032049702332801E-003   5.2043266970040469E-003
  -3.9935260302888853E-002   1.2025530943956531E-002   2.5005745300510362E-005
  -3.7503307836711297E-002   1.1160550692102977E-002  -2.9142834641071591E-004
  -3.5071355370533575E-002   1.0468692488856901E-002  -5.0253858415541530E-004
  -3.2639402904355908E-002   9.9499563342195924E-003  -6.0832496793409435E-004
  -3.0207450438178296E-002   9.6043422281884006E-003  -6.0878749774628815E-004
  -1.8676643751982858E-002   4.7997931963676965E-003   2.3633823496963857E-002
  -1.5653628234610001E-002   4.0703196275483911E-003   2.4410092346089707E-002
  -1.2630612717237227E-002   3.7202107054885580E-003   2.5663509362020887E-002
  -9.6075971998643706E-003   3.7494664301890857E-003   2.7394074544757258E-002
  -6.5845816824915970E-003   4.1580868016493078E-003   2.9601787894298903E-002
  -2.1790562411384801E-002   6.0009304543228170E-003   1.7325632194359175E-002
  -1.8560743314754102E-002   5.3378351963471737E-003   1.8266418369491833E-002
  -1.5330924218123446E-002   4.8568098015824845E-003   1.9143663536335037E-002
  -1.2101105121492726E-002   4.5578542700285968E-003   1.9957367694888747E-002
  -8.8712860248620906E-003   4.4409686016856353E-003   2.0707530845152866E-002
  -2.4750336412218049E-002   7.2020677122780485E-003   1.1182466594372553E-002
  -2.1854402911424174E-002   6.6053507651460952E-003   1.2090475311963222E-002
  -1.8958469410630348E-002   5.9934088976760780E-003   1.2394253846169725E-002
  -1.6062535909836549E-002   5.3662421098683299E-003   1.2093802196991979E-002
  -1.3166602409042646E-002   4.7238504017224070E-003   1.1189120364430427E-002
  -2.7555965754482416E-002   8.4032049702332801E-003   5.2043266970040469E-003
  -2.5534607024620223E-002   7.8728663339446697E-003   5.8822631735038142E-003
  -2.3513248294757930E-002   7.1300079937693384E-003   5.4152802915246254E-003
  -2.1491889564895644E-002   6.1746299497080631E-003   3.8033780510667234E-003
  -1.9470530835033445E-002   5.0067322017591787E-003   1.0465564521296017E-003
  -3.0207450438178296E-002   9.6043422281884006E-003  -6.0878749774628815E-004
  -2.9601355654342187E-002   9.1403819027436883E-003  -3.5821804588653805E-004
  -2.8995260870506301E-002   8.2666070898634869E-003  -1.7932571275999787E-003
  -2.8389166086670303E-002   6.9830177895474355E-003  -4.9139047428873178E-003
  -2.7783071302834306E-002   5.2896140017955062E-003  -9.7201608917480975E-003
  -6.5845816824915970E-003   4.1580868016493078E-003   2.9601787894298903E-002
  -6.0564858210265249E-003   6.1411466616486665E-003   3.4078648918390297E-002
  -5.5283899595614250E-003   1.0893720851967381E-002   3.9240356865491766E-002
  -5.0002940980962696E-003   1.8415809372605313E-002   4.5086911735604251E-002
  -4.4721982366312529E-003   2.8707412223561324E-002   5.1618313528726478E-002
  -8.8712860248620906E-003   4.4409686016856353E-003   2.0707530845152866E-002
  -7.5858452756933092E-003   5.6572749234364839E-003   2.5875192015775372E-002
  -6.3004045265245556E-003   9.3578953621638317E-003   3.1872696038794890E-002
  -5.0149637773555938E-003   1.5542829917867547E-002   3.8700042914210558E-002
  -3.7295230281870206E-003   2.4212078590547303E-002   4.6357232642024293E-002
  -1.3166602409042646E-002   4.7238504017224070E-003   1.1189120364430427E-002
  -1.0978820842783565E-002   5.1734031852251339E-003   1.6762381468240301E-002
  -8.7910392765244358E-003   7.8220698723606152E-003   2.3310481353834539E-002
  -6.6032577102653339E-003   1.2669850463129892E-002   3.0833420021212254E-002
  -4.4154761440061141E-003   1.9716744957533505E-002   3.9331197470373169E-002
  -1.9470530835033445E-002   5.0067322017591787E-003   1.0465564521296017E-003
  -1.6235412522297293E-002   4.6895314470122573E-003   6.7402172757854636E-003
  -1.3000294209561176E-002   6.2862443825573433E-003   1.3553712810611573E-002
  -9.7651758968250839E-003   9.7968710083931806E-003   2.1487043056608320E-002
  -6.5300575840889080E-003   1.5221411324519707E-002   3.0540208013774911E-002
  -2.7783071302834306E-002   5.2896140017955062E-003  -9.7201608917480975E-003
  -2.3355620314234549E-002   4.2056597088007130E-003  -4.1913005615895615E-003
  -1.8928169325634736E-002   4.7504188927536273E-003   2.6023904091265204E-003
  -1.4500718337035062E-002   6.9238915536550816E-003   1.0660912020399413E-002
  -1.0073267348435166E-002   1.0726077691505687E-002   1.9984264272228769E-002
 </DataArray>
 </PointData>
 </Piece>
 </UnstructuredGrid>
 </VTKFile>
