 <VTKFile type="UnstructuredGrid"  version="0.1"   >
 <UnstructuredGrid>
 <Piece  NumberOfPoints="          1600 "  NumberOfCells="         1024 ">
 <Points>
 <DataArray  type="Float64" NumberOfComponents="3"  format="ascii" >
   0.0000000000000000        0.0000000000000000        0.0000000000000000     
   3.1250000000000000E-002   0.0000000000000000        0.0000000000000000     
   6.2500000000000000E-002   0.0000000000000000        0.0000000000000000     
   9.3750000000000000E-002   0.0000000000000000        0.0000000000000000     
  0.12500000000000000        0.0000000000000000        0.0000000000000000     
   0.0000000000000000        3.1250000000000000E-002   0.0000000000000000     
   3.1250000000000000E-002   3.1250000000000000E-002   0.0000000000000000     
   6.2500000000000000E-002   3.1250000000000000E-002   0.0000000000000000     
   9.3750000000000000E-002   3.1250000000000000E-002   0.0000000000000000     
  0.12500000000000000        3.1250000000000000E-002   0.0000000000000000     
   0.0000000000000000        6.2500000000000000E-002   0.0000000000000000     
   3.1250000000000000E-002   6.2500000000000000E-002   0.0000000000000000     
   6.2500000000000000E-002   6.2500000000000000E-002   0.0000000000000000     
   9.3750000000000000E-002   6.2500000000000000E-002   0.0000000000000000     
  0.12500000000000000        6.2500000000000000E-002   0.0000000000000000     
   0.0000000000000000        9.3750000000000000E-002   0.0000000000000000     
   3.1250000000000000E-002   9.3750000000000000E-002   0.0000000000000000     
   6.2500000000000000E-002   9.3750000000000000E-002   0.0000000000000000     
   9.3750000000000000E-002   9.3750000000000000E-002   0.0000000000000000     
  0.12500000000000000        9.3750000000000000E-002   0.0000000000000000     
   0.0000000000000000       0.12500000000000000        0.0000000000000000     
   3.1250000000000000E-002  0.12500000000000000        0.0000000000000000     
   6.2500000000000000E-002  0.12500000000000000        0.0000000000000000     
   9.3750000000000000E-002  0.12500000000000000        0.0000000000000000     
  0.12500000000000000       0.12500000000000000        0.0000000000000000     
  0.12500000000000000        0.0000000000000000        0.0000000000000000     
  0.15625000000000000        0.0000000000000000        0.0000000000000000     
  0.18750000000000000        0.0000000000000000        0.0000000000000000     
  0.21875000000000000        0.0000000000000000        0.0000000000000000     
  0.25000000000000000        0.0000000000000000        0.0000000000000000     
  0.12500000000000000        3.1250000000000000E-002   0.0000000000000000     
  0.15625000000000000        3.1250000000000000E-002   0.0000000000000000     
  0.18750000000000000        3.1250000000000000E-002   0.0000000000000000     
  0.21875000000000000        3.1250000000000000E-002   0.0000000000000000     
  0.25000000000000000        3.1250000000000000E-002   0.0000000000000000     
  0.12500000000000000        6.2500000000000000E-002   0.0000000000000000     
  0.15625000000000000        6.2500000000000000E-002   0.0000000000000000     
  0.18750000000000000        6.2500000000000000E-002   0.0000000000000000     
  0.21875000000000000        6.2500000000000000E-002   0.0000000000000000     
  0.25000000000000000        6.2500000000000000E-002   0.0000000000000000     
  0.12500000000000000        9.3750000000000000E-002   0.0000000000000000     
  0.15625000000000000        9.3750000000000000E-002   0.0000000000000000     
  0.18750000000000000        9.3750000000000000E-002   0.0000000000000000     
  0.21875000000000000        9.3750000000000000E-002   0.0000000000000000     
  0.25000000000000000        9.3750000000000000E-002   0.0000000000000000     
  0.12500000000000000       0.12500000000000000        0.0000000000000000     
  0.15625000000000000       0.12500000000000000        0.0000000000000000     
  0.18750000000000000       0.12500000000000000        0.0000000000000000     
  0.21875000000000000       0.12500000000000000        0.0000000000000000     
  0.25000000000000000       0.12500000000000000        0.0000000000000000     
  0.25000000000000000        0.0000000000000000        0.0000000000000000     
  0.28125000000000000        0.0000000000000000        0.0000000000000000     
  0.31250000000000000        0.0000000000000000        0.0000000000000000     
  0.34375000000000000        0.0000000000000000        0.0000000000000000     
  0.37500000000000000        0.0000000000000000        0.0000000000000000     
  0.25000000000000000        3.1250000000000000E-002   0.0000000000000000     
  0.28125000000000000        3.1250000000000000E-002   0.0000000000000000     
  0.31250000000000000        3.1250000000000000E-002   0.0000000000000000     
  0.34375000000000000        3.1250000000000000E-002   0.0000000000000000     
  0.37500000000000000        3.1250000000000000E-002   0.0000000000000000     
  0.25000000000000000        6.2500000000000000E-002   0.0000000000000000     
  0.28125000000000000        6.2500000000000000E-002   0.0000000000000000     
  0.31250000000000000        6.2500000000000000E-002   0.0000000000000000     
  0.34375000000000000        6.2500000000000000E-002   0.0000000000000000     
  0.37500000000000000        6.2500000000000000E-002   0.0000000000000000     
  0.25000000000000000        9.3750000000000000E-002   0.0000000000000000     
  0.28125000000000000        9.3750000000000000E-002   0.0000000000000000     
  0.31250000000000000        9.3750000000000000E-002   0.0000000000000000     
  0.34375000000000000        9.3750000000000000E-002   0.0000000000000000     
  0.37500000000000000        9.3750000000000000E-002   0.0000000000000000     
  0.25000000000000000       0.12500000000000000        0.0000000000000000     
  0.28125000000000000       0.12500000000000000        0.0000000000000000     
  0.31250000000000000       0.12500000000000000        0.0000000000000000     
  0.34375000000000000       0.12500000000000000        0.0000000000000000     
  0.37500000000000000       0.12500000000000000        0.0000000000000000     
  0.37500000000000000        0.0000000000000000        0.0000000000000000     
  0.40625000000000000        0.0000000000000000        0.0000000000000000     
  0.43750000000000000        0.0000000000000000        0.0000000000000000     
  0.46875000000000000        0.0000000000000000        0.0000000000000000     
  0.50000000000000000        0.0000000000000000        0.0000000000000000     
  0.37500000000000000        3.1250000000000000E-002   0.0000000000000000     
  0.40625000000000000        3.1250000000000000E-002   0.0000000000000000     
  0.43750000000000000        3.1250000000000000E-002   0.0000000000000000     
  0.46875000000000000        3.1250000000000000E-002   0.0000000000000000     
  0.50000000000000000        3.1250000000000000E-002   0.0000000000000000     
  0.37500000000000000        6.2500000000000000E-002   0.0000000000000000     
  0.40625000000000000        6.2500000000000000E-002   0.0000000000000000     
  0.43750000000000000        6.2500000000000000E-002   0.0000000000000000     
  0.46875000000000000        6.2500000000000000E-002   0.0000000000000000     
  0.50000000000000000        6.2500000000000000E-002   0.0000000000000000     
  0.37500000000000000        9.3750000000000000E-002   0.0000000000000000     
  0.40625000000000000        9.3750000000000000E-002   0.0000000000000000     
  0.43750000000000000        9.3750000000000000E-002   0.0000000000000000     
  0.46875000000000000        9.3750000000000000E-002   0.0000000000000000     
  0.50000000000000000        9.3750000000000000E-002   0.0000000000000000     
  0.37500000000000000       0.12500000000000000        0.0000000000000000     
  0.40625000000000000       0.12500000000000000        0.0000000000000000     
  0.43750000000000000       0.12500000000000000        0.0000000000000000     
  0.46875000000000000       0.12500000000000000        0.0000000000000000     
  0.50000000000000000       0.12500000000000000        0.0000000000000000     
  0.50000000000000000        0.0000000000000000        0.0000000000000000     
  0.53125000000000000        0.0000000000000000        0.0000000000000000     
  0.56250000000000000        0.0000000000000000        0.0000000000000000     
  0.59375000000000000        0.0000000000000000        0.0000000000000000     
  0.62500000000000000        0.0000000000000000        0.0000000000000000     
  0.50000000000000000        3.1250000000000000E-002   0.0000000000000000     
  0.53125000000000000        3.1250000000000000E-002   0.0000000000000000     
  0.56250000000000000        3.1250000000000000E-002   0.0000000000000000     
  0.59375000000000000        3.1250000000000000E-002   0.0000000000000000     
  0.62500000000000000        3.1250000000000000E-002   0.0000000000000000     
  0.50000000000000000        6.2500000000000000E-002   0.0000000000000000     
  0.53125000000000000        6.2500000000000000E-002   0.0000000000000000     
  0.56250000000000000        6.2500000000000000E-002   0.0000000000000000     
  0.59375000000000000        6.2500000000000000E-002   0.0000000000000000     
  0.62500000000000000        6.2500000000000000E-002   0.0000000000000000     
  0.50000000000000000        9.3750000000000000E-002   0.0000000000000000     
  0.53125000000000000        9.3750000000000000E-002   0.0000000000000000     
  0.56250000000000000        9.3750000000000000E-002   0.0000000000000000     
  0.59375000000000000        9.3750000000000000E-002   0.0000000000000000     
  0.62500000000000000        9.3750000000000000E-002   0.0000000000000000     
  0.50000000000000000       0.12500000000000000        0.0000000000000000     
  0.53125000000000000       0.12500000000000000        0.0000000000000000     
  0.56250000000000000       0.12500000000000000        0.0000000000000000     
  0.59375000000000000       0.12500000000000000        0.0000000000000000     
  0.62500000000000000       0.12500000000000000        0.0000000000000000     
  0.62500000000000000        0.0000000000000000        0.0000000000000000     
  0.65625000000000000        0.0000000000000000        0.0000000000000000     
  0.68750000000000000        0.0000000000000000        0.0000000000000000     
  0.71875000000000000        0.0000000000000000        0.0000000000000000     
  0.75000000000000000        0.0000000000000000        0.0000000000000000     
  0.62500000000000000        3.1250000000000000E-002   0.0000000000000000     
  0.65625000000000000        3.1250000000000000E-002   0.0000000000000000     
  0.68750000000000000        3.1250000000000000E-002   0.0000000000000000     
  0.71875000000000000        3.1250000000000000E-002   0.0000000000000000     
  0.75000000000000000        3.1250000000000000E-002   0.0000000000000000     
  0.62500000000000000        6.2500000000000000E-002   0.0000000000000000     
  0.65625000000000000        6.2500000000000000E-002   0.0000000000000000     
  0.68750000000000000        6.2500000000000000E-002   0.0000000000000000     
  0.71875000000000000        6.2500000000000000E-002   0.0000000000000000     
  0.75000000000000000        6.2500000000000000E-002   0.0000000000000000     
  0.62500000000000000        9.3750000000000000E-002   0.0000000000000000     
  0.65625000000000000        9.3750000000000000E-002   0.0000000000000000     
  0.68750000000000000        9.3750000000000000E-002   0.0000000000000000     
  0.71875000000000000        9.3750000000000000E-002   0.0000000000000000     
  0.75000000000000000        9.3750000000000000E-002   0.0000000000000000     
  0.62500000000000000       0.12500000000000000        0.0000000000000000     
  0.65625000000000000       0.12500000000000000        0.0000000000000000     
  0.68750000000000000       0.12500000000000000        0.0000000000000000     
  0.71875000000000000       0.12500000000000000        0.0000000000000000     
  0.75000000000000000       0.12500000000000000        0.0000000000000000     
  0.75000000000000000        0.0000000000000000        0.0000000000000000     
  0.78125000000000000        0.0000000000000000        0.0000000000000000     
  0.81250000000000000        0.0000000000000000        0.0000000000000000     
  0.84375000000000000        0.0000000000000000        0.0000000000000000     
  0.87500000000000000        0.0000000000000000        0.0000000000000000     
  0.75000000000000000        3.1250000000000000E-002   0.0000000000000000     
  0.78125000000000000        3.1250000000000000E-002   0.0000000000000000     
  0.81250000000000000        3.1250000000000000E-002   0.0000000000000000     
  0.84375000000000000        3.1250000000000000E-002   0.0000000000000000     
  0.87500000000000000        3.1250000000000000E-002   0.0000000000000000     
  0.75000000000000000        6.2500000000000000E-002   0.0000000000000000     
  0.78125000000000000        6.2500000000000000E-002   0.0000000000000000     
  0.81250000000000000        6.2500000000000000E-002   0.0000000000000000     
  0.84375000000000000        6.2500000000000000E-002   0.0000000000000000     
  0.87500000000000000        6.2500000000000000E-002   0.0000000000000000     
  0.75000000000000000        9.3750000000000000E-002   0.0000000000000000     
  0.78125000000000000        9.3750000000000000E-002   0.0000000000000000     
  0.81250000000000000        9.3750000000000000E-002   0.0000000000000000     
  0.84375000000000000        9.3750000000000000E-002   0.0000000000000000     
  0.87500000000000000        9.3750000000000000E-002   0.0000000000000000     
  0.75000000000000000       0.12500000000000000        0.0000000000000000     
  0.78125000000000000       0.12500000000000000        0.0000000000000000     
  0.81250000000000000       0.12500000000000000        0.0000000000000000     
  0.84375000000000000       0.12500000000000000        0.0000000000000000     
  0.87500000000000000       0.12500000000000000        0.0000000000000000     
  0.87500000000000000        0.0000000000000000        0.0000000000000000     
  0.90625000000000000        0.0000000000000000        0.0000000000000000     
  0.93750000000000000        0.0000000000000000        0.0000000000000000     
  0.96875000000000000        0.0000000000000000        0.0000000000000000     
   1.0000000000000000        0.0000000000000000        0.0000000000000000     
  0.87500000000000000        3.1250000000000000E-002   0.0000000000000000     
  0.90625000000000000        3.1250000000000000E-002   0.0000000000000000     
  0.93750000000000000        3.1250000000000000E-002   0.0000000000000000     
  0.96875000000000000        3.1250000000000000E-002   0.0000000000000000     
   1.0000000000000000        3.1250000000000000E-002   0.0000000000000000     
  0.87500000000000000        6.2500000000000000E-002   0.0000000000000000     
  0.90625000000000000        6.2500000000000000E-002   0.0000000000000000     
  0.93750000000000000        6.2500000000000000E-002   0.0000000000000000     
  0.96875000000000000        6.2500000000000000E-002   0.0000000000000000     
   1.0000000000000000        6.2500000000000000E-002   0.0000000000000000     
  0.87500000000000000        9.3750000000000000E-002   0.0000000000000000     
  0.90625000000000000        9.3750000000000000E-002   0.0000000000000000     
  0.93750000000000000        9.3750000000000000E-002   0.0000000000000000     
  0.96875000000000000        9.3750000000000000E-002   0.0000000000000000     
   1.0000000000000000        9.3750000000000000E-002   0.0000000000000000     
  0.87500000000000000       0.12500000000000000        0.0000000000000000     
  0.90625000000000000       0.12500000000000000        0.0000000000000000     
  0.93750000000000000       0.12500000000000000        0.0000000000000000     
  0.96875000000000000       0.12500000000000000        0.0000000000000000     
   1.0000000000000000       0.12500000000000000        0.0000000000000000     
   0.0000000000000000       0.12500000000000000        0.0000000000000000     
   3.1250000000000000E-002  0.12500000000000000        0.0000000000000000     
   6.2500000000000000E-002  0.12500000000000000        0.0000000000000000     
   9.3750000000000000E-002  0.12500000000000000        0.0000000000000000     
  0.12500000000000000       0.12500000000000000        0.0000000000000000     
   0.0000000000000000       0.15625000000000000        0.0000000000000000     
   3.1250000000000000E-002  0.15625000000000000        0.0000000000000000     
   6.2500000000000000E-002  0.15625000000000000        0.0000000000000000     
   9.3750000000000000E-002  0.15625000000000000        0.0000000000000000     
  0.12500000000000000       0.15625000000000000        0.0000000000000000     
   0.0000000000000000       0.18750000000000000        0.0000000000000000     
   3.1250000000000000E-002  0.18750000000000000        0.0000000000000000     
   6.2500000000000000E-002  0.18750000000000000        0.0000000000000000     
   9.3750000000000000E-002  0.18750000000000000        0.0000000000000000     
  0.12500000000000000       0.18750000000000000        0.0000000000000000     
   0.0000000000000000       0.21875000000000000        0.0000000000000000     
   3.1250000000000000E-002  0.21875000000000000        0.0000000000000000     
   6.2500000000000000E-002  0.21875000000000000        0.0000000000000000     
   9.3750000000000000E-002  0.21875000000000000        0.0000000000000000     
  0.12500000000000000       0.21875000000000000        0.0000000000000000     
   0.0000000000000000       0.25000000000000000        0.0000000000000000     
   3.1250000000000000E-002  0.25000000000000000        0.0000000000000000     
   6.2500000000000000E-002  0.25000000000000000        0.0000000000000000     
   9.3750000000000000E-002  0.25000000000000000        0.0000000000000000     
  0.12500000000000000       0.25000000000000000        0.0000000000000000     
  0.12500000000000000       0.12500000000000000        0.0000000000000000     
  0.15625000000000000       0.12500000000000000        0.0000000000000000     
  0.18750000000000000       0.12500000000000000        0.0000000000000000     
  0.21875000000000000       0.12500000000000000        0.0000000000000000     
  0.25000000000000000       0.12500000000000000        0.0000000000000000     
  0.12500000000000000       0.15625000000000000        0.0000000000000000     
  0.15625000000000000       0.15625000000000000        0.0000000000000000     
  0.18750000000000000       0.15625000000000000        0.0000000000000000     
  0.21875000000000000       0.15625000000000000        0.0000000000000000     
  0.25000000000000000       0.15625000000000000        0.0000000000000000     
  0.12500000000000000       0.18750000000000000        0.0000000000000000     
  0.15625000000000000       0.18750000000000000        0.0000000000000000     
  0.18750000000000000       0.18750000000000000        0.0000000000000000     
  0.21875000000000000       0.18750000000000000        0.0000000000000000     
  0.25000000000000000       0.18750000000000000        0.0000000000000000     
  0.12500000000000000       0.21875000000000000        0.0000000000000000     
  0.15625000000000000       0.21875000000000000        0.0000000000000000     
  0.18750000000000000       0.21875000000000000        0.0000000000000000     
  0.21875000000000000       0.21875000000000000        0.0000000000000000     
  0.25000000000000000       0.21875000000000000        0.0000000000000000     
  0.12500000000000000       0.25000000000000000        0.0000000000000000     
  0.15625000000000000       0.25000000000000000        0.0000000000000000     
  0.18750000000000000       0.25000000000000000        0.0000000000000000     
  0.21875000000000000       0.25000000000000000        0.0000000000000000     
  0.25000000000000000       0.25000000000000000        0.0000000000000000     
  0.25000000000000000       0.12500000000000000        0.0000000000000000     
  0.28125000000000000       0.12500000000000000        0.0000000000000000     
  0.31250000000000000       0.12500000000000000        0.0000000000000000     
  0.34375000000000000       0.12500000000000000        0.0000000000000000     
  0.37500000000000000       0.12500000000000000        0.0000000000000000     
  0.25000000000000000       0.15625000000000000        0.0000000000000000     
  0.28125000000000000       0.15625000000000000        0.0000000000000000     
  0.31250000000000000       0.15625000000000000        0.0000000000000000     
  0.34375000000000000       0.15625000000000000        0.0000000000000000     
  0.37500000000000000       0.15625000000000000        0.0000000000000000     
  0.25000000000000000       0.18750000000000000        0.0000000000000000     
  0.28125000000000000       0.18750000000000000        0.0000000000000000     
  0.31250000000000000       0.18750000000000000        0.0000000000000000     
  0.34375000000000000       0.18750000000000000        0.0000000000000000     
  0.37500000000000000       0.18750000000000000        0.0000000000000000     
  0.25000000000000000       0.21875000000000000        0.0000000000000000     
  0.28125000000000000       0.21875000000000000        0.0000000000000000     
  0.31250000000000000       0.21875000000000000        0.0000000000000000     
  0.34375000000000000       0.21875000000000000        0.0000000000000000     
  0.37500000000000000       0.21875000000000000        0.0000000000000000     
  0.25000000000000000       0.25000000000000000        0.0000000000000000     
  0.28125000000000000       0.25000000000000000        0.0000000000000000     
  0.31250000000000000       0.25000000000000000        0.0000000000000000     
  0.34375000000000000       0.25000000000000000        0.0000000000000000     
  0.37500000000000000       0.25000000000000000        0.0000000000000000     
  0.37500000000000000       0.12500000000000000        0.0000000000000000     
  0.40625000000000000       0.12500000000000000        0.0000000000000000     
  0.43750000000000000       0.12500000000000000        0.0000000000000000     
  0.46875000000000000       0.12500000000000000        0.0000000000000000     
  0.50000000000000000       0.12500000000000000        0.0000000000000000     
  0.37500000000000000       0.15625000000000000        0.0000000000000000     
  0.40625000000000000       0.15625000000000000        0.0000000000000000     
  0.43750000000000000       0.15625000000000000        0.0000000000000000     
  0.46875000000000000       0.15625000000000000        0.0000000000000000     
  0.50000000000000000       0.15625000000000000        0.0000000000000000     
  0.37500000000000000       0.18750000000000000        0.0000000000000000     
  0.40625000000000000       0.18750000000000000        0.0000000000000000     
  0.43750000000000000       0.18750000000000000        0.0000000000000000     
  0.46875000000000000       0.18750000000000000        0.0000000000000000     
  0.50000000000000000       0.18750000000000000        0.0000000000000000     
  0.37500000000000000       0.21875000000000000        0.0000000000000000     
  0.40625000000000000       0.21875000000000000        0.0000000000000000     
  0.43750000000000000       0.21875000000000000        0.0000000000000000     
  0.46875000000000000       0.21875000000000000        0.0000000000000000     
  0.50000000000000000       0.21875000000000000        0.0000000000000000     
  0.37500000000000000       0.25000000000000000        0.0000000000000000     
  0.40625000000000000       0.25000000000000000        0.0000000000000000     
  0.43750000000000000       0.25000000000000000        0.0000000000000000     
  0.46875000000000000       0.25000000000000000        0.0000000000000000     
  0.50000000000000000       0.25000000000000000        0.0000000000000000     
  0.50000000000000000       0.12500000000000000        0.0000000000000000     
  0.53125000000000000       0.12500000000000000        0.0000000000000000     
  0.56250000000000000       0.12500000000000000        0.0000000000000000     
  0.59375000000000000       0.12500000000000000        0.0000000000000000     
  0.62500000000000000       0.12500000000000000        0.0000000000000000     
  0.50000000000000000       0.15625000000000000        0.0000000000000000     
  0.53125000000000000       0.15625000000000000        0.0000000000000000     
  0.56250000000000000       0.15625000000000000        0.0000000000000000     
  0.59375000000000000       0.15625000000000000        0.0000000000000000     
  0.62500000000000000       0.15625000000000000        0.0000000000000000     
  0.50000000000000000       0.18750000000000000        0.0000000000000000     
  0.53125000000000000       0.18750000000000000        0.0000000000000000     
  0.56250000000000000       0.18750000000000000        0.0000000000000000     
  0.59375000000000000       0.18750000000000000        0.0000000000000000     
  0.62500000000000000       0.18750000000000000        0.0000000000000000     
  0.50000000000000000       0.21875000000000000        0.0000000000000000     
  0.53125000000000000       0.21875000000000000        0.0000000000000000     
  0.56250000000000000       0.21875000000000000        0.0000000000000000     
  0.59375000000000000       0.21875000000000000        0.0000000000000000     
  0.62500000000000000       0.21875000000000000        0.0000000000000000     
  0.50000000000000000       0.25000000000000000        0.0000000000000000     
  0.53125000000000000       0.25000000000000000        0.0000000000000000     
  0.56250000000000000       0.25000000000000000        0.0000000000000000     
  0.59375000000000000       0.25000000000000000        0.0000000000000000     
  0.62500000000000000       0.25000000000000000        0.0000000000000000     
  0.62500000000000000       0.12500000000000000        0.0000000000000000     
  0.65625000000000000       0.12500000000000000        0.0000000000000000     
  0.68750000000000000       0.12500000000000000        0.0000000000000000     
  0.71875000000000000       0.12500000000000000        0.0000000000000000     
  0.75000000000000000       0.12500000000000000        0.0000000000000000     
  0.62500000000000000       0.15625000000000000        0.0000000000000000     
  0.65625000000000000       0.15625000000000000        0.0000000000000000     
  0.68750000000000000       0.15625000000000000        0.0000000000000000     
  0.71875000000000000       0.15625000000000000        0.0000000000000000     
  0.75000000000000000       0.15625000000000000        0.0000000000000000     
  0.62500000000000000       0.18750000000000000        0.0000000000000000     
  0.65625000000000000       0.18750000000000000        0.0000000000000000     
  0.68750000000000000       0.18750000000000000        0.0000000000000000     
  0.71875000000000000       0.18750000000000000        0.0000000000000000     
  0.75000000000000000       0.18750000000000000        0.0000000000000000     
  0.62500000000000000       0.21875000000000000        0.0000000000000000     
  0.65625000000000000       0.21875000000000000        0.0000000000000000     
  0.68750000000000000       0.21875000000000000        0.0000000000000000     
  0.71875000000000000       0.21875000000000000        0.0000000000000000     
  0.75000000000000000       0.21875000000000000        0.0000000000000000     
  0.62500000000000000       0.25000000000000000        0.0000000000000000     
  0.65625000000000000       0.25000000000000000        0.0000000000000000     
  0.68750000000000000       0.25000000000000000        0.0000000000000000     
  0.71875000000000000       0.25000000000000000        0.0000000000000000     
  0.75000000000000000       0.25000000000000000        0.0000000000000000     
  0.75000000000000000       0.12500000000000000        0.0000000000000000     
  0.78125000000000000       0.12500000000000000        0.0000000000000000     
  0.81250000000000000       0.12500000000000000        0.0000000000000000     
  0.84375000000000000       0.12500000000000000        0.0000000000000000     
  0.87500000000000000       0.12500000000000000        0.0000000000000000     
  0.75000000000000000       0.15625000000000000        0.0000000000000000     
  0.78125000000000000       0.15625000000000000        0.0000000000000000     
  0.81250000000000000       0.15625000000000000        0.0000000000000000     
  0.84375000000000000       0.15625000000000000        0.0000000000000000     
  0.87500000000000000       0.15625000000000000        0.0000000000000000     
  0.75000000000000000       0.18750000000000000        0.0000000000000000     
  0.78125000000000000       0.18750000000000000        0.0000000000000000     
  0.81250000000000000       0.18750000000000000        0.0000000000000000     
  0.84375000000000000       0.18750000000000000        0.0000000000000000     
  0.87500000000000000       0.18750000000000000        0.0000000000000000     
  0.75000000000000000       0.21875000000000000        0.0000000000000000     
  0.78125000000000000       0.21875000000000000        0.0000000000000000     
  0.81250000000000000       0.21875000000000000        0.0000000000000000     
  0.84375000000000000       0.21875000000000000        0.0000000000000000     
  0.87500000000000000       0.21875000000000000        0.0000000000000000     
  0.75000000000000000       0.25000000000000000        0.0000000000000000     
  0.78125000000000000       0.25000000000000000        0.0000000000000000     
  0.81250000000000000       0.25000000000000000        0.0000000000000000     
  0.84375000000000000       0.25000000000000000        0.0000000000000000     
  0.87500000000000000       0.25000000000000000        0.0000000000000000     
  0.87500000000000000       0.12500000000000000        0.0000000000000000     
  0.90625000000000000       0.12500000000000000        0.0000000000000000     
  0.93750000000000000       0.12500000000000000        0.0000000000000000     
  0.96875000000000000       0.12500000000000000        0.0000000000000000     
   1.0000000000000000       0.12500000000000000        0.0000000000000000     
  0.87500000000000000       0.15625000000000000        0.0000000000000000     
  0.90625000000000000       0.15625000000000000        0.0000000000000000     
  0.93750000000000000       0.15625000000000000        0.0000000000000000     
  0.96875000000000000       0.15625000000000000        0.0000000000000000     
   1.0000000000000000       0.15625000000000000        0.0000000000000000     
  0.87500000000000000       0.18750000000000000        0.0000000000000000     
  0.90625000000000000       0.18750000000000000        0.0000000000000000     
  0.93750000000000000       0.18750000000000000        0.0000000000000000     
  0.96875000000000000       0.18750000000000000        0.0000000000000000     
   1.0000000000000000       0.18750000000000000        0.0000000000000000     
  0.87500000000000000       0.21875000000000000        0.0000000000000000     
  0.90625000000000000       0.21875000000000000        0.0000000000000000     
  0.93750000000000000       0.21875000000000000        0.0000000000000000     
  0.96875000000000000       0.21875000000000000        0.0000000000000000     
   1.0000000000000000       0.21875000000000000        0.0000000000000000     
  0.87500000000000000       0.25000000000000000        0.0000000000000000     
  0.90625000000000000       0.25000000000000000        0.0000000000000000     
  0.93750000000000000       0.25000000000000000        0.0000000000000000     
  0.96875000000000000       0.25000000000000000        0.0000000000000000     
   1.0000000000000000       0.25000000000000000        0.0000000000000000     
   0.0000000000000000       0.25000000000000000        0.0000000000000000     
   3.1250000000000000E-002  0.25000000000000000        0.0000000000000000     
   6.2500000000000000E-002  0.25000000000000000        0.0000000000000000     
   9.3750000000000000E-002  0.25000000000000000        0.0000000000000000     
  0.12500000000000000       0.25000000000000000        0.0000000000000000     
   0.0000000000000000       0.28125000000000000        0.0000000000000000     
   3.1250000000000000E-002  0.28125000000000000        0.0000000000000000     
   6.2500000000000000E-002  0.28125000000000000        0.0000000000000000     
   9.3750000000000000E-002  0.28125000000000000        0.0000000000000000     
  0.12500000000000000       0.28125000000000000        0.0000000000000000     
   0.0000000000000000       0.31250000000000000        0.0000000000000000     
   3.1250000000000000E-002  0.31250000000000000        0.0000000000000000     
   6.2500000000000000E-002  0.31250000000000000        0.0000000000000000     
   9.3750000000000000E-002  0.31250000000000000        0.0000000000000000     
  0.12500000000000000       0.31250000000000000        0.0000000000000000     
   0.0000000000000000       0.34375000000000000        0.0000000000000000     
   3.1250000000000000E-002  0.34375000000000000        0.0000000000000000     
   6.2500000000000000E-002  0.34375000000000000        0.0000000000000000     
   9.3750000000000000E-002  0.34375000000000000        0.0000000000000000     
  0.12500000000000000       0.34375000000000000        0.0000000000000000     
   0.0000000000000000       0.37500000000000000        0.0000000000000000     
   3.1250000000000000E-002  0.37500000000000000        0.0000000000000000     
   6.2500000000000000E-002  0.37500000000000000        0.0000000000000000     
   9.3750000000000000E-002  0.37500000000000000        0.0000000000000000     
  0.12500000000000000       0.37500000000000000        0.0000000000000000     
  0.12500000000000000       0.25000000000000000        0.0000000000000000     
  0.15625000000000000       0.25000000000000000        0.0000000000000000     
  0.18750000000000000       0.25000000000000000        0.0000000000000000     
  0.21875000000000000       0.25000000000000000        0.0000000000000000     
  0.25000000000000000       0.25000000000000000        0.0000000000000000     
  0.12500000000000000       0.28125000000000000        0.0000000000000000     
  0.15625000000000000       0.28125000000000000        0.0000000000000000     
  0.18750000000000000       0.28125000000000000        0.0000000000000000     
  0.21875000000000000       0.28125000000000000        0.0000000000000000     
  0.25000000000000000       0.28125000000000000        0.0000000000000000     
  0.12500000000000000       0.31250000000000000        0.0000000000000000     
  0.15625000000000000       0.31250000000000000        0.0000000000000000     
  0.18750000000000000       0.31250000000000000        0.0000000000000000     
  0.21875000000000000       0.31250000000000000        0.0000000000000000     
  0.25000000000000000       0.31250000000000000        0.0000000000000000     
  0.12500000000000000       0.34375000000000000        0.0000000000000000     
  0.15625000000000000       0.34375000000000000        0.0000000000000000     
  0.18750000000000000       0.34375000000000000        0.0000000000000000     
  0.21875000000000000       0.34375000000000000        0.0000000000000000     
  0.25000000000000000       0.34375000000000000        0.0000000000000000     
  0.12500000000000000       0.37500000000000000        0.0000000000000000     
  0.15625000000000000       0.37500000000000000        0.0000000000000000     
  0.18750000000000000       0.37500000000000000        0.0000000000000000     
  0.21875000000000000       0.37500000000000000        0.0000000000000000     
  0.25000000000000000       0.37500000000000000        0.0000000000000000     
  0.25000000000000000       0.25000000000000000        0.0000000000000000     
  0.28125000000000000       0.25000000000000000        0.0000000000000000     
  0.31250000000000000       0.25000000000000000        0.0000000000000000     
  0.34375000000000000       0.25000000000000000        0.0000000000000000     
  0.37500000000000000       0.25000000000000000        0.0000000000000000     
  0.25000000000000000       0.28125000000000000        0.0000000000000000     
  0.28125000000000000       0.28125000000000000        0.0000000000000000     
  0.31250000000000000       0.28125000000000000        0.0000000000000000     
  0.34375000000000000       0.28125000000000000        0.0000000000000000     
  0.37500000000000000       0.28125000000000000        0.0000000000000000     
  0.25000000000000000       0.31250000000000000        0.0000000000000000     
  0.28125000000000000       0.31250000000000000        0.0000000000000000     
  0.31250000000000000       0.31250000000000000        0.0000000000000000     
  0.34375000000000000       0.31250000000000000        0.0000000000000000     
  0.37500000000000000       0.31250000000000000        0.0000000000000000     
  0.25000000000000000       0.34375000000000000        0.0000000000000000     
  0.28125000000000000       0.34375000000000000        0.0000000000000000     
  0.31250000000000000       0.34375000000000000        0.0000000000000000     
  0.34375000000000000       0.34375000000000000        0.0000000000000000     
  0.37500000000000000       0.34375000000000000        0.0000000000000000     
  0.25000000000000000       0.37500000000000000        0.0000000000000000     
  0.28125000000000000       0.37500000000000000        0.0000000000000000     
  0.31250000000000000       0.37500000000000000        0.0000000000000000     
  0.34375000000000000       0.37500000000000000        0.0000000000000000     
  0.37500000000000000       0.37500000000000000        0.0000000000000000     
  0.37500000000000000       0.25000000000000000        0.0000000000000000     
  0.40625000000000000       0.25000000000000000        0.0000000000000000     
  0.43750000000000000       0.25000000000000000        0.0000000000000000     
  0.46875000000000000       0.25000000000000000        0.0000000000000000     
  0.50000000000000000       0.25000000000000000        0.0000000000000000     
  0.37500000000000000       0.28125000000000000        0.0000000000000000     
  0.40625000000000000       0.28125000000000000        0.0000000000000000     
  0.43750000000000000       0.28125000000000000        0.0000000000000000     
  0.46875000000000000       0.28125000000000000        0.0000000000000000     
  0.50000000000000000       0.28125000000000000        0.0000000000000000     
  0.37500000000000000       0.31250000000000000        0.0000000000000000     
  0.40625000000000000       0.31250000000000000        0.0000000000000000     
  0.43750000000000000       0.31250000000000000        0.0000000000000000     
  0.46875000000000000       0.31250000000000000        0.0000000000000000     
  0.50000000000000000       0.31250000000000000        0.0000000000000000     
  0.37500000000000000       0.34375000000000000        0.0000000000000000     
  0.40625000000000000       0.34375000000000000        0.0000000000000000     
  0.43750000000000000       0.34375000000000000        0.0000000000000000     
  0.46875000000000000       0.34375000000000000        0.0000000000000000     
  0.50000000000000000       0.34375000000000000        0.0000000000000000     
  0.37500000000000000       0.37500000000000000        0.0000000000000000     
  0.40625000000000000       0.37500000000000000        0.0000000000000000     
  0.43750000000000000       0.37500000000000000        0.0000000000000000     
  0.46875000000000000       0.37500000000000000        0.0000000000000000     
  0.50000000000000000       0.37500000000000000        0.0000000000000000     
  0.50000000000000000       0.25000000000000000        0.0000000000000000     
  0.53125000000000000       0.25000000000000000        0.0000000000000000     
  0.56250000000000000       0.25000000000000000        0.0000000000000000     
  0.59375000000000000       0.25000000000000000        0.0000000000000000     
  0.62500000000000000       0.25000000000000000        0.0000000000000000     
  0.50000000000000000       0.28125000000000000        0.0000000000000000     
  0.53125000000000000       0.28125000000000000        0.0000000000000000     
  0.56250000000000000       0.28125000000000000        0.0000000000000000     
  0.59375000000000000       0.28125000000000000        0.0000000000000000     
  0.62500000000000000       0.28125000000000000        0.0000000000000000     
  0.50000000000000000       0.31250000000000000        0.0000000000000000     
  0.53125000000000000       0.31250000000000000        0.0000000000000000     
  0.56250000000000000       0.31250000000000000        0.0000000000000000     
  0.59375000000000000       0.31250000000000000        0.0000000000000000     
  0.62500000000000000       0.31250000000000000        0.0000000000000000     
  0.50000000000000000       0.34375000000000000        0.0000000000000000     
  0.53125000000000000       0.34375000000000000        0.0000000000000000     
  0.56250000000000000       0.34375000000000000        0.0000000000000000     
  0.59375000000000000       0.34375000000000000        0.0000000000000000     
  0.62500000000000000       0.34375000000000000        0.0000000000000000     
  0.50000000000000000       0.37500000000000000        0.0000000000000000     
  0.53125000000000000       0.37500000000000000        0.0000000000000000     
  0.56250000000000000       0.37500000000000000        0.0000000000000000     
  0.59375000000000000       0.37500000000000000        0.0000000000000000     
  0.62500000000000000       0.37500000000000000        0.0000000000000000     
  0.62500000000000000       0.25000000000000000        0.0000000000000000     
  0.65625000000000000       0.25000000000000000        0.0000000000000000     
  0.68750000000000000       0.25000000000000000        0.0000000000000000     
  0.71875000000000000       0.25000000000000000        0.0000000000000000     
  0.75000000000000000       0.25000000000000000        0.0000000000000000     
  0.62500000000000000       0.28125000000000000        0.0000000000000000     
  0.65625000000000000       0.28125000000000000        0.0000000000000000     
  0.68750000000000000       0.28125000000000000        0.0000000000000000     
  0.71875000000000000       0.28125000000000000        0.0000000000000000     
  0.75000000000000000       0.28125000000000000        0.0000000000000000     
  0.62500000000000000       0.31250000000000000        0.0000000000000000     
  0.65625000000000000       0.31250000000000000        0.0000000000000000     
  0.68750000000000000       0.31250000000000000        0.0000000000000000     
  0.71875000000000000       0.31250000000000000        0.0000000000000000     
  0.75000000000000000       0.31250000000000000        0.0000000000000000     
  0.62500000000000000       0.34375000000000000        0.0000000000000000     
  0.65625000000000000       0.34375000000000000        0.0000000000000000     
  0.68750000000000000       0.34375000000000000        0.0000000000000000     
  0.71875000000000000       0.34375000000000000        0.0000000000000000     
  0.75000000000000000       0.34375000000000000        0.0000000000000000     
  0.62500000000000000       0.37500000000000000        0.0000000000000000     
  0.65625000000000000       0.37500000000000000        0.0000000000000000     
  0.68750000000000000       0.37500000000000000        0.0000000000000000     
  0.71875000000000000       0.37500000000000000        0.0000000000000000     
  0.75000000000000000       0.37500000000000000        0.0000000000000000     
  0.75000000000000000       0.25000000000000000        0.0000000000000000     
  0.78125000000000000       0.25000000000000000        0.0000000000000000     
  0.81250000000000000       0.25000000000000000        0.0000000000000000     
  0.84375000000000000       0.25000000000000000        0.0000000000000000     
  0.87500000000000000       0.25000000000000000        0.0000000000000000     
  0.75000000000000000       0.28125000000000000        0.0000000000000000     
  0.78125000000000000       0.28125000000000000        0.0000000000000000     
  0.81250000000000000       0.28125000000000000        0.0000000000000000     
  0.84375000000000000       0.28125000000000000        0.0000000000000000     
  0.87500000000000000       0.28125000000000000        0.0000000000000000     
  0.75000000000000000       0.31250000000000000        0.0000000000000000     
  0.78125000000000000       0.31250000000000000        0.0000000000000000     
  0.81250000000000000       0.31250000000000000        0.0000000000000000     
  0.84375000000000000       0.31250000000000000        0.0000000000000000     
  0.87500000000000000       0.31250000000000000        0.0000000000000000     
  0.75000000000000000       0.34375000000000000        0.0000000000000000     
  0.78125000000000000       0.34375000000000000        0.0000000000000000     
  0.81250000000000000       0.34375000000000000        0.0000000000000000     
  0.84375000000000000       0.34375000000000000        0.0000000000000000     
  0.87500000000000000       0.34375000000000000        0.0000000000000000     
  0.75000000000000000       0.37500000000000000        0.0000000000000000     
  0.78125000000000000       0.37500000000000000        0.0000000000000000     
  0.81250000000000000       0.37500000000000000        0.0000000000000000     
  0.84375000000000000       0.37500000000000000        0.0000000000000000     
  0.87500000000000000       0.37500000000000000        0.0000000000000000     
  0.87500000000000000       0.25000000000000000        0.0000000000000000     
  0.90625000000000000       0.25000000000000000        0.0000000000000000     
  0.93750000000000000       0.25000000000000000        0.0000000000000000     
  0.96875000000000000       0.25000000000000000        0.0000000000000000     
   1.0000000000000000       0.25000000000000000        0.0000000000000000     
  0.87500000000000000       0.28125000000000000        0.0000000000000000     
  0.90625000000000000       0.28125000000000000        0.0000000000000000     
  0.93750000000000000       0.28125000000000000        0.0000000000000000     
  0.96875000000000000       0.28125000000000000        0.0000000000000000     
   1.0000000000000000       0.28125000000000000        0.0000000000000000     
  0.87500000000000000       0.31250000000000000        0.0000000000000000     
  0.90625000000000000       0.31250000000000000        0.0000000000000000     
  0.93750000000000000       0.31250000000000000        0.0000000000000000     
  0.96875000000000000       0.31250000000000000        0.0000000000000000     
   1.0000000000000000       0.31250000000000000        0.0000000000000000     
  0.87500000000000000       0.34375000000000000        0.0000000000000000     
  0.90625000000000000       0.34375000000000000        0.0000000000000000     
  0.93750000000000000       0.34375000000000000        0.0000000000000000     
  0.96875000000000000       0.34375000000000000        0.0000000000000000     
   1.0000000000000000       0.34375000000000000        0.0000000000000000     
  0.87500000000000000       0.37500000000000000        0.0000000000000000     
  0.90625000000000000       0.37500000000000000        0.0000000000000000     
  0.93750000000000000       0.37500000000000000        0.0000000000000000     
  0.96875000000000000       0.37500000000000000        0.0000000000000000     
   1.0000000000000000       0.37500000000000000        0.0000000000000000     
   0.0000000000000000       0.37500000000000000        0.0000000000000000     
   3.1250000000000000E-002  0.37500000000000000        0.0000000000000000     
   6.2500000000000000E-002  0.37500000000000000        0.0000000000000000     
   9.3750000000000000E-002  0.37500000000000000        0.0000000000000000     
  0.12500000000000000       0.37500000000000000        0.0000000000000000     
   0.0000000000000000       0.40625000000000000        0.0000000000000000     
   3.1250000000000000E-002  0.40625000000000000        0.0000000000000000     
   6.2500000000000000E-002  0.40625000000000000        0.0000000000000000     
   9.3750000000000000E-002  0.40625000000000000        0.0000000000000000     
  0.12500000000000000       0.40625000000000000        0.0000000000000000     
   0.0000000000000000       0.43750000000000000        0.0000000000000000     
   3.1250000000000000E-002  0.43750000000000000        0.0000000000000000     
   6.2500000000000000E-002  0.43750000000000000        0.0000000000000000     
   9.3750000000000000E-002  0.43750000000000000        0.0000000000000000     
  0.12500000000000000       0.43750000000000000        0.0000000000000000     
   0.0000000000000000       0.46875000000000000        0.0000000000000000     
   3.1250000000000000E-002  0.46875000000000000        0.0000000000000000     
   6.2500000000000000E-002  0.46875000000000000        0.0000000000000000     
   9.3750000000000000E-002  0.46875000000000000        0.0000000000000000     
  0.12500000000000000       0.46875000000000000        0.0000000000000000     
   0.0000000000000000       0.50000000000000000        0.0000000000000000     
   3.1250000000000000E-002  0.50000000000000000        0.0000000000000000     
   6.2500000000000000E-002  0.50000000000000000        0.0000000000000000     
   9.3750000000000000E-002  0.50000000000000000        0.0000000000000000     
  0.12500000000000000       0.50000000000000000        0.0000000000000000     
  0.12500000000000000       0.37500000000000000        0.0000000000000000     
  0.15625000000000000       0.37500000000000000        0.0000000000000000     
  0.18750000000000000       0.37500000000000000        0.0000000000000000     
  0.21875000000000000       0.37500000000000000        0.0000000000000000     
  0.25000000000000000       0.37500000000000000        0.0000000000000000     
  0.12500000000000000       0.40625000000000000        0.0000000000000000     
  0.15625000000000000       0.40625000000000000        0.0000000000000000     
  0.18750000000000000       0.40625000000000000        0.0000000000000000     
  0.21875000000000000       0.40625000000000000        0.0000000000000000     
  0.25000000000000000       0.40625000000000000        0.0000000000000000     
  0.12500000000000000       0.43750000000000000        0.0000000000000000     
  0.15625000000000000       0.43750000000000000        0.0000000000000000     
  0.18750000000000000       0.43750000000000000        0.0000000000000000     
  0.21875000000000000       0.43750000000000000        0.0000000000000000     
  0.25000000000000000       0.43750000000000000        0.0000000000000000     
  0.12500000000000000       0.46875000000000000        0.0000000000000000     
  0.15625000000000000       0.46875000000000000        0.0000000000000000     
  0.18750000000000000       0.46875000000000000        0.0000000000000000     
  0.21875000000000000       0.46875000000000000        0.0000000000000000     
  0.25000000000000000       0.46875000000000000        0.0000000000000000     
  0.12500000000000000       0.50000000000000000        0.0000000000000000     
  0.15625000000000000       0.50000000000000000        0.0000000000000000     
  0.18750000000000000       0.50000000000000000        0.0000000000000000     
  0.21875000000000000       0.50000000000000000        0.0000000000000000     
  0.25000000000000000       0.50000000000000000        0.0000000000000000     
  0.25000000000000000       0.37500000000000000        0.0000000000000000     
  0.28125000000000000       0.37500000000000000        0.0000000000000000     
  0.31250000000000000       0.37500000000000000        0.0000000000000000     
  0.34375000000000000       0.37500000000000000        0.0000000000000000     
  0.37500000000000000       0.37500000000000000        0.0000000000000000     
  0.25000000000000000       0.40625000000000000        0.0000000000000000     
  0.28125000000000000       0.40625000000000000        0.0000000000000000     
  0.31250000000000000       0.40625000000000000        0.0000000000000000     
  0.34375000000000000       0.40625000000000000        0.0000000000000000     
  0.37500000000000000       0.40625000000000000        0.0000000000000000     
  0.25000000000000000       0.43750000000000000        0.0000000000000000     
  0.28125000000000000       0.43750000000000000        0.0000000000000000     
  0.31250000000000000       0.43750000000000000        0.0000000000000000     
  0.34375000000000000       0.43750000000000000        0.0000000000000000     
  0.37500000000000000       0.43750000000000000        0.0000000000000000     
  0.25000000000000000       0.46875000000000000        0.0000000000000000     
  0.28125000000000000       0.46875000000000000        0.0000000000000000     
  0.31250000000000000       0.46875000000000000        0.0000000000000000     
  0.34375000000000000       0.46875000000000000        0.0000000000000000     
  0.37500000000000000       0.46875000000000000        0.0000000000000000     
  0.25000000000000000       0.50000000000000000        0.0000000000000000     
  0.28125000000000000       0.50000000000000000        0.0000000000000000     
  0.31250000000000000       0.50000000000000000        0.0000000000000000     
  0.34375000000000000       0.50000000000000000        0.0000000000000000     
  0.37500000000000000       0.50000000000000000        0.0000000000000000     
  0.37500000000000000       0.37500000000000000        0.0000000000000000     
  0.40625000000000000       0.37500000000000000        0.0000000000000000     
  0.43750000000000000       0.37500000000000000        0.0000000000000000     
  0.46875000000000000       0.37500000000000000        0.0000000000000000     
  0.50000000000000000       0.37500000000000000        0.0000000000000000     
  0.37500000000000000       0.40625000000000000        0.0000000000000000     
  0.40625000000000000       0.40625000000000000        0.0000000000000000     
  0.43750000000000000       0.40625000000000000        0.0000000000000000     
  0.46875000000000000       0.40625000000000000        0.0000000000000000     
  0.50000000000000000       0.40625000000000000        0.0000000000000000     
  0.37500000000000000       0.43750000000000000        0.0000000000000000     
  0.40625000000000000       0.43750000000000000        0.0000000000000000     
  0.43750000000000000       0.43750000000000000        0.0000000000000000     
  0.46875000000000000       0.43750000000000000        0.0000000000000000     
  0.50000000000000000       0.43750000000000000        0.0000000000000000     
  0.37500000000000000       0.46875000000000000        0.0000000000000000     
  0.40625000000000000       0.46875000000000000        0.0000000000000000     
  0.43750000000000000       0.46875000000000000        0.0000000000000000     
  0.46875000000000000       0.46875000000000000        0.0000000000000000     
  0.50000000000000000       0.46875000000000000        0.0000000000000000     
  0.37500000000000000       0.50000000000000000        0.0000000000000000     
  0.40625000000000000       0.50000000000000000        0.0000000000000000     
  0.43750000000000000       0.50000000000000000        0.0000000000000000     
  0.46875000000000000       0.50000000000000000        0.0000000000000000     
  0.50000000000000000       0.50000000000000000        0.0000000000000000     
  0.50000000000000000       0.37500000000000000        0.0000000000000000     
  0.53125000000000000       0.37500000000000000        0.0000000000000000     
  0.56250000000000000       0.37500000000000000        0.0000000000000000     
  0.59375000000000000       0.37500000000000000        0.0000000000000000     
  0.62500000000000000       0.37500000000000000        0.0000000000000000     
  0.50000000000000000       0.40625000000000000        0.0000000000000000     
  0.53125000000000000       0.40625000000000000        0.0000000000000000     
  0.56250000000000000       0.40625000000000000        0.0000000000000000     
  0.59375000000000000       0.40625000000000000        0.0000000000000000     
  0.62500000000000000       0.40625000000000000        0.0000000000000000     
  0.50000000000000000       0.43750000000000000        0.0000000000000000     
  0.53125000000000000       0.43750000000000000        0.0000000000000000     
  0.56250000000000000       0.43750000000000000        0.0000000000000000     
  0.59375000000000000       0.43750000000000000        0.0000000000000000     
  0.62500000000000000       0.43750000000000000        0.0000000000000000     
  0.50000000000000000       0.46875000000000000        0.0000000000000000     
  0.53125000000000000       0.46875000000000000        0.0000000000000000     
  0.56250000000000000       0.46875000000000000        0.0000000000000000     
  0.59375000000000000       0.46875000000000000        0.0000000000000000     
  0.62500000000000000       0.46875000000000000        0.0000000000000000     
  0.50000000000000000       0.50000000000000000        0.0000000000000000     
  0.53125000000000000       0.50000000000000000        0.0000000000000000     
  0.56250000000000000       0.50000000000000000        0.0000000000000000     
  0.59375000000000000       0.50000000000000000        0.0000000000000000     
  0.62500000000000000       0.50000000000000000        0.0000000000000000     
  0.62500000000000000       0.37500000000000000        0.0000000000000000     
  0.65625000000000000       0.37500000000000000        0.0000000000000000     
  0.68750000000000000       0.37500000000000000        0.0000000000000000     
  0.71875000000000000       0.37500000000000000        0.0000000000000000     
  0.75000000000000000       0.37500000000000000        0.0000000000000000     
  0.62500000000000000       0.40625000000000000        0.0000000000000000     
  0.65625000000000000       0.40625000000000000        0.0000000000000000     
  0.68750000000000000       0.40625000000000000        0.0000000000000000     
  0.71875000000000000       0.40625000000000000        0.0000000000000000     
  0.75000000000000000       0.40625000000000000        0.0000000000000000     
  0.62500000000000000       0.43750000000000000        0.0000000000000000     
  0.65625000000000000       0.43750000000000000        0.0000000000000000     
  0.68750000000000000       0.43750000000000000        0.0000000000000000     
  0.71875000000000000       0.43750000000000000        0.0000000000000000     
  0.75000000000000000       0.43750000000000000        0.0000000000000000     
  0.62500000000000000       0.46875000000000000        0.0000000000000000     
  0.65625000000000000       0.46875000000000000        0.0000000000000000     
  0.68750000000000000       0.46875000000000000        0.0000000000000000     
  0.71875000000000000       0.46875000000000000        0.0000000000000000     
  0.75000000000000000       0.46875000000000000        0.0000000000000000     
  0.62500000000000000       0.50000000000000000        0.0000000000000000     
  0.65625000000000000       0.50000000000000000        0.0000000000000000     
  0.68750000000000000       0.50000000000000000        0.0000000000000000     
  0.71875000000000000       0.50000000000000000        0.0000000000000000     
  0.75000000000000000       0.50000000000000000        0.0000000000000000     
  0.75000000000000000       0.37500000000000000        0.0000000000000000     
  0.78125000000000000       0.37500000000000000        0.0000000000000000     
  0.81250000000000000       0.37500000000000000        0.0000000000000000     
  0.84375000000000000       0.37500000000000000        0.0000000000000000     
  0.87500000000000000       0.37500000000000000        0.0000000000000000     
  0.75000000000000000       0.40625000000000000        0.0000000000000000     
  0.78125000000000000       0.40625000000000000        0.0000000000000000     
  0.81250000000000000       0.40625000000000000        0.0000000000000000     
  0.84375000000000000       0.40625000000000000        0.0000000000000000     
  0.87500000000000000       0.40625000000000000        0.0000000000000000     
  0.75000000000000000       0.43750000000000000        0.0000000000000000     
  0.78125000000000000       0.43750000000000000        0.0000000000000000     
  0.81250000000000000       0.43750000000000000        0.0000000000000000     
  0.84375000000000000       0.43750000000000000        0.0000000000000000     
  0.87500000000000000       0.43750000000000000        0.0000000000000000     
  0.75000000000000000       0.46875000000000000        0.0000000000000000     
  0.78125000000000000       0.46875000000000000        0.0000000000000000     
  0.81250000000000000       0.46875000000000000        0.0000000000000000     
  0.84375000000000000       0.46875000000000000        0.0000000000000000     
  0.87500000000000000       0.46875000000000000        0.0000000000000000     
  0.75000000000000000       0.50000000000000000        0.0000000000000000     
  0.78125000000000000       0.50000000000000000        0.0000000000000000     
  0.81250000000000000       0.50000000000000000        0.0000000000000000     
  0.84375000000000000       0.50000000000000000        0.0000000000000000     
  0.87500000000000000       0.50000000000000000        0.0000000000000000     
  0.87500000000000000       0.37500000000000000        0.0000000000000000     
  0.90625000000000000       0.37500000000000000        0.0000000000000000     
  0.93750000000000000       0.37500000000000000        0.0000000000000000     
  0.96875000000000000       0.37500000000000000        0.0000000000000000     
   1.0000000000000000       0.37500000000000000        0.0000000000000000     
  0.87500000000000000       0.40625000000000000        0.0000000000000000     
  0.90625000000000000       0.40625000000000000        0.0000000000000000     
  0.93750000000000000       0.40625000000000000        0.0000000000000000     
  0.96875000000000000       0.40625000000000000        0.0000000000000000     
   1.0000000000000000       0.40625000000000000        0.0000000000000000     
  0.87500000000000000       0.43750000000000000        0.0000000000000000     
  0.90625000000000000       0.43750000000000000        0.0000000000000000     
  0.93750000000000000       0.43750000000000000        0.0000000000000000     
  0.96875000000000000       0.43750000000000000        0.0000000000000000     
   1.0000000000000000       0.43750000000000000        0.0000000000000000     
  0.87500000000000000       0.46875000000000000        0.0000000000000000     
  0.90625000000000000       0.46875000000000000        0.0000000000000000     
  0.93750000000000000       0.46875000000000000        0.0000000000000000     
  0.96875000000000000       0.46875000000000000        0.0000000000000000     
   1.0000000000000000       0.46875000000000000        0.0000000000000000     
  0.87500000000000000       0.50000000000000000        0.0000000000000000     
  0.90625000000000000       0.50000000000000000        0.0000000000000000     
  0.93750000000000000       0.50000000000000000        0.0000000000000000     
  0.96875000000000000       0.50000000000000000        0.0000000000000000     
   1.0000000000000000       0.50000000000000000        0.0000000000000000     
   0.0000000000000000       0.50000000000000000        0.0000000000000000     
   3.1250000000000000E-002  0.50000000000000000        0.0000000000000000     
   6.2500000000000000E-002  0.50000000000000000        0.0000000000000000     
   9.3750000000000000E-002  0.50000000000000000        0.0000000000000000     
  0.12500000000000000       0.50000000000000000        0.0000000000000000     
   0.0000000000000000       0.53125000000000000        0.0000000000000000     
   3.1250000000000000E-002  0.53125000000000000        0.0000000000000000     
   6.2500000000000000E-002  0.53125000000000000        0.0000000000000000     
   9.3750000000000000E-002  0.53125000000000000        0.0000000000000000     
  0.12500000000000000       0.53125000000000000        0.0000000000000000     
   0.0000000000000000       0.56250000000000000        0.0000000000000000     
   3.1250000000000000E-002  0.56250000000000000        0.0000000000000000     
   6.2500000000000000E-002  0.56250000000000000        0.0000000000000000     
   9.3750000000000000E-002  0.56250000000000000        0.0000000000000000     
  0.12500000000000000       0.56250000000000000        0.0000000000000000     
   0.0000000000000000       0.59375000000000000        0.0000000000000000     
   3.1250000000000000E-002  0.59375000000000000        0.0000000000000000     
   6.2500000000000000E-002  0.59375000000000000        0.0000000000000000     
   9.3750000000000000E-002  0.59375000000000000        0.0000000000000000     
  0.12500000000000000       0.59375000000000000        0.0000000000000000     
   0.0000000000000000       0.62500000000000000        0.0000000000000000     
   3.1250000000000000E-002  0.62500000000000000        0.0000000000000000     
   6.2500000000000000E-002  0.62500000000000000        0.0000000000000000     
   9.3750000000000000E-002  0.62500000000000000        0.0000000000000000     
  0.12500000000000000       0.62500000000000000        0.0000000000000000     
  0.12500000000000000       0.50000000000000000        0.0000000000000000     
  0.15625000000000000       0.50000000000000000        0.0000000000000000     
  0.18750000000000000       0.50000000000000000        0.0000000000000000     
  0.21875000000000000       0.50000000000000000        0.0000000000000000     
  0.25000000000000000       0.50000000000000000        0.0000000000000000     
  0.12500000000000000       0.53125000000000000        0.0000000000000000     
  0.15625000000000000       0.53125000000000000        0.0000000000000000     
  0.18750000000000000       0.53125000000000000        0.0000000000000000     
  0.21875000000000000       0.53125000000000000        0.0000000000000000     
  0.25000000000000000       0.53125000000000000        0.0000000000000000     
  0.12500000000000000       0.56250000000000000        0.0000000000000000     
  0.15625000000000000       0.56250000000000000        0.0000000000000000     
  0.18750000000000000       0.56250000000000000        0.0000000000000000     
  0.21875000000000000       0.56250000000000000        0.0000000000000000     
  0.25000000000000000       0.56250000000000000        0.0000000000000000     
  0.12500000000000000       0.59375000000000000        0.0000000000000000     
  0.15625000000000000       0.59375000000000000        0.0000000000000000     
  0.18750000000000000       0.59375000000000000        0.0000000000000000     
  0.21875000000000000       0.59375000000000000        0.0000000000000000     
  0.25000000000000000       0.59375000000000000        0.0000000000000000     
  0.12500000000000000       0.62500000000000000        0.0000000000000000     
  0.15625000000000000       0.62500000000000000        0.0000000000000000     
  0.18750000000000000       0.62500000000000000        0.0000000000000000     
  0.21875000000000000       0.62500000000000000        0.0000000000000000     
  0.25000000000000000       0.62500000000000000        0.0000000000000000     
  0.25000000000000000       0.50000000000000000        0.0000000000000000     
  0.28125000000000000       0.50000000000000000        0.0000000000000000     
  0.31250000000000000       0.50000000000000000        0.0000000000000000     
  0.34375000000000000       0.50000000000000000        0.0000000000000000     
  0.37500000000000000       0.50000000000000000        0.0000000000000000     
  0.25000000000000000       0.53125000000000000        0.0000000000000000     
  0.28125000000000000       0.53125000000000000        0.0000000000000000     
  0.31250000000000000       0.53125000000000000        0.0000000000000000     
  0.34375000000000000       0.53125000000000000        0.0000000000000000     
  0.37500000000000000       0.53125000000000000        0.0000000000000000     
  0.25000000000000000       0.56250000000000000        0.0000000000000000     
  0.28125000000000000       0.56250000000000000        0.0000000000000000     
  0.31250000000000000       0.56250000000000000        0.0000000000000000     
  0.34375000000000000       0.56250000000000000        0.0000000000000000     
  0.37500000000000000       0.56250000000000000        0.0000000000000000     
  0.25000000000000000       0.59375000000000000        0.0000000000000000     
  0.28125000000000000       0.59375000000000000        0.0000000000000000     
  0.31250000000000000       0.59375000000000000        0.0000000000000000     
  0.34375000000000000       0.59375000000000000        0.0000000000000000     
  0.37500000000000000       0.59375000000000000        0.0000000000000000     
  0.25000000000000000       0.62500000000000000        0.0000000000000000     
  0.28125000000000000       0.62500000000000000        0.0000000000000000     
  0.31250000000000000       0.62500000000000000        0.0000000000000000     
  0.34375000000000000       0.62500000000000000        0.0000000000000000     
  0.37500000000000000       0.62500000000000000        0.0000000000000000     
  0.37500000000000000       0.50000000000000000        0.0000000000000000     
  0.40625000000000000       0.50000000000000000        0.0000000000000000     
  0.43750000000000000       0.50000000000000000        0.0000000000000000     
  0.46875000000000000       0.50000000000000000        0.0000000000000000     
  0.50000000000000000       0.50000000000000000        0.0000000000000000     
  0.37500000000000000       0.53125000000000000        0.0000000000000000     
  0.40625000000000000       0.53125000000000000        0.0000000000000000     
  0.43750000000000000       0.53125000000000000        0.0000000000000000     
  0.46875000000000000       0.53125000000000000        0.0000000000000000     
  0.50000000000000000       0.53125000000000000        0.0000000000000000     
  0.37500000000000000       0.56250000000000000        0.0000000000000000     
  0.40625000000000000       0.56250000000000000        0.0000000000000000     
  0.43750000000000000       0.56250000000000000        0.0000000000000000     
  0.46875000000000000       0.56250000000000000        0.0000000000000000     
  0.50000000000000000       0.56250000000000000        0.0000000000000000     
  0.37500000000000000       0.59375000000000000        0.0000000000000000     
  0.40625000000000000       0.59375000000000000        0.0000000000000000     
  0.43750000000000000       0.59375000000000000        0.0000000000000000     
  0.46875000000000000       0.59375000000000000        0.0000000000000000     
  0.50000000000000000       0.59375000000000000        0.0000000000000000     
  0.37500000000000000       0.62500000000000000        0.0000000000000000     
  0.40625000000000000       0.62500000000000000        0.0000000000000000     
  0.43750000000000000       0.62500000000000000        0.0000000000000000     
  0.46875000000000000       0.62500000000000000        0.0000000000000000     
  0.50000000000000000       0.62500000000000000        0.0000000000000000     
  0.50000000000000000       0.50000000000000000        0.0000000000000000     
  0.53125000000000000       0.50000000000000000        0.0000000000000000     
  0.56250000000000000       0.50000000000000000        0.0000000000000000     
  0.59375000000000000       0.50000000000000000        0.0000000000000000     
  0.62500000000000000       0.50000000000000000        0.0000000000000000     
  0.50000000000000000       0.53125000000000000        0.0000000000000000     
  0.53125000000000000       0.53125000000000000        0.0000000000000000     
  0.56250000000000000       0.53125000000000000        0.0000000000000000     
  0.59375000000000000       0.53125000000000000        0.0000000000000000     
  0.62500000000000000       0.53125000000000000        0.0000000000000000     
  0.50000000000000000       0.56250000000000000        0.0000000000000000     
  0.53125000000000000       0.56250000000000000        0.0000000000000000     
  0.56250000000000000       0.56250000000000000        0.0000000000000000     
  0.59375000000000000       0.56250000000000000        0.0000000000000000     
  0.62500000000000000       0.56250000000000000        0.0000000000000000     
  0.50000000000000000       0.59375000000000000        0.0000000000000000     
  0.53125000000000000       0.59375000000000000        0.0000000000000000     
  0.56250000000000000       0.59375000000000000        0.0000000000000000     
  0.59375000000000000       0.59375000000000000        0.0000000000000000     
  0.62500000000000000       0.59375000000000000        0.0000000000000000     
  0.50000000000000000       0.62500000000000000        0.0000000000000000     
  0.53125000000000000       0.62500000000000000        0.0000000000000000     
  0.56250000000000000       0.62500000000000000        0.0000000000000000     
  0.59375000000000000       0.62500000000000000        0.0000000000000000     
  0.62500000000000000       0.62500000000000000        0.0000000000000000     
  0.62500000000000000       0.50000000000000000        0.0000000000000000     
  0.65625000000000000       0.50000000000000000        0.0000000000000000     
  0.68750000000000000       0.50000000000000000        0.0000000000000000     
  0.71875000000000000       0.50000000000000000        0.0000000000000000     
  0.75000000000000000       0.50000000000000000        0.0000000000000000     
  0.62500000000000000       0.53125000000000000        0.0000000000000000     
  0.65625000000000000       0.53125000000000000        0.0000000000000000     
  0.68750000000000000       0.53125000000000000        0.0000000000000000     
  0.71875000000000000       0.53125000000000000        0.0000000000000000     
  0.75000000000000000       0.53125000000000000        0.0000000000000000     
  0.62500000000000000       0.56250000000000000        0.0000000000000000     
  0.65625000000000000       0.56250000000000000        0.0000000000000000     
  0.68750000000000000       0.56250000000000000        0.0000000000000000     
  0.71875000000000000       0.56250000000000000        0.0000000000000000     
  0.75000000000000000       0.56250000000000000        0.0000000000000000     
  0.62500000000000000       0.59375000000000000        0.0000000000000000     
  0.65625000000000000       0.59375000000000000        0.0000000000000000     
  0.68750000000000000       0.59375000000000000        0.0000000000000000     
  0.71875000000000000       0.59375000000000000        0.0000000000000000     
  0.75000000000000000       0.59375000000000000        0.0000000000000000     
  0.62500000000000000       0.62500000000000000        0.0000000000000000     
  0.65625000000000000       0.62500000000000000        0.0000000000000000     
  0.68750000000000000       0.62500000000000000        0.0000000000000000     
  0.71875000000000000       0.62500000000000000        0.0000000000000000     
  0.75000000000000000       0.62500000000000000        0.0000000000000000     
  0.75000000000000000       0.50000000000000000        0.0000000000000000     
  0.78125000000000000       0.50000000000000000        0.0000000000000000     
  0.81250000000000000       0.50000000000000000        0.0000000000000000     
  0.84375000000000000       0.50000000000000000        0.0000000000000000     
  0.87500000000000000       0.50000000000000000        0.0000000000000000     
  0.75000000000000000       0.53125000000000000        0.0000000000000000     
  0.78125000000000000       0.53125000000000000        0.0000000000000000     
  0.81250000000000000       0.53125000000000000        0.0000000000000000     
  0.84375000000000000       0.53125000000000000        0.0000000000000000     
  0.87500000000000000       0.53125000000000000        0.0000000000000000     
  0.75000000000000000       0.56250000000000000        0.0000000000000000     
  0.78125000000000000       0.56250000000000000        0.0000000000000000     
  0.81250000000000000       0.56250000000000000        0.0000000000000000     
  0.84375000000000000       0.56250000000000000        0.0000000000000000     
  0.87500000000000000       0.56250000000000000        0.0000000000000000     
  0.75000000000000000       0.59375000000000000        0.0000000000000000     
  0.78125000000000000       0.59375000000000000        0.0000000000000000     
  0.81250000000000000       0.59375000000000000        0.0000000000000000     
  0.84375000000000000       0.59375000000000000        0.0000000000000000     
  0.87500000000000000       0.59375000000000000        0.0000000000000000     
  0.75000000000000000       0.62500000000000000        0.0000000000000000     
  0.78125000000000000       0.62500000000000000        0.0000000000000000     
  0.81250000000000000       0.62500000000000000        0.0000000000000000     
  0.84375000000000000       0.62500000000000000        0.0000000000000000     
  0.87500000000000000       0.62500000000000000        0.0000000000000000     
  0.87500000000000000       0.50000000000000000        0.0000000000000000     
  0.90625000000000000       0.50000000000000000        0.0000000000000000     
  0.93750000000000000       0.50000000000000000        0.0000000000000000     
  0.96875000000000000       0.50000000000000000        0.0000000000000000     
   1.0000000000000000       0.50000000000000000        0.0000000000000000     
  0.87500000000000000       0.53125000000000000        0.0000000000000000     
  0.90625000000000000       0.53125000000000000        0.0000000000000000     
  0.93750000000000000       0.53125000000000000        0.0000000000000000     
  0.96875000000000000       0.53125000000000000        0.0000000000000000     
   1.0000000000000000       0.53125000000000000        0.0000000000000000     
  0.87500000000000000       0.56250000000000000        0.0000000000000000     
  0.90625000000000000       0.56250000000000000        0.0000000000000000     
  0.93750000000000000       0.56250000000000000        0.0000000000000000     
  0.96875000000000000       0.56250000000000000        0.0000000000000000     
   1.0000000000000000       0.56250000000000000        0.0000000000000000     
  0.87500000000000000       0.59375000000000000        0.0000000000000000     
  0.90625000000000000       0.59375000000000000        0.0000000000000000     
  0.93750000000000000       0.59375000000000000        0.0000000000000000     
  0.96875000000000000       0.59375000000000000        0.0000000000000000     
   1.0000000000000000       0.59375000000000000        0.0000000000000000     
  0.87500000000000000       0.62500000000000000        0.0000000000000000     
  0.90625000000000000       0.62500000000000000        0.0000000000000000     
  0.93750000000000000       0.62500000000000000        0.0000000000000000     
  0.96875000000000000       0.62500000000000000        0.0000000000000000     
   1.0000000000000000       0.62500000000000000        0.0000000000000000     
   0.0000000000000000       0.62500000000000000        0.0000000000000000     
   3.1250000000000000E-002  0.62500000000000000        0.0000000000000000     
   6.2500000000000000E-002  0.62500000000000000        0.0000000000000000     
   9.3750000000000000E-002  0.62500000000000000        0.0000000000000000     
  0.12500000000000000       0.62500000000000000        0.0000000000000000     
   0.0000000000000000       0.65625000000000000        0.0000000000000000     
   3.1250000000000000E-002  0.65625000000000000        0.0000000000000000     
   6.2500000000000000E-002  0.65625000000000000        0.0000000000000000     
   9.3750000000000000E-002  0.65625000000000000        0.0000000000000000     
  0.12500000000000000       0.65625000000000000        0.0000000000000000     
   0.0000000000000000       0.68750000000000000        0.0000000000000000     
   3.1250000000000000E-002  0.68750000000000000        0.0000000000000000     
   6.2500000000000000E-002  0.68750000000000000        0.0000000000000000     
   9.3750000000000000E-002  0.68750000000000000        0.0000000000000000     
  0.12500000000000000       0.68750000000000000        0.0000000000000000     
   0.0000000000000000       0.71875000000000000        0.0000000000000000     
   3.1250000000000000E-002  0.71875000000000000        0.0000000000000000     
   6.2500000000000000E-002  0.71875000000000000        0.0000000000000000     
   9.3750000000000000E-002  0.71875000000000000        0.0000000000000000     
  0.12500000000000000       0.71875000000000000        0.0000000000000000     
   0.0000000000000000       0.75000000000000000        0.0000000000000000     
   3.1250000000000000E-002  0.75000000000000000        0.0000000000000000     
   6.2500000000000000E-002  0.75000000000000000        0.0000000000000000     
   9.3750000000000000E-002  0.75000000000000000        0.0000000000000000     
  0.12500000000000000       0.75000000000000000        0.0000000000000000     
  0.12500000000000000       0.62500000000000000        0.0000000000000000     
  0.15625000000000000       0.62500000000000000        0.0000000000000000     
  0.18750000000000000       0.62500000000000000        0.0000000000000000     
  0.21875000000000000       0.62500000000000000        0.0000000000000000     
  0.25000000000000000       0.62500000000000000        0.0000000000000000     
  0.12500000000000000       0.65625000000000000        0.0000000000000000     
  0.15625000000000000       0.65625000000000000        0.0000000000000000     
  0.18750000000000000       0.65625000000000000        0.0000000000000000     
  0.21875000000000000       0.65625000000000000        0.0000000000000000     
  0.25000000000000000       0.65625000000000000        0.0000000000000000     
  0.12500000000000000       0.68750000000000000        0.0000000000000000     
  0.15625000000000000       0.68750000000000000        0.0000000000000000     
  0.18750000000000000       0.68750000000000000        0.0000000000000000     
  0.21875000000000000       0.68750000000000000        0.0000000000000000     
  0.25000000000000000       0.68750000000000000        0.0000000000000000     
  0.12500000000000000       0.71875000000000000        0.0000000000000000     
  0.15625000000000000       0.71875000000000000        0.0000000000000000     
  0.18750000000000000       0.71875000000000000        0.0000000000000000     
  0.21875000000000000       0.71875000000000000        0.0000000000000000     
  0.25000000000000000       0.71875000000000000        0.0000000000000000     
  0.12500000000000000       0.75000000000000000        0.0000000000000000     
  0.15625000000000000       0.75000000000000000        0.0000000000000000     
  0.18750000000000000       0.75000000000000000        0.0000000000000000     
  0.21875000000000000       0.75000000000000000        0.0000000000000000     
  0.25000000000000000       0.75000000000000000        0.0000000000000000     
  0.25000000000000000       0.62500000000000000        0.0000000000000000     
  0.28125000000000000       0.62500000000000000        0.0000000000000000     
  0.31250000000000000       0.62500000000000000        0.0000000000000000     
  0.34375000000000000       0.62500000000000000        0.0000000000000000     
  0.37500000000000000       0.62500000000000000        0.0000000000000000     
  0.25000000000000000       0.65625000000000000        0.0000000000000000     
  0.28125000000000000       0.65625000000000000        0.0000000000000000     
  0.31250000000000000       0.65625000000000000        0.0000000000000000     
  0.34375000000000000       0.65625000000000000        0.0000000000000000     
  0.37500000000000000       0.65625000000000000        0.0000000000000000     
  0.25000000000000000       0.68750000000000000        0.0000000000000000     
  0.28125000000000000       0.68750000000000000        0.0000000000000000     
  0.31250000000000000       0.68750000000000000        0.0000000000000000     
  0.34375000000000000       0.68750000000000000        0.0000000000000000     
  0.37500000000000000       0.68750000000000000        0.0000000000000000     
  0.25000000000000000       0.71875000000000000        0.0000000000000000     
  0.28125000000000000       0.71875000000000000        0.0000000000000000     
  0.31250000000000000       0.71875000000000000        0.0000000000000000     
  0.34375000000000000       0.71875000000000000        0.0000000000000000     
  0.37500000000000000       0.71875000000000000        0.0000000000000000     
  0.25000000000000000       0.75000000000000000        0.0000000000000000     
  0.28125000000000000       0.75000000000000000        0.0000000000000000     
  0.31250000000000000       0.75000000000000000        0.0000000000000000     
  0.34375000000000000       0.75000000000000000        0.0000000000000000     
  0.37500000000000000       0.75000000000000000        0.0000000000000000     
  0.37500000000000000       0.62500000000000000        0.0000000000000000     
  0.40625000000000000       0.62500000000000000        0.0000000000000000     
  0.43750000000000000       0.62500000000000000        0.0000000000000000     
  0.46875000000000000       0.62500000000000000        0.0000000000000000     
  0.50000000000000000       0.62500000000000000        0.0000000000000000     
  0.37500000000000000       0.65625000000000000        0.0000000000000000     
  0.40625000000000000       0.65625000000000000        0.0000000000000000     
  0.43750000000000000       0.65625000000000000        0.0000000000000000     
  0.46875000000000000       0.65625000000000000        0.0000000000000000     
  0.50000000000000000       0.65625000000000000        0.0000000000000000     
  0.37500000000000000       0.68750000000000000        0.0000000000000000     
  0.40625000000000000       0.68750000000000000        0.0000000000000000     
  0.43750000000000000       0.68750000000000000        0.0000000000000000     
  0.46875000000000000       0.68750000000000000        0.0000000000000000     
  0.50000000000000000       0.68750000000000000        0.0000000000000000     
  0.37500000000000000       0.71875000000000000        0.0000000000000000     
  0.40625000000000000       0.71875000000000000        0.0000000000000000     
  0.43750000000000000       0.71875000000000000        0.0000000000000000     
  0.46875000000000000       0.71875000000000000        0.0000000000000000     
  0.50000000000000000       0.71875000000000000        0.0000000000000000     
  0.37500000000000000       0.75000000000000000        0.0000000000000000     
  0.40625000000000000       0.75000000000000000        0.0000000000000000     
  0.43750000000000000       0.75000000000000000        0.0000000000000000     
  0.46875000000000000       0.75000000000000000        0.0000000000000000     
  0.50000000000000000       0.75000000000000000        0.0000000000000000     
  0.50000000000000000       0.62500000000000000        0.0000000000000000     
  0.53125000000000000       0.62500000000000000        0.0000000000000000     
  0.56250000000000000       0.62500000000000000        0.0000000000000000     
  0.59375000000000000       0.62500000000000000        0.0000000000000000     
  0.62500000000000000       0.62500000000000000        0.0000000000000000     
  0.50000000000000000       0.65625000000000000        0.0000000000000000     
  0.53125000000000000       0.65625000000000000        0.0000000000000000     
  0.56250000000000000       0.65625000000000000        0.0000000000000000     
  0.59375000000000000       0.65625000000000000        0.0000000000000000     
  0.62500000000000000       0.65625000000000000        0.0000000000000000     
  0.50000000000000000       0.68750000000000000        0.0000000000000000     
  0.53125000000000000       0.68750000000000000        0.0000000000000000     
  0.56250000000000000       0.68750000000000000        0.0000000000000000     
  0.59375000000000000       0.68750000000000000        0.0000000000000000     
  0.62500000000000000       0.68750000000000000        0.0000000000000000     
  0.50000000000000000       0.71875000000000000        0.0000000000000000     
  0.53125000000000000       0.71875000000000000        0.0000000000000000     
  0.56250000000000000       0.71875000000000000        0.0000000000000000     
  0.59375000000000000       0.71875000000000000        0.0000000000000000     
  0.62500000000000000       0.71875000000000000        0.0000000000000000     
  0.50000000000000000       0.75000000000000000        0.0000000000000000     
  0.53125000000000000       0.75000000000000000        0.0000000000000000     
  0.56250000000000000       0.75000000000000000        0.0000000000000000     
  0.59375000000000000       0.75000000000000000        0.0000000000000000     
  0.62500000000000000       0.75000000000000000        0.0000000000000000     
  0.62500000000000000       0.62500000000000000        0.0000000000000000     
  0.65625000000000000       0.62500000000000000        0.0000000000000000     
  0.68750000000000000       0.62500000000000000        0.0000000000000000     
  0.71875000000000000       0.62500000000000000        0.0000000000000000     
  0.75000000000000000       0.62500000000000000        0.0000000000000000     
  0.62500000000000000       0.65625000000000000        0.0000000000000000     
  0.65625000000000000       0.65625000000000000        0.0000000000000000     
  0.68750000000000000       0.65625000000000000        0.0000000000000000     
  0.71875000000000000       0.65625000000000000        0.0000000000000000     
  0.75000000000000000       0.65625000000000000        0.0000000000000000     
  0.62500000000000000       0.68750000000000000        0.0000000000000000     
  0.65625000000000000       0.68750000000000000        0.0000000000000000     
  0.68750000000000000       0.68750000000000000        0.0000000000000000     
  0.71875000000000000       0.68750000000000000        0.0000000000000000     
  0.75000000000000000       0.68750000000000000        0.0000000000000000     
  0.62500000000000000       0.71875000000000000        0.0000000000000000     
  0.65625000000000000       0.71875000000000000        0.0000000000000000     
  0.68750000000000000       0.71875000000000000        0.0000000000000000     
  0.71875000000000000       0.71875000000000000        0.0000000000000000     
  0.75000000000000000       0.71875000000000000        0.0000000000000000     
  0.62500000000000000       0.75000000000000000        0.0000000000000000     
  0.65625000000000000       0.75000000000000000        0.0000000000000000     
  0.68750000000000000       0.75000000000000000        0.0000000000000000     
  0.71875000000000000       0.75000000000000000        0.0000000000000000     
  0.75000000000000000       0.75000000000000000        0.0000000000000000     
  0.75000000000000000       0.62500000000000000        0.0000000000000000     
  0.78125000000000000       0.62500000000000000        0.0000000000000000     
  0.81250000000000000       0.62500000000000000        0.0000000000000000     
  0.84375000000000000       0.62500000000000000        0.0000000000000000     
  0.87500000000000000       0.62500000000000000        0.0000000000000000     
  0.75000000000000000       0.65625000000000000        0.0000000000000000     
  0.78125000000000000       0.65625000000000000        0.0000000000000000     
  0.81250000000000000       0.65625000000000000        0.0000000000000000     
  0.84375000000000000       0.65625000000000000        0.0000000000000000     
  0.87500000000000000       0.65625000000000000        0.0000000000000000     
  0.75000000000000000       0.68750000000000000        0.0000000000000000     
  0.78125000000000000       0.68750000000000000        0.0000000000000000     
  0.81250000000000000       0.68750000000000000        0.0000000000000000     
  0.84375000000000000       0.68750000000000000        0.0000000000000000     
  0.87500000000000000       0.68750000000000000        0.0000000000000000     
  0.75000000000000000       0.71875000000000000        0.0000000000000000     
  0.78125000000000000       0.71875000000000000        0.0000000000000000     
  0.81250000000000000       0.71875000000000000        0.0000000000000000     
  0.84375000000000000       0.71875000000000000        0.0000000000000000     
  0.87500000000000000       0.71875000000000000        0.0000000000000000     
  0.75000000000000000       0.75000000000000000        0.0000000000000000     
  0.78125000000000000       0.75000000000000000        0.0000000000000000     
  0.81250000000000000       0.75000000000000000        0.0000000000000000     
  0.84375000000000000       0.75000000000000000        0.0000000000000000     
  0.87500000000000000       0.75000000000000000        0.0000000000000000     
  0.87500000000000000       0.62500000000000000        0.0000000000000000     
  0.90625000000000000       0.62500000000000000        0.0000000000000000     
  0.93750000000000000       0.62500000000000000        0.0000000000000000     
  0.96875000000000000       0.62500000000000000        0.0000000000000000     
   1.0000000000000000       0.62500000000000000        0.0000000000000000     
  0.87500000000000000       0.65625000000000000        0.0000000000000000     
  0.90625000000000000       0.65625000000000000        0.0000000000000000     
  0.93750000000000000       0.65625000000000000        0.0000000000000000     
  0.96875000000000000       0.65625000000000000        0.0000000000000000     
   1.0000000000000000       0.65625000000000000        0.0000000000000000     
  0.87500000000000000       0.68750000000000000        0.0000000000000000     
  0.90625000000000000       0.68750000000000000        0.0000000000000000     
  0.93750000000000000       0.68750000000000000        0.0000000000000000     
  0.96875000000000000       0.68750000000000000        0.0000000000000000     
   1.0000000000000000       0.68750000000000000        0.0000000000000000     
  0.87500000000000000       0.71875000000000000        0.0000000000000000     
  0.90625000000000000       0.71875000000000000        0.0000000000000000     
  0.93750000000000000       0.71875000000000000        0.0000000000000000     
  0.96875000000000000       0.71875000000000000        0.0000000000000000     
   1.0000000000000000       0.71875000000000000        0.0000000000000000     
  0.87500000000000000       0.75000000000000000        0.0000000000000000     
  0.90625000000000000       0.75000000000000000        0.0000000000000000     
  0.93750000000000000       0.75000000000000000        0.0000000000000000     
  0.96875000000000000       0.75000000000000000        0.0000000000000000     
   1.0000000000000000       0.75000000000000000        0.0000000000000000     
   0.0000000000000000       0.75000000000000000        0.0000000000000000     
   3.1250000000000000E-002  0.75000000000000000        0.0000000000000000     
   6.2500000000000000E-002  0.75000000000000000        0.0000000000000000     
   9.3750000000000000E-002  0.75000000000000000        0.0000000000000000     
  0.12500000000000000       0.75000000000000000        0.0000000000000000     
   0.0000000000000000       0.78125000000000000        0.0000000000000000     
   3.1250000000000000E-002  0.78125000000000000        0.0000000000000000     
   6.2500000000000000E-002  0.78125000000000000        0.0000000000000000     
   9.3750000000000000E-002  0.78125000000000000        0.0000000000000000     
  0.12500000000000000       0.78125000000000000        0.0000000000000000     
   0.0000000000000000       0.81250000000000000        0.0000000000000000     
   3.1250000000000000E-002  0.81250000000000000        0.0000000000000000     
   6.2500000000000000E-002  0.81250000000000000        0.0000000000000000     
   9.3750000000000000E-002  0.81250000000000000        0.0000000000000000     
  0.12500000000000000       0.81250000000000000        0.0000000000000000     
   0.0000000000000000       0.84375000000000000        0.0000000000000000     
   3.1250000000000000E-002  0.84375000000000000        0.0000000000000000     
   6.2500000000000000E-002  0.84375000000000000        0.0000000000000000     
   9.3750000000000000E-002  0.84375000000000000        0.0000000000000000     
  0.12500000000000000       0.84375000000000000        0.0000000000000000     
   0.0000000000000000       0.87500000000000000        0.0000000000000000     
   3.1250000000000000E-002  0.87500000000000000        0.0000000000000000     
   6.2500000000000000E-002  0.87500000000000000        0.0000000000000000     
   9.3750000000000000E-002  0.87500000000000000        0.0000000000000000     
  0.12500000000000000       0.87500000000000000        0.0000000000000000     
  0.12500000000000000       0.75000000000000000        0.0000000000000000     
  0.15625000000000000       0.75000000000000000        0.0000000000000000     
  0.18750000000000000       0.75000000000000000        0.0000000000000000     
  0.21875000000000000       0.75000000000000000        0.0000000000000000     
  0.25000000000000000       0.75000000000000000        0.0000000000000000     
  0.12500000000000000       0.78125000000000000        0.0000000000000000     
  0.15625000000000000       0.78125000000000000        0.0000000000000000     
  0.18750000000000000       0.78125000000000000        0.0000000000000000     
  0.21875000000000000       0.78125000000000000        0.0000000000000000     
  0.25000000000000000       0.78125000000000000        0.0000000000000000     
  0.12500000000000000       0.81250000000000000        0.0000000000000000     
  0.15625000000000000       0.81250000000000000        0.0000000000000000     
  0.18750000000000000       0.81250000000000000        0.0000000000000000     
  0.21875000000000000       0.81250000000000000        0.0000000000000000     
  0.25000000000000000       0.81250000000000000        0.0000000000000000     
  0.12500000000000000       0.84375000000000000        0.0000000000000000     
  0.15625000000000000       0.84375000000000000        0.0000000000000000     
  0.18750000000000000       0.84375000000000000        0.0000000000000000     
  0.21875000000000000       0.84375000000000000        0.0000000000000000     
  0.25000000000000000       0.84375000000000000        0.0000000000000000     
  0.12500000000000000       0.87500000000000000        0.0000000000000000     
  0.15625000000000000       0.87500000000000000        0.0000000000000000     
  0.18750000000000000       0.87500000000000000        0.0000000000000000     
  0.21875000000000000       0.87500000000000000        0.0000000000000000     
  0.25000000000000000       0.87500000000000000        0.0000000000000000     
  0.25000000000000000       0.75000000000000000        0.0000000000000000     
  0.28125000000000000       0.75000000000000000        0.0000000000000000     
  0.31250000000000000       0.75000000000000000        0.0000000000000000     
  0.34375000000000000       0.75000000000000000        0.0000000000000000     
  0.37500000000000000       0.75000000000000000        0.0000000000000000     
  0.25000000000000000       0.78125000000000000        0.0000000000000000     
  0.28125000000000000       0.78125000000000000        0.0000000000000000     
  0.31250000000000000       0.78125000000000000        0.0000000000000000     
  0.34375000000000000       0.78125000000000000        0.0000000000000000     
  0.37500000000000000       0.78125000000000000        0.0000000000000000     
  0.25000000000000000       0.81250000000000000        0.0000000000000000     
  0.28125000000000000       0.81250000000000000        0.0000000000000000     
  0.31250000000000000       0.81250000000000000        0.0000000000000000     
  0.34375000000000000       0.81250000000000000        0.0000000000000000     
  0.37500000000000000       0.81250000000000000        0.0000000000000000     
  0.25000000000000000       0.84375000000000000        0.0000000000000000     
  0.28125000000000000       0.84375000000000000        0.0000000000000000     
  0.31250000000000000       0.84375000000000000        0.0000000000000000     
  0.34375000000000000       0.84375000000000000        0.0000000000000000     
  0.37500000000000000       0.84375000000000000        0.0000000000000000     
  0.25000000000000000       0.87500000000000000        0.0000000000000000     
  0.28125000000000000       0.87500000000000000        0.0000000000000000     
  0.31250000000000000       0.87500000000000000        0.0000000000000000     
  0.34375000000000000       0.87500000000000000        0.0000000000000000     
  0.37500000000000000       0.87500000000000000        0.0000000000000000     
  0.37500000000000000       0.75000000000000000        0.0000000000000000     
  0.40625000000000000       0.75000000000000000        0.0000000000000000     
  0.43750000000000000       0.75000000000000000        0.0000000000000000     
  0.46875000000000000       0.75000000000000000        0.0000000000000000     
  0.50000000000000000       0.75000000000000000        0.0000000000000000     
  0.37500000000000000       0.78125000000000000        0.0000000000000000     
  0.40625000000000000       0.78125000000000000        0.0000000000000000     
  0.43750000000000000       0.78125000000000000        0.0000000000000000     
  0.46875000000000000       0.78125000000000000        0.0000000000000000     
  0.50000000000000000       0.78125000000000000        0.0000000000000000     
  0.37500000000000000       0.81250000000000000        0.0000000000000000     
  0.40625000000000000       0.81250000000000000        0.0000000000000000     
  0.43750000000000000       0.81250000000000000        0.0000000000000000     
  0.46875000000000000       0.81250000000000000        0.0000000000000000     
  0.50000000000000000       0.81250000000000000        0.0000000000000000     
  0.37500000000000000       0.84375000000000000        0.0000000000000000     
  0.40625000000000000       0.84375000000000000        0.0000000000000000     
  0.43750000000000000       0.84375000000000000        0.0000000000000000     
  0.46875000000000000       0.84375000000000000        0.0000000000000000     
  0.50000000000000000       0.84375000000000000        0.0000000000000000     
  0.37500000000000000       0.87500000000000000        0.0000000000000000     
  0.40625000000000000       0.87500000000000000        0.0000000000000000     
  0.43750000000000000       0.87500000000000000        0.0000000000000000     
  0.46875000000000000       0.87500000000000000        0.0000000000000000     
  0.50000000000000000       0.87500000000000000        0.0000000000000000     
  0.50000000000000000       0.75000000000000000        0.0000000000000000     
  0.53125000000000000       0.75000000000000000        0.0000000000000000     
  0.56250000000000000       0.75000000000000000        0.0000000000000000     
  0.59375000000000000       0.75000000000000000        0.0000000000000000     
  0.62500000000000000       0.75000000000000000        0.0000000000000000     
  0.50000000000000000       0.78125000000000000        0.0000000000000000     
  0.53125000000000000       0.78125000000000000        0.0000000000000000     
  0.56250000000000000       0.78125000000000000        0.0000000000000000     
  0.59375000000000000       0.78125000000000000        0.0000000000000000     
  0.62500000000000000       0.78125000000000000        0.0000000000000000     
  0.50000000000000000       0.81250000000000000        0.0000000000000000     
  0.53125000000000000       0.81250000000000000        0.0000000000000000     
  0.56250000000000000       0.81250000000000000        0.0000000000000000     
  0.59375000000000000       0.81250000000000000        0.0000000000000000     
  0.62500000000000000       0.81250000000000000        0.0000000000000000     
  0.50000000000000000       0.84375000000000000        0.0000000000000000     
  0.53125000000000000       0.84375000000000000        0.0000000000000000     
  0.56250000000000000       0.84375000000000000        0.0000000000000000     
  0.59375000000000000       0.84375000000000000        0.0000000000000000     
  0.62500000000000000       0.84375000000000000        0.0000000000000000     
  0.50000000000000000       0.87500000000000000        0.0000000000000000     
  0.53125000000000000       0.87500000000000000        0.0000000000000000     
  0.56250000000000000       0.87500000000000000        0.0000000000000000     
  0.59375000000000000       0.87500000000000000        0.0000000000000000     
  0.62500000000000000       0.87500000000000000        0.0000000000000000     
  0.62500000000000000       0.75000000000000000        0.0000000000000000     
  0.65625000000000000       0.75000000000000000        0.0000000000000000     
  0.68750000000000000       0.75000000000000000        0.0000000000000000     
  0.71875000000000000       0.75000000000000000        0.0000000000000000     
  0.75000000000000000       0.75000000000000000        0.0000000000000000     
  0.62500000000000000       0.78125000000000000        0.0000000000000000     
  0.65625000000000000       0.78125000000000000        0.0000000000000000     
  0.68750000000000000       0.78125000000000000        0.0000000000000000     
  0.71875000000000000       0.78125000000000000        0.0000000000000000     
  0.75000000000000000       0.78125000000000000        0.0000000000000000     
  0.62500000000000000       0.81250000000000000        0.0000000000000000     
  0.65625000000000000       0.81250000000000000        0.0000000000000000     
  0.68750000000000000       0.81250000000000000        0.0000000000000000     
  0.71875000000000000       0.81250000000000000        0.0000000000000000     
  0.75000000000000000       0.81250000000000000        0.0000000000000000     
  0.62500000000000000       0.84375000000000000        0.0000000000000000     
  0.65625000000000000       0.84375000000000000        0.0000000000000000     
  0.68750000000000000       0.84375000000000000        0.0000000000000000     
  0.71875000000000000       0.84375000000000000        0.0000000000000000     
  0.75000000000000000       0.84375000000000000        0.0000000000000000     
  0.62500000000000000       0.87500000000000000        0.0000000000000000     
  0.65625000000000000       0.87500000000000000        0.0000000000000000     
  0.68750000000000000       0.87500000000000000        0.0000000000000000     
  0.71875000000000000       0.87500000000000000        0.0000000000000000     
  0.75000000000000000       0.87500000000000000        0.0000000000000000     
  0.75000000000000000       0.75000000000000000        0.0000000000000000     
  0.78125000000000000       0.75000000000000000        0.0000000000000000     
  0.81250000000000000       0.75000000000000000        0.0000000000000000     
  0.84375000000000000       0.75000000000000000        0.0000000000000000     
  0.87500000000000000       0.75000000000000000        0.0000000000000000     
  0.75000000000000000       0.78125000000000000        0.0000000000000000     
  0.78125000000000000       0.78125000000000000        0.0000000000000000     
  0.81250000000000000       0.78125000000000000        0.0000000000000000     
  0.84375000000000000       0.78125000000000000        0.0000000000000000     
  0.87500000000000000       0.78125000000000000        0.0000000000000000     
  0.75000000000000000       0.81250000000000000        0.0000000000000000     
  0.78125000000000000       0.81250000000000000        0.0000000000000000     
  0.81250000000000000       0.81250000000000000        0.0000000000000000     
  0.84375000000000000       0.81250000000000000        0.0000000000000000     
  0.87500000000000000       0.81250000000000000        0.0000000000000000     
  0.75000000000000000       0.84375000000000000        0.0000000000000000     
  0.78125000000000000       0.84375000000000000        0.0000000000000000     
  0.81250000000000000       0.84375000000000000        0.0000000000000000     
  0.84375000000000000       0.84375000000000000        0.0000000000000000     
  0.87500000000000000       0.84375000000000000        0.0000000000000000     
  0.75000000000000000       0.87500000000000000        0.0000000000000000     
  0.78125000000000000       0.87500000000000000        0.0000000000000000     
  0.81250000000000000       0.87500000000000000        0.0000000000000000     
  0.84375000000000000       0.87500000000000000        0.0000000000000000     
  0.87500000000000000       0.87500000000000000        0.0000000000000000     
  0.87500000000000000       0.75000000000000000        0.0000000000000000     
  0.90625000000000000       0.75000000000000000        0.0000000000000000     
  0.93750000000000000       0.75000000000000000        0.0000000000000000     
  0.96875000000000000       0.75000000000000000        0.0000000000000000     
   1.0000000000000000       0.75000000000000000        0.0000000000000000     
  0.87500000000000000       0.78125000000000000        0.0000000000000000     
  0.90625000000000000       0.78125000000000000        0.0000000000000000     
  0.93750000000000000       0.78125000000000000        0.0000000000000000     
  0.96875000000000000       0.78125000000000000        0.0000000000000000     
   1.0000000000000000       0.78125000000000000        0.0000000000000000     
  0.87500000000000000       0.81250000000000000        0.0000000000000000     
  0.90625000000000000       0.81250000000000000        0.0000000000000000     
  0.93750000000000000       0.81250000000000000        0.0000000000000000     
  0.96875000000000000       0.81250000000000000        0.0000000000000000     
   1.0000000000000000       0.81250000000000000        0.0000000000000000     
  0.87500000000000000       0.84375000000000000        0.0000000000000000     
  0.90625000000000000       0.84375000000000000        0.0000000000000000     
  0.93750000000000000       0.84375000000000000        0.0000000000000000     
  0.96875000000000000       0.84375000000000000        0.0000000000000000     
   1.0000000000000000       0.84375000000000000        0.0000000000000000     
  0.87500000000000000       0.87500000000000000        0.0000000000000000     
  0.90625000000000000       0.87500000000000000        0.0000000000000000     
  0.93750000000000000       0.87500000000000000        0.0000000000000000     
  0.96875000000000000       0.87500000000000000        0.0000000000000000     
   1.0000000000000000       0.87500000000000000        0.0000000000000000     
   0.0000000000000000       0.87500000000000000        0.0000000000000000     
   3.1250000000000000E-002  0.87500000000000000        0.0000000000000000     
   6.2500000000000000E-002  0.87500000000000000        0.0000000000000000     
   9.3750000000000000E-002  0.87500000000000000        0.0000000000000000     
  0.12500000000000000       0.87500000000000000        0.0000000000000000     
   0.0000000000000000       0.90625000000000000        0.0000000000000000     
   3.1250000000000000E-002  0.90625000000000000        0.0000000000000000     
   6.2500000000000000E-002  0.90625000000000000        0.0000000000000000     
   9.3750000000000000E-002  0.90625000000000000        0.0000000000000000     
  0.12500000000000000       0.90625000000000000        0.0000000000000000     
   0.0000000000000000       0.93750000000000000        0.0000000000000000     
   3.1250000000000000E-002  0.93750000000000000        0.0000000000000000     
   6.2500000000000000E-002  0.93750000000000000        0.0000000000000000     
   9.3750000000000000E-002  0.93750000000000000        0.0000000000000000     
  0.12500000000000000       0.93750000000000000        0.0000000000000000     
   0.0000000000000000       0.96875000000000000        0.0000000000000000     
   3.1250000000000000E-002  0.96875000000000000        0.0000000000000000     
   6.2500000000000000E-002  0.96875000000000000        0.0000000000000000     
   9.3750000000000000E-002  0.96875000000000000        0.0000000000000000     
  0.12500000000000000       0.96875000000000000        0.0000000000000000     
   0.0000000000000000        1.0000000000000000        0.0000000000000000     
   3.1250000000000000E-002   1.0000000000000000        0.0000000000000000     
   6.2500000000000000E-002   1.0000000000000000        0.0000000000000000     
   9.3750000000000000E-002   1.0000000000000000        0.0000000000000000     
  0.12500000000000000        1.0000000000000000        0.0000000000000000     
  0.12500000000000000       0.87500000000000000        0.0000000000000000     
  0.15625000000000000       0.87500000000000000        0.0000000000000000     
  0.18750000000000000       0.87500000000000000        0.0000000000000000     
  0.21875000000000000       0.87500000000000000        0.0000000000000000     
  0.25000000000000000       0.87500000000000000        0.0000000000000000     
  0.12500000000000000       0.90625000000000000        0.0000000000000000     
  0.15625000000000000       0.90625000000000000        0.0000000000000000     
  0.18750000000000000       0.90625000000000000        0.0000000000000000     
  0.21875000000000000       0.90625000000000000        0.0000000000000000     
  0.25000000000000000       0.90625000000000000        0.0000000000000000     
  0.12500000000000000       0.93750000000000000        0.0000000000000000     
  0.15625000000000000       0.93750000000000000        0.0000000000000000     
  0.18750000000000000       0.93750000000000000        0.0000000000000000     
  0.21875000000000000       0.93750000000000000        0.0000000000000000     
  0.25000000000000000       0.93750000000000000        0.0000000000000000     
  0.12500000000000000       0.96875000000000000        0.0000000000000000     
  0.15625000000000000       0.96875000000000000        0.0000000000000000     
  0.18750000000000000       0.96875000000000000        0.0000000000000000     
  0.21875000000000000       0.96875000000000000        0.0000000000000000     
  0.25000000000000000       0.96875000000000000        0.0000000000000000     
  0.12500000000000000        1.0000000000000000        0.0000000000000000     
  0.15625000000000000        1.0000000000000000        0.0000000000000000     
  0.18750000000000000        1.0000000000000000        0.0000000000000000     
  0.21875000000000000        1.0000000000000000        0.0000000000000000     
  0.25000000000000000        1.0000000000000000        0.0000000000000000     
  0.25000000000000000       0.87500000000000000        0.0000000000000000     
  0.28125000000000000       0.87500000000000000        0.0000000000000000     
  0.31250000000000000       0.87500000000000000        0.0000000000000000     
  0.34375000000000000       0.87500000000000000        0.0000000000000000     
  0.37500000000000000       0.87500000000000000        0.0000000000000000     
  0.25000000000000000       0.90625000000000000        0.0000000000000000     
  0.28125000000000000       0.90625000000000000        0.0000000000000000     
  0.31250000000000000       0.90625000000000000        0.0000000000000000     
  0.34375000000000000       0.90625000000000000        0.0000000000000000     
  0.37500000000000000       0.90625000000000000        0.0000000000000000     
  0.25000000000000000       0.93750000000000000        0.0000000000000000     
  0.28125000000000000       0.93750000000000000        0.0000000000000000     
  0.31250000000000000       0.93750000000000000        0.0000000000000000     
  0.34375000000000000       0.93750000000000000        0.0000000000000000     
  0.37500000000000000       0.93750000000000000        0.0000000000000000     
  0.25000000000000000       0.96875000000000000        0.0000000000000000     
  0.28125000000000000       0.96875000000000000        0.0000000000000000     
  0.31250000000000000       0.96875000000000000        0.0000000000000000     
  0.34375000000000000       0.96875000000000000        0.0000000000000000     
  0.37500000000000000       0.96875000000000000        0.0000000000000000     
  0.25000000000000000        1.0000000000000000        0.0000000000000000     
  0.28125000000000000        1.0000000000000000        0.0000000000000000     
  0.31250000000000000        1.0000000000000000        0.0000000000000000     
  0.34375000000000000        1.0000000000000000        0.0000000000000000     
  0.37500000000000000        1.0000000000000000        0.0000000000000000     
  0.37500000000000000       0.87500000000000000        0.0000000000000000     
  0.40625000000000000       0.87500000000000000        0.0000000000000000     
  0.43750000000000000       0.87500000000000000        0.0000000000000000     
  0.46875000000000000       0.87500000000000000        0.0000000000000000     
  0.50000000000000000       0.87500000000000000        0.0000000000000000     
  0.37500000000000000       0.90625000000000000        0.0000000000000000     
  0.40625000000000000       0.90625000000000000        0.0000000000000000     
  0.43750000000000000       0.90625000000000000        0.0000000000000000     
  0.46875000000000000       0.90625000000000000        0.0000000000000000     
  0.50000000000000000       0.90625000000000000        0.0000000000000000     
  0.37500000000000000       0.93750000000000000        0.0000000000000000     
  0.40625000000000000       0.93750000000000000        0.0000000000000000     
  0.43750000000000000       0.93750000000000000        0.0000000000000000     
  0.46875000000000000       0.93750000000000000        0.0000000000000000     
  0.50000000000000000       0.93750000000000000        0.0000000000000000     
  0.37500000000000000       0.96875000000000000        0.0000000000000000     
  0.40625000000000000       0.96875000000000000        0.0000000000000000     
  0.43750000000000000       0.96875000000000000        0.0000000000000000     
  0.46875000000000000       0.96875000000000000        0.0000000000000000     
  0.50000000000000000       0.96875000000000000        0.0000000000000000     
  0.37500000000000000        1.0000000000000000        0.0000000000000000     
  0.40625000000000000        1.0000000000000000        0.0000000000000000     
  0.43750000000000000        1.0000000000000000        0.0000000000000000     
  0.46875000000000000        1.0000000000000000        0.0000000000000000     
  0.50000000000000000        1.0000000000000000        0.0000000000000000     
  0.50000000000000000       0.87500000000000000        0.0000000000000000     
  0.53125000000000000       0.87500000000000000        0.0000000000000000     
  0.56250000000000000       0.87500000000000000        0.0000000000000000     
  0.59375000000000000       0.87500000000000000        0.0000000000000000     
  0.62500000000000000       0.87500000000000000        0.0000000000000000     
  0.50000000000000000       0.90625000000000000        0.0000000000000000     
  0.53125000000000000       0.90625000000000000        0.0000000000000000     
  0.56250000000000000       0.90625000000000000        0.0000000000000000     
  0.59375000000000000       0.90625000000000000        0.0000000000000000     
  0.62500000000000000       0.90625000000000000        0.0000000000000000     
  0.50000000000000000       0.93750000000000000        0.0000000000000000     
  0.53125000000000000       0.93750000000000000        0.0000000000000000     
  0.56250000000000000       0.93750000000000000        0.0000000000000000     
  0.59375000000000000       0.93750000000000000        0.0000000000000000     
  0.62500000000000000       0.93750000000000000        0.0000000000000000     
  0.50000000000000000       0.96875000000000000        0.0000000000000000     
  0.53125000000000000       0.96875000000000000        0.0000000000000000     
  0.56250000000000000       0.96875000000000000        0.0000000000000000     
  0.59375000000000000       0.96875000000000000        0.0000000000000000     
  0.62500000000000000       0.96875000000000000        0.0000000000000000     
  0.50000000000000000        1.0000000000000000        0.0000000000000000     
  0.53125000000000000        1.0000000000000000        0.0000000000000000     
  0.56250000000000000        1.0000000000000000        0.0000000000000000     
  0.59375000000000000        1.0000000000000000        0.0000000000000000     
  0.62500000000000000        1.0000000000000000        0.0000000000000000     
  0.62500000000000000       0.87500000000000000        0.0000000000000000     
  0.65625000000000000       0.87500000000000000        0.0000000000000000     
  0.68750000000000000       0.87500000000000000        0.0000000000000000     
  0.71875000000000000       0.87500000000000000        0.0000000000000000     
  0.75000000000000000       0.87500000000000000        0.0000000000000000     
  0.62500000000000000       0.90625000000000000        0.0000000000000000     
  0.65625000000000000       0.90625000000000000        0.0000000000000000     
  0.68750000000000000       0.90625000000000000        0.0000000000000000     
  0.71875000000000000       0.90625000000000000        0.0000000000000000     
  0.75000000000000000       0.90625000000000000        0.0000000000000000     
  0.62500000000000000       0.93750000000000000        0.0000000000000000     
  0.65625000000000000       0.93750000000000000        0.0000000000000000     
  0.68750000000000000       0.93750000000000000        0.0000000000000000     
  0.71875000000000000       0.93750000000000000        0.0000000000000000     
  0.75000000000000000       0.93750000000000000        0.0000000000000000     
  0.62500000000000000       0.96875000000000000        0.0000000000000000     
  0.65625000000000000       0.96875000000000000        0.0000000000000000     
  0.68750000000000000       0.96875000000000000        0.0000000000000000     
  0.71875000000000000       0.96875000000000000        0.0000000000000000     
  0.75000000000000000       0.96875000000000000        0.0000000000000000     
  0.62500000000000000        1.0000000000000000        0.0000000000000000     
  0.65625000000000000        1.0000000000000000        0.0000000000000000     
  0.68750000000000000        1.0000000000000000        0.0000000000000000     
  0.71875000000000000        1.0000000000000000        0.0000000000000000     
  0.75000000000000000        1.0000000000000000        0.0000000000000000     
  0.75000000000000000       0.87500000000000000        0.0000000000000000     
  0.78125000000000000       0.87500000000000000        0.0000000000000000     
  0.81250000000000000       0.87500000000000000        0.0000000000000000     
  0.84375000000000000       0.87500000000000000        0.0000000000000000     
  0.87500000000000000       0.87500000000000000        0.0000000000000000     
  0.75000000000000000       0.90625000000000000        0.0000000000000000     
  0.78125000000000000       0.90625000000000000        0.0000000000000000     
  0.81250000000000000       0.90625000000000000        0.0000000000000000     
  0.84375000000000000       0.90625000000000000        0.0000000000000000     
  0.87500000000000000       0.90625000000000000        0.0000000000000000     
  0.75000000000000000       0.93750000000000000        0.0000000000000000     
  0.78125000000000000       0.93750000000000000        0.0000000000000000     
  0.81250000000000000       0.93750000000000000        0.0000000000000000     
  0.84375000000000000       0.93750000000000000        0.0000000000000000     
  0.87500000000000000       0.93750000000000000        0.0000000000000000     
  0.75000000000000000       0.96875000000000000        0.0000000000000000     
  0.78125000000000000       0.96875000000000000        0.0000000000000000     
  0.81250000000000000       0.96875000000000000        0.0000000000000000     
  0.84375000000000000       0.96875000000000000        0.0000000000000000     
  0.87500000000000000       0.96875000000000000        0.0000000000000000     
  0.75000000000000000        1.0000000000000000        0.0000000000000000     
  0.78125000000000000        1.0000000000000000        0.0000000000000000     
  0.81250000000000000        1.0000000000000000        0.0000000000000000     
  0.84375000000000000        1.0000000000000000        0.0000000000000000     
  0.87500000000000000        1.0000000000000000        0.0000000000000000     
  0.87500000000000000       0.87500000000000000        0.0000000000000000     
  0.90625000000000000       0.87500000000000000        0.0000000000000000     
  0.93750000000000000       0.87500000000000000        0.0000000000000000     
  0.96875000000000000       0.87500000000000000        0.0000000000000000     
   1.0000000000000000       0.87500000000000000        0.0000000000000000     
  0.87500000000000000       0.90625000000000000        0.0000000000000000     
  0.90625000000000000       0.90625000000000000        0.0000000000000000     
  0.93750000000000000       0.90625000000000000        0.0000000000000000     
  0.96875000000000000       0.90625000000000000        0.0000000000000000     
   1.0000000000000000       0.90625000000000000        0.0000000000000000     
  0.87500000000000000       0.93750000000000000        0.0000000000000000     
  0.90625000000000000       0.93750000000000000        0.0000000000000000     
  0.93750000000000000       0.93750000000000000        0.0000000000000000     
  0.96875000000000000       0.93750000000000000        0.0000000000000000     
   1.0000000000000000       0.93750000000000000        0.0000000000000000     
  0.87500000000000000       0.96875000000000000        0.0000000000000000     
  0.90625000000000000       0.96875000000000000        0.0000000000000000     
  0.93750000000000000       0.96875000000000000        0.0000000000000000     
  0.96875000000000000       0.96875000000000000        0.0000000000000000     
   1.0000000000000000       0.96875000000000000        0.0000000000000000     
  0.87500000000000000        1.0000000000000000        0.0000000000000000     
  0.90625000000000000        1.0000000000000000        0.0000000000000000     
  0.93750000000000000        1.0000000000000000        0.0000000000000000     
  0.96875000000000000        1.0000000000000000        0.0000000000000000     
   1.0000000000000000        1.0000000000000000        0.0000000000000000     
 </DataArray>
 </Points>
 <Cells>
 <DataArray  type="Int32"  Name="connectivity"  format="ascii">
           0           1           6           5
           1           2           7           6
           2           3           8           7
           3           4           9           8
           5           6          11          10
           6           7          12          11
           7           8          13          12
           8           9          14          13
          10          11          16          15
          11          12          17          16
          12          13          18          17
          13          14          19          18
          15          16          21          20
          16          17          22          21
          17          18          23          22
          18          19          24          23
          25          26          31          30
          26          27          32          31
          27          28          33          32
          28          29          34          33
          30          31          36          35
          31          32          37          36
          32          33          38          37
          33          34          39          38
          35          36          41          40
          36          37          42          41
          37          38          43          42
          38          39          44          43
          40          41          46          45
          41          42          47          46
          42          43          48          47
          43          44          49          48
          50          51          56          55
          51          52          57          56
          52          53          58          57
          53          54          59          58
          55          56          61          60
          56          57          62          61
          57          58          63          62
          58          59          64          63
          60          61          66          65
          61          62          67          66
          62          63          68          67
          63          64          69          68
          65          66          71          70
          66          67          72          71
          67          68          73          72
          68          69          74          73
          75          76          81          80
          76          77          82          81
          77          78          83          82
          78          79          84          83
          80          81          86          85
          81          82          87          86
          82          83          88          87
          83          84          89          88
          85          86          91          90
          86          87          92          91
          87          88          93          92
          88          89          94          93
          90          91          96          95
          91          92          97          96
          92          93          98          97
          93          94          99          98
         100         101         106         105
         101         102         107         106
         102         103         108         107
         103         104         109         108
         105         106         111         110
         106         107         112         111
         107         108         113         112
         108         109         114         113
         110         111         116         115
         111         112         117         116
         112         113         118         117
         113         114         119         118
         115         116         121         120
         116         117         122         121
         117         118         123         122
         118         119         124         123
         125         126         131         130
         126         127         132         131
         127         128         133         132
         128         129         134         133
         130         131         136         135
         131         132         137         136
         132         133         138         137
         133         134         139         138
         135         136         141         140
         136         137         142         141
         137         138         143         142
         138         139         144         143
         140         141         146         145
         141         142         147         146
         142         143         148         147
         143         144         149         148
         150         151         156         155
         151         152         157         156
         152         153         158         157
         153         154         159         158
         155         156         161         160
         156         157         162         161
         157         158         163         162
         158         159         164         163
         160         161         166         165
         161         162         167         166
         162         163         168         167
         163         164         169         168
         165         166         171         170
         166         167         172         171
         167         168         173         172
         168         169         174         173
         175         176         181         180
         176         177         182         181
         177         178         183         182
         178         179         184         183
         180         181         186         185
         181         182         187         186
         182         183         188         187
         183         184         189         188
         185         186         191         190
         186         187         192         191
         187         188         193         192
         188         189         194         193
         190         191         196         195
         191         192         197         196
         192         193         198         197
         193         194         199         198
         200         201         206         205
         201         202         207         206
         202         203         208         207
         203         204         209         208
         205         206         211         210
         206         207         212         211
         207         208         213         212
         208         209         214         213
         210         211         216         215
         211         212         217         216
         212         213         218         217
         213         214         219         218
         215         216         221         220
         216         217         222         221
         217         218         223         222
         218         219         224         223
         225         226         231         230
         226         227         232         231
         227         228         233         232
         228         229         234         233
         230         231         236         235
         231         232         237         236
         232         233         238         237
         233         234         239         238
         235         236         241         240
         236         237         242         241
         237         238         243         242
         238         239         244         243
         240         241         246         245
         241         242         247         246
         242         243         248         247
         243         244         249         248
         250         251         256         255
         251         252         257         256
         252         253         258         257
         253         254         259         258
         255         256         261         260
         256         257         262         261
         257         258         263         262
         258         259         264         263
         260         261         266         265
         261         262         267         266
         262         263         268         267
         263         264         269         268
         265         266         271         270
         266         267         272         271
         267         268         273         272
         268         269         274         273
         275         276         281         280
         276         277         282         281
         277         278         283         282
         278         279         284         283
         280         281         286         285
         281         282         287         286
         282         283         288         287
         283         284         289         288
         285         286         291         290
         286         287         292         291
         287         288         293         292
         288         289         294         293
         290         291         296         295
         291         292         297         296
         292         293         298         297
         293         294         299         298
         300         301         306         305
         301         302         307         306
         302         303         308         307
         303         304         309         308
         305         306         311         310
         306         307         312         311
         307         308         313         312
         308         309         314         313
         310         311         316         315
         311         312         317         316
         312         313         318         317
         313         314         319         318
         315         316         321         320
         316         317         322         321
         317         318         323         322
         318         319         324         323
         325         326         331         330
         326         327         332         331
         327         328         333         332
         328         329         334         333
         330         331         336         335
         331         332         337         336
         332         333         338         337
         333         334         339         338
         335         336         341         340
         336         337         342         341
         337         338         343         342
         338         339         344         343
         340         341         346         345
         341         342         347         346
         342         343         348         347
         343         344         349         348
         350         351         356         355
         351         352         357         356
         352         353         358         357
         353         354         359         358
         355         356         361         360
         356         357         362         361
         357         358         363         362
         358         359         364         363
         360         361         366         365
         361         362         367         366
         362         363         368         367
         363         364         369         368
         365         366         371         370
         366         367         372         371
         367         368         373         372
         368         369         374         373
         375         376         381         380
         376         377         382         381
         377         378         383         382
         378         379         384         383
         380         381         386         385
         381         382         387         386
         382         383         388         387
         383         384         389         388
         385         386         391         390
         386         387         392         391
         387         388         393         392
         388         389         394         393
         390         391         396         395
         391         392         397         396
         392         393         398         397
         393         394         399         398
         400         401         406         405
         401         402         407         406
         402         403         408         407
         403         404         409         408
         405         406         411         410
         406         407         412         411
         407         408         413         412
         408         409         414         413
         410         411         416         415
         411         412         417         416
         412         413         418         417
         413         414         419         418
         415         416         421         420
         416         417         422         421
         417         418         423         422
         418         419         424         423
         425         426         431         430
         426         427         432         431
         427         428         433         432
         428         429         434         433
         430         431         436         435
         431         432         437         436
         432         433         438         437
         433         434         439         438
         435         436         441         440
         436         437         442         441
         437         438         443         442
         438         439         444         443
         440         441         446         445
         441         442         447         446
         442         443         448         447
         443         444         449         448
         450         451         456         455
         451         452         457         456
         452         453         458         457
         453         454         459         458
         455         456         461         460
         456         457         462         461
         457         458         463         462
         458         459         464         463
         460         461         466         465
         461         462         467         466
         462         463         468         467
         463         464         469         468
         465         466         471         470
         466         467         472         471
         467         468         473         472
         468         469         474         473
         475         476         481         480
         476         477         482         481
         477         478         483         482
         478         479         484         483
         480         481         486         485
         481         482         487         486
         482         483         488         487
         483         484         489         488
         485         486         491         490
         486         487         492         491
         487         488         493         492
         488         489         494         493
         490         491         496         495
         491         492         497         496
         492         493         498         497
         493         494         499         498
         500         501         506         505
         501         502         507         506
         502         503         508         507
         503         504         509         508
         505         506         511         510
         506         507         512         511
         507         508         513         512
         508         509         514         513
         510         511         516         515
         511         512         517         516
         512         513         518         517
         513         514         519         518
         515         516         521         520
         516         517         522         521
         517         518         523         522
         518         519         524         523
         525         526         531         530
         526         527         532         531
         527         528         533         532
         528         529         534         533
         530         531         536         535
         531         532         537         536
         532         533         538         537
         533         534         539         538
         535         536         541         540
         536         537         542         541
         537         538         543         542
         538         539         544         543
         540         541         546         545
         541         542         547         546
         542         543         548         547
         543         544         549         548
         550         551         556         555
         551         552         557         556
         552         553         558         557
         553         554         559         558
         555         556         561         560
         556         557         562         561
         557         558         563         562
         558         559         564         563
         560         561         566         565
         561         562         567         566
         562         563         568         567
         563         564         569         568
         565         566         571         570
         566         567         572         571
         567         568         573         572
         568         569         574         573
         575         576         581         580
         576         577         582         581
         577         578         583         582
         578         579         584         583
         580         581         586         585
         581         582         587         586
         582         583         588         587
         583         584         589         588
         585         586         591         590
         586         587         592         591
         587         588         593         592
         588         589         594         593
         590         591         596         595
         591         592         597         596
         592         593         598         597
         593         594         599         598
         600         601         606         605
         601         602         607         606
         602         603         608         607
         603         604         609         608
         605         606         611         610
         606         607         612         611
         607         608         613         612
         608         609         614         613
         610         611         616         615
         611         612         617         616
         612         613         618         617
         613         614         619         618
         615         616         621         620
         616         617         622         621
         617         618         623         622
         618         619         624         623
         625         626         631         630
         626         627         632         631
         627         628         633         632
         628         629         634         633
         630         631         636         635
         631         632         637         636
         632         633         638         637
         633         634         639         638
         635         636         641         640
         636         637         642         641
         637         638         643         642
         638         639         644         643
         640         641         646         645
         641         642         647         646
         642         643         648         647
         643         644         649         648
         650         651         656         655
         651         652         657         656
         652         653         658         657
         653         654         659         658
         655         656         661         660
         656         657         662         661
         657         658         663         662
         658         659         664         663
         660         661         666         665
         661         662         667         666
         662         663         668         667
         663         664         669         668
         665         666         671         670
         666         667         672         671
         667         668         673         672
         668         669         674         673
         675         676         681         680
         676         677         682         681
         677         678         683         682
         678         679         684         683
         680         681         686         685
         681         682         687         686
         682         683         688         687
         683         684         689         688
         685         686         691         690
         686         687         692         691
         687         688         693         692
         688         689         694         693
         690         691         696         695
         691         692         697         696
         692         693         698         697
         693         694         699         698
         700         701         706         705
         701         702         707         706
         702         703         708         707
         703         704         709         708
         705         706         711         710
         706         707         712         711
         707         708         713         712
         708         709         714         713
         710         711         716         715
         711         712         717         716
         712         713         718         717
         713         714         719         718
         715         716         721         720
         716         717         722         721
         717         718         723         722
         718         719         724         723
         725         726         731         730
         726         727         732         731
         727         728         733         732
         728         729         734         733
         730         731         736         735
         731         732         737         736
         732         733         738         737
         733         734         739         738
         735         736         741         740
         736         737         742         741
         737         738         743         742
         738         739         744         743
         740         741         746         745
         741         742         747         746
         742         743         748         747
         743         744         749         748
         750         751         756         755
         751         752         757         756
         752         753         758         757
         753         754         759         758
         755         756         761         760
         756         757         762         761
         757         758         763         762
         758         759         764         763
         760         761         766         765
         761         762         767         766
         762         763         768         767
         763         764         769         768
         765         766         771         770
         766         767         772         771
         767         768         773         772
         768         769         774         773
         775         776         781         780
         776         777         782         781
         777         778         783         782
         778         779         784         783
         780         781         786         785
         781         782         787         786
         782         783         788         787
         783         784         789         788
         785         786         791         790
         786         787         792         791
         787         788         793         792
         788         789         794         793
         790         791         796         795
         791         792         797         796
         792         793         798         797
         793         794         799         798
         800         801         806         805
         801         802         807         806
         802         803         808         807
         803         804         809         808
         805         806         811         810
         806         807         812         811
         807         808         813         812
         808         809         814         813
         810         811         816         815
         811         812         817         816
         812         813         818         817
         813         814         819         818
         815         816         821         820
         816         817         822         821
         817         818         823         822
         818         819         824         823
         825         826         831         830
         826         827         832         831
         827         828         833         832
         828         829         834         833
         830         831         836         835
         831         832         837         836
         832         833         838         837
         833         834         839         838
         835         836         841         840
         836         837         842         841
         837         838         843         842
         838         839         844         843
         840         841         846         845
         841         842         847         846
         842         843         848         847
         843         844         849         848
         850         851         856         855
         851         852         857         856
         852         853         858         857
         853         854         859         858
         855         856         861         860
         856         857         862         861
         857         858         863         862
         858         859         864         863
         860         861         866         865
         861         862         867         866
         862         863         868         867
         863         864         869         868
         865         866         871         870
         866         867         872         871
         867         868         873         872
         868         869         874         873
         875         876         881         880
         876         877         882         881
         877         878         883         882
         878         879         884         883
         880         881         886         885
         881         882         887         886
         882         883         888         887
         883         884         889         888
         885         886         891         890
         886         887         892         891
         887         888         893         892
         888         889         894         893
         890         891         896         895
         891         892         897         896
         892         893         898         897
         893         894         899         898
         900         901         906         905
         901         902         907         906
         902         903         908         907
         903         904         909         908
         905         906         911         910
         906         907         912         911
         907         908         913         912
         908         909         914         913
         910         911         916         915
         911         912         917         916
         912         913         918         917
         913         914         919         918
         915         916         921         920
         916         917         922         921
         917         918         923         922
         918         919         924         923
         925         926         931         930
         926         927         932         931
         927         928         933         932
         928         929         934         933
         930         931         936         935
         931         932         937         936
         932         933         938         937
         933         934         939         938
         935         936         941         940
         936         937         942         941
         937         938         943         942
         938         939         944         943
         940         941         946         945
         941         942         947         946
         942         943         948         947
         943         944         949         948
         950         951         956         955
         951         952         957         956
         952         953         958         957
         953         954         959         958
         955         956         961         960
         956         957         962         961
         957         958         963         962
         958         959         964         963
         960         961         966         965
         961         962         967         966
         962         963         968         967
         963         964         969         968
         965         966         971         970
         966         967         972         971
         967         968         973         972
         968         969         974         973
         975         976         981         980
         976         977         982         981
         977         978         983         982
         978         979         984         983
         980         981         986         985
         981         982         987         986
         982         983         988         987
         983         984         989         988
         985         986         991         990
         986         987         992         991
         987         988         993         992
         988         989         994         993
         990         991         996         995
         991         992         997         996
         992         993         998         997
         993         994         999         998
        1000        1001        1006        1005
        1001        1002        1007        1006
        1002        1003        1008        1007
        1003        1004        1009        1008
        1005        1006        1011        1010
        1006        1007        1012        1011
        1007        1008        1013        1012
        1008        1009        1014        1013
        1010        1011        1016        1015
        1011        1012        1017        1016
        1012        1013        1018        1017
        1013        1014        1019        1018
        1015        1016        1021        1020
        1016        1017        1022        1021
        1017        1018        1023        1022
        1018        1019        1024        1023
        1025        1026        1031        1030
        1026        1027        1032        1031
        1027        1028        1033        1032
        1028        1029        1034        1033
        1030        1031        1036        1035
        1031        1032        1037        1036
        1032        1033        1038        1037
        1033        1034        1039        1038
        1035        1036        1041        1040
        1036        1037        1042        1041
        1037        1038        1043        1042
        1038        1039        1044        1043
        1040        1041        1046        1045
        1041        1042        1047        1046
        1042        1043        1048        1047
        1043        1044        1049        1048
        1050        1051        1056        1055
        1051        1052        1057        1056
        1052        1053        1058        1057
        1053        1054        1059        1058
        1055        1056        1061        1060
        1056        1057        1062        1061
        1057        1058        1063        1062
        1058        1059        1064        1063
        1060        1061        1066        1065
        1061        1062        1067        1066
        1062        1063        1068        1067
        1063        1064        1069        1068
        1065        1066        1071        1070
        1066        1067        1072        1071
        1067        1068        1073        1072
        1068        1069        1074        1073
        1075        1076        1081        1080
        1076        1077        1082        1081
        1077        1078        1083        1082
        1078        1079        1084        1083
        1080        1081        1086        1085
        1081        1082        1087        1086
        1082        1083        1088        1087
        1083        1084        1089        1088
        1085        1086        1091        1090
        1086        1087        1092        1091
        1087        1088        1093        1092
        1088        1089        1094        1093
        1090        1091        1096        1095
        1091        1092        1097        1096
        1092        1093        1098        1097
        1093        1094        1099        1098
        1100        1101        1106        1105
        1101        1102        1107        1106
        1102        1103        1108        1107
        1103        1104        1109        1108
        1105        1106        1111        1110
        1106        1107        1112        1111
        1107        1108        1113        1112
        1108        1109        1114        1113
        1110        1111        1116        1115
        1111        1112        1117        1116
        1112        1113        1118        1117
        1113        1114        1119        1118
        1115        1116        1121        1120
        1116        1117        1122        1121
        1117        1118        1123        1122
        1118        1119        1124        1123
        1125        1126        1131        1130
        1126        1127        1132        1131
        1127        1128        1133        1132
        1128        1129        1134        1133
        1130        1131        1136        1135
        1131        1132        1137        1136
        1132        1133        1138        1137
        1133        1134        1139        1138
        1135        1136        1141        1140
        1136        1137        1142        1141
        1137        1138        1143        1142
        1138        1139        1144        1143
        1140        1141        1146        1145
        1141        1142        1147        1146
        1142        1143        1148        1147
        1143        1144        1149        1148
        1150        1151        1156        1155
        1151        1152        1157        1156
        1152        1153        1158        1157
        1153        1154        1159        1158
        1155        1156        1161        1160
        1156        1157        1162        1161
        1157        1158        1163        1162
        1158        1159        1164        1163
        1160        1161        1166        1165
        1161        1162        1167        1166
        1162        1163        1168        1167
        1163        1164        1169        1168
        1165        1166        1171        1170
        1166        1167        1172        1171
        1167        1168        1173        1172
        1168        1169        1174        1173
        1175        1176        1181        1180
        1176        1177        1182        1181
        1177        1178        1183        1182
        1178        1179        1184        1183
        1180        1181        1186        1185
        1181        1182        1187        1186
        1182        1183        1188        1187
        1183        1184        1189        1188
        1185        1186        1191        1190
        1186        1187        1192        1191
        1187        1188        1193        1192
        1188        1189        1194        1193
        1190        1191        1196        1195
        1191        1192        1197        1196
        1192        1193        1198        1197
        1193        1194        1199        1198
        1200        1201        1206        1205
        1201        1202        1207        1206
        1202        1203        1208        1207
        1203        1204        1209        1208
        1205        1206        1211        1210
        1206        1207        1212        1211
        1207        1208        1213        1212
        1208        1209        1214        1213
        1210        1211        1216        1215
        1211        1212        1217        1216
        1212        1213        1218        1217
        1213        1214        1219        1218
        1215        1216        1221        1220
        1216        1217        1222        1221
        1217        1218        1223        1222
        1218        1219        1224        1223
        1225        1226        1231        1230
        1226        1227        1232        1231
        1227        1228        1233        1232
        1228        1229        1234        1233
        1230        1231        1236        1235
        1231        1232        1237        1236
        1232        1233        1238        1237
        1233        1234        1239        1238
        1235        1236        1241        1240
        1236        1237        1242        1241
        1237        1238        1243        1242
        1238        1239        1244        1243
        1240        1241        1246        1245
        1241        1242        1247        1246
        1242        1243        1248        1247
        1243        1244        1249        1248
        1250        1251        1256        1255
        1251        1252        1257        1256
        1252        1253        1258        1257
        1253        1254        1259        1258
        1255        1256        1261        1260
        1256        1257        1262        1261
        1257        1258        1263        1262
        1258        1259        1264        1263
        1260        1261        1266        1265
        1261        1262        1267        1266
        1262        1263        1268        1267
        1263        1264        1269        1268
        1265        1266        1271        1270
        1266        1267        1272        1271
        1267        1268        1273        1272
        1268        1269        1274        1273
        1275        1276        1281        1280
        1276        1277        1282        1281
        1277        1278        1283        1282
        1278        1279        1284        1283
        1280        1281        1286        1285
        1281        1282        1287        1286
        1282        1283        1288        1287
        1283        1284        1289        1288
        1285        1286        1291        1290
        1286        1287        1292        1291
        1287        1288        1293        1292
        1288        1289        1294        1293
        1290        1291        1296        1295
        1291        1292        1297        1296
        1292        1293        1298        1297
        1293        1294        1299        1298
        1300        1301        1306        1305
        1301        1302        1307        1306
        1302        1303        1308        1307
        1303        1304        1309        1308
        1305        1306        1311        1310
        1306        1307        1312        1311
        1307        1308        1313        1312
        1308        1309        1314        1313
        1310        1311        1316        1315
        1311        1312        1317        1316
        1312        1313        1318        1317
        1313        1314        1319        1318
        1315        1316        1321        1320
        1316        1317        1322        1321
        1317        1318        1323        1322
        1318        1319        1324        1323
        1325        1326        1331        1330
        1326        1327        1332        1331
        1327        1328        1333        1332
        1328        1329        1334        1333
        1330        1331        1336        1335
        1331        1332        1337        1336
        1332        1333        1338        1337
        1333        1334        1339        1338
        1335        1336        1341        1340
        1336        1337        1342        1341
        1337        1338        1343        1342
        1338        1339        1344        1343
        1340        1341        1346        1345
        1341        1342        1347        1346
        1342        1343        1348        1347
        1343        1344        1349        1348
        1350        1351        1356        1355
        1351        1352        1357        1356
        1352        1353        1358        1357
        1353        1354        1359        1358
        1355        1356        1361        1360
        1356        1357        1362        1361
        1357        1358        1363        1362
        1358        1359        1364        1363
        1360        1361        1366        1365
        1361        1362        1367        1366
        1362        1363        1368        1367
        1363        1364        1369        1368
        1365        1366        1371        1370
        1366        1367        1372        1371
        1367        1368        1373        1372
        1368        1369        1374        1373
        1375        1376        1381        1380
        1376        1377        1382        1381
        1377        1378        1383        1382
        1378        1379        1384        1383
        1380        1381        1386        1385
        1381        1382        1387        1386
        1382        1383        1388        1387
        1383        1384        1389        1388
        1385        1386        1391        1390
        1386        1387        1392        1391
        1387        1388        1393        1392
        1388        1389        1394        1393
        1390        1391        1396        1395
        1391        1392        1397        1396
        1392        1393        1398        1397
        1393        1394        1399        1398
        1400        1401        1406        1405
        1401        1402        1407        1406
        1402        1403        1408        1407
        1403        1404        1409        1408
        1405        1406        1411        1410
        1406        1407        1412        1411
        1407        1408        1413        1412
        1408        1409        1414        1413
        1410        1411        1416        1415
        1411        1412        1417        1416
        1412        1413        1418        1417
        1413        1414        1419        1418
        1415        1416        1421        1420
        1416        1417        1422        1421
        1417        1418        1423        1422
        1418        1419        1424        1423
        1425        1426        1431        1430
        1426        1427        1432        1431
        1427        1428        1433        1432
        1428        1429        1434        1433
        1430        1431        1436        1435
        1431        1432        1437        1436
        1432        1433        1438        1437
        1433        1434        1439        1438
        1435        1436        1441        1440
        1436        1437        1442        1441
        1437        1438        1443        1442
        1438        1439        1444        1443
        1440        1441        1446        1445
        1441        1442        1447        1446
        1442        1443        1448        1447
        1443        1444        1449        1448
        1450        1451        1456        1455
        1451        1452        1457        1456
        1452        1453        1458        1457
        1453        1454        1459        1458
        1455        1456        1461        1460
        1456        1457        1462        1461
        1457        1458        1463        1462
        1458        1459        1464        1463
        1460        1461        1466        1465
        1461        1462        1467        1466
        1462        1463        1468        1467
        1463        1464        1469        1468
        1465        1466        1471        1470
        1466        1467        1472        1471
        1467        1468        1473        1472
        1468        1469        1474        1473
        1475        1476        1481        1480
        1476        1477        1482        1481
        1477        1478        1483        1482
        1478        1479        1484        1483
        1480        1481        1486        1485
        1481        1482        1487        1486
        1482        1483        1488        1487
        1483        1484        1489        1488
        1485        1486        1491        1490
        1486        1487        1492        1491
        1487        1488        1493        1492
        1488        1489        1494        1493
        1490        1491        1496        1495
        1491        1492        1497        1496
        1492        1493        1498        1497
        1493        1494        1499        1498
        1500        1501        1506        1505
        1501        1502        1507        1506
        1502        1503        1508        1507
        1503        1504        1509        1508
        1505        1506        1511        1510
        1506        1507        1512        1511
        1507        1508        1513        1512
        1508        1509        1514        1513
        1510        1511        1516        1515
        1511        1512        1517        1516
        1512        1513        1518        1517
        1513        1514        1519        1518
        1515        1516        1521        1520
        1516        1517        1522        1521
        1517        1518        1523        1522
        1518        1519        1524        1523
        1525        1526        1531        1530
        1526        1527        1532        1531
        1527        1528        1533        1532
        1528        1529        1534        1533
        1530        1531        1536        1535
        1531        1532        1537        1536
        1532        1533        1538        1537
        1533        1534        1539        1538
        1535        1536        1541        1540
        1536        1537        1542        1541
        1537        1538        1543        1542
        1538        1539        1544        1543
        1540        1541        1546        1545
        1541        1542        1547        1546
        1542        1543        1548        1547
        1543        1544        1549        1548
        1550        1551        1556        1555
        1551        1552        1557        1556
        1552        1553        1558        1557
        1553        1554        1559        1558
        1555        1556        1561        1560
        1556        1557        1562        1561
        1557        1558        1563        1562
        1558        1559        1564        1563
        1560        1561        1566        1565
        1561        1562        1567        1566
        1562        1563        1568        1567
        1563        1564        1569        1568
        1565        1566        1571        1570
        1566        1567        1572        1571
        1567        1568        1573        1572
        1568        1569        1574        1573
        1575        1576        1581        1580
        1576        1577        1582        1581
        1577        1578        1583        1582
        1578        1579        1584        1583
        1580        1581        1586        1585
        1581        1582        1587        1586
        1582        1583        1588        1587
        1583        1584        1589        1588
        1585        1586        1591        1590
        1586        1587        1592        1591
        1587        1588        1593        1592
        1588        1589        1594        1593
        1590        1591        1596        1595
        1591        1592        1597        1596
        1592        1593        1598        1597
        1593        1594        1599        1598
 </DataArray>
 <DataArray  type="Int32"  Name="offsets"  format="ascii"> 
           4
           8
          12
          16
          20
          24
          28
          32
          36
          40
          44
          48
          52
          56
          60
          64
          68
          72
          76
          80
          84
          88
          92
          96
         100
         104
         108
         112
         116
         120
         124
         128
         132
         136
         140
         144
         148
         152
         156
         160
         164
         168
         172
         176
         180
         184
         188
         192
         196
         200
         204
         208
         212
         216
         220
         224
         228
         232
         236
         240
         244
         248
         252
         256
         260
         264
         268
         272
         276
         280
         284
         288
         292
         296
         300
         304
         308
         312
         316
         320
         324
         328
         332
         336
         340
         344
         348
         352
         356
         360
         364
         368
         372
         376
         380
         384
         388
         392
         396
         400
         404
         408
         412
         416
         420
         424
         428
         432
         436
         440
         444
         448
         452
         456
         460
         464
         468
         472
         476
         480
         484
         488
         492
         496
         500
         504
         508
         512
         516
         520
         524
         528
         532
         536
         540
         544
         548
         552
         556
         560
         564
         568
         572
         576
         580
         584
         588
         592
         596
         600
         604
         608
         612
         616
         620
         624
         628
         632
         636
         640
         644
         648
         652
         656
         660
         664
         668
         672
         676
         680
         684
         688
         692
         696
         700
         704
         708
         712
         716
         720
         724
         728
         732
         736
         740
         744
         748
         752
         756
         760
         764
         768
         772
         776
         780
         784
         788
         792
         796
         800
         804
         808
         812
         816
         820
         824
         828
         832
         836
         840
         844
         848
         852
         856
         860
         864
         868
         872
         876
         880
         884
         888
         892
         896
         900
         904
         908
         912
         916
         920
         924
         928
         932
         936
         940
         944
         948
         952
         956
         960
         964
         968
         972
         976
         980
         984
         988
         992
         996
        1000
        1004
        1008
        1012
        1016
        1020
        1024
        1028
        1032
        1036
        1040
        1044
        1048
        1052
        1056
        1060
        1064
        1068
        1072
        1076
        1080
        1084
        1088
        1092
        1096
        1100
        1104
        1108
        1112
        1116
        1120
        1124
        1128
        1132
        1136
        1140
        1144
        1148
        1152
        1156
        1160
        1164
        1168
        1172
        1176
        1180
        1184
        1188
        1192
        1196
        1200
        1204
        1208
        1212
        1216
        1220
        1224
        1228
        1232
        1236
        1240
        1244
        1248
        1252
        1256
        1260
        1264
        1268
        1272
        1276
        1280
        1284
        1288
        1292
        1296
        1300
        1304
        1308
        1312
        1316
        1320
        1324
        1328
        1332
        1336
        1340
        1344
        1348
        1352
        1356
        1360
        1364
        1368
        1372
        1376
        1380
        1384
        1388
        1392
        1396
        1400
        1404
        1408
        1412
        1416
        1420
        1424
        1428
        1432
        1436
        1440
        1444
        1448
        1452
        1456
        1460
        1464
        1468
        1472
        1476
        1480
        1484
        1488
        1492
        1496
        1500
        1504
        1508
        1512
        1516
        1520
        1524
        1528
        1532
        1536
        1540
        1544
        1548
        1552
        1556
        1560
        1564
        1568
        1572
        1576
        1580
        1584
        1588
        1592
        1596
        1600
        1604
        1608
        1612
        1616
        1620
        1624
        1628
        1632
        1636
        1640
        1644
        1648
        1652
        1656
        1660
        1664
        1668
        1672
        1676
        1680
        1684
        1688
        1692
        1696
        1700
        1704
        1708
        1712
        1716
        1720
        1724
        1728
        1732
        1736
        1740
        1744
        1748
        1752
        1756
        1760
        1764
        1768
        1772
        1776
        1780
        1784
        1788
        1792
        1796
        1800
        1804
        1808
        1812
        1816
        1820
        1824
        1828
        1832
        1836
        1840
        1844
        1848
        1852
        1856
        1860
        1864
        1868
        1872
        1876
        1880
        1884
        1888
        1892
        1896
        1900
        1904
        1908
        1912
        1916
        1920
        1924
        1928
        1932
        1936
        1940
        1944
        1948
        1952
        1956
        1960
        1964
        1968
        1972
        1976
        1980
        1984
        1988
        1992
        1996
        2000
        2004
        2008
        2012
        2016
        2020
        2024
        2028
        2032
        2036
        2040
        2044
        2048
        2052
        2056
        2060
        2064
        2068
        2072
        2076
        2080
        2084
        2088
        2092
        2096
        2100
        2104
        2108
        2112
        2116
        2120
        2124
        2128
        2132
        2136
        2140
        2144
        2148
        2152
        2156
        2160
        2164
        2168
        2172
        2176
        2180
        2184
        2188
        2192
        2196
        2200
        2204
        2208
        2212
        2216
        2220
        2224
        2228
        2232
        2236
        2240
        2244
        2248
        2252
        2256
        2260
        2264
        2268
        2272
        2276
        2280
        2284
        2288
        2292
        2296
        2300
        2304
        2308
        2312
        2316
        2320
        2324
        2328
        2332
        2336
        2340
        2344
        2348
        2352
        2356
        2360
        2364
        2368
        2372
        2376
        2380
        2384
        2388
        2392
        2396
        2400
        2404
        2408
        2412
        2416
        2420
        2424
        2428
        2432
        2436
        2440
        2444
        2448
        2452
        2456
        2460
        2464
        2468
        2472
        2476
        2480
        2484
        2488
        2492
        2496
        2500
        2504
        2508
        2512
        2516
        2520
        2524
        2528
        2532
        2536
        2540
        2544
        2548
        2552
        2556
        2560
        2564
        2568
        2572
        2576
        2580
        2584
        2588
        2592
        2596
        2600
        2604
        2608
        2612
        2616
        2620
        2624
        2628
        2632
        2636
        2640
        2644
        2648
        2652
        2656
        2660
        2664
        2668
        2672
        2676
        2680
        2684
        2688
        2692
        2696
        2700
        2704
        2708
        2712
        2716
        2720
        2724
        2728
        2732
        2736
        2740
        2744
        2748
        2752
        2756
        2760
        2764
        2768
        2772
        2776
        2780
        2784
        2788
        2792
        2796
        2800
        2804
        2808
        2812
        2816
        2820
        2824
        2828
        2832
        2836
        2840
        2844
        2848
        2852
        2856
        2860
        2864
        2868
        2872
        2876
        2880
        2884
        2888
        2892
        2896
        2900
        2904
        2908
        2912
        2916
        2920
        2924
        2928
        2932
        2936
        2940
        2944
        2948
        2952
        2956
        2960
        2964
        2968
        2972
        2976
        2980
        2984
        2988
        2992
        2996
        3000
        3004
        3008
        3012
        3016
        3020
        3024
        3028
        3032
        3036
        3040
        3044
        3048
        3052
        3056
        3060
        3064
        3068
        3072
        3076
        3080
        3084
        3088
        3092
        3096
        3100
        3104
        3108
        3112
        3116
        3120
        3124
        3128
        3132
        3136
        3140
        3144
        3148
        3152
        3156
        3160
        3164
        3168
        3172
        3176
        3180
        3184
        3188
        3192
        3196
        3200
        3204
        3208
        3212
        3216
        3220
        3224
        3228
        3232
        3236
        3240
        3244
        3248
        3252
        3256
        3260
        3264
        3268
        3272
        3276
        3280
        3284
        3288
        3292
        3296
        3300
        3304
        3308
        3312
        3316
        3320
        3324
        3328
        3332
        3336
        3340
        3344
        3348
        3352
        3356
        3360
        3364
        3368
        3372
        3376
        3380
        3384
        3388
        3392
        3396
        3400
        3404
        3408
        3412
        3416
        3420
        3424
        3428
        3432
        3436
        3440
        3444
        3448
        3452
        3456
        3460
        3464
        3468
        3472
        3476
        3480
        3484
        3488
        3492
        3496
        3500
        3504
        3508
        3512
        3516
        3520
        3524
        3528
        3532
        3536
        3540
        3544
        3548
        3552
        3556
        3560
        3564
        3568
        3572
        3576
        3580
        3584
        3588
        3592
        3596
        3600
        3604
        3608
        3612
        3616
        3620
        3624
        3628
        3632
        3636
        3640
        3644
        3648
        3652
        3656
        3660
        3664
        3668
        3672
        3676
        3680
        3684
        3688
        3692
        3696
        3700
        3704
        3708
        3712
        3716
        3720
        3724
        3728
        3732
        3736
        3740
        3744
        3748
        3752
        3756
        3760
        3764
        3768
        3772
        3776
        3780
        3784
        3788
        3792
        3796
        3800
        3804
        3808
        3812
        3816
        3820
        3824
        3828
        3832
        3836
        3840
        3844
        3848
        3852
        3856
        3860
        3864
        3868
        3872
        3876
        3880
        3884
        3888
        3892
        3896
        3900
        3904
        3908
        3912
        3916
        3920
        3924
        3928
        3932
        3936
        3940
        3944
        3948
        3952
        3956
        3960
        3964
        3968
        3972
        3976
        3980
        3984
        3988
        3992
        3996
        4000
        4004
        4008
        4012
        4016
        4020
        4024
        4028
        4032
        4036
        4040
        4044
        4048
        4052
        4056
        4060
        4064
        4068
        4072
        4076
        4080
        4084
        4088
        4092
        4096
 </DataArray>
 <DataArray  type="UInt8"  Name="types"  format="ascii">
 9
 9
 9
 9
 9
 9
 9
 9
 9
 9
 9
 9
 9
 9
 9
 9
 9
 9
 9
 9
 9
 9
 9
 9
 9
 9
 9
 9
 9
 9
 9
 9
 9
 9
 9
 9
 9
 9
 9
 9
 9
 9
 9
 9
 9
 9
 9
 9
 9
 9
 9
 9
 9
 9
 9
 9
 9
 9
 9
 9
 9
 9
 9
 9
 9
 9
 9
 9
 9
 9
 9
 9
 9
 9
 9
 9
 9
 9
 9
 9
 9
 9
 9
 9
 9
 9
 9
 9
 9
 9
 9
 9
 9
 9
 9
 9
 9
 9
 9
 9
 9
 9
 9
 9
 9
 9
 9
 9
 9
 9
 9
 9
 9
 9
 9
 9
 9
 9
 9
 9
 9
 9
 9
 9
 9
 9
 9
 9
 9
 9
 9
 9
 9
 9
 9
 9
 9
 9
 9
 9
 9
 9
 9
 9
 9
 9
 9
 9
 9
 9
 9
 9
 9
 9
 9
 9
 9
 9
 9
 9
 9
 9
 9
 9
 9
 9
 9
 9
 9
 9
 9
 9
 9
 9
 9
 9
 9
 9
 9
 9
 9
 9
 9
 9
 9
 9
 9
 9
 9
 9
 9
 9
 9
 9
 9
 9
 9
 9
 9
 9
 9
 9
 9
 9
 9
 9
 9
 9
 9
 9
 9
 9
 9
 9
 9
 9
 9
 9
 9
 9
 9
 9
 9
 9
 9
 9
 9
 9
 9
 9
 9
 9
 9
 9
 9
 9
 9
 9
 9
 9
 9
 9
 9
 9
 9
 9
 9
 9
 9
 9
 9
 9
 9
 9
 9
 9
 9
 9
 9
 9
 9
 9
 9
 9
 9
 9
 9
 9
 9
 9
 9
 9
 9
 9
 9
 9
 9
 9
 9
 9
 9
 9
 9
 9
 9
 9
 9
 9
 9
 9
 9
 9
 9
 9
 9
 9
 9
 9
 9
 9
 9
 9
 9
 9
 9
 9
 9
 9
 9
 9
 9
 9
 9
 9
 9
 9
 9
 9
 9
 9
 9
 9
 9
 9
 9
 9
 9
 9
 9
 9
 9
 9
 9
 9
 9
 9
 9
 9
 9
 9
 9
 9
 9
 9
 9
 9
 9
 9
 9
 9
 9
 9
 9
 9
 9
 9
 9
 9
 9
 9
 9
 9
 9
 9
 9
 9
 9
 9
 9
 9
 9
 9
 9
 9
 9
 9
 9
 9
 9
 9
 9
 9
 9
 9
 9
 9
 9
 9
 9
 9
 9
 9
 9
 9
 9
 9
 9
 9
 9
 9
 9
 9
 9
 9
 9
 9
 9
 9
 9
 9
 9
 9
 9
 9
 9
 9
 9
 9
 9
 9
 9
 9
 9
 9
 9
 9
 9
 9
 9
 9
 9
 9
 9
 9
 9
 9
 9
 9
 9
 9
 9
 9
 9
 9
 9
 9
 9
 9
 9
 9
 9
 9
 9
 9
 9
 9
 9
 9
 9
 9
 9
 9
 9
 9
 9
 9
 9
 9
 9
 9
 9
 9
 9
 9
 9
 9
 9
 9
 9
 9
 9
 9
 9
 9
 9
 9
 9
 9
 9
 9
 9
 9
 9
 9
 9
 9
 9
 9
 9
 9
 9
 9
 9
 9
 9
 9
 9
 9
 9
 9
 9
 9
 9
 9
 9
 9
 9
 9
 9
 9
 9
 9
 9
 9
 9
 9
 9
 9
 9
 9
 9
 9
 9
 9
 9
 9
 9
 9
 9
 9
 9
 9
 9
 9
 9
 9
 9
 9
 9
 9
 9
 9
 9
 9
 9
 9
 9
 9
 9
 9
 9
 9
 9
 9
 9
 9
 9
 9
 9
 9
 9
 9
 9
 9
 9
 9
 9
 9
 9
 9
 9
 9
 9
 9
 9
 9
 9
 9
 9
 9
 9
 9
 9
 9
 9
 9
 9
 9
 9
 9
 9
 9
 9
 9
 9
 9
 9
 9
 9
 9
 9
 9
 9
 9
 9
 9
 9
 9
 9
 9
 9
 9
 9
 9
 9
 9
 9
 9
 9
 9
 9
 9
 9
 9
 9
 9
 9
 9
 9
 9
 9
 9
 9
 9
 9
 9
 9
 9
 9
 9
 9
 9
 9
 9
 9
 9
 9
 9
 9
 9
 9
 9
 9
 9
 9
 9
 9
 9
 9
 9
 9
 9
 9
 9
 9
 9
 9
 9
 9
 9
 9
 9
 9
 9
 9
 9
 9
 9
 9
 9
 9
 9
 9
 9
 9
 9
 9
 9
 9
 9
 9
 9
 9
 9
 9
 9
 9
 9
 9
 9
 9
 9
 9
 9
 9
 9
 9
 9
 9
 9
 9
 9
 9
 9
 9
 9
 9
 9
 9
 9
 9
 9
 9
 9
 9
 9
 9
 9
 9
 9
 9
 9
 9
 9
 9
 9
 9
 9
 9
 9
 9
 9
 9
 9
 9
 9
 9
 9
 9
 9
 9
 9
 9
 9
 9
 9
 9
 9
 9
 9
 9
 9
 9
 9
 9
 9
 9
 9
 9
 9
 9
 9
 9
 9
 9
 9
 9
 9
 9
 9
 9
 9
 9
 9
 9
 9
 9
 9
 9
 9
 9
 9
 9
 9
 9
 9
 9
 9
 9
 9
 9
 9
 9
 9
 9
 9
 9
 9
 9
 9
 9
 9
 9
 9
 9
 9
 9
 9
 9
 9
 9
 9
 9
 9
 9
 9
 9
 9
 9
 9
 9
 9
 9
 9
 9
 9
 9
 9
 9
 9
 9
 9
 9
 9
 9
 9
 9
 9
 9
 9
 9
 9
 9
 9
 9
 9
 9
 9
 9
 9
 9
 9
 9
 9
 9
 9
 9
 9
 9
 9
 9
 9
 9
 9
 9
 9
 9
 9
 9
 9
 9
 9
 9
 9
 9
 9
 9
 9
 9
 9
 9
 9
 9
 9
 9
 9
 9
 9
 9
 9
 9
 9
 9
 9
 9
 9
 9
 9
 9
 9
 9
 9
 9
 9
 9
 9
 9
 9
 9
 9
 9
 9
 9
 9
 9
 9
 9
 9
 9
 9
 9
 9
 9
 9
 9
 9
 9
 9
 9
 9
 9
 9
 9
 9
 9
 9
 9
 9
 9
 9
 9
 9
 9
 9
 9
 9
 9
 9
 9
 9
 9
 9
 9
 9
 9
 9
 9
 9
 9
 9
 9
 9
 9
 9
 9
 9
 9
 9
 9
 9
 9
 9
 9
 9
 9
 9
 9
 9
 9
 9
 9
 9
 9
 9
 9
 9
 9
 9
 9
 9
 9
 9
 9
 9
 9
 9
 9
 9
 9
 9
 9
 9
 9
 9
 </DataArray>
 </Cells> 
 <PointData>
 <DataArray  type="Float64" Name="disp" NumberOfComponents="3" format="ascii">
   0.0000000000000000        0.0000000000000000        0.0000000000000000     
   6.0975086731481975E-003   3.7906006057475028E-003   0.0000000000000000     
   1.1667988737554782E-002   7.3251557451022714E-003   0.0000000000000000     
   1.6711440193219754E-002   1.0603665418064305E-002   0.0000000000000000     
   2.1227863040143111E-002   1.3626129624633606E-002   0.0000000000000000     
   0.0000000000000000        0.0000000000000000        0.0000000000000000     
   4.8915694455534103E-003   3.0226417152062739E-003   0.0000000000000000     
   9.5740067255818250E-003   6.0622601402476016E-003   0.0000000000000000     
   1.4047311840085244E-002   9.1188552751239847E-003   0.0000000000000000     
   1.8311484789063671E-002   1.2192427119835422E-002   0.0000000000000000     
   0.0000000000000000        0.0000000000000000        0.0000000000000000     
   3.9532633498752228E-003   2.4258782678585437E-003   0.0000000000000000     
   7.9100033369137769E-003   5.0648913379301892E-003   0.0000000000000000     
   1.1870219961115661E-002   7.9170392102149365E-003   0.0000000000000000     
   1.5833913222480879E-002   1.0982321884712787E-002   0.0000000000000000     
   0.0000000000000000        0.0000000000000000        0.0000000000000000     
   3.2825903861136360E-003   2.0003102637043127E-003   0.0000000000000000     
   6.6759785715506375E-003   4.3330493381500343E-003   0.0000000000000000     
   1.0180164556311003E-002   6.9982172233371649E-003   0.0000000000000000     
   1.3795148340394737E-002   9.9958139192657045E-003   0.0000000000000000     
   0.0000000000000000        0.0000000000000000        0.0000000000000000     
   2.8795505542686495E-003   1.7459377027435803E-003   0.0000000000000000     
   5.8719324294924068E-003   3.8667341409071355E-003   0.0000000000000000     
   8.9771456256712723E-003   6.3623893144906657E-003   0.0000000000000000     
   1.2195190142805245E-002   9.2329032234941717E-003   0.0000000000000000     
   2.1227863040143111E-002   1.3626129624633606E-002   0.0000000000000000     
   2.5431252023626449E-002   1.6621885094777078E-002   0.0000000000000000     
   2.9535601888971367E-002   1.9820268558461637E-002   0.0000000000000000     
   3.3540912636177866E-002   2.3221280015687275E-002   0.0000000000000000     
   3.7447184265245931E-002   2.6824919466453996E-002   0.0000000000000000     
   1.8311484789063671E-002   1.2192427119835422E-002   0.0000000000000000     
   2.2405150011204127E-002   1.5350429527585422E-002   0.0000000000000000     
   2.6366931945193649E-002   1.8660316351577493E-002   0.0000000000000000     
   3.0196830591032231E-002   2.2122087591811640E-002   0.0000000000000000     
   3.3894845948719873E-002   2.5735743248287861E-002   0.0000000000000000     
   1.5833913222480879E-002   1.0982321884712787E-002   0.0000000000000000     
   1.9729265757400326E-002   1.4219053502661094E-002   0.0000000000000000     
   2.3484460202264901E-002   1.7585548205297209E-002   0.0000000000000000     
   2.7099496557074616E-002   2.1081805992621137E-002   0.0000000000000000     
   3.0574374821829460E-002   2.4707826864632871E-002   0.0000000000000000     
   1.3795148340394737E-002   9.9958139192657045E-003   0.0000000000000000     
   1.7403599262215044E-002   1.3227757020004092E-002   0.0000000000000000     
   2.0888186660185135E-002   1.6595964119620780E-002   0.0000000000000000     
   2.4248910534305019E-002   2.0100435218115765E-002   0.0000000000000000     
   2.7485770884574684E-002   2.3741170315489037E-002   0.0000000000000000     
   1.2195190142805245E-002   9.2329032234941717E-003   0.0000000000000000     
   1.5428150525648283E-002   1.2376540079614428E-002   0.0000000000000000     
   1.8578111318954347E-002   1.5691564094548211E-002   0.0000000000000000     
   2.1645072522723432E-002   1.9177975268295518E-002   0.0000000000000000     
   2.4629034136955549E-002   2.2835773600856358E-002   0.0000000000000000     
   3.7447184265245931E-002   2.6824919466453996E-002   0.0000000000000000     
   4.1254738255486409E-002   3.0630971625644779E-002   0.0000000000000000     
   4.4963896086210098E-002   3.4639221208142591E-002   0.0000000000000000     
   4.8574657757417004E-002   3.8849668213947447E-002   0.0000000000000000     
   5.2087023269107136E-002   4.3262312643059339E-002   0.0000000000000000     
   3.3894845948719873E-002   2.5735743248287861E-002   0.0000000000000000     
   3.7481486844107820E-002   2.9534030209937469E-002   0.0000000000000000     
   4.0977262103047293E-002   3.3549695365691794E-002   0.0000000000000000     
   4.4382171725538301E-002   3.7782738715550823E-002   0.0000000000000000     
   4.7696215711580843E-002   4.2233160259514568E-002   0.0000000000000000     
   3.0574374821829460E-002   2.4707826864632871E-002   0.0000000000000000     
   3.3937051231168892E-002   2.8511119011294692E-002   0.0000000000000000     
   3.7215482019732370E-002   3.2539190622568881E-002   0.0000000000000000     
   4.0409667187519892E-002   3.6792041698455430E-002   0.0000000000000000     
   4.3519606734531466E-002   4.1269672238954336E-002   0.0000000000000000     
   2.7485770884574684E-002   2.3741170315489037E-002   0.0000000000000000     
   3.0621431416669623E-002   2.7562238029716454E-002   0.0000000000000000     
   3.3678555836265327E-002   3.1607706978773860E-002   0.0000000000000000     
   3.6657144143361790E-002   3.5877577162661260E-002   0.0000000000000000     
   3.9557196337959011E-002   4.0371848581378642E-002   0.0000000000000000     
   2.4629034136955549E-002   2.2835773600856358E-002   0.0000000000000000     
   2.7534627400610013E-002   2.6687387265202752E-002   0.0000000000000000     
   3.0366483552646161E-002   3.0755244434306737E-002   0.0000000000000000     
   3.3124602593063976E-002   3.5039345108168307E-002   0.0000000000000000     
   3.5808984521863485E-002   3.9539689286787465E-002   0.0000000000000000     
   5.2087023269107136E-002   4.3262312643059339E-002   0.0000000000000000     
   5.5491856326308334E-002   4.7865996213159359E-002   0.0000000000000000     
   5.8780020634048434E-002   5.2649560641928619E-002   0.0000000000000000     
   6.1951516192327444E-002   5.7613005929367120E-002   0.0000000000000000     
   6.5006343001145370E-002   6.2756332075474860E-002   0.0000000000000000     
   4.7696215711580843E-002   4.2233160259514568E-002   0.0000000000000000     
   5.0918180970193787E-002   4.6878909967721781E-002   0.0000000000000000     
   5.4046854410396021E-002   5.1697937810311199E-002   0.0000000000000000     
   5.7082236032187525E-002   5.6690243787282830E-002   0.0000000000000000     
   6.0024325835568326E-002   6.1855827898636667E-002   0.0000000000000000     
   4.3519606734531466E-002   4.1269672238954336E-002   0.0000000000000000     
   4.6549588383887071E-002   4.5945815352018637E-002   0.0000000000000000     
   4.9503899858706721E-002   5.0794204145601374E-002   0.0000000000000000     
   5.2382541158990416E-002   5.5814838619702503E-002   0.0000000000000000     
   5.5185512284738135E-002   6.1007718774322067E-002   0.0000000000000000     
   3.9557196337959011E-002   4.0371848581378642E-002   0.0000000000000000     
   4.2386078567388200E-002   4.5066712366049949E-002   0.0000000000000000     
   4.5151156978980575E-002   4.9938359647799122E-002   0.0000000000000000     
   4.7852431572736102E-002   5.4986790426626166E-002   0.0000000000000000     
   5.0489902348654810E-002   6.0212004702531054E-002   0.0000000000000000     
   3.5808984521863485E-002   3.9539689286787465E-002   0.0000000000000000     
   3.8427651520697166E-002   4.4241601009815702E-002   0.0000000000000000     
   4.0988625771217542E-002   4.9130404316904477E-002   0.0000000000000000     
   4.3491907273424599E-002   5.4206099208053783E-002   0.0000000000000000     
   4.5937496027318343E-002   5.9468685683263640E-002   0.0000000000000000     
   6.5006343001145370E-002   6.2756332075474860E-002   0.0000000000000000     
   6.7971657017883838E-002   6.8086644560358206E-002   0.0000000000000000     
   7.0874614199924482E-002   7.3611048864123590E-002   0.0000000000000000     
   7.3715214547267288E-002   7.9329544986770958E-002   0.0000000000000000     
   7.6493458059912270E-002   8.5242132928300351E-002   0.0000000000000000     
   6.0024325835568326E-002   6.1855827898636667E-002   0.0000000000000000     
   6.2878491631671932E-002   6.7207360815162348E-002   0.0000000000000000     
   6.5650101231631855E-002   7.2757513207649505E-002   0.0000000000000000     
   6.8339154635448124E-002   7.8506285076098151E-002   0.0000000000000000     
   7.0945651843120711E-002   8.4453676420508245E-002   0.0000000000000000     
   5.5185512284738135E-002   6.1007718774322067E-002   0.0000000000000000     
   5.7903423983091513E-002   6.6386796022362998E-002   0.0000000000000000     
   6.0526887001192159E-002   7.1966021776728270E-002   0.0000000000000000     
   6.3055901339040085E-002   7.7745396037417883E-002   0.0000000000000000     
   6.5490466996635285E-002   8.3724918804431808E-002   0.0000000000000000     
   5.0489902348654810E-002   6.0212004702531054E-002   0.0000000000000000     
   5.3046454072142604E-002   6.5624950181960198E-002   0.0000000000000000     
   5.5504971508605401E-002   7.1236574571359901E-002   0.0000000000000000     
   5.7865454658043214E-002   7.7046877870730196E-002   0.0000000000000000     
   6.0127903520456015E-002   8.3055860080071070E-002   0.0000000000000000     
   4.5937496027318343E-002   5.9468685683263640E-002   0.0000000000000000     
   4.8307581898825190E-002   6.4921823293953893E-002   0.0000000000000000     
   5.0584354753871567E-002   7.0569171591544369E-002   0.0000000000000000     
   5.2767814592457454E-002   7.6410730576035077E-002   0.0000000000000000     
   5.4857961414582886E-002   8.2446500247426016E-002   0.0000000000000000     
   7.6493458059912270E-002   8.5242132928300351E-002   0.0000000000000000     
   7.9183925496420768E-002   9.1352049741993319E-002   0.0000000000000000     
   8.1761197615354123E-002   9.7662532481131381E-002   0.0000000000000000     
   8.4225274416712306E-002  0.10417358114571457        0.0000000000000000     
   8.6576155900495361E-002  0.11088519573574288        0.0000000000000000     
   7.0945651843120711E-002   8.4453676420508245E-002   0.0000000000000000     
   7.3460920619763476E-002   9.0599281253507816E-002   0.0000000000000000     
   7.5876288730490293E-002   9.6942693587724824E-002   0.0000000000000000     
   7.8191756175301122E-002  0.10348391342315931        0.0000000000000000     
   8.0407322954196003E-002  0.11022294075981121        0.0000000000000000     
   6.5490466996635285E-002   8.3724918804431808E-002   0.0000000000000000     
   6.7833817322846796E-002   8.9900962161996667E-002   0.0000000000000000     
   7.0089185666543666E-002   9.6269898194339010E-002   0.0000000000000000     
   7.2256572027725896E-002  0.10283172690145889        0.0000000000000000     
   7.4335976406393500E-002  0.10958644828335627        0.0000000000000000     
   6.0127903520456015E-002   8.3055860080071070E-002   0.0000000000000000     
   6.2302615605670734E-002   8.9257092467459900E-002   0.0000000000000000     
   6.4399888423514268E-002   9.5644146300973995E-002   0.0000000000000000     
   6.6419721973986642E-002  0.10221702158061338        0.0000000000000000     
   6.8362116257087824E-002  0.10897571830637805        0.0000000000000000     
   5.4857961414582886E-002   8.2446500247426016E-002   0.0000000000000000     
   5.6867315468235272E-002   8.8667672169897460E-002   0.0000000000000000     
   5.8808397001402099E-002   9.5065437907629696E-002   0.0000000000000000     
   6.0681206014083340E-002  0.10163979746062271        0.0000000000000000     
   6.2485742506279009E-002  0.10839075082887656        0.0000000000000000     
   8.6576155900495361E-002  0.11088519573574288        0.0000000000000000     
   8.8777602464068850E-002  0.11774137920553081        0.0000000000000000     
   9.0793374504798352E-002  0.12468613450939288        0.0000000000000000     
   9.2623472022683881E-002  0.13171946164732906        0.0000000000000000     
   9.4267895017725423E-002  0.13884136061933933        0.0000000000000000     
   8.0407322954196003E-002  0.11022294075981121        0.0000000000000000     
   8.2521751419607547E-002  0.11710942179141370        0.0000000000000000     
   8.4533803923968420E-002  0.12409300271169986        0.0000000000000000     
   8.6443480467278636E-002  0.13117368352066974        0.0000000000000000     
   8.8250781049538152E-002  0.13835146421832328        0.0000000000000000     
   7.4335976406393500E-002  0.10958644828335627        0.0000000000000000     
   7.6348292107039917E-002  0.11649113933240636        0.0000000000000000     
   7.8314412434158612E-002  0.12350287704098438        0.0000000000000000     
   8.0234337387749613E-002  0.13062166140909040        0.0000000000000000     
   8.2108066967812934E-002  0.13784749243672431        0.0000000000000000     
   6.8362116257087824E-002  0.10897571830637805        0.0000000000000000     
   7.0257224526365888E-002  0.11588653182850882        0.0000000000000000     
   7.2135200035368885E-002  0.12291575749724647        0.0000000000000000     
   7.3996042784096855E-002  0.13006339531259101        0.0000000000000000     
   7.5839752772549729E-002  0.13732944527454244        0.0000000000000000     
   6.2485742506279009E-002  0.10839075082887656        0.0000000000000000     
   6.4248548677585518E-002  0.11529559927972105        0.0000000000000000     
   6.5996166727599281E-002  0.12233164408048607        0.0000000000000000     
   6.7728596656320306E-002  0.12949888523117159        0.0000000000000000     
   6.9445838463748577E-002  0.13679732273177767        0.0000000000000000     
   9.4267895017725423E-002  0.13884136061933933        0.0000000000000000     
   9.5605251845428174E-002  0.14579817117099408        0.0000000000000000     
   9.6514150861297290E-002  0.15233623304786359        0.0000000000000000     
   9.6994592065332785E-002  0.15845554624994782        0.0000000000000000     
   9.7046575457534645E-002  0.16415611077724684        0.0000000000000000     
   8.8250781049538152E-002  0.13835146421832328        0.0000000000000000     
   8.9839838669016125E-002  0.14543010016141311        0.0000000000000000     
   9.1094786323981602E-002  0.15221334670669179        0.0000000000000000     
   9.2015624014434624E-002  0.15870120385415928        0.0000000000000000     
   9.2602351740375205E-002  0.16489367160381566        0.0000000000000000     
   8.2108066967812934E-002  0.13784749243672431        0.0000000000000000     
   8.3825653116899962E-002  0.14503192479784716        0.0000000000000000     
   8.5277147777562082E-002  0.15202651316641985        0.0000000000000000     
   8.6462550949799363E-002  0.15883125754244246        0.0000000000000000     
   8.7381862633611765E-002  0.16544615792591486        0.0000000000000000     
   7.5839752772549729E-002  0.13732944527454244        0.0000000000000000     
   7.7562695189079656E-002  0.14460364508029624        0.0000000000000000     
   7.9061235222038728E-002  0.15177573242704781        0.0000000000000000     
   8.0335372871426933E-002  0.15884570731479725        0.0000000000000000     
   8.1385108137244311E-002  0.16581356974354444        0.0000000000000000     
   6.9445838463748577E-002  0.13679732273177767        0.0000000000000000     
   7.1050964885555262E-002  0.14414526100876032        0.0000000000000000     
   7.2447048657411542E-002  0.15146100448857566        0.0000000000000000     
   7.3634089779317388E-002  0.15874455317122371        0.0000000000000000     
   7.4612088251272815E-002  0.16599590705670442        0.0000000000000000     
   0.0000000000000000        0.0000000000000000        0.0000000000000000     
   2.8795505542686495E-003   1.7459377027435803E-003   0.0000000000000000     
   5.8719324294924068E-003   3.8667341409071355E-003   0.0000000000000000     
   8.9771456256712723E-003   6.3623893144906657E-003   0.0000000000000000     
   1.2195190142805245E-002   9.2329032234941717E-003   0.0000000000000000     
   0.0000000000000000        0.0000000000000000        0.0000000000000000     
   2.6100713325805701E-003   1.5900633772393496E-003   0.0000000000000000     
   5.2895115143768330E-003   3.5586213687441390E-003   0.0000000000000000     
   8.0383205453887913E-003   5.9056739745143695E-003   0.0000000000000000     
   1.0856498425616441E-002   8.6312211945500390E-003   0.0000000000000000     
   0.0000000000000000        0.0000000000000000        0.0000000000000000     
   2.3400801992897037E-003   1.4599900794546232E-003   0.0000000000000000     
   4.7203624298416662E-003   3.3013866442036903E-003   0.0000000000000000     
   7.1408466916558846E-003   5.5241896942472011E-003   0.0000000000000000     
   9.6015329847323593E-003   8.1283992295851544E-003   0.0000000000000000     
   0.0000000000000000        0.0000000000000000        0.0000000000000000     
   2.0695771543960502E-003   1.3557178093894018E-003   0.0000000000000000     
   4.1644851758869022E-003   3.0950299672857892E-003   0.0000000000000000     
   6.2847240644725551E-003   5.2179364736891628E-003   0.0000000000000000     
   8.4302938201530064E-003   7.7244373285995224E-003   0.0000000000000000     
   0.0000000000000000        0.0000000000000000        0.0000000000000000     
   1.7985621978996104E-003   1.2772465670436843E-003   0.0000000000000000     
   3.6218797525125442E-003   2.9395513379904350E-003   0.0000000000000000     
   5.4699526638388009E-003   4.9869143128402531E-003   0.0000000000000000     
   7.3427809318783802E-003   7.4193354915931368E-003   0.0000000000000000     
   1.2195190142805245E-002   9.2329032234941717E-003   0.0000000000000000     
   1.5428150525648283E-002   1.2376540079614428E-002   0.0000000000000000     
   1.8578111318954347E-002   1.5691564094548211E-002   0.0000000000000000     
   2.1645072522723432E-002   1.9177975268295518E-002   0.0000000000000000     
   2.4629034136955549E-002   2.2835773600856358E-002   0.0000000000000000     
   1.0856498425616441E-002   8.6312211945500390E-003   0.0000000000000000     
   1.3690700804120664E-002   1.1653684984610896E-002   0.0000000000000000     
   1.6487583329962335E-002   1.4891487300456680E-002   0.0000000000000000     
   1.9247146003141459E-002   1.8344628142087399E-002   0.0000000000000000     
   2.1969388823658037E-002   2.2013107509503048E-002   0.0000000000000000     
   9.6015329847323593E-003   8.1283992295851544E-003   0.0000000000000000     
   1.2079031354052803E-002   1.1047474038112300E-002   0.0000000000000000     
   1.4549951844598914E-002   1.4214872907723377E-002   0.0000000000000000     
   1.7014294456370690E-002   1.7630595838418386E-002   0.0000000000000000     
   1.9472059189368143E-002   2.1294642830197334E-002   0.0000000000000000     
   8.4302938201530064E-003   7.7244373285995224E-003   0.0000000000000000     
   1.0593142175444700E-002   1.0557907240118642E-002   0.0000000000000000     
   1.2765216862864075E-002   1.3661720916348298E-002   0.0000000000000000     
   1.4946517882411126E-002   1.7035878357288488E-002   0.0000000000000000     
   1.7137045234085858E-002   2.0680379562939211E-002   0.0000000000000000     
   7.3427809318783802E-003   7.4193354915931368E-003   0.0000000000000000     
   9.2330332682963607E-003   1.0184984590629925E-002   0.0000000000000000     
   1.1133378384757822E-002   1.3232031326331441E-002   0.0000000000000000     
   1.3043816281262765E-002   1.6560475698697695E-002   0.0000000000000000     
   1.4964346957811190E-002   2.0170317707728685E-002   0.0000000000000000     
   2.4629034136955549E-002   2.2835773600856358E-002   0.0000000000000000     
   2.7534627400610013E-002   2.6687387265202752E-002   0.0000000000000000     
   3.0366483552646161E-002   3.0755244434306737E-002   0.0000000000000000     
   3.3124602593063976E-002   3.5039345108168307E-002   0.0000000000000000     
   3.5808984521863485E-002   3.9539689286787465E-002   0.0000000000000000     
   2.1969388823658037E-002   2.2013107509503048E-002   0.0000000000000000     
   2.4638772515813565E-002   2.5892919714576017E-002   0.0000000000000000     
   2.7239757803909539E-002   2.9980059069178677E-002   0.0000000000000000     
   2.9772344687945960E-002   3.4274525573311031E-002   0.0000000000000000     
   3.2236533167922819E-002   3.8776319226973083E-002   0.0000000000000000     
   1.9472059189368143E-002   2.1294642830197334E-002   0.0000000000000000     
   2.1896000095103785E-002   2.5185188374658673E-002   0.0000000000000000     
   2.4258871225090139E-002   2.9280406963400851E-002   0.0000000000000000     
   2.6560672579327198E-002   3.3580298596423870E-002   0.0000000000000000     
   2.8801404157814972E-002   3.8084863273727732E-002   0.0000000000000000     
   1.7137045234085858E-002   2.0680379562939211E-002   0.0000000000000000     
   1.9306310138480672E-002   2.4564193245450717E-002   0.0000000000000000     
   2.1423823816187949E-002   2.8656288116973253E-002   0.0000000000000000     
   2.3489586267207711E-002   3.2956664177506811E-002   0.0000000000000000     
   2.5503597491539937E-002   3.7465321427051404E-002   0.0000000000000000     
   1.4964346957811190E-002   2.0170317707728685E-002   0.0000000000000000     
   1.6869702645944219E-002   2.4029934326952163E-002   0.0000000000000000     
   1.8734615577202983E-002   2.8107702529895893E-002   0.0000000000000000     
   2.0559085751587484E-002   3.2403622316559882E-002   0.0000000000000000     
   2.2343113169097716E-002   3.6917693686944114E-002   0.0000000000000000     
   3.5808984521863485E-002   3.9539689286787465E-002   0.0000000000000000     
   3.8427651520697166E-002   4.4241601009815702E-002   0.0000000000000000     
   4.0988625771217542E-002   4.9130404316904477E-002   0.0000000000000000     
   4.3491907273424599E-002   5.4206099208053783E-002   0.0000000000000000     
   4.5937496027318343E-002   5.9468685683263640E-002   0.0000000000000000     
   3.2236533167922819E-002   3.8776319226973083E-002   0.0000000000000000     
   3.4639285616898371E-002   4.3480966949823813E-002   0.0000000000000000     
   3.6987564407930856E-002   4.8383995661522218E-002   0.0000000000000000     
   3.9281369541020267E-002   5.3485405362068278E-002   0.0000000000000000     
   4.1520701016166596E-002   5.8785196051461992E-002   0.0000000000000000     
   2.8801404157814972E-002   3.8084863273727732E-002   0.0000000000000000     
   3.0985959229076220E-002   4.2795295852582224E-002   0.0000000000000000     
   3.3119231061633725E-002   4.7712791190257162E-002   0.0000000000000000     
   3.5201219655487455E-002   5.2837349286752523E-002   0.0000000000000000     
   3.7231925010637441E-002   5.8168970142068309E-002   0.0000000000000000     
   2.5503597491539937E-002   3.7465321427051404E-002   0.0000000000000000     
   2.7467672357230723E-002   4.2184587718090923E-002   0.0000000000000000     
   2.9383625732326137E-002   4.7116790903109301E-002   0.0000000000000000     
   3.1251457616826191E-002   5.2261930982106533E-002   0.0000000000000000     
   3.3071168010730859E-002   5.7620007955082583E-002   0.0000000000000000     
   2.2343113169097716E-002   3.6917693686944114E-002   0.0000000000000000     
   2.4084425001361865E-002   4.1648842546349929E-002   0.0000000000000000     
   2.5780748420008107E-002   4.6595994800078658E-002   0.0000000000000000     
   2.7432083425036443E-002   5.1759150448130294E-002   0.0000000000000000     
   2.9038430016446876E-002   5.7138309490504829E-002   0.0000000000000000     
   4.5937496027318343E-002   5.9468685683263640E-002   0.0000000000000000     
   4.8307581898825190E-002   6.4921823293953893E-002   0.0000000000000000     
   5.0584354753871567E-002   7.0569171591544369E-002   0.0000000000000000     
   5.2767814592457454E-002   7.6410730576035077E-002   0.0000000000000000     
   5.4857961414582886E-002   8.2446500247426016E-002   0.0000000000000000     
   4.1520701016166596E-002   5.8785196051461992E-002   0.0000000000000000     
   4.3690639118763419E-002   6.4278469949378816E-002   0.0000000000000000     
   4.5776264134204311E-002   6.9960329275494185E-002   0.0000000000000000     
   4.7777576062489231E-002   7.5830774029808090E-002   0.0000000000000000     
   4.9694574903618220E-002   8.1889804212320505E-002   0.0000000000000000     
   3.7231925010637441E-002   5.8168970142068309E-002   0.0000000000000000     
   3.9199457387581453E-002   6.3695944739269705E-002   0.0000000000000000     
   4.1091927046817273E-002   6.9406564061421885E-002   0.0000000000000000     
   4.2909333988344914E-002   7.5300828108524787E-002   0.0000000000000000     
   4.4651678212164356E-002   8.1378736880578492E-002   0.0000000000000000     
   3.3071168010730859E-002   5.7620007955082583E-002   0.0000000000000000     
   3.4834036705279257E-002   6.3174247663626545E-002   0.0000000000000000     
   3.6531343491710458E-002   6.8907875949327416E-002   0.0000000000000000     
   3.8163088370024474E-002   7.4820892812185180E-002   0.0000000000000000     
   3.9729271340221292E-002   8.0913298252199908E-002   0.0000000000000000     
   2.9038430016446876E-002   5.7138309490504829E-002   0.0000000000000000     
   3.0594377071856867E-002   6.2713378722449323E-002   0.0000000000000000     
   3.2094513468883888E-002   6.8464264939210831E-002   0.0000000000000000     
   3.3538839207527933E-002   7.4390968140789326E-002   0.0000000000000000     
   3.4927354287789016E-002   8.0493488327184809E-002   0.0000000000000000     
   5.4857961414582886E-002   8.2446500247426016E-002   0.0000000000000000     
   5.6867315468235272E-002   8.8667672169897460E-002   0.0000000000000000     
   5.8808397001402099E-002   9.5065437907629696E-002   0.0000000000000000     
   6.0681206014083340E-002  0.10163979746062271        0.0000000000000000     
   6.2485742506279009E-002  0.10839075082887656        0.0000000000000000     
   4.9694574903618220E-002   8.1889804212320505E-002   0.0000000000000000     
   5.1539159581788806E-002   8.8126924572125953E-002   0.0000000000000000     
   5.3323229021198515E-002   9.4531639858318875E-002   0.0000000000000000     
   5.5046783221847369E-002  0.10110395007089931        0.0000000000000000     
   5.6709822183735346E-002  0.10784385520986721        0.0000000000000000     
   4.4651678212164356E-002   8.1378736880578492E-002   0.0000000000000000     
   4.6329390617579666E-002   8.7629072976961972E-002   0.0000000000000000     
   4.7952902103894912E-002   9.4040618997054293E-002   0.0000000000000000     
   4.9522212671110080E-002  0.10061337494085544        0.0000000000000000     
   5.1037322319225170E-002  0.10734734080836543        0.0000000000000000     
   3.9729271340221292E-002   8.0913298252199908E-002   0.0000000000000000     
   4.1238008575607901E-002   8.7174117384405489E-002   0.0000000000000000     
   4.2697416249491298E-002   9.3592375323835908E-002   0.0000000000000000     
   4.4107494361871488E-002  0.10016807207049114        0.0000000000000000     
   4.5468242912748466E-002  0.10690120762437118        0.0000000000000000     
   3.4927354287789016E-002   8.0493488327184809E-002   0.0000000000000000     
   3.6265013455873477E-002   8.6762057794456532E-002   0.0000000000000000     
   3.7556771457987664E-002   9.3186908838663721E-002   0.0000000000000000     
   3.8802628294131579E-002   9.9768041459806375E-002   0.0000000000000000     
   4.0002583964305220E-002  0.10650545565788448        0.0000000000000000     
   6.2485742506279009E-002  0.10839075082887656        0.0000000000000000     
   6.4248548677585518E-002  0.11529559927972105        0.0000000000000000     
   6.5996166727599281E-002  0.12233164408048607        0.0000000000000000     
   6.7728596656320306E-002  0.12949888523117159        0.0000000000000000     
   6.9445838463748577E-002  0.13679732273177767        0.0000000000000000     
   5.6709822183735346E-002  0.10784385520986721        0.0000000000000000     
   5.8329886887823798E-002  0.11473937851464908        0.0000000000000000     
   5.9924518315074046E-002  0.12177854322467135        0.0000000000000000     
   6.1493716465486077E-002  0.12896134933993403        0.0000000000000000     
   6.3037481339059898E-002  0.13628779686043715        0.0000000000000000     
   5.1037322319225170E-002  0.10734734080836543        0.0000000000000000     
   5.2508861484205770E-002  0.11423890636189889        0.0000000000000000     
   5.3947460602017480E-002  0.12128446136377050        0.0000000000000000     
   5.5353119672660288E-002  0.12848400581398026        0.0000000000000000     
   5.6725838696134193E-002  0.13583753971252818        0.0000000000000000     
   4.5468242912748466E-002  0.10690120762437118        0.0000000000000000     
   4.6785472466731419E-002  0.11379418282147048        0.0000000000000000     
   4.8064993588429562E-002  0.12084939849778352        0.0000000000000000     
   4.9306806277842889E-002  0.12806685465331025        0.0000000000000000     
   5.0510910534971414E-002  0.13544655128805075        0.0000000000000000     
   4.0002583964305220E-002  0.10650545565788448        0.0000000000000000     
   4.1159719835400753E-002  0.11340520789336388        0.0000000000000000     
   4.2277117274310320E-002  0.12047335462671042        0.0000000000000000     
   4.3354776281033930E-002  0.12770989585792403        0.0000000000000000     
   4.4392696855571581E-002  0.13511483158700477        0.0000000000000000     
   6.9445838463748577E-002  0.13679732273177767        0.0000000000000000     
   7.1050964885555262E-002  0.14414526100876032        0.0000000000000000     
   7.2447048657411542E-002  0.15146100448857566        0.0000000000000000     
   7.3634089779317388E-002  0.15874455317122371        0.0000000000000000     
   7.4612088251272815E-002  0.16599590705670442        0.0000000000000000     
   6.3037481339059898E-002  0.13628779686043715        0.0000000000000000     
   6.4466768313878861E-002  0.14369345285656765        0.0000000000000000     
   6.5692532768026252E-002  0.15111388439871240        0.0000000000000000     
   6.6714774701502069E-002  0.15854909148687149        0.0000000000000000     
   6.7533494114306342E-002  0.16599907412104484        0.0000000000000000     
   5.6725838696134193E-002  0.13583753971252818        0.0000000000000000     
   5.7986411581602518E-002  0.14328490089704640        0.0000000000000000     
   5.9055632238228586E-002  0.15076592720516710        0.0000000000000000     
   5.9933500666012385E-002  0.15828061863689019        0.0000000000000000     
   6.0620016864953920E-002  0.16582897519221576        0.0000000000000000     
   5.0510910534971414E-002  0.13544655128805075        0.0000000000000000     
   5.1609894688726253E-002  0.14291960513019664        0.0000000000000000     
   5.2536347068018553E-002  0.15041713290793965        0.0000000000000000     
   5.3290267672848307E-002  0.15793913462127984        0.0000000000000000     
   5.3871656503215529E-002  0.16548561027021719        0.0000000000000000     
   4.4392696855571581E-002  0.13511483158700477        0.0000000000000000     
   4.5337217635250067E-002  0.14259756555601824        0.0000000000000000     
   4.6134677257396152E-002  0.15006750150703016        0.0000000000000000     
   4.6785075722009864E-002  0.15752463944004041        0.0000000000000000     
   4.7288413029091182E-002  0.16496897935504912        0.0000000000000000     
   0.0000000000000000        0.0000000000000000        0.0000000000000000     
   1.7985621978996104E-003   1.2772465670436843E-003   0.0000000000000000     
   3.6218797525125442E-003   2.9395513379904350E-003   0.0000000000000000     
   5.4699526638388009E-003   4.9869143128402531E-003   0.0000000000000000     
   7.3427809318783802E-003   7.4193354915931368E-003   0.0000000000000000     
   0.0000000000000000        0.0000000000000000        0.0000000000000000     
   1.5353126570017274E-003   1.2175819630818295E-003   0.0000000000000000     
   3.0999345078786236E-003   2.8205984027037103E-003   0.0000000000000000     
   4.6938655526306879E-003   4.8090493188656424E-003   0.0000000000000000     
   6.3171057912579211E-003   7.1829347115676271E-003   0.0000000000000000     
   0.0000000000000000        0.0000000000000000        0.0000000000000000     
   1.2881058589037458E-003   1.1697296081681946E-003   0.0000000000000000     
   2.6060377901451744E-003   2.7238188078116945E-003   0.0000000000000000     
   3.9537957937242837E-003   4.6622675989305001E-003   0.0000000000000000     
   5.3313798696410760E-003   6.9850759815246110E-003   0.0000000000000000     
   0.0000000000000000        0.0000000000000000        0.0000000000000000     
   1.0569418036056658E-003   1.1336895023027803E-003   0.0000000000000000     
   2.1401895993121952E-003   2.6492125533143888E-003   0.0000000000000000     
   3.2497433871195879E-003   4.5465691530348256E-003   0.0000000000000000     
   4.3856031670278448E-003   6.8257593014640905E-003   0.0000000000000000     
   0.0000000000000000        0.0000000000000000        0.0000000000000000     
   8.4182049110748699E-004   1.1094616454855862E-003   0.0000000000000000     
   1.7023899353796872E-003   2.5967796392117929E-003   0.0000000000000000     
   2.5817083328166005E-003   4.4619539811786195E-003   0.0000000000000000     
   3.4797756834182274E-003   6.7049846713860663E-003   0.0000000000000000     
   7.3427809318783802E-003   7.4193354915931368E-003   0.0000000000000000     
   9.2330332682963607E-003   1.0184984590629925E-002   0.0000000000000000     
   1.1133378384757822E-002   1.3232031326331441E-002   0.0000000000000000     
   1.3043816281262765E-002   1.6560475698697695E-002   0.0000000000000000     
   1.4964346957811190E-002   2.0170317707728685E-002   0.0000000000000000     
   6.3171057912579211E-003   7.1829347115676271E-003   0.0000000000000000     
   7.9573380026062811E-003   9.8930223485928833E-003   0.0000000000000000     
   9.6022449655217296E-003   1.2890079997724631E-002   0.0000000000000000     
   1.1251826680004261E-002   1.6174107658962874E-002   0.0000000000000000     
   1.2906083146053880E-002   1.9745105332307604E-002   0.0000000000000000     
   5.3313798696410760E-003   6.9850759815246110E-003   0.0000000000000000     
   6.7246897483729633E-003   9.6463367729542632E-003   0.0000000000000000     
   8.1196251603973604E-003   1.2600142790579683E-002   0.0000000000000000     
   9.5161861057142649E-003   1.5846494034400874E-002   0.0000000000000000     
   1.0914372584323677E-002   1.9385390504417843E-002   0.0000000000000000     
   4.3856031670278448E-003   6.8257593014640905E-003   0.0000000000000000     
   5.5350885055964073E-003   9.4449278637140574E-003   0.0000000000000000     
   6.6855189693847171E-003   1.2362219704896598E-002   0.0000000000000000     
   7.8368945583927770E-003   1.5577634825011710E-002   0.0000000000000000     
   8.9892152726205824E-003   1.9091173224059396E-002   0.0000000000000000     
   3.4797756834182274E-003   6.7049846713860663E-003   0.0000000000000000     
   4.3885342742766131E-003   9.2887956208722745E-003   0.0000000000000000     
   5.2999263924838023E-003   1.2176310740675373E-002   0.0000000000000000     
   6.2139520380397962E-003   1.5367530030795370E-002   0.0000000000000000     
   7.1306112109445962E-003   1.8862453491232264E-002   0.0000000000000000     
   1.4964346957811190E-002   2.0170317707728685E-002   0.0000000000000000     
   1.6869702645944219E-002   2.4029934326952163E-002   0.0000000000000000     
   1.8734615577202983E-002   2.8107702529895893E-002   0.0000000000000000     
   2.0559085751587484E-002   3.2403622316559882E-002   0.0000000000000000     
   2.2343113169097716E-002   3.6917693686944114E-002   0.0000000000000000     
   1.2906083146053880E-002   1.9745105332307604E-002   0.0000000000000000     
   1.4547923930522193E-002   2.3574497548767850E-002   0.0000000000000000     
   1.6160258600260824E-002   2.7633708839352619E-002   0.0000000000000000     
   1.7743087155269760E-002   3.1922739204061912E-002   0.0000000000000000     
   1.9296409595549010E-002   3.6441588642895734E-002   0.0000000000000000     
   1.0914372584323677E-002   1.9385390504417843E-002   0.0000000000000000     
   1.2302720305242352E-002   2.3189968840502628E-002   0.0000000000000000     
   1.3669764977487049E-002   2.7233365682527277E-002   0.0000000000000000     
   1.5015506601057766E-002   3.1515581030491777E-002   0.0000000000000000     
   1.6339945175954499E-002   3.6036614884396148E-002   0.0000000000000000     
   8.9892152726205824E-003   1.9091173224059396E-002   0.0000000000000000     
   1.0134091770104691E-002   2.2876348202156498E-002   0.0000000000000000     
   1.1263134708881663E-002   2.6906673059419857E-002   0.0000000000000000     
   1.2376344088951498E-002   3.1182147795849470E-002   0.0000000000000000     
   1.3473719910314194E-002   3.5702772411445351E-002   0.0000000000000000     
   7.1306112109445962E-003   1.8862453491232264E-002   0.0000000000000000     
   8.0420383251092152E-003   2.2633635633729460E-002   0.0000000000000000     
   8.9403677944446709E-003   2.6653630970030373E-002   0.0000000000000000     
   9.8255996189509608E-003   3.0922439500134995E-002   0.0000000000000000     
   1.0697733798628090E-002   3.5440061224043334E-002   0.0000000000000000     
   2.2343113169097716E-002   3.6917693686944114E-002   0.0000000000000000     
   2.4084425001361865E-002   4.1648842546349929E-002   0.0000000000000000     
   2.5780748420008107E-002   4.6595994800078658E-002   0.0000000000000000     
   2.7432083425036443E-002   5.1759150448130294E-002   0.0000000000000000     
   2.9038430016446876E-002   5.7138309490504829E-002   0.0000000000000000     
   1.9296409595549010E-002   3.6441588642895734E-002   0.0000000000000000     
   2.0814379597408780E-002   4.1184134265254774E-002   0.0000000000000000     
   2.2291150837159279E-002   4.6144253180539711E-002   0.0000000000000000     
   2.3726723314800521E-002   5.1321945388750553E-002   0.0000000000000000     
   2.5121097030332482E-002   5.6717210889887279E-002   0.0000000000000000     
   1.6339945175954499E-002   3.6036614884396148E-002   0.0000000000000000     
   1.7635698581310567E-002   4.0786536802700994E-002   0.0000000000000000     
   1.8895384696259291E-002   4.5755416343866956E-002   0.0000000000000000     
   2.0119003520800666E-002   5.0943253507894012E-002   0.0000000000000000     
   2.1306555054934694E-002   5.6350048294782192E-002   0.0000000000000000     
   1.3473719910314194E-002   3.5702772411445351E-002   0.0000000000000000     
   1.4548381953067244E-002   4.0456050158688618E-002   0.0000000000000000     
   1.5593449997308146E-002   4.5429484290060405E-002   0.0000000000000000     
   1.6608924043036905E-002   5.0623074805560719E-002   0.0000000000000000     
   1.7594804090253515E-002   5.6036821705189546E-002   0.0000000000000000     
   1.0697733798628090E-002   3.5440061224043334E-002   0.0000000000000000     
   1.1552429712678803E-002   4.0192674333217604E-002   0.0000000000000000     
   1.2385346740305846E-002   4.5166457019120039E-002   0.0000000000000000     
   1.3196484881509226E-002   5.0361409281750626E-002   0.0000000000000000     
   1.3985844136288943E-002   5.5777531121109364E-002   0.0000000000000000     
   2.9038430016446876E-002   5.7138309490504829E-002   0.0000000000000000     
   3.0594377071856867E-002   6.2713378722449323E-002   0.0000000000000000     
   3.2094513468883888E-002   6.8464264939210831E-002   0.0000000000000000     
   3.3538839207527933E-002   7.4390968140789326E-002   0.0000000000000000     
   3.4927354287789016E-002   8.0493488327184809E-002   0.0000000000000000     
   2.5121097030332482E-002   5.6717210889887279E-002   0.0000000000000000     
   2.6471629097106361E-002   6.2307920069377694E-002   0.0000000000000000     
   2.7775676628473325E-002   6.8071943312649513E-002   0.0000000000000000     
   2.9033239624433379E-002   7.4009280619702772E-002   0.0000000000000000     
   3.0244318084986520E-002   8.0119931990537435E-002   0.0000000000000000     
   2.1306555054934694E-002   5.6350048294782192E-002   0.0000000000000000     
   2.2456943390819838E-002   6.1952453858051225E-002   0.0000000000000000     
   2.3569072620614570E-002   6.7727123351220872E-002   0.0000000000000000     
   2.4642942744318889E-002   7.3674056774291147E-002   0.0000000000000000     
   2.5678553761932784E-002   7.9793254127262042E-002   0.0000000000000000     
   1.7594804090253515E-002   5.6036821705189546E-002   0.0000000000000000     
   1.8550319952997305E-002   6.1646980088469951E-002   0.0000000000000000     
   1.9474701445307625E-002   6.7429805054924921E-002   0.0000000000000000     
   2.0367948567184452E-002   7.3385296604554465E-002   0.0000000000000000     
   2.1230061318627810E-002   7.9513454737358602E-002   0.0000000000000000     
   1.3985844136288943E-002   5.5777531121109364E-002   0.0000000000000000     
   1.4751758783638767E-002   6.1391498760633850E-002   0.0000000000000000     
   1.5492563102552483E-002   6.7179988423761647E-002   0.0000000000000000     
   1.6208257093030091E-002   7.3143000110492767E-002   0.0000000000000000     
   1.6898840755071587E-002   7.9280533820827198E-002   0.0000000000000000     
   3.4927354287789016E-002   8.0493488327184809E-002   0.0000000000000000     
   3.6265013455873477E-002   8.6762057794456532E-002   0.0000000000000000     
   3.7556771457987664E-002   9.3186908838663721E-002   0.0000000000000000     
   3.8802628294131579E-002   9.9768041459806375E-002   0.0000000000000000     
   4.0002583964305220E-002  0.10650545565788448        0.0000000000000000     
   3.0244318084986520E-002   8.0119931990537435E-002   0.0000000000000000     
   3.1410803033902659E-002   8.6395498406654919E-002   0.0000000000000000     
   3.2534585494951702E-002   9.2827580849556612E-002   0.0000000000000000     
   3.3615665468133646E-002   9.9416179319242501E-002   0.0000000000000000     
   3.4654042953448511E-002  0.10616129381571258        0.0000000000000000     
   2.5678553761932784E-002   7.9793254127262042E-002   0.0000000000000000     
   2.6675775085221714E-002   8.6077043420540483E-002   0.0000000000000000     
   2.7634476125951119E-002   9.2517752664533409E-002   0.0000000000000000     
   2.8554656884120996E-002   9.9115381859240820E-002   0.0000000000000000     
   2.9436317359731349E-002  0.10586993100466274        0.0000000000000000     
   2.1230061318627810E-002   7.9513454737358602E-002   0.0000000000000000     
   2.2059929609830640E-002   8.5806692836113210E-002   0.0000000000000000     
   2.2856443350985901E-002   9.2257424283594125E-002   0.0000000000000000     
   2.3619602542093610E-002   9.8865649079801346E-002   0.0000000000000000     
   2.4349407183153763E-002  0.10563136722473489        0.0000000000000000     
   1.6898840755071587E-002   7.9280533820827198E-002   0.0000000000000000     
   1.7563266607729427E-002   8.5584446653373114E-002   0.0000000000000000     
   1.8200487170056064E-002   9.2046595706738760E-002   0.0000000000000000     
   1.8810502442051499E-002   9.8666980980924079E-002   0.0000000000000000     
   1.9393312423715732E-002  0.10544560247592913        0.0000000000000000     
   4.0002583964305220E-002  0.10650545565788448        0.0000000000000000     
   4.1159719835400753E-002  0.11340520789336388        0.0000000000000000     
   4.2277117274310320E-002  0.12047335462671042        0.0000000000000000     
   4.3354776281033930E-002  0.12770989585792403        0.0000000000000000     
   4.4392696855571581E-002  0.13511483158700477        0.0000000000000000     
   3.4654042953448511E-002  0.10616129381571258        0.0000000000000000     
   3.5651440942063496E-002  0.11307126253589024        0.0000000000000000     
   3.6609582425145885E-002  0.12015442367669880        0.0000000000000000     
   3.7528467402695644E-002  0.12741077723813826        0.0000000000000000     
   3.8408095874712798E-002  0.13484032322020864        0.0000000000000000     
   2.9436317359731349E-002  0.10586993100466274        0.0000000000000000     
   3.0280473138569405E-002  0.11279162770736070        0.0000000000000000     
   3.1088139806422388E-002  0.11989069957389635        0.0000000000000000     
   3.1859317363290299E-002  0.12716714660426967        0.0000000000000000     
   3.2594005809173140E-002  0.13462096879848068        0.0000000000000000     
   2.4349407183153763E-002  0.10563136722473489        0.0000000000000000     
   2.5046816424918461E-002  0.11256630340777531        0.0000000000000000     
   2.5712789418139842E-002  0.11968218231830312        0.0000000000000000     
   2.6347326162817885E-002  0.12697900395631831        0.0000000000000000     
   2.6950426658952621E-002  0.13445676832182085        0.0000000000000000     
   1.9393312423715732E-002  0.10544560247592913        0.0000000000000000     
   1.9950470801110672E-002  0.11239528963713402        0.0000000000000000     
   2.0483531260298234E-002  0.11952887190991900        0.0000000000000000     
   2.0992493801278423E-002  0.12684634929428409        0.0000000000000000     
   2.1477358424051230E-002  0.13434772179022919        0.0000000000000000     
   4.4392696855571581E-002  0.13511483158700477        0.0000000000000000     
   4.5337217635250067E-002  0.14259756555601824        0.0000000000000000     
   4.6134677257396152E-002  0.15006750150703016        0.0000000000000000     
   4.6785075722009864E-002  0.15752463944004041        0.0000000000000000     
   4.7288413029091182E-002  0.16496897935504912        0.0000000000000000     
   3.8408095874712798E-002  0.13484032322020864        0.0000000000000000     
   3.9207787903010799E-002  0.14232785273602522        0.0000000000000000     
   3.9886863549403129E-002  0.14975815689870345        0.0000000000000000     
   4.0445322813889788E-002  0.15713123570824317        0.0000000000000000     
   4.0883165696470783E-002  0.16444708916464448        0.0000000000000000     
   3.2594005809173140E-002  0.13462096879848068        0.0000000000000000     
   3.3261012973845309E-002  0.14211953723173151        0.0000000000000000     
   3.3829146687081223E-002  0.14953022297922441        0.0000000000000000     
   3.4298406948880852E-002  0.15685302604095935        0.0000000000000000     
   3.4668793759244226E-002  0.16408794641693633        0.0000000000000000     
   2.6950426658952621E-002  0.13445676832182085        0.0000000000000000     
   2.7496892847753595E-002  0.14197261904313702        0.0000000000000000     
   2.7961526670430410E-002  0.14938369974859309        0.0000000000000000     
   2.8344328126983051E-002  0.15669001043818892        0.0000000000000000     
   2.8645297217411526E-002  0.16389155111192463        0.0000000000000000     
   2.1477358424051230E-002  0.13434772179022919        0.0000000000000000     
   2.1915427524735662E-002  0.14188709817024187        0.0000000000000000     
   2.2284003499450710E-002  0.14931858720680943        0.0000000000000000     
   2.2583086348196380E-002  0.15664218889993192        0.0000000000000000     
   2.2812676070972673E-002  0.16385790324960933        0.0000000000000000     
   0.0000000000000000        0.0000000000000000        0.0000000000000000     
   8.4182049110748699E-004   1.1094616454855862E-003   0.0000000000000000     
   1.7023899353796872E-003   2.5967796392117929E-003   0.0000000000000000     
   2.5817083328166005E-003   4.4619539811786195E-003   0.0000000000000000     
   3.4797756834182274E-003   6.7049846713860663E-003   0.0000000000000000     
   0.0000000000000000        0.0000000000000000        0.0000000000000000     
   6.3388175458566434E-004   1.0934301297304821E-003   0.0000000000000000     
   1.2781590140485159E-003   2.5606016757971097E-003   0.0000000000000000     
   1.9328317783885544E-003   4.4015146381998823E-003   0.0000000000000000     
   2.5979000476057806E-003   6.6161690169388001E-003   0.0000000000000000     
   0.0000000000000000        0.0000000000000000        0.0000000000000000     
   4.2426542721665306E-004   1.0819790470513384E-003   0.0000000000000000     
   8.5301705101954750E-004   2.5347602733635441E-003   0.0000000000000000     
   1.2862548714086834E-003   4.3583436789366150E-003   0.0000000000000000     
   1.7239788883840611E-003   6.5527292637705551E-003   0.0000000000000000     
   0.0000000000000000        0.0000000000000000        0.0000000000000000     
   2.1297150900045293E-004   1.0751083974481551E-003   0.0000000000000000     
   4.2696404629278216E-004   2.5192554319110948E-003   0.0000000000000000     
   6.4197761187698773E-004   4.3324411033888177E-003   0.0000000000000000     
   8.5801220575306976E-004   6.5146654118813287E-003   0.0000000000000000     
   0.0000000000000000        0.0000000000000000        0.0000000000000000     
  -6.2935957443818746E-014   1.0728181809209320E-003   0.0000000000000000     
  -1.3178022041648862E-013   2.5140871514397630E-003   0.0000000000000000     
  -2.0653297865338982E-013   4.3238069115564930E-003   0.0000000000000000     
  -2.8719398820903352E-013   6.5019774612711211E-003   0.0000000000000000     
   3.4797756834182274E-003   6.7049846713860663E-003   0.0000000000000000     
   4.3885342742766131E-003   9.2887956208722745E-003   0.0000000000000000     
   5.2999263924838023E-003   1.2176310740675373E-002   0.0000000000000000     
   6.2139520380397962E-003   1.5367530030795370E-002   0.0000000000000000     
   7.1306112109445962E-003   1.8862453491232264E-002   0.0000000000000000     
   2.5979000476057806E-003   6.6161690169388001E-003   0.0000000000000000     
   3.2704778379174415E-003   9.1719884499389202E-003   0.0000000000000000     
   3.9476791655407876E-003   1.2036396575125294E-002   0.0000000000000000     
   4.6295040304758176E-003   1.5209393392497932E-002   0.0000000000000000     
   5.3159524327225319E-003   1.8690978902056822E-002   0.0000000000000000     
   1.7239788883840611E-003   6.5527292637705551E-003   0.0000000000000000     
   2.1663699800227561E-003   9.0885547564240124E-003   0.0000000000000000     
   2.6136090244018445E-003   1.1936457885455649E-002   0.0000000000000000     
   3.0656960215213261E-003   1.5096438650865461E-002   0.0000000000000000     
   3.5226309713812009E-003   1.8568497052653451E-002   0.0000000000000000     
   8.5801220575306976E-004   6.5146654118813287E-003   0.0000000000000000     
   1.0762107005925557E-003   9.0384945403275564E-003   0.0000000000000000     
   1.2977159690669737E-003   1.1876494671666434E-002   0.0000000000000000     
   1.5225280111763231E-003   1.5028665805897965E-002   0.0000000000000000     
   1.7506468269206045E-003   1.8495007943022147E-002   0.0000000000000000     
  -2.8719398820903352E-013   6.5019774612711211E-003   0.0000000000000000     
  -3.7315932136829100E-013   9.0218078016495416E-003   0.0000000000000000     
  -4.6382526725646800E-013   1.1856506933757649E-002   0.0000000000000000     
  -5.5919128377247829E-013   1.5006074857595440E-002   0.0000000000000000     
  -6.5925791301740810E-013   1.8470511573162918E-002   0.0000000000000000     
   7.1306112109445962E-003   1.8862453491232264E-002   0.0000000000000000     
   8.0420383251092152E-003   2.2633635633729460E-002   0.0000000000000000     
   8.9403677944446709E-003   2.6653630970030373E-002   0.0000000000000000     
   9.8255996189509608E-003   3.0922439500134995E-002   0.0000000000000000     
   1.0697733798628090E-002   3.5440061224043334E-002   0.0000000000000000     
   5.3159524327225319E-003   1.8690978902056822E-002   0.0000000000000000     
   5.9990865047986688E-003   2.2452284416948267E-002   0.0000000000000000     
   6.6709683792219709E-003   2.6464441250318573E-002   0.0000000000000000     
   7.3315980559924354E-003   3.0727449402167730E-002   0.0000000000000000     
   7.9809755351100634E-003   3.5241308872495748E-002   0.0000000000000000     
   3.5226309713812009E-003   1.8568497052653451E-002   0.0000000000000000     
   3.9777628437158040E-003   2.2322747833539682E-002   0.0000000000000000     
   4.4244406082594679E-003   2.6329305736244223E-002   0.0000000000000000     
   4.8626642650121971E-003   3.0588170760767072E-002   0.0000000000000000     
   5.2924338139739881E-003   3.5099342907108241E-002   0.0000000000000000     
   1.7506468269206045E-003   1.8495007943022147E-002   0.0000000000000000     
   1.9780673418606184E-003   2.2245025883503695E-002   0.0000000000000000     
   2.2007844815571660E-003   2.6248224427807321E-002   0.0000000000000000     
   2.4187982460102484E-003   3.0504603575933018E-002   0.0000000000000000     
   2.6321086352198639E-003   3.5014163327880800E-002   0.0000000000000000     
  -6.5925791301740810E-013   1.8470511573162918E-002   0.0000000000000000     
  -7.6688595794863201E-013   2.2219118566840317E-002   0.0000000000000000     
  -8.8493765809140312E-013   2.6221197325007859E-002   0.0000000000000000     
  -1.0134117733894867E-012   3.0476747847665565E-002   0.0000000000000000     
  -1.1523089340353954E-012   3.4985770134813424E-002   0.0000000000000000     
   1.0697733798628090E-002   3.5440061224043334E-002   0.0000000000000000     
   1.1552429712678803E-002   4.0192674333217604E-002   0.0000000000000000     
   1.2385346740305846E-002   4.5166457019120039E-002   0.0000000000000000     
   1.3196484881509226E-002   5.0361409281750626E-002   0.0000000000000000     
   1.3985844136288943E-002   5.5777531121109364E-002   0.0000000000000000     
   7.9809755351100634E-003   3.5241308872495748E-002   0.0000000000000000     
   8.6177003207089636E-003   3.9991581469043067E-002   0.0000000000000000     
   9.2403719169232446E-003   4.4963828999550121E-002   0.0000000000000000     
   9.8489903237529083E-003   5.0158051464016917E-002   0.0000000000000000     
   1.0443555541197953E-002   5.5574248862443450E-002   0.0000000000000000     
   5.2924338139739881E-003   3.5099342907108241E-002   0.0000000000000000     
   5.7140522377214500E-003   3.9847943708920051E-002   0.0000000000000000     
   6.1278225188311939E-003   4.4819094699854900E-002   0.0000000000000000     
   6.5337446573032181E-003   5.0012795879912739E-002   0.0000000000000000     
   6.9318186531375234E-003   5.5429047249093609E-002   0.0000000000000000     
   2.6321086352198639E-003   3.5014163327880800E-002   0.0000000000000000     
   2.8414854637162632E-003   3.9761761052848600E-002   0.0000000000000000     
   3.0476985460296947E-003   4.4732254120034363E-002   0.0000000000000000     
   3.2507478821601596E-003   4.9925642529438111E-002   0.0000000000000000     
   3.4506334721076579E-003   5.5341926281059821E-002   0.0000000000000000     
  -1.1523089340353954E-012   3.4985770134813424E-002   0.0000000000000000     
  -1.3065993599570280E-012   3.9733033500828657E-002   0.0000000000000000     
  -1.4812515363588075E-012   4.4703307260088525E-002   0.0000000000000000     
  -1.6762675774349700E-012   4.9896591412592999E-002   0.0000000000000000     
  -1.8916461279328001E-012   5.5312885958342092E-002   0.0000000000000000     
   1.3985844136288943E-002   5.5777531121109364E-002   0.0000000000000000     
   1.4751758783638767E-002   6.1391498760633850E-002   0.0000000000000000     
   1.5492563102552483E-002   6.7179988423761647E-002   0.0000000000000000     
   1.6208257093030091E-002   7.3143000110492767E-002   0.0000000000000000     
   1.6898840755071587E-002   7.9280533820827198E-002   0.0000000000000000     
   1.0443555541197953E-002   5.5574248862443450E-002   0.0000000000000000     
   1.1021376333183666E-002   6.1189824292030445E-002   0.0000000000000000     
   1.1579761463635345E-002   6.6982180849978673E-002   0.0000000000000000     
   1.2118710932552982E-002   7.2951318536288084E-002   0.0000000000000000     
   1.2638224739936582E-002   7.9097237350958693E-002   0.0000000000000000     
   6.9318186531375234E-003   5.5429047249093609E-002   0.0000000000000000     
   7.3192890520714657E-003   6.1045771100147278E-002   0.0000000000000000     
   7.6934003998424001E-003   6.6840889725823596E-002   0.0000000000000000     
   8.0541526964503281E-003   7.2814403126122529E-002   0.0000000000000000     
   8.4015459418952474E-003   7.8966311301044118E-002   0.0000000000000000     
   3.4506334721076579E-003   5.5341926281059821E-002   0.0000000000000000     
   3.6454969403021649E-003   6.0959339184984307E-002   0.0000000000000000     
   3.8334799111736538E-003   6.6756115051296389E-002   0.0000000000000000     
   4.0145823847221283E-003   7.2732253879996114E-002   0.0000000000000000     
   4.1888043609475843E-003   7.8887755671083415E-002   0.0000000000000000     
  -1.8916461279328001E-012   5.5312885958342092E-002   0.0000000000000000     
  -2.1242389357939429E-012   6.0930528546541553E-002   0.0000000000000000     
  -2.3708971526488487E-012   6.6727856826397119E-002   0.0000000000000000     
  -2.6316206836298275E-012   7.2704870797908813E-002   0.0000000000000000     
  -2.9064105722814704E-012   7.8861570461076613E-002   0.0000000000000000     
   1.6898840755071587E-002   7.9280533820827198E-002   0.0000000000000000     
   1.7563266607729427E-002   8.5584446653373114E-002   0.0000000000000000     
   1.8200487170056064E-002   9.2046595706738760E-002   0.0000000000000000     
   1.8810502442051499E-002   9.8666980980924079E-002   0.0000000000000000     
   1.9393312423715732E-002  0.10544560247592913        0.0000000000000000     
   1.2638224739936582E-002   7.9097237350958693E-002   0.0000000000000000     
   1.3137758620453388E-002   8.5411026919217120E-002   0.0000000000000000     
   1.3616768308770639E-002   9.1883776866289971E-002   0.0000000000000000     
   1.4075253804888339E-002   9.8515487192177190E-002   0.0000000000000000     
   1.4513215108806484E-002  0.10530615789687886        0.0000000000000000     
   8.4015459418952474E-003   7.8966311301044118E-002   0.0000000000000000     
   8.7353781895378093E-003   8.5287155680542112E-002   0.0000000000000000     
   9.0554474927386618E-003   9.1767477694570374E-002   0.0000000000000000     
   9.3617538514978050E-003   9.8407277343128874E-002   0.0000000000000000     
   9.6542972658152371E-003  0.10520655462621760        0.0000000000000000     
   4.1888043609475843E-003   7.8887755671083415E-002   0.0000000000000000     
   4.3561253149826959E-003   8.5212832937348118E-002   0.0000000000000000     
   4.5165247219601332E-003   9.1697698191579996E-002   0.0000000000000000     
   4.6700025818798988E-003   9.8342351433779104E-002   0.0000000000000000     
   4.8165588947419891E-003  0.10514679266394540        0.0000000000000000     
  -2.9064105722814704E-012   7.8861570461076613E-002   0.0000000000000000     
  -3.2119560917226453E-012   8.5188058689635096E-002   0.0000000000000000     
  -3.5649458103408083E-012   9.1674438357318852E-002   0.0000000000000000     
  -3.9653786303812597E-012   9.8320709464127895E-002   0.0000000000000000     
  -4.4132583872091846E-012  0.10512687201006220        0.0000000000000000     
   1.9393312423715732E-002  0.10544560247592913        0.0000000000000000     
   1.9950470801110672E-002  0.11239528963713402        0.0000000000000000     
   2.0483531260298234E-002  0.11952887190991900        0.0000000000000000     
   2.0992493801278423E-002  0.12684634929428409        0.0000000000000000     
   2.1477358424051230E-002  0.13434772179022919        0.0000000000000000     
   1.4513215108806484E-002  0.10530615789687886        0.0000000000000000     
   1.4932798816568140E-002  0.11226941344429034        0.0000000000000000     
   1.5336151524216364E-002  0.11941887829830711        0.0000000000000000     
   1.5723273231751156E-002  0.12675455245892914        0.0000000000000000     
   1.6094163939172523E-002  0.13427643592615646        0.0000000000000000     
   9.6542972658152371E-003  0.10520655462621760        0.0000000000000000     
   9.9351630207129716E-003  0.11217950187809775        0.0000000000000000     
   1.0206436401213017E-002  0.11934031143303041        0.0000000000000000     
   1.0468117407315371E-002  0.12668898329101563        0.0000000000000000     
   1.0720206039020040E-002  0.13422551745205338        0.0000000000000000     
   4.8165588947419891E-003  0.10514679266394540        0.0000000000000000     
   4.9575634135451685E-003  0.11212555493855621        0.0000000000000000     
   5.0943858912881916E-003  0.11929317131408891        0.0000000000000000     
   5.2270263279710636E-003  0.12664964179054350        0.0000000000000000     
   5.3554847235937784E-003  0.13419496636791997        0.0000000000000000     
  -4.4132583872091846E-012  0.10512687201006220        0.0000000000000000     
  -4.9352722429618634E-012  0.11210757262566577        0.0000000000000000     
  -5.5581087692394004E-012  0.11927745794148263        0.0000000000000000     
  -6.2817709204927158E-012  0.12663652795751279        0.0000000000000000     
  -7.1062561217416498E-012  0.13418478267375622        0.0000000000000000     
   2.1477358424051230E-002  0.13434772179022919        0.0000000000000000     
   2.1915427524735662E-002  0.14188709817024187        0.0000000000000000     
   2.2284003499450710E-002  0.14931858720680943        0.0000000000000000     
   2.2583086348196380E-002  0.15664218889993192        0.0000000000000000     
   2.2812676070972673E-002  0.16385790324960933        0.0000000000000000     
   1.6094163939172523E-002  0.13427643592615646        0.0000000000000000     
   1.6428109862830564E-002  0.14183912873218674        0.0000000000000000     
   1.6704397219075386E-002  0.14929723090921765        0.0000000000000000     
   1.6923026007906988E-002  0.15665074245724919        0.0000000000000000     
   1.7083996229325375E-002  0.16389966337628142        0.0000000000000000     
   1.0720206039020040E-002  0.13422551745205338        0.0000000000000000     
   1.0946432720077361E-002  0.14180486484811256        0.0000000000000000     
   1.1130527874237687E-002  0.14928197641116200        0.0000000000000000     
   1.1272491501501013E-002  0.15665685214120179        0.0000000000000000     
   1.1372323601867339E-002  0.16392949203823179        0.0000000000000000     
   5.3554847235937784E-003  0.13419496636791997        0.0000000000000000     
   5.4703960964760604E-003  0.14178430651801929        0.0000000000000000     
   5.5623954649376165E-003  0.14927282371264250        0.0000000000000000     
   5.6314828289784520E-003  0.15666051795178956        0.0000000000000000     
   5.6776581885985659E-003  0.16394738923546048        0.0000000000000000     
  -7.1062561217416498E-012  0.13418478267375622        0.0000000000000000     
  -7.9733459418251940E-012  0.14177745374190695        0.0000000000000000     
  -8.8248258527101608E-012  0.14926977281365911        0.0000000000000000     
  -9.6606920596889467E-012  0.15666173988901258        0.0000000000000000     
  -1.0480945972224376E-011  0.16395335496796742        0.0000000000000000     
   0.0000000000000000        0.0000000000000000        0.0000000000000000     
  -6.2935957443818746E-014   1.0728181809209320E-003   0.0000000000000000     
  -1.3178022041648862E-013   2.5140871514397630E-003   0.0000000000000000     
  -2.0653297865338982E-013   4.3238069115564930E-003   0.0000000000000000     
  -2.8719398820903352E-013   6.5019774612711211E-003   0.0000000000000000     
   0.0000000000000000        0.0000000000000000        0.0000000000000000     
  -2.1297150912430118E-004   1.0751083974689078E-003   0.0000000000000000     
  -4.2696404655206158E-004   2.5192554319480496E-003   0.0000000000000000     
  -6.4197761228328111E-004   4.3324411034374264E-003   0.0000000000000000     
  -8.5801220631795980E-004   6.5146654119370359E-003   0.0000000000000000     
   0.0000000000000000        0.0000000000000000        0.0000000000000000     
  -4.2426542733443016E-004   1.0819790470913207E-003   0.0000000000000000     
  -8.5301705126598329E-004   2.5347602734344570E-003   0.0000000000000000     
  -1.2862548717946592E-003   4.3583436790294080E-003   0.0000000000000000     
  -1.7239788889204587E-003   6.5527292638761746E-003   0.0000000000000000     
   0.0000000000000000        0.0000000000000000        0.0000000000000000     
  -6.3388175469332290E-004   1.0934301297881709E-003   0.0000000000000000     
  -1.2781590142735455E-003   2.5606016758989848E-003   0.0000000000000000     
  -1.9328317787406671E-003   4.4015146383324412E-003   0.0000000000000000     
  -2.5979000480946886E-003   6.6161690170885379E-003   0.0000000000000000     
   0.0000000000000000        0.0000000000000000        0.0000000000000000     
  -8.4182049120097959E-004   1.1094616455594585E-003   0.0000000000000000     
  -1.7023899355747480E-003   2.5967796393416317E-003   0.0000000000000000     
  -2.5817083331213055E-003   4.4619539813465208E-003   0.0000000000000000     
  -3.4797756838406521E-003   6.7049846715741251E-003   0.0000000000000000     
  -2.8719398820903352E-013   6.5019774612711211E-003   0.0000000000000000     
  -3.7315932136829100E-013   9.0218078016495416E-003   0.0000000000000000     
  -4.6382526725646800E-013   1.1856506933757649E-002   0.0000000000000000     
  -5.5919128377247829E-013   1.5006074857595440E-002   0.0000000000000000     
  -6.5925791301740810E-013   1.8470511573162918E-002   0.0000000000000000     
  -8.5801220631795980E-004   6.5146654119370359E-003   0.0000000000000000     
  -1.0762107013262980E-003   9.0384945403863635E-003   0.0000000000000000     
  -1.2977159699784960E-003   1.1876494671724892E-002   0.0000000000000000     
  -1.5225280122745525E-003   1.5028665805952622E-002   0.0000000000000000     
  -1.7506468282144692E-003   1.8495007943069557E-002   0.0000000000000000     
  -1.7239788889204587E-003   6.5527292638761746E-003   0.0000000000000000     
  -2.1663699807187701E-003   9.0885547565344102E-003   0.0000000000000000     
  -2.6136090252649826E-003   1.1936457885563769E-002   0.0000000000000000     
  -3.0656960225590967E-003   1.5096438650964255E-002   0.0000000000000000     
  -3.5226309726011130E-003   1.8568497052735857E-002   0.0000000000000000     
  -2.5979000480946886E-003   6.6161690170885379E-003   0.0000000000000000     
  -3.2704778385505735E-003   9.1719884500936835E-003   0.0000000000000000     
  -3.9476791663232858E-003   1.2036396575274281E-002   0.0000000000000000     
  -4.6295040314128233E-003   1.5209393392630327E-002   0.0000000000000000     
  -5.3159524338191868E-003   1.8690978902161828E-002   0.0000000000000000     
  -3.4797756838406521E-003   6.7049846715741251E-003   0.0000000000000000     
  -4.3885342748217100E-003   9.2887956210641817E-003   0.0000000000000000     
  -5.2999263931534030E-003   1.2176310740856422E-002   0.0000000000000000     
  -6.2139520388357315E-003   1.5367530030950852E-002   0.0000000000000000     
  -7.1306112118686947E-003   1.8862453491347467E-002   0.0000000000000000     
  -6.5925791301740810E-013   1.8470511573162918E-002   0.0000000000000000     
  -7.6688595794863201E-013   2.2219118566840317E-002   0.0000000000000000     
  -8.8493765809140312E-013   2.6221197325007859E-002   0.0000000000000000     
  -1.0134117733894867E-012   3.0476747847665565E-002   0.0000000000000000     
  -1.1523089340353954E-012   3.4985770134813424E-002   0.0000000000000000     
  -1.7506468282144692E-003   1.8495007943069557E-002   0.0000000000000000     
  -1.9780673433643769E-003   2.2245025883542064E-002   0.0000000000000000     
  -2.2007844832904093E-003   2.6248224427836524E-002   0.0000000000000000     
  -2.4187982479925642E-003   3.0504603575952933E-002   0.0000000000000000     
  -2.6321086374708428E-003   3.5014163327891291E-002   0.0000000000000000     
  -3.5226309726011130E-003   1.8568497052735857E-002   0.0000000000000000     
  -3.9777628451295212E-003   2.2322747833601470E-002   0.0000000000000000     
  -4.4244406098828135E-003   2.6329305736283955E-002   0.0000000000000000     
  -4.8626642668609900E-003   3.0588170760783333E-002   0.0000000000000000     
  -5.2924338160640488E-003   3.5099342907099589E-002   0.0000000000000000     
  -5.3159524338191868E-003   1.8690978902161828E-002   0.0000000000000000     
  -5.9990865060623177E-003   2.2452284417018534E-002   0.0000000000000000     
  -6.6709683806621504E-003   2.6464441250350176E-002   0.0000000000000000     
  -7.3315980576186884E-003   3.0727449402156774E-002   0.0000000000000000     
  -7.9809755369319290E-003   3.5241308872438308E-002   0.0000000000000000     
  -7.1306112118686947E-003   1.8862453491347467E-002   0.0000000000000000     
  -8.0420383261627666E-003   2.2633635633793253E-002   0.0000000000000000     
  -8.9403677956284219E-003   2.6653630970035175E-002   0.0000000000000000     
  -9.8255996202656608E-003   3.0922439500073246E-002   0.0000000000000000     
  -1.0697733800074482E-002   3.5440061223907457E-002   0.0000000000000000     
  -1.1523089340353954E-012   3.4985770134813424E-002   0.0000000000000000     
  -1.3065993599570280E-012   3.9733033500828657E-002   0.0000000000000000     
  -1.4812515363588075E-012   4.4703307260088525E-002   0.0000000000000000     
  -1.6762675774349700E-012   4.9896591412592999E-002   0.0000000000000000     
  -1.8916461279328001E-012   5.5312885958342092E-002   0.0000000000000000     
  -2.6321086374708428E-003   3.5014163327891291E-002   0.0000000000000000     
  -2.8414854662642012E-003   3.9761761052842036E-002   0.0000000000000000     
  -3.0476985489115991E-003   4.4732254119995589E-002   0.0000000000000000     
  -3.2507478854130359E-003   4.9925642529351943E-002   0.0000000000000000     
  -3.4506334757685104E-003   5.5341926280911106E-002   0.0000000000000000     
  -5.2924338160640488E-003   3.5099342907099589E-002   0.0000000000000000     
  -5.7140522400736145E-003   3.9847943708870487E-002   0.0000000000000000     
  -6.1278225214713026E-003   4.4819094699733768E-002   0.0000000000000000     
  -6.5337446602571183E-003   5.0012795879689438E-002   0.0000000000000000     
  -6.9318186564310564E-003   5.5429047248737505E-002   0.0000000000000000     
  -7.9809755369319290E-003   3.5241308872438308E-002   0.0000000000000000     
  -8.6177003227348326E-003   3.9991581468914010E-002   0.0000000000000000     
  -9.2403719191603596E-003   4.4963828999303068E-002   0.0000000000000000     
  -9.8489903262085118E-003   5.0158051463605496E-002   0.0000000000000000     
  -1.0443555543879286E-002   5.5574248861821281E-002   0.0000000000000000     
  -1.0697733800074482E-002   3.5440061223907457E-002   0.0000000000000000     
  -1.1552429714247860E-002   4.0192674332972599E-002   0.0000000000000000     
  -1.2385346741978772E-002   4.5166457018703490E-002   0.0000000000000000     
  -1.3196484883267219E-002   5.0361409281100104E-002   0.0000000000000000     
  -1.3985844138113197E-002   5.5777531120162448E-002   0.0000000000000000     
  -1.8916461279328001E-012   5.5312885958342092E-002   0.0000000000000000     
  -2.1242389357939429E-012   6.0930528546541553E-002   0.0000000000000000     
  -2.3708971526488487E-012   6.6727856826397119E-002   0.0000000000000000     
  -2.6316206836298275E-012   7.2704870797908813E-002   0.0000000000000000     
  -2.9064105722814704E-012   7.8861570461076613E-002   0.0000000000000000     
  -3.4506334757685104E-003   5.5341926280911106E-002   0.0000000000000000     
  -3.6454969444020269E-003   6.0959339184786243E-002   0.0000000000000000     
  -3.8334799157375889E-003   6.6756115051090525E-002   0.0000000000000000     
  -4.0145823897751957E-003   7.2732253879823933E-002   0.0000000000000000     
  -4.1888043665148480E-003   7.8887755670986506E-002   0.0000000000000000     
  -6.9318186564310564E-003   5.5429047248737505E-002   0.0000000000000000     
  -7.3192890557254820E-003   6.1045771099685592E-002   0.0000000000000000     
  -7.6934004038727560E-003   6.6840889725341343E-002   0.0000000000000000     
  -8.0541527008728773E-003   7.2814403125704807E-002   0.0000000000000000     
  -8.4015459467258451E-003   7.8966311300775888E-002   0.0000000000000000     
  -1.0443555543879286E-002   5.5574248861821281E-002   0.0000000000000000     
  -1.1021376336094605E-002   6.1189824291239606E-002   0.0000000000000000     
  -1.1579761466776400E-002   6.6982180849149642E-002   0.0000000000000000     
  -1.2118710935924662E-002   7.2951318535551354E-002   0.0000000000000000     
  -1.2638224743539395E-002   7.9097237350444785E-002   0.0000000000000000     
  -1.3985844138113197E-002   5.5777531120162448E-002   0.0000000000000000     
  -1.4751758785509401E-002   6.1391498759448285E-002   0.0000000000000000     
  -1.5492563104448518E-002   6.7179988422515338E-002   0.0000000000000000     
  -1.6208257094930550E-002   7.3143000109363629E-002   0.0000000000000000     
  -1.6898840756955504E-002   7.9280533819993171E-002   0.0000000000000000     
  -2.9064105722814704E-012   7.8861570461076613E-002   0.0000000000000000     
  -3.2119560917226453E-012   8.5188058689635096E-002   0.0000000000000000     
  -3.5649458103408083E-012   9.1674438357318852E-002   0.0000000000000000     
  -3.9653786303812597E-012   9.8320709464127895E-002   0.0000000000000000     
  -4.4132583872091846E-012  0.10512687201006220        0.0000000000000000     
  -4.1888043665148480E-003   7.8887755670986506E-002   0.0000000000000000     
  -4.3561253211232137E-003   8.5212832937366395E-002   0.0000000000000000     
  -4.5165247287669540E-003   9.1697698191751831E-002   0.0000000000000000     
  -4.6700025894460713E-003   9.8342351434142772E-002   0.0000000000000000     
  -4.8165589031605657E-003  0.10514679266453925        0.0000000000000000     
  -8.4015459467258451E-003   7.8966311300775888E-002   0.0000000000000000     
  -8.7353781948281469E-003   8.5287155680505350E-002   0.0000000000000000     
  -9.0554474985762717E-003   9.1767477694843821E-002   0.0000000000000000     
  -9.3617538579702179E-003   9.8407277343791330E-002   0.0000000000000000     
  -9.6542972730099905E-003  0.10520655462734785        0.0000000000000000     
  -1.2638224743539395E-002   7.9097237350444785E-002   0.0000000000000000     
  -1.3137758624326758E-002   8.5411026919051947E-002   0.0000000000000000     
  -1.3616768312992900E-002   9.1883776866594852E-002   0.0000000000000000     
  -1.4075253809537823E-002   9.8515487193073487E-002   0.0000000000000000     
  -1.4513215113961531E-002  0.10530615789848792        0.0000000000000000     
  -1.6898840756955504E-002   7.9280533819993171E-002   0.0000000000000000     
  -1.7563266609619040E-002   8.5584446653006185E-002   0.0000000000000000     
  -1.8200487172016833E-002   9.2046595707004908E-002   0.0000000000000000     
  -1.8810502444148884E-002   9.8666980981989352E-002   0.0000000000000000     
  -1.9393312426015191E-002  0.10544560247795952        0.0000000000000000     
  -4.4132583872091846E-012  0.10512687201006220        0.0000000000000000     
  -4.9352722429618634E-012  0.11210757262566577        0.0000000000000000     
  -5.5581087692394004E-012  0.11927745794148263        0.0000000000000000     
  -6.2817709204927158E-012  0.12663652795751279        0.0000000000000000     
  -7.1062561217416498E-012  0.13418478267375622        0.0000000000000000     
  -4.8165589031605657E-003  0.10514679266453925        0.0000000000000000     
  -4.9575634229625616E-003  0.11212555493940536        0.0000000000000000     
  -5.0943859019041840E-003  0.11929317131520523        0.0000000000000000     
  -5.2270263399854322E-003  0.12664964179193877        0.0000000000000000     
  -5.3554847372063053E-003  0.13419496636960609        0.0000000000000000     
  -9.6542972730099905E-003  0.10520655462734785        0.0000000000000000     
  -9.9351630287709148E-003  0.11217950187975398        0.0000000000000000     
  -1.0206436410328326E-002  0.11934031143525028        0.0000000000000000     
  -1.0468117417682225E-002  0.12668898329383685        0.0000000000000000     
  -1.0720206050832610E-002  0.13422551745551356        0.0000000000000000     
  -1.4513215113961531E-002  0.10530615789848792        0.0000000000000000     
  -1.4932798822360335E-002  0.11226941344671157        0.0000000000000000     
  -1.5336151530830539E-002  0.11941887830161788        0.0000000000000000     
  -1.5723273239372150E-002  0.12675455246320691        0.0000000000000000     
  -1.6094163947985168E-002  0.13427643593147862        0.0000000000000000     
  -1.9393312426015191E-002  0.10544560247795952        0.0000000000000000     
  -1.9950470803730812E-002  0.11239528964027815        0.0000000000000000     
  -2.0483531263410824E-002  0.11952887191430797        0.0000000000000000     
  -2.0992493805055207E-002  0.12684634930004901        0.0000000000000000     
  -2.1477358428663978E-002  0.13434772179750126        0.0000000000000000     
  -7.1062561217416498E-012  0.13418478267375622        0.0000000000000000     
  -7.9733459418251940E-012  0.14177745374190695        0.0000000000000000     
  -8.8248258527101608E-012  0.14926977281365911        0.0000000000000000     
  -9.6606920596889467E-012  0.15666173988901258        0.0000000000000000     
  -1.0480945972224376E-011  0.16395335496796742        0.0000000000000000     
  -5.3554847372063053E-003  0.13419496636960609        0.0000000000000000     
  -5.4703961117773293E-003  0.14178430651987303        0.0000000000000000     
  -5.5623954819090235E-003  0.14927282371440539        0.0000000000000000     
  -5.6314828476013842E-003  0.15666051795320332        0.0000000000000000     
  -5.6776582088544176E-003  0.16394738923626670        0.0000000000000000     
  -1.0720206050832610E-002  0.13422551745551356        0.0000000000000000     
  -1.0946432733442360E-002  0.14180486485201485        0.0000000000000000     
  -1.1130527889174353E-002  0.14928197641507504        0.0000000000000000     
  -1.1272491518028591E-002  0.15665685214469419        0.0000000000000000     
  -1.1372323620005070E-002  0.16392949204087223        0.0000000000000000     
  -1.6094163947985168E-002  0.13427643593147862        0.0000000000000000     
  -1.6428109872968437E-002  0.14183912873833249        0.0000000000000000     
  -1.6704397230620817E-002  0.14929723091566802        0.0000000000000000     
  -1.6923026020942304E-002  0.15665074246348523        0.0000000000000000     
  -1.7083996243932906E-002  0.16389966338178408        0.0000000000000000     
  -2.1477358428663978E-002  0.13434772179750126        0.0000000000000000     
  -2.1915427530355566E-002  0.14188709817882594        0.0000000000000000     
  -2.2284003506248422E-002  0.14931858721618435        0.0000000000000000     
  -2.2583086356342538E-002  0.15664218890957643        0.0000000000000000     
  -2.2812676080637920E-002  0.16385790325900218        0.0000000000000000     
   0.0000000000000000        0.0000000000000000        0.0000000000000000     
  -8.4182049120097959E-004   1.1094616455594585E-003   0.0000000000000000     
  -1.7023899355747480E-003   2.5967796393416317E-003   0.0000000000000000     
  -2.5817083331213055E-003   4.4619539813465208E-003   0.0000000000000000     
  -3.4797756838406521E-003   6.7049846715741251E-003   0.0000000000000000     
   0.0000000000000000        0.0000000000000000        0.0000000000000000     
  -1.0569418036819322E-003   1.1336895023903717E-003   0.0000000000000000     
  -2.1401895994709037E-003   2.6492125534675411E-003   0.0000000000000000     
  -3.2497433873669148E-003   4.5465691532315085E-003   0.0000000000000000     
  -4.3856031673699652E-003   6.8257593016822727E-003   0.0000000000000000     
   0.0000000000000000        0.0000000000000000        0.0000000000000000     
  -1.2881058589607132E-003   1.1697296082660992E-003   0.0000000000000000     
  -2.6060377902633251E-003   2.7238188079818522E-003   0.0000000000000000     
  -3.9537957939078366E-003   4.6622675991472590E-003   0.0000000000000000     
  -5.3313798698942459E-003   6.9850759817623193E-003   0.0000000000000000     
   0.0000000000000000        0.0000000000000000        0.0000000000000000     
  -1.5353126570373226E-003   1.2175819631866413E-003   0.0000000000000000     
  -3.0999345079520120E-003   2.8205984028845657E-003   0.0000000000000000     
  -4.6938655527440703E-003   4.8090493190937724E-003   0.0000000000000000     
  -6.3171057914134937E-003   7.1829347118142622E-003   0.0000000000000000     
   0.0000000000000000        0.0000000000000000        0.0000000000000000     
  -1.7985621979117600E-003   1.2772465671519976E-003   0.0000000000000000     
  -3.6218797525369652E-003   2.9395513381756809E-003   0.0000000000000000     
  -5.4699526638756152E-003   4.9869143130710485E-003   0.0000000000000000     
  -7.3427809319277114E-003   7.4193354918381041E-003   0.0000000000000000     
  -3.4797756838406521E-003   6.7049846715741251E-003   0.0000000000000000     
  -4.3885342748217100E-003   9.2887956210641817E-003   0.0000000000000000     
  -5.2999263931534030E-003   1.2176310740856422E-002   0.0000000000000000     
  -6.2139520388357315E-003   1.5367530030950852E-002   0.0000000000000000     
  -7.1306112118686947E-003   1.8862453491347467E-002   0.0000000000000000     
  -4.3856031673699652E-003   6.8257593016822727E-003   0.0000000000000000     
  -5.5350885060356349E-003   9.4449278639333369E-003   0.0000000000000000     
  -6.6855189699195072E-003   1.2362219705098199E-002   0.0000000000000000     
  -7.8368945590215795E-003   1.5577634825176859E-002   0.0000000000000000     
  -8.9892152733418509E-003   1.9091173224169321E-002   0.0000000000000000     
  -5.3313798698942459E-003   6.9850759817623193E-003   0.0000000000000000     
  -6.7246897486958040E-003   9.6463367731885827E-003   0.0000000000000000     
  -8.1196251607857615E-003   1.2600142790787607E-002   0.0000000000000000     
  -9.5161861061641186E-003   1.5846494034559386E-002   0.0000000000000000     
  -1.0914372584830875E-002   1.9385390504503924E-002   0.0000000000000000     
  -6.3171057914134937E-003   7.1829347118142622E-003   0.0000000000000000     
  -7.9573380028022181E-003   9.8930223488299263E-003   0.0000000000000000     
  -9.6022449657521703E-003   1.2890079997924651E-002   0.0000000000000000     
  -1.1251826680263350E-002   1.6174107659098436E-002   0.0000000000000000     
  -1.2906083146335760E-002   1.9745105332351284E-002   0.0000000000000000     
  -7.3427809319277114E-003   7.4193354918381041E-003   0.0000000000000000     
  -9.2330332683548746E-003   1.0184984590857355E-002   0.0000000000000000     
  -1.1133378384818730E-002   1.3232031326509327E-002   0.0000000000000000     
  -1.3043816281319280E-002   1.6560475698794007E-002   0.0000000000000000     
  -1.4964346957856516E-002   2.0170317707711403E-002   0.0000000000000000     
  -7.1306112118686947E-003   1.8862453491347467E-002   0.0000000000000000     
  -8.0420383261627666E-003   2.2633635633793253E-002   0.0000000000000000     
  -8.9403677956284219E-003   2.6653630970035175E-002   0.0000000000000000     
  -9.8255996202656608E-003   3.0922439500073246E-002   0.0000000000000000     
  -1.0697733800074482E-002   3.5440061223907457E-002   0.0000000000000000     
  -8.9892152733418509E-003   1.9091173224169321E-002   0.0000000000000000     
  -1.0134091770913374E-002   2.2876348202195571E-002   0.0000000000000000     
  -1.1263134709769196E-002   2.6906673059375608E-002   0.0000000000000000     
  -1.2376344089909319E-002   3.1182147795709440E-002   0.0000000000000000     
  -1.3473719911333740E-002   3.5702772411197049E-002   0.0000000000000000     
  -1.0914372584830875E-002   1.9385390504503924E-002   0.0000000000000000     
  -1.2302720305796645E-002   2.3189968840495435E-002   0.0000000000000000     
  -1.3669764978072043E-002   2.7233365682408143E-002   0.0000000000000000     
  -1.5015506601657075E-002   3.1515581030242032E-002   0.0000000000000000     
  -1.6339945176551737E-002   3.6036614883997127E-002   0.0000000000000000     
  -1.2906083146335760E-002   1.9745105332351284E-002   0.0000000000000000     
  -1.4547923930812574E-002   2.3574497548692844E-002   0.0000000000000000     
  -1.6160258600536964E-002   2.7633708839132763E-002   0.0000000000000000     
  -1.7743087155508930E-002   3.1922739203671044E-002   0.0000000000000000     
  -1.9296409595728474E-002   3.6441588642307676E-002   0.0000000000000000     
  -1.4964346957856516E-002   2.0170317707711403E-002   0.0000000000000000     
  -1.6869702645961170E-002   2.4029934326787801E-002   0.0000000000000000     
  -1.8734615577163962E-002   2.8107702529549482E-002   0.0000000000000000     
  -2.0559085751464888E-002   3.2403622315996451E-002   0.0000000000000000     
  -2.2343113168863948E-002   3.6917693686128697E-002   0.0000000000000000     
  -1.0697733800074482E-002   3.5440061223907457E-002   0.0000000000000000     
  -1.1552429714247860E-002   4.0192674332972599E-002   0.0000000000000000     
  -1.2385346741978772E-002   4.5166457018703490E-002   0.0000000000000000     
  -1.3196484883267219E-002   5.0361409281100104E-002   0.0000000000000000     
  -1.3985844138113197E-002   5.5777531120162448E-002   0.0000000000000000     
  -1.3473719911333740E-002   3.5702772411197049E-002   0.0000000000000000     
  -1.4548381954121848E-002   4.0456050158287425E-002   0.0000000000000000     
  -1.5593449998353029E-002   4.5429484289429514E-002   0.0000000000000000     
  -1.6608924044027286E-002   5.0623074804623344E-002   0.0000000000000000     
  -1.7594804091144615E-002   5.6036821703868901E-002   0.0000000000000000     
  -1.6339945176551737E-002   3.6036614883997127E-002   0.0000000000000000     
  -1.7635698581865950E-002   4.0786536802099600E-002   0.0000000000000000     
  -1.8895384696709622E-002   4.5755416342975662E-002   0.0000000000000000     
  -2.0119003521082757E-002   5.0943253506625305E-002   0.0000000000000000     
  -2.1306555054985358E-002   5.6350048293048544E-002   0.0000000000000000     
  -1.9296409595728474E-002   3.6441588642307676E-002   0.0000000000000000     
  -2.0814379597480157E-002   4.1184134264409131E-002   0.0000000000000000     
  -2.2291150837048544E-002   4.6144253179341906E-002   0.0000000000000000     
  -2.3726723314433634E-002   5.1321945387105980E-002   0.0000000000000000     
  -2.5121097029635431E-002   5.6717210887701368E-002   0.0000000000000000     
  -2.2343113168863948E-002   3.6917693686128697E-002   0.0000000000000000     
  -2.4084425000964478E-002   4.1648842545216044E-002   0.0000000000000000     
  -2.5780748419369802E-002   4.6595994798528259E-002   0.0000000000000000     
  -2.7432083424079923E-002   5.1759150446065376E-002   0.0000000000000000     
  -2.9038430015094836E-002   5.7138309487827388E-002   0.0000000000000000     
  -1.3985844138113197E-002   5.5777531120162448E-002   0.0000000000000000     
  -1.4751758785509401E-002   6.1391498759448285E-002   0.0000000000000000     
  -1.5492563104448518E-002   6.7179988422515338E-002   0.0000000000000000     
  -1.6208257094930550E-002   7.3143000109363629E-002   0.0000000000000000     
  -1.6898840756955504E-002   7.9280533819993171E-002   0.0000000000000000     
  -1.7594804091144615E-002   5.6036821703868901E-002   0.0000000000000000     
  -1.8550319953745467E-002   6.1646980086839762E-002   0.0000000000000000     
  -1.9474701445870303E-002   6.7429805053209516E-002   0.0000000000000000     
  -2.0367948567519115E-002   7.3385296602978170E-002   0.0000000000000000     
  -2.1230061318691911E-002   7.9513454736145725E-002   0.0000000000000000     
  -2.1306555054985358E-002   5.6350048293048544E-002   0.0000000000000000     
  -2.2456943390578420E-002   6.1952453855942217E-002   0.0000000000000000     
  -2.3569072620022936E-002   6.7727123349003202E-002   0.0000000000000000     
  -2.4642942743318914E-002   7.3674056772231516E-002   0.0000000000000000     
  -2.5678553760466349E-002   7.9793254125627128E-002   0.0000000000000000     
  -2.5121097029635431E-002   5.6717210887701368E-002   0.0000000000000000     
  -2.6471629096008257E-002   6.2307920066755645E-002   0.0000000000000000     
  -2.7775676626906429E-002   6.8071943309896410E-002   0.0000000000000000     
  -2.9033239622329954E-002   7.4009280617123654E-002   0.0000000000000000     
  -3.0244318082278829E-002   8.0119931988437393E-002   0.0000000000000000     
  -2.9038430015094836E-002   5.7138309487827388E-002   0.0000000000000000     
  -3.0594377070034977E-002   6.2713378719280025E-002   0.0000000000000000     
  -3.2094513466520772E-002   6.8464264935889099E-002   0.0000000000000000     
  -3.3538839204552230E-002   7.4390968137654584E-002   0.0000000000000000     
  -3.4927354284129339E-002   8.0493488324576506E-002   0.0000000000000000     
  -1.6898840756955504E-002   7.9280533819993171E-002   0.0000000000000000     
  -1.7563266609619040E-002   8.5584446653006185E-002   0.0000000000000000     
  -1.8200487172016833E-002   9.2046595707004908E-002   0.0000000000000000     
  -1.8810502444148884E-002   9.8666980981989352E-002   0.0000000000000000     
  -1.9393312426015191E-002  0.10544560247795952        0.0000000000000000     
  -2.1230061318691911E-002   7.9513454736145725E-002   0.0000000000000000     
  -2.2059929609628694E-002   8.5806692835481965E-002   0.0000000000000000     
  -2.2856443350569494E-002   9.2257424283756745E-002   0.0000000000000000     
  -2.3619602541514295E-002   9.8865649080970036E-002   0.0000000000000000     
  -2.4349407182463111E-002  0.10563136722712180        0.0000000000000000     
  -2.5678553760466349E-002   7.9793254125627128E-002   0.0000000000000000     
  -2.6675775083279413E-002   8.6077043419593269E-002   0.0000000000000000     
  -2.7634476123572282E-002   9.2517752664533104E-002   0.0000000000000000     
  -2.8554656881344957E-002   9.9115381860446661E-002   0.0000000000000000     
  -2.9436317356597436E-002  0.10586993100733394        0.0000000000000000     
  -3.0244318082278829E-002   8.0119931988437393E-002   0.0000000000000000     
  -3.1410803030571192E-002   8.6395498405340040E-002   0.0000000000000000     
  -3.2534585491025211E-002   9.2827580849333999E-002   0.0000000000000000     
  -3.3615665463640858E-002   9.9416179320419296E-002   0.0000000000000000     
  -3.4654042948418159E-002  0.10616129381859592        0.0000000000000000     
  -3.4927354284129339E-002   8.0493488324576506E-002   0.0000000000000000     
  -3.6265013451504034E-002   8.6762057792722308E-002   0.0000000000000000     
  -3.7556771452928267E-002   9.3186908838159443E-002   0.0000000000000000     
  -3.8802628288402016E-002   9.9768041460887913E-002   0.0000000000000000     
  -4.0002583957925296E-002  0.10650545566090774        0.0000000000000000     
  -1.9393312426015191E-002  0.10544560247795952        0.0000000000000000     
  -1.9950470803730812E-002  0.11239528964027815        0.0000000000000000     
  -2.0483531263410824E-002  0.11952887191430797        0.0000000000000000     
  -2.0992493805055207E-002  0.12684634930004901        0.0000000000000000     
  -2.1477358428663978E-002  0.13434772179750126        0.0000000000000000     
  -2.4349407182463111E-002  0.10563136722712180        0.0000000000000000     
  -2.5046816424221238E-002  0.11256630341158430        0.0000000000000000     
  -2.5712789417593990E-002  0.11968218232372974        0.0000000000000000     
  -2.6347326162581373E-002  0.12697900396355813        0.0000000000000000     
  -2.6950426659183367E-002  0.13445676833106943        0.0000000000000000     
  -2.9436317356597436E-002  0.10586993100733394        0.0000000000000000     
  -3.0280473135170481E-002  0.11279162771176057        0.0000000000000000     
  -3.1088139802904872E-002  0.11989069958029233        0.0000000000000000     
  -3.1859317359800604E-002  0.12716714661292913        0.0000000000000000     
  -3.2594005805857668E-002  0.13462096880967103        0.0000000000000000     
  -3.4654042948418159E-002  0.10616129381859592        0.0000000000000000     
  -3.5651440936578550E-002  0.11307126254080702        0.0000000000000000     
  -3.6609582419343464E-002  0.12015442368399572        0.0000000000000000     
  -3.7528467396712922E-002  0.12741077724816208        0.0000000000000000     
  -3.8408095868686896E-002  0.13484032323330603        0.0000000000000000     
  -4.0002583957925296E-002  0.10650545566090774        0.0000000000000000     
  -4.1159719828445421E-002  0.11340520789872355        0.0000000000000000     
  -4.2277117266909761E-002  0.12047335463483995        0.0000000000000000     
  -4.3354776273318289E-002  0.12770989586925693        0.0000000000000000     
  -4.4392696847671026E-002  0.13511483160197452        0.0000000000000000     
  -2.1477358428663978E-002  0.13434772179750126        0.0000000000000000     
  -2.1915427530355566E-002  0.14188709817882594        0.0000000000000000     
  -2.2284003506248422E-002  0.14931858721618435        0.0000000000000000     
  -2.2583086356342538E-002  0.15664218890957643        0.0000000000000000     
  -2.2812676080637920E-002  0.16385790325900218        0.0000000000000000     
  -2.6950426659183367E-002  0.13445676833106943        0.0000000000000000     
  -2.7496892848659631E-002  0.14197261905426070        0.0000000000000000     
  -2.7961526672269799E-002  0.14938369976112895        0.0000000000000000     
  -2.8344328130013870E-002  0.15669001045167419        0.0000000000000000     
  -2.8645297221891838E-002  0.16389155112589637        0.0000000000000000     
  -3.2594005805857668E-002  0.13462096880967103        0.0000000000000000     
  -3.3261012970936525E-002  0.14211953724540219        0.0000000000000000     
  -3.3829146684897601E-002  0.14953022299500676        0.0000000000000000     
  -3.4298406947740875E-002  0.15685302605848486        0.0000000000000000     
  -3.4668793759466389E-002  0.16408794643583638        0.0000000000000000     
  -3.8408095868686896E-002  0.13484032323330603        0.0000000000000000     
  -3.9207787897186236E-002  0.14232785275225041        0.0000000000000000     
  -3.9886863544131804E-002  0.14975815691781791        0.0000000000000000     
  -4.0445322809523579E-002  0.15713123573000851        0.0000000000000000     
  -4.0883165693361562E-002  0.16444708918882220        0.0000000000000000     
  -4.4392696847671026E-002  0.13511483160197452        0.0000000000000000     
  -4.5337217627408791E-002  0.14259756557480538        0.0000000000000000     
  -4.6134677249972431E-002  0.15006750152956225        0.0000000000000000     
  -4.6785075715361960E-002  0.15752463946624506        0.0000000000000000     
  -4.7288413023577364E-002  0.16496897938485389        0.0000000000000000     
   0.0000000000000000        0.0000000000000000        0.0000000000000000     
  -1.7985621979117600E-003   1.2772465671519976E-003   0.0000000000000000     
  -3.6218797525369652E-003   2.9395513381756809E-003   0.0000000000000000     
  -5.4699526638756152E-003   4.9869143130710485E-003   0.0000000000000000     
  -7.3427809319277114E-003   7.4193354918381041E-003   0.0000000000000000     
   0.0000000000000000        0.0000000000000000        0.0000000000000000     
  -2.0695771543834001E-003   1.3557178094975135E-003   0.0000000000000000     
  -4.1644851758597182E-003   3.0950299674688980E-003   0.0000000000000000     
  -6.2847240644289546E-003   5.2179364739141530E-003   0.0000000000000000     
  -8.4302938200911080E-003   7.7244373288332781E-003   0.0000000000000000     
   0.0000000000000000        0.0000000000000000        0.0000000000000000     
  -2.3400801992516174E-003   1.4599900795585342E-003   0.0000000000000000     
  -4.7203624297618065E-003   3.3013866443779155E-003   0.0000000000000000     
  -7.1408466915305691E-003   5.5241896944581443E-003   0.0000000000000000     
  -9.6015329845579016E-003   8.1283992297992193E-003   0.0000000000000000     
   0.0000000000000000        0.0000000000000000        0.0000000000000000     
  -2.6100713325164101E-003   1.5900633773350597E-003   0.0000000000000000     
  -5.2895115142432298E-003   3.5586213689027344E-003   0.0000000000000000     
  -8.0383205451804562E-003   5.9056739747030233E-003   0.0000000000000000     
  -1.0856498425328093E-002   8.6312211947359250E-003   0.0000000000000000     
   0.0000000000000000        0.0000000000000000        0.0000000000000000     
  -2.8795505541777812E-003   1.7459377028270905E-003   0.0000000000000000     
  -5.8719324293039880E-003   3.8667341410433542E-003   0.0000000000000000     
  -8.9771456253786193E-003   6.3623893146487909E-003   0.0000000000000000     
  -1.2195190142401675E-002   9.2329032236434013E-003   0.0000000000000000     
  -7.3427809319277114E-003   7.4193354918381041E-003   0.0000000000000000     
  -9.2330332683548746E-003   1.0184984590857355E-002   0.0000000000000000     
  -1.1133378384818730E-002   1.3232031326509327E-002   0.0000000000000000     
  -1.3043816281319280E-002   1.6560475698794007E-002   0.0000000000000000     
  -1.4964346957856516E-002   2.0170317707711403E-002   0.0000000000000000     
  -8.4302938200911080E-003   7.7244373288332781E-003   0.0000000000000000     
  -1.0593142175360065E-002   1.0557907240326495E-002   0.0000000000000000     
  -1.2765216862749706E-002   1.3661720916494027E-002   0.0000000000000000     
  -1.4946517882260041E-002   1.7035878357335870E-002   0.0000000000000000     
  -1.7137045233891056E-002   2.0680379562852028E-002   0.0000000000000000     
  -9.6015329845579016E-003   8.1283992297992193E-003   0.0000000000000000     
  -1.2079031353824080E-002   1.1047474038292947E-002   0.0000000000000000     
  -1.4549951844309374E-002   1.4214872907831138E-002   0.0000000000000000     
  -1.7014294456013778E-002   1.7630595838413789E-002   0.0000000000000000     
  -1.9472059188937303E-002   2.1294642830040903E-002   0.0000000000000000     
  -1.0856498425328093E-002   8.6312211947359250E-003   0.0000000000000000     
  -1.3690700803746918E-002   1.1653684984756716E-002   0.0000000000000000     
  -1.6487583329497721E-002   1.4891487300520662E-002   0.0000000000000000     
  -1.9247146002580498E-002   1.8344628142027766E-002   0.0000000000000000     
  -2.1969388822995248E-002   2.2013107509278027E-002   0.0000000000000000     
  -1.2195190142401675E-002   9.2329032236434013E-003   0.0000000000000000     
  -1.5428150525128579E-002   1.2376540079717798E-002   0.0000000000000000     
  -1.8578111318314754E-002   1.5691564094562599E-002   0.0000000000000000     
  -2.1645072521960195E-002   1.9177975268177799E-002   0.0000000000000000     
  -2.4629034136064907E-002   2.2835773600563405E-002   0.0000000000000000     
  -1.4964346957856516E-002   2.0170317707711403E-002   0.0000000000000000     
  -1.6869702645961170E-002   2.4029934326787801E-002   0.0000000000000000     
  -1.8734615577163962E-002   2.8107702529549482E-002   0.0000000000000000     
  -2.0559085751464888E-002   3.2403622315996451E-002   0.0000000000000000     
  -2.2343113168863948E-002   3.6917693686128697E-002   0.0000000000000000     
  -1.7137045233891056E-002   2.0680379562852028E-002   0.0000000000000000     
  -1.9306310138223780E-002   2.4564193245188763E-002   0.0000000000000000     
  -2.1423823815839245E-002   2.8656288116492352E-002   0.0000000000000000     
  -2.3489586266737431E-002   3.2956664176762795E-002   0.0000000000000000     
  -2.5503597490918364E-002   3.7465321426000085E-002   0.0000000000000000     
  -1.9472059188937303E-002   2.1294642830040903E-002   0.0000000000000000     
  -2.1896000094581775E-002   2.5185188374304206E-002   0.0000000000000000     
  -2.4258871224449034E-002   2.9280406962795436E-002   0.0000000000000000     
  -2.6560672578539075E-002   3.3580298595514591E-002   0.0000000000000000     
  -2.8801404156851913E-002   3.8084863272461682E-002   0.0000000000000000     
  -2.1969388822995248E-002   2.2013107509278027E-002   0.0000000000000000     
  -2.4638772515035136E-002   2.5892919714134124E-002   0.0000000000000000     
  -2.7239757802993328E-002   2.9980059068458732E-002   0.0000000000000000     
  -2.9772344686869814E-002   3.4274525572251857E-002   0.0000000000000000     
  -3.2236533166664597E-002   3.8776319225513493E-002   0.0000000000000000     
  -2.4629034136064907E-002   2.2835773600563405E-002   0.0000000000000000     
  -2.7534627399583889E-002   2.6687387264678512E-002   0.0000000000000000     
  -3.0366483551472128E-002   3.0755244433482244E-002   0.0000000000000000     
  -3.3124602591729640E-002   3.5039345106974581E-002   0.0000000000000000     
  -3.5808984520356420E-002   3.9539689285155534E-002   0.0000000000000000     
  -2.2343113168863948E-002   3.6917693686128697E-002   0.0000000000000000     
  -2.4084425000964478E-002   4.1648842545216044E-002   0.0000000000000000     
  -2.5780748419369802E-002   4.6595994798528259E-002   0.0000000000000000     
  -2.7432083424079923E-002   5.1759150446065376E-002   0.0000000000000000     
  -2.9038430015094836E-002   5.7138309487827388E-002   0.0000000000000000     
  -2.5503597490918364E-002   3.7465321426000085E-002   0.0000000000000000     
  -2.7467672356406066E-002   4.2184587716660990E-002   0.0000000000000000     
  -2.9383625731224595E-002   4.7116790901202320E-002   0.0000000000000000     
  -3.1251457615373936E-002   5.2261930979624040E-002   0.0000000000000000     
  -3.3071168008854110E-002   5.7620007951926178E-002   0.0000000000000000     
  -2.8801404156851913E-002   3.8084863272461682E-002   0.0000000000000000     
  -3.0985959227892077E-002   4.2795295850884686E-002   0.0000000000000000     
  -3.3119231060164102E-002   4.7712791188031643E-002   0.0000000000000000     
  -3.5201219653668007E-002   5.2837349283902546E-002   0.0000000000000000     
  -3.7231925008403777E-002   5.8168970138497381E-002   0.0000000000000000     
  -3.2236533166664597E-002   3.8776319225513493E-002   0.0000000000000000     
  -3.4639285615422497E-002   4.3480966947887133E-002   0.0000000000000000     
  -3.6987564406188354E-002   4.8383995659016257E-002   0.0000000000000000     
  -3.9281369538962121E-002   5.3485405358900874E-002   0.0000000000000000     
  -4.1520701013743846E-002   5.8785196047540976E-002   0.0000000000000000     
  -3.5808984520356420E-002   3.9539689285155534E-002   0.0000000000000000     
  -3.8427651518997345E-002   4.4241601007668316E-002   0.0000000000000000     
  -4.0988625769297307E-002   4.9130404314156155E-002   0.0000000000000000     
  -4.3491907271256298E-002   5.4206099204619031E-002   0.0000000000000000     
  -4.5937496024874319E-002   5.9468685679056964E-002   0.0000000000000000     
  -2.9038430015094836E-002   5.7138309487827388E-002   0.0000000000000000     
  -3.0594377070034977E-002   6.2713378719280025E-002   0.0000000000000000     
  -3.2094513466520772E-002   6.8464264935889099E-002   0.0000000000000000     
  -3.3538839204552230E-002   7.4390968137654584E-002   0.0000000000000000     
  -3.4927354284129339E-002   8.0493488324576506E-002   0.0000000000000000     
  -3.3071168008854110E-002   5.7620007951926178E-002   0.0000000000000000     
  -3.4834036702906766E-002   6.3174247659931113E-002   0.0000000000000000     
  -3.6531343488773578E-002   6.8907875945461231E-002   0.0000000000000000     
  -3.8163088366454545E-002   7.4820892808516559E-002   0.0000000000000000     
  -3.9729271335949667E-002   8.0913298249097071E-002   0.0000000000000000     
  -3.7231925008403777E-002   5.8168970138497381E-002   0.0000000000000000     
  -3.9199457384871794E-002   6.3695944735124632E-002   0.0000000000000000     
  -4.1091927043572445E-002   6.9406564057092751E-002   0.0000000000000000     
  -4.2909333984505707E-002   7.5300828104401793E-002   0.0000000000000000     
  -4.4651678207671602E-002   8.1378736877051688E-002   0.0000000000000000     
  -4.1520701013743846E-002   5.8785196047540976E-002   0.0000000000000000     
  -4.3690639115930067E-002   6.4278469944860570E-002   0.0000000000000000     
  -4.5776264130917364E-002   6.9960329270783675E-002   0.0000000000000000     
  -4.7777576058705716E-002   7.5830774025310271E-002   0.0000000000000000     
  -4.9694574899295137E-002   8.1889804208440359E-002   0.0000000000000000     
  -4.5937496024874319E-002   5.9468685679056964E-002   0.0000000000000000     
  -4.8307581896081600E-002   6.4921823289138952E-002   0.0000000000000000     
  -5.0584354750808351E-002   7.0569171586533974E-002   0.0000000000000000     
  -5.2767814589054572E-002   7.6410730571241994E-002   0.0000000000000000     
  -5.4857961410820277E-002   8.2446500243263096E-002   0.0000000000000000     
  -3.4927354284129339E-002   8.0493488324576506E-002   0.0000000000000000     
  -3.6265013451504034E-002   8.6762057792722308E-002   0.0000000000000000     
  -3.7556771452928267E-002   9.3186908838159443E-002   0.0000000000000000     
  -3.8802628288402016E-002   9.9768041460887913E-002   0.0000000000000000     
  -4.0002583957925296E-002  0.10650545566090774        0.0000000000000000     
  -3.9729271335949667E-002   8.0913298249097071E-002   0.0000000000000000     
  -4.1238008570607054E-002   8.7174117382253932E-002   0.0000000000000000     
  -4.2697416243774822E-002   9.3592375323038282E-002   0.0000000000000000     
  -4.4107494355452956E-002  0.10016807207145015        0.0000000000000000     
  -4.5468242905641464E-002  0.10690120762748952        0.0000000000000000     
  -4.4651678207671602E-002   8.1378736877051688E-002   0.0000000000000000     
  -4.6329390612409371E-002   8.7629072974448788E-002   0.0000000000000000     
  -4.7952902098058241E-002   9.4040618995999442E-002   0.0000000000000000     
  -4.9522212664618238E-002  0.10061337494170362        0.0000000000000000     
  -5.1037322312089337E-002  0.10734734081156135        0.0000000000000000     
  -4.9694574899295137E-002   8.1889804208440359E-002   0.0000000000000000     
  -5.1539159576910958E-002   8.8126924569306930E-002   0.0000000000000000     
  -5.3323229015778538E-002   9.4531639857042923E-002   0.0000000000000000     
  -5.5046783215897843E-002  0.10110395007164832        0.0000000000000000     
  -5.6709822177268908E-002  0.10784385521312319        0.0000000000000000     
  -5.4857961410820277E-002   8.2446500243263096E-002   0.0000000000000000     
  -5.6867315464111855E-002   8.8667672166828318E-002   0.0000000000000000     
  -5.8808396996935679E-002   9.5065437906168698E-002   0.0000000000000000     
  -6.0681206009291791E-002  0.10163979746128431        0.0000000000000000     
  -6.2485742501180164E-002  0.10839075083217506        0.0000000000000000     
  -4.0002583957925296E-002  0.10650545566090774        0.0000000000000000     
  -4.1159719828445421E-002  0.11340520789872355        0.0000000000000000     
  -4.2277117266909761E-002  0.12047335463483995        0.0000000000000000     
  -4.3354776273318289E-002  0.12770989586925693        0.0000000000000000     
  -4.4392696847671026E-002  0.13511483160197452        0.0000000000000000     
  -4.5468242905641464E-002  0.10690120762748952        0.0000000000000000     
  -4.6785472459003427E-002  0.11379418282720816        0.0000000000000000     
  -4.8064993580201928E-002  0.12084939850665780        0.0000000000000000     
  -4.9306806269236968E-002  0.12806685466583839        0.0000000000000000     
  -5.0510910526108531E-002  0.13544655130475003        0.0000000000000000     
  -5.1037322312089337E-002  0.10734734081156135        0.0000000000000000     
  -5.2508861476484869E-002  0.11423890636795875        0.0000000000000000     
  -5.3947460593818143E-002  0.12128446137328204        0.0000000000000000     
  -5.5353119664089144E-002  0.12848400582753119        0.0000000000000000     
  -5.6725838687297893E-002  0.13583753973070622        0.0000000000000000     
  -5.6709822177268908E-002  0.10784385521312319        0.0000000000000000     
  -5.8329886880889741E-002  0.11473937852097536        0.0000000000000000     
  -5.9924518307758377E-002  0.12177854323471272        0.0000000000000000     
  -6.1493716457874853E-002  0.12896134935433529        0.0000000000000000     
  -6.3037481331239126E-002  0.13628779687984305        0.0000000000000000     
  -6.2485742501180164E-002  0.10839075083217506        0.0000000000000000     
  -6.4248548672218048E-002  0.11529559928625793        0.0000000000000000     
  -6.5996166722022687E-002  0.12233164409094985        0.0000000000000000     
  -6.7728596650594053E-002  0.12949888524625072        0.0000000000000000     
  -6.9445838457932202E-002  0.13679732275216061        0.0000000000000000     
  -4.4392696847671026E-002  0.13511483160197452        0.0000000000000000     
  -4.5337217627408791E-002  0.14259756557480538        0.0000000000000000     
  -4.6134677249972431E-002  0.15006750152956225        0.0000000000000000     
  -4.6785075715361960E-002  0.15752463946624506        0.0000000000000000     
  -4.7288413023577364E-002  0.16496897938485389        0.0000000000000000     
  -5.0510910526108531E-002  0.13544655130475003        0.0000000000000000     
  -5.1609894679837537E-002  0.14291960515137520        0.0000000000000000     
  -5.2536347059444891E-002  0.15041713293369657        0.0000000000000000     
  -5.3290267664930599E-002  0.15793913465171405        0.0000000000000000     
  -5.3871656496294648E-002  0.16548561030542769        0.0000000000000000     
  -5.6725838687297893E-002  0.13583753973070622        0.0000000000000000     
  -5.7986411572705884E-002  0.14328490092026802        0.0000000000000000     
  -5.9055632229574606E-002  0.15076592723367760        0.0000000000000000     
  -5.9933500657904065E-002  0.15828061867093493        0.0000000000000000     
  -6.0620016857694248E-002  0.16582897523204002        0.0000000000000000     
  -6.3037481331239126E-002  0.13628779687984305        0.0000000000000000     
  -6.4466768306013833E-002  0.14369345288148383        0.0000000000000000     
  -6.5692532760361563E-002  0.15111388442950538        0.0000000000000000     
  -6.6714774694282358E-002  0.15854909152390773        0.0000000000000000     
  -6.7533494107776190E-002  0.16599907416469087        0.0000000000000000     
  -6.9445838457932202E-002  0.13679732275216061        0.0000000000000000     
  -7.1050964879761341E-002  0.14414526103502262        0.0000000000000000     
  -7.2447048651805776E-002  0.15146100452117989        0.0000000000000000     
  -7.3634089774065478E-002  0.15874455321063241        0.0000000000000000     
  -7.4612088246540434E-002  0.16599590710338019        0.0000000000000000     
   0.0000000000000000        0.0000000000000000        0.0000000000000000     
  -2.8795505541777812E-003   1.7459377028270905E-003   0.0000000000000000     
  -5.8719324293039880E-003   3.8667341410433542E-003   0.0000000000000000     
  -8.9771456253786193E-003   6.3623893146487909E-003   0.0000000000000000     
  -1.2195190142401675E-002   9.2329032236434013E-003   0.0000000000000000     
   0.0000000000000000        0.0000000000000000        0.0000000000000000     
  -3.2825903859979725E-003   2.0003102637711468E-003   0.0000000000000000     
  -6.6759785713108328E-003   4.3330493382564995E-003   0.0000000000000000     
  -1.0180164555938582E-002   6.9982172234560568E-003   0.0000000000000000     
  -1.3795148339881215E-002   9.9958139193698191E-003   0.0000000000000000     
   0.0000000000000000        0.0000000000000000        0.0000000000000000     
  -3.9532633497392309E-003   2.4258782679037511E-003   0.0000000000000000     
  -7.9100033366305191E-003   5.0648913379988938E-003   0.0000000000000000     
  -1.1870219960673865E-002   7.9170392102854304E-003   0.0000000000000000     
  -1.5833913221869271E-002   1.0982321884763360E-002   0.0000000000000000     
   0.0000000000000000        0.0000000000000000        0.0000000000000000     
  -4.8915694454015560E-003   3.0226417152249014E-003   0.0000000000000000     
  -9.5740067252630488E-003   6.0622601402705381E-003   0.0000000000000000     
  -1.4047311839584475E-002   9.1188552751369101E-003   0.0000000000000000     
  -1.8311484788365834E-002   1.2192427119824019E-002   0.0000000000000000     
   0.0000000000000000        0.0000000000000000        0.0000000000000000     
  -6.0975086729849470E-003   3.7906006057345986E-003   0.0000000000000000     
  -1.1667988737208417E-002   7.3251557450714315E-003   0.0000000000000000     
  -1.6711440192670405E-002   1.0603665418010499E-002   0.0000000000000000     
  -2.1227863039370916E-002   1.3626129624551802E-002   0.0000000000000000     
  -1.2195190142401675E-002   9.2329032236434013E-003   0.0000000000000000     
  -1.5428150525128579E-002   1.2376540079717798E-002   0.0000000000000000     
  -1.8578111318314754E-002   1.5691564094562599E-002   0.0000000000000000     
  -2.1645072521960195E-002   1.9177975268177799E-002   0.0000000000000000     
  -2.4629034136064907E-002   2.2835773600563405E-002   0.0000000000000000     
  -1.3795148339881215E-002   9.9958139193698191E-003   0.0000000000000000     
  -1.7403599261554777E-002   1.3227757020057849E-002   0.0000000000000000     
  -2.0888186659375300E-002   1.6595964119580215E-002   0.0000000000000000     
  -2.4248910533342789E-002   2.0100435217936911E-002   0.0000000000000000     
  -2.7485770883457248E-002   2.3741170315127937E-002   0.0000000000000000     
  -1.5833913221869271E-002   1.0982321884763360E-002   0.0000000000000000     
  -1.9729265756611221E-002   1.4219053502658527E-002   0.0000000000000000     
  -2.3484460201294195E-002   1.7585548205196783E-002   0.0000000000000000     
  -2.7099496555918208E-002   2.1081805992378119E-002   0.0000000000000000     
  -3.0574374820483252E-002   2.4707826864202545E-002   0.0000000000000000     
  -1.8311484788365834E-002   1.2192427119824019E-002   0.0000000000000000     
  -2.2405150010297897E-002   1.5350429527519827E-002   0.0000000000000000     
  -2.6366931944071439E-002   1.8660316351412295E-002   0.0000000000000000     
  -3.0196830589686439E-002   2.2122087591501430E-002   0.0000000000000000     
  -3.3894845947142919E-002   2.5735743247787216E-002   0.0000000000000000     
  -2.1227863039370916E-002   1.3626129624551802E-002   0.0000000000000000     
  -2.5431252022614828E-002   1.6621885094641752E-002   0.0000000000000000     
  -2.9535601887707024E-002   1.9820268558226758E-002   0.0000000000000000     
  -3.3540912634647500E-002   2.3221280015306826E-002   0.0000000000000000     
  -3.7447184263436260E-002   2.6824919465881954E-002   0.0000000000000000     
  -2.4629034136064907E-002   2.2835773600563405E-002   0.0000000000000000     
  -2.7534627399583889E-002   2.6687387264678512E-002   0.0000000000000000     
  -3.0366483551472128E-002   3.0755244433482244E-002   0.0000000000000000     
  -3.3124602591729640E-002   3.5039345106974581E-002   0.0000000000000000     
  -3.5808984520356420E-002   3.9539689285155534E-002   0.0000000000000000     
  -2.7485770883457248E-002   2.3741170315127937E-002   0.0000000000000000     
  -3.0621431415394206E-002   2.7562238029113565E-002   0.0000000000000000     
  -3.3678555834829212E-002   3.1607706977854061E-002   0.0000000000000000     
  -3.6657144141762257E-002   3.5877577161349414E-002   0.0000000000000000     
  -3.9557196336193354E-002   4.0371848579599634E-002   0.0000000000000000     
  -3.0574374820483252E-002   2.4707826864202545E-002   0.0000000000000000     
  -3.3937051229632302E-002   2.8511119010615458E-002   0.0000000000000000     
  -3.7215482018008339E-002   3.2539190621562283E-002   0.0000000000000000     
  -4.0409667185611363E-002   3.6792041697043004E-002   0.0000000000000000     
  -4.3519606732441367E-002   4.1269672237057610E-002   0.0000000000000000     
  -3.3894845947142919E-002   2.5735743247787216E-002   0.0000000000000000     
  -3.7481486842298177E-002   2.9534030209184197E-002   0.0000000000000000     
  -4.0977262101009534E-002   3.3549695364606912E-002   0.0000000000000000     
  -4.4382171723276950E-002   3.7782738714055332E-002   0.0000000000000000     
  -4.7696215709100487E-002   4.2233160257529496E-002   0.0000000000000000     
  -3.7447184263436260E-002   2.6824919465881954E-002   0.0000000000000000     
  -4.1254738253391834E-002   3.0630971624819776E-002   0.0000000000000000     
  -4.4963896083832763E-002   3.4639221206987932E-002   0.0000000000000000     
  -4.8574657754759047E-002   3.8849668212386432E-002   0.0000000000000000     
  -5.2087023266170672E-002   4.3262312641015259E-002   0.0000000000000000     
  -3.5808984520356420E-002   3.9539689285155534E-002   0.0000000000000000     
  -3.8427651518997345E-002   4.4241601007668316E-002   0.0000000000000000     
  -4.0988625769297307E-002   4.9130404314156155E-002   0.0000000000000000     
  -4.3491907271256298E-002   5.4206099204619031E-002   0.0000000000000000     
  -4.5937496024874319E-002   5.9468685679056964E-002   0.0000000000000000     
  -3.9557196336193354E-002   4.0371848579599634E-002   0.0000000000000000     
  -4.2386078565455731E-002   4.5066712363727800E-002   0.0000000000000000     
  -4.5151156976882621E-002   4.9938359644856996E-002   0.0000000000000000     
  -4.7852431570474044E-002   5.4986790422987257E-002   0.0000000000000000     
  -5.0489902346229978E-002   6.0212004698118535E-002   0.0000000000000000     
  -4.3519606732441367E-002   4.1269672237057610E-002   0.0000000000000000     
  -4.6549588381636767E-002   4.5945815349565107E-002   0.0000000000000000     
  -4.9503899856335937E-002   5.0794204142524495E-002   0.0000000000000000     
  -5.2382541156538877E-002   5.5814838615935745E-002   0.0000000000000000     
  -5.5185512282245580E-002   6.1007718769798873E-002   0.0000000000000000     
  -4.7696215709100487E-002   4.2233160257529496E-002   0.0000000000000000     
  -5.0918180967540444E-002   4.6878909965180286E-002   0.0000000000000000     
  -5.4046854407657219E-002   5.1697937807158624E-002   0.0000000000000000     
  -5.7082236029450777E-002   5.6690243783464531E-002   0.0000000000000000     
  -6.0024325832921166E-002   6.1855827894097978E-002   0.0000000000000000     
  -5.2087023266170672E-002   4.3262312641015259E-002   0.0000000000000000     
  -5.5491856323166777E-002   4.7865996210573296E-002   0.0000000000000000     
  -5.8780020630846481E-002   5.2649560638759398E-002   0.0000000000000000     
  -6.1951516189209792E-002   5.7613005925573585E-002   0.0000000000000000     
  -6.5006342998256680E-002   6.2756332071015844E-002   0.0000000000000000     
  -4.5937496024874319E-002   5.9468685679056964E-002   0.0000000000000000     
  -4.8307581896081600E-002   6.4921823289138952E-002   0.0000000000000000     
  -5.0584354750808351E-002   7.0569171586533974E-002   0.0000000000000000     
  -5.2767814589054572E-002   7.6410730571241994E-002   0.0000000000000000     
  -5.4857961410820277E-002   8.2446500243263096E-002   0.0000000000000000     
  -5.0489902346229978E-002   6.0212004698118535E-002   0.0000000000000000     
  -5.3046454069562279E-002   6.5624950176943225E-002   0.0000000000000000     
  -5.5504971505882780E-002   7.1236574566153649E-002   0.0000000000000000     
  -5.7865454655191495E-002   7.7046877865749819E-002   0.0000000000000000     
  -6.0127903517488417E-002   8.3055860075731749E-002   0.0000000000000000     
  -5.5185512282245580E-002   6.1007718769798873E-002   0.0000000000000000     
  -5.7903423980608000E-002   6.6386796017256874E-002   0.0000000000000000     
  -6.0526886998778034E-002   7.1966021771452754E-002   0.0000000000000000     
  -6.3055901336755690E-002   7.7745396032386518E-002   0.0000000000000000     
  -6.5490466994540947E-002   8.3724918800058154E-002   0.0000000000000000     
  -6.0024325832921166E-002   6.1855827894097978E-002   0.0000000000000000     
  -6.2878491629218783E-002   6.7207360810079914E-002   0.0000000000000000     
  -6.5650101229494107E-002   7.2757513202431304E-002   0.0000000000000000     
  -6.8339154633747137E-002   7.8506285071152093E-002   0.0000000000000000     
  -7.0945651841977861E-002   8.4453676416242338E-002   0.0000000000000000     
  -6.5006342998256680E-002   6.2756332071015844E-002   0.0000000000000000     
  -6.7971657015394621E-002   6.8086644555412329E-002   0.0000000000000000     
  -7.0874614198031011E-002   7.3611048859089243E-002   0.0000000000000000     
  -7.3715214546165878E-002   7.9329544982046557E-002   0.0000000000000000     
  -7.6493458059799208E-002   8.5242132924284286E-002   0.0000000000000000     
  -5.4857961410820277E-002   8.2446500243263096E-002   0.0000000000000000     
  -5.6867315464111855E-002   8.8667672166828318E-002   0.0000000000000000     
  -5.8808396996935679E-002   9.5065437906168698E-002   0.0000000000000000     
  -6.0681206009291791E-002  0.10163979746128431        0.0000000000000000     
  -6.2485742501180164E-002  0.10839075083217506        0.0000000000000000     
  -6.0127903517488417E-002   8.3055860075731749E-002   0.0000000000000000     
  -6.2302615602607830E-002   8.9257092464239102E-002   0.0000000000000000     
  -6.4399888420384049E-002   9.5644146299411564E-002   0.0000000000000000     
  -6.6419721970817081E-002  0.10221702158124919        0.0000000000000000     
  -6.8362116253906882E-002  0.10897571830975190        0.0000000000000000     
  -6.5490466994540947E-002   8.3724918800058154E-002   0.0000000000000000     
  -6.7833817320994735E-002   8.9900962158765502E-002   0.0000000000000000     
  -7.0089185664977988E-002   9.6269898192806375E-002   0.0000000000000000     
  -7.2256572026490676E-002  0.10283172690218072        0.0000000000000000     
  -7.4335976405532841E-002  0.10958644828688861        0.0000000000000000     
  -7.0945651841977861E-002   8.4453676416242338E-002   0.0000000000000000     
  -7.3460920619272591E-002   9.0599281250407490E-002   0.0000000000000000     
  -7.5876288730717500E-002   9.6942693586353004E-002   0.0000000000000000     
  -7.8191756176312646E-002  0.10348391342407892        0.0000000000000000     
  -8.0407322956058028E-002  0.11022294076358519        0.0000000000000000     
  -7.6493458059799208E-002   8.5242132924284286E-002   0.0000000000000000     
  -7.9183925497441326E-002   9.1352049739165053E-002   0.0000000000000000     
  -8.1761197617602574E-002   9.7662532480051564E-002   0.0000000000000000     
  -8.4225274420282936E-002  0.10417358114694375        0.0000000000000000     
  -8.6576155905482427E-002  0.11088519573984165        0.0000000000000000     
  -6.2485742501180164E-002  0.10839075083217506        0.0000000000000000     
  -6.4248548672218048E-002  0.11529559928625793        0.0000000000000000     
  -6.5996166722022687E-002  0.12233164409094985        0.0000000000000000     
  -6.7728596650594053E-002  0.12949888524625072        0.0000000000000000     
  -6.9445838457932202E-002  0.13679732275216061        0.0000000000000000     
  -6.8362116253906882E-002  0.10897571830975190        0.0000000000000000     
  -7.0257224523203765E-002  0.11588653183524961        0.0000000000000000     
  -7.2135200032258026E-002  0.12291575750807206        0.0000000000000000     
  -7.3996042781069665E-002  0.13006339532821937        0.0000000000000000     
  -7.5839752769638669E-002  0.13732944529569141        0.0000000000000000     
  -7.4335976405532841E-002  0.10958644828688861        0.0000000000000000     
  -7.6348292106580937E-002  0.11649113933939331        0.0000000000000000     
  -7.8314412434111497E-002  0.12350287705215812        0.0000000000000000     
  -8.0234337388124535E-002  0.13062166142518300        0.0000000000000000     
  -8.2108066968620039E-002  0.13784749245846800        0.0000000000000000     
  -8.0407322956058028E-002  0.11022294076358519        0.0000000000000000     
  -8.2521751422349521E-002  0.11710942179868913        0.0000000000000000     
  -8.4533803927583084E-002  0.12409300272320800        0.0000000000000000     
  -8.6443480471758691E-002  0.13117368353714176        0.0000000000000000     
  -8.8250781054876326E-002  0.13835146424049044        0.0000000000000000     
  -8.6576155905482427E-002  0.11088519573984165        0.0000000000000000     
  -8.8777602470509545E-002  0.11774137921313702        0.0000000000000000     
  -9.0793374512672761E-002  0.12468613452122167        0.0000000000000000     
  -9.2623472031972076E-002  0.13171946166409557        0.0000000000000000     
  -9.4267895028407517E-002  0.13884136064175873        0.0000000000000000     
  -6.9445838457932202E-002  0.13679732275216061        0.0000000000000000     
  -7.1050964879761341E-002  0.14414526103502262        0.0000000000000000     
  -7.2447048651805776E-002  0.15146100452117989        0.0000000000000000     
  -7.3634089774065478E-002  0.15874455321063241        0.0000000000000000     
  -7.4612088246540434E-002  0.16599590710338019        0.0000000000000000     
  -7.5839752769638669E-002  0.13732944529569141        0.0000000000000000     
  -7.7562695186334352E-002  0.14460364510758664        0.0000000000000000     
  -7.9061235219526085E-002  0.15177573246100348        0.0000000000000000     
  -8.0335372869213856E-002  0.15884570735594189        0.0000000000000000     
  -8.1385108135397649E-002  0.16581356979240192        0.0000000000000000     
  -8.2108066968620039E-002  0.13784749245846800        0.0000000000000000     
  -8.3825653118118751E-002  0.14503192482587818        0.0000000000000000     
  -8.5277147779141374E-002  0.15202651320127852        0.0000000000000000     
  -8.6462550951687936E-002  0.15883125758466912        0.0000000000000000     
  -8.7381862635758437E-002  0.16544615797604992        0.0000000000000000     
  -8.8250781054876326E-002  0.13835146424049044        0.0000000000000000     
  -8.9839838675114497E-002  0.14543010018989716        0.0000000000000000     
  -9.1094786330651628E-002  0.15221334674200504        0.0000000000000000     
  -9.2015624021487719E-002  0.15870120389681400        0.0000000000000000     
  -9.2602351747622796E-002  0.16489367165432414        0.0000000000000000     
  -9.4267895028407517E-002  0.13884136064175873        0.0000000000000000     
  -9.5605251857321591E-002  0.14579817119964369        0.0000000000000000     
  -9.6514150874056820E-002  0.15233623308318300        0.0000000000000000     
  -9.6994592078613190E-002  0.15845554629237663        0.0000000000000000     
  -9.7046575470990729E-002  0.16415611082722464        0.0000000000000000     
 </DataArray>
 <DataArray  type="Float64" Name="stress" NumberOfComponents="3" format="ascii">
   13421059469.051086        4026317840.7153258        2893752619.5277810     
   11768813823.583641        1891815451.7701745        1715314766.0293274     
   10313708430.485355        414447237.38887596        810506645.56282318     
   9055743289.7562237       -405786802.42857313        179328258.12826759     
   7994918401.3962479       -568886667.68216848       -178220396.27433854     
   10541296938.864332        3162389081.6592994        2225836327.5978436     
   9668138926.6445408        1590308233.6199615        1446651624.7290933     
   8943468735.6978054        513186789.82414293        863345781.88678336     
   8367286366.0241241       -68975249.728155136        475918799.07091421     
   7939591817.6234999       -156177885.03693628        284370676.28148717     
   8337283582.5094833        2501185074.7528448        1712721870.8322408     
   8021067852.0930338        1424882162.1860273        1276029148.9810762     
   7804687511.8535414        681363883.54239750        957464414.15084493     
   7688142561.7910023        270630238.82195330        757027666.34154725     
   7671433001.9054222        192681228.02469873        674718905.55318213     
   6809019399.9865389        2042705819.9959617        1354409249.2309723     
   6827600599.9291239        1395537237.4683719        1203447338.7852781     
   6897364758.9525652        918978518.54363775        1092862542.3550086     
   7018311877.0568619        613029663.22175813        1022654859.9401647     
   7190441954.2420158        477690671.50273395        992824291.54074609     
   5956504391.2954979        1786951317.3886495        1150898462.7940378     
   6087737170.1528091        1502273459.4669955        1228906194.1416972     
   6221500476.9948769        1226030694.8278646        1269540166.4992740     
   6357794311.8217001        958223023.47125638        1272800379.8667676     
   6496618674.6332808        698850445.39717007        1238686834.2441795     
   7994918401.3962479       -568886667.68216848       -178220396.27433854     
   7915085692.3074064       -201145341.89240026       -76904436.788357049     
   7794075502.6705246        29337715.403897762       -8914400.3055572752     
   7631887832.4856052        122562504.20673609        25749713.174063120     
   7428522681.7526407        78529024.516095161        27087903.650500365     
   7939591817.6234999       -156177885.03693628        284370676.28148717     
   7737597550.9399748        14560936.850646019        282794941.11358124     
   7512542741.6743135        108431283.46444273        266036816.31498432     
   7264427389.8265162        125433154.80446100        234096301.88570523     
   6993251495.3965855        65566550.870692253        186973397.82573634     
   7671433001.9054222        192681228.02469873        674718905.55318213     
   7399115844.4057608        181969146.04365540        591387903.35827899     
   7121855082.2898741        154778382.00851822        511018044.90518069     
   6839650715.5577555        111108935.91928315        433609330.19388837     
   6552502744.2094126        50960807.775956631        359161759.22440344     
   7190441954.2420158        477690671.50273395        992824291.54074609     
   6899640572.7047768        301079285.68663383        848874449.94573712     
   6622012524.5172129        168379011.03612614        726029285.46502531     
   6357557809.6793261        79589847.551208019        624288798.09861195     
   6106276428.1911173        34711795.231883049        543652987.84649777     
   6496618674.6332808        698850445.39717007        1238686834.2441795     
   6239171735.8370113        371891355.77957821        1055254580.8759530     
   6013015068.3563251        149233170.54726648        911070537.99451745     
   5818148672.1912212        30875889.700230837        806134705.59987640     
   5654572547.3417034        16819513.238471508        740447083.69202507     
   7428522681.7526407        78529024.516095161        27087903.650500365     
   7211960868.3116436       -13608266.046500206        14393767.566190246     
   7007470065.9288797       -65508853.081655025        7596820.4784680642     
   6815050274.6043425       -77172736.589383125        6697062.3873362225     
   6634701494.3380356       -48599916.569682598        11694493.292786233     
   6993251495.3965855        65566550.870692253        186973397.82573634     
   6800661489.2543907        5139937.0002307892        183236342.06267932     
   6615218326.9538832       -31463864.064601898        184724100.60392711     
   6436922008.4950571       -44244852.323823214        191436673.44948041     
   6265772533.8779221       -33203027.777419806        203374060.59933513     
   6552502744.2094126        50960807.775956631        359161759.22440344     
   6381963474.8166389        21668549.432817936        358636922.02996200     
   6213646882.0490112       -214786.82650899887        362664524.44754392     
   6047552965.9065247       -14689201.002030134        371244566.47714925     
   5883681726.3891811       -21754693.093743563        384377048.11877871     
   6106276428.1911173        34711795.231883049        543652987.84649777     
   5955866824.9983921        35977571.251255751        540595507.46804154     
   5802755731.2142649        28238378.632622004        541418092.00932527     
   5646943146.8387375        11494217.375986338        546120741.47035074     
   5488429071.8718071       -14254912.518653393        554703455.85111654     
   5654572547.3417034        16819513.238471508        740447083.69202507     
   5522371539.7996454        48067002.455537319        729112098.37691605     
   5382544874.4496460        53895632.312788963        720984803.28926611     
   5235092551.2917013        34305402.810227394        716065198.42907667     
   5080014570.3258104       -10703686.052156448        714353283.79634523     
   6634701494.3380356       -48599916.569682598        11694493.292786233     
   6418863960.0088806       -21378367.782552958        12854590.830411483     
   6197084220.1069613       -13964170.904641628        33402681.947002184     
   5969362274.6322699       -26357325.935974836        73338766.642552257     
   5735698123.5848103       -58557832.876520872        132662844.91707866     
   6265772533.8779221       -33203027.777419806        203374060.59933513     
   6091869299.8396072       -15812836.743208170        192926624.63090938     
   5915549657.7711487       -6477339.1428146362        197617124.01944464     
   5736813607.6725321       -5196534.9762699604        217445558.76496190     
   5555661149.5437737       -11970424.243542433        252411928.86744303     
   5883681726.3891811       -21754693.093743563        384377048.11877871     
   5739569769.1502905       -17838766.859869957        366435509.11068535     
   5596567201.4238749       -10224875.584425688        359381847.23756951     
   5454674023.2099257        1086980.7325744629        363216062.49942213     
   5313890234.5084467        16096802.091150045        377938154.89625651     
   5488429071.8718071       -14254912.518653393        554703455.85111654     
   5361965367.9409275       -27456158.132551908        533381244.26975036     
   5240136851.0651350       -25206780.229481459        518696851.60136282     
   5122943521.2444363       -7506778.8094491959        510650277.84595430     
   5010385378.4788237        25643846.127553225        509241523.00352007     
   5080014570.3258104       -10703686.052156448        714353283.79634523     
   4959056096.2115221       -44665010.561244488        693763830.10809505     
   4846258606.6949415       -51423053.077967405        675562137.11082590     
   4741622101.7760687       -30977813.602333307        659748204.80454147     
   4645146581.4549055        16670707.865669489        646322033.18923771     
   5735698123.5848103       -58557832.876520872        132662844.91707866     
   5615562478.3570623       -59926241.569596291        203183364.40371740     
   5499241706.7250786       -48578404.943441391        255720277.65214965     
   5386735808.6888733       -24514322.998036146        290273584.66238117     
   5278044784.2484436        12266004.266630888        306843285.43440884     
   5555661149.5437737       -11970424.243542433        252411928.86744303     
   5396909891.5146904       -12781629.020997524        307736224.32757652     
   5240075475.2255974       -7203361.3318214417        351211222.96743149     
   5085157900.6764917        4764378.8239896297        382836924.78702718     
   4932157167.8673735        23121591.446417093        402613329.78635073     
   5313890234.5084467        16096802.091150045        377938154.89625651     
   5134049962.0149918        21100780.730423927        415851855.83146548     
   4954228499.4057417        26167458.983698130        448050569.36433858     
   4774425846.6806936        31296836.850983620        474534295.49488217     
   4594642003.8398457        36488914.332272768        495303034.22308326     
   5010385378.4788237        25643846.127553225        509241523.00352007     
   4826982689.8579569        41720987.684630394        527530258.91538566     
   4641700779.2655058        51534056.003094673        546238316.84285426     
   4454539646.7014723        55083051.082943916        565365696.78592408     
   4265499292.1658535        52367972.924179077        584912398.74459481     
   4645146581.4549055        16670707.865669489        646322033.18923771     
   4475708075.0435858        49078991.841638803        642771433.57934606     
   4302492314.8048916        68896429.726378441        645774465.40299344     
   4125499300.7388287        76123021.519878626        655331128.66016912     
   3944729032.8453979        70758767.222152948        671441423.35088801     
   5278044784.2484436        12266004.266630888        306843285.43440884     
   5063465821.4592352        21452827.450231314        324364881.14800119     
   4847823332.8260794        27094564.487319469        352212115.59743297     
   4631117318.3489599        29191215.377876759        390384988.78271109     
   4413347778.0278835        27742780.121898651        438883500.70381957     
   4932157167.8673735        23121591.446417093        402613329.78635073     
   4742305702.0173254        29647633.808427095        420520243.80650413     
   4550025778.8131199        28078818.323273182        447736696.92591643     
   4355317398.2547836        18415144.990989208        484262689.14460266     
   4158180560.3422933        656613.81153535843        530098220.46255225     
   4594642003.8398457        36488914.332272768        495303034.22308326     
   4426614893.1101637        39483233.327040434        512002846.45457572     
   4254794393.5161457        29832922.774035215        536996098.14875913     
   4079180505.0577946        7537982.6732439995        570282789.30562901     
   3899773227.7351193       -27401586.975299597        611862919.92519176     
   4265499292.1658535        52367972.924179077        584912398.74459481     
   4116393394.7377563        50959626.006076574        598812689.09220743     
   3962129176.9351435        32356877.839582205        619990319.26593828     
   3802706638.7580085       -3440271.5753197670        648445289.26578653     
   3638125780.2063570       -56431822.238612652        684177599.09175408     
   3944729032.8453979        70758767.222152948        671441423.35088801     
   3811641206.9001122        64076811.845551968        680949771.71940768     
   3672030129.0701156        35650683.519919157        696719360.27746606     
   3525895799.3554163       -14519617.754724741        718750189.02506924     
   3373238217.7560067       -86434091.978402138        747042257.96221304     
   4413347778.0278835        27742780.121898651        438883500.70381957     
   4044597804.9755993       -13106850.517573118        445604290.27707875     
   3680796809.0436645       -37459890.755896091        523850654.44367540     
   3321944790.2320862       -45316340.593033552        673622593.20359480     
   2968041748.5408626       -36676200.028966308        894920106.55684531     
   4158180560.3422933        656613.81153535843        530098220.46255225     
   3957530381.8919702       -12971163.631879091        531969819.64050728     
   3762727181.1676874       -7109015.3218233585        585341412.41217375     
   3573770958.1694622        18243058.741745234        690212998.77753294     
   3390661712.8972673        63085058.558758974        846584578.73659265     
   3899773227.7351193       -27401586.975299597        611862919.92519176     
   3810006898.1735330       -30972294.936625242        609932996.08115792     
   3726985546.9436851       -12059741.792158365        639477484.83120036     
   3650709174.0455723        29336072.458090544        700496386.17531037     
   3581177779.4792042        93215147.814160347        792989700.11349463     
   3638125780.2063570       -56431822.238612652        684177599.09175408     
   3602027353.8202820       -67110244.431816578        679493819.59902465     
   3573571906.3716435       -52312070.166911602        686258871.70074630     
   3552759437.8604326       -12037299.443919182        704472755.39691520     
   3539589948.2866540        53714067.737200737        734135470.68752754     
   3373238217.7560067       -86434091.978402138        747042257.96221304     
   3333591748.8322277       -121385012.11744738        740652290.19410908     
   3302486259.4515686       -127866000.44608092        725685573.02082908     
   3279921749.6140361       -105877056.96429229        702142106.44236767     
   3265898219.3196330       -55418181.672083378        670021890.45871925     
   2968041748.5408626       -36676200.028966308        894920106.55684531     
   2146227211.2725508       -33927995.188117981        817040658.98001635     
   1408132826.3014305        247887383.97668999        818555081.88044763     
   753758593.62749696        808769937.46544933        899463375.25814092     
   183104513.25074518        1648719665.2781696        1059765539.1130855     
   3390661712.8972673        63085058.558758974        846584578.73659265     
   2757764953.8454914        91732967.932596445        768843234.40255916     
   2197312753.5670266        361862739.88413680        751052532.55790198     
   1709305112.0618706        873474374.41337347        793212473.20264089     
   1293742029.3300204        1626567871.5202966        895323056.33674979     
   3581177779.4792042        93215147.814160347        792989700.11349463     
   3081646718.6786108        131097137.73139083        702231599.91105044     
   2643284623.1274509        372875678.48003954        651980914.21011829     
   2266091492.8257294        818550770.06014335        642237643.01069427     
   1950067327.7734177        1468122412.4716604        673001786.31279731     
   3539589948.2866540        53714067.737200737        734135470.68752754     
   3117872505.7719088        84164514.208219290        617205755.50549388     
   2746048434.9827118        280926199.76440263        521340226.83708537     
   2424117735.9190645        643999124.40574288        446538884.68233591     
   2152080408.5809760        1173383288.1322722        392801729.04122299     
   3265898219.3196330       -55418181.672083378        670021890.45871925     
   2866442315.1253767       -49064902.636898160        513765701.18589032     
   2505604189.1327968        86014303.737208843        359130470.43882382     
   2183383841.3418808        349819437.45018381        206116198.21754184     
   1899781271.7526455        742350498.50211751        54722884.522026770     
   5956504391.2954979        1786951317.3886495        1150898462.7940378     
   6087737170.1528091        1502273459.4669955        1228906194.1416972     
   6221500476.9948769        1226030694.8278646        1269540166.4992740     
   6357794311.8217001        958223023.47125638        1272800379.8667676     
   6496618674.6332808        698850445.39717007        1238686834.2441795     
   5433783366.2721205        1630135009.8816361        1034448790.2325881     
   5489646305.8181763        1372384173.3880544        1114763451.2363791     
   5547581500.2695599        1121540853.2455606        1168261143.7381947     
   5607588949.6262684        877605049.45415449        1194941867.7380350     
   5669668653.8883038        640576762.01383591        1194805623.2358999     
   4894901134.7521572        1468470340.4256473        937319510.25777340     
   4905556493.5244112        1246695202.9213734        1019406448.9916939     
   4917825834.1225586        1030300004.8367511        1085233209.7117465     
   4931709156.5466032        819284746.17178297        1134799792.4179311     
   4947206460.7965441        613649426.92646718        1168106197.1102471     
   4339857696.7356138        1301957309.0206840        859510622.86959410     
   4335467733.2715111        1125206548.0669520        942835187.40764153     
   4332233478.5538740        952308149.60143757        1020456364.4199284     
   4330154932.5827036        783262113.62414134        1092374153.9064546     
   4329232095.3579979        618068440.13506258        1158588555.8672209     
   3768653052.2224851        1130595915.6667457        801022128.06804979     
   3779380025.0594797        1007918208.8247911        885049666.48422205     
   3790804433.5635080        887565287.53961861        973930607.86274099     
   3802926277.7345710        769537151.81122947        1067664952.2036072     
   3815745557.5726695        653833801.63962305        1166252699.5068202     
   6496618674.6332808        698850445.39717007        1238686834.2441795     
   6239171735.8370113        371891355.77957821        1055254580.8759530     
   6013015068.3563251        149233170.54726648        911070537.99451745     
   5818148672.1912212        30875889.700230837        806134705.59987640     
   5654572547.3417034        16819513.238471508        740447083.69202507     
   5669668653.8883038        640576762.01383591        1194805623.2358999     
   5519857679.3620300        380053903.96656513        1074885021.8995061     
   5394395966.2136421        200695250.51225257        983181667.61393416     
   5293283514.4431429        102500801.65089607        919695560.37918520     
   5216520324.0505266        85470557.382496595        884426700.19525933     
   4947206460.7965441        613649426.92646718        1168106197.1102471     
   4873514412.1517792        410107688.93297195        1103599402.8783731     
   4817230614.9472094        264593455.74011397        1056278892.2613516     
   4778355069.1828289        177106727.34789300        1026144665.2591844     
   4756887774.8586397        147647503.75630856        1013196721.8718696     
   4329232095.3579979        618068440.13506258        1158588555.8672209     
   4300141934.2062626        462052710.67879832        1141397723.8125541     
   4281519014.5570245        340927786.23085058        1130362211.9367712     
   4273363336.4102793        254693666.79121757        1125482020.2398729     
   4275674899.7660260        203350352.35990143        1126757148.7218583     
   3815745557.5726695        653833801.63962305        1166252699.5068202     
   3799740245.5254793        535888969.20404530        1188279984.7020495     
   3787261165.0430856        429698241.98445976        1205431626.6401927     
   3778308316.1254921        335261619.98087239        1217707625.3212507     
   3772881698.7726970        252579103.19328129        1225107980.7452230     
   5654572547.3417034        16819513.238471508        740447083.69202507     
   5522371539.7996454        48067002.455537319        729112098.37691605     
   5382544874.4496460        53895632.312788963        720984803.28926611     
   5235092551.2917013        34305402.810227394        716065198.42907667     
   5080014570.3258104       -10703686.052156448        714353283.79634523     
   5216520324.0505266        85470557.382496595        884426700.19525933     
   5084528506.1151018        83247616.912211895        859688955.38562298     
   4948874828.1606588        68818476.378543139        839628380.74301291     
   4809559290.1872025        42183135.781495571        824244976.26743138     
   4666581892.1947279        3341595.1210627556        813538741.95887589     
   4756887774.8586397        147647503.75630856        1013196721.8718696     
   4629303660.6428881        113213687.83258414        979680648.32145703     
   4502021484.1970510        79786331.141911268        952311224.87764084     
   4375041245.5211344        47365433.684294224        931088451.54041708     
   4248362944.6151299        15950995.459728956        916012328.30978942     
   4275674899.7660260        203350352.35990143        1126757148.7218583     
   4156697003.3830037        137965215.21665335        1089087177.1844218     
   4041984842.5588264        86799196.602894545        1059033335.6931487     
   3931538417.2934947        49852296.518621445        1036595624.2480389     
   3825357727.5870094        27124514.963836908        1021774042.8490885     
   3772881698.7726970        252579103.19328129        1225107980.7452230     
   3666708534.3354530        157502199.06442761        1187908541.9745159     
   3568764903.2459817        89857072.761491537        1159794713.1895390     
   3479050805.5042877        49643724.284478426        1140766494.3902907     
   3397566241.1103721        36862153.633389473        1130823885.5767744     
   5080014570.3258104       -10703686.052156448        714353283.79634523     
   4959056096.2115221       -44665010.561244488        693763830.10809505     
   4846258606.6949415       -51423053.077967405        675562137.11082590     
   4741622101.7760687       -30977813.602333307        659748204.80454147     
   4645146581.4549055        16670707.865669489        646322033.18923771     
   4666581892.1947279        3341595.1210627556        813538741.95887589     
   4554345170.4664507       -22149399.804200649        799747991.23502052     
   4448492293.0577888       -26360913.664085150        788323828.67469549     
   4349023259.9687376       -9292946.4585924149        779266254.27789807     
   4255938071.1992989        29054501.812274933        772575268.04463398     
   4248362944.6151299        15950995.459728956        916012328.30978942     
   4144787482.3372808       -1087817.7623839378        906946950.22588706     
   4045818724.1009536       -2770950.8461041451        900226987.77805996     
   3951456669.9061418        10901596.208565950        895852440.96630847     
   3861701319.7528448        39929823.401624918        893823309.79063070     
   3825357727.5870094        27124514.963836908        1021774042.8490885     
   3730383031.8240113        18519735.564201593        1015360707.0806918     
   3638237899.8244367        19346835.375970602        1011271614.4209186     
   3548922331.5882821        29605814.399145126        1009506764.8697637     
   3462436327.1155491        49296672.633722544        1010066158.4272329     
   3397566241.1103721        36862153.633389473        1130823885.5767744     
   3311131818.9266429        36673260.175559163        1124989261.7994363     
   3225749820.2282391        39992445.002146006        1121457708.6032693     
   3141420245.0151615        46819708.113147855        1120229225.9882686     
   3058143093.2874045        57155049.508565068        1121303813.9544370     
   4645146581.4549055        16670707.865669489        646322033.18923771     
   4475708075.0435858        49078991.841638803        642771433.57934606     
   4302492314.8048916        68896429.726378441        645774465.40299344     
   4125499300.7388287        76123021.519878626        655331128.66016912     
   3944729032.8453979        70758767.222152948        671441423.35088801     
   4255938071.1992989        29054501.812274933        772575268.04463398     
   4101414911.6122594        53581060.986869812        763203217.02957845     
   3943547799.2324195        66961110.852132320        760569737.86152792     
   3782336734.0597806        69194651.408071518        764674830.54046965     
   3617781716.0943494        60281682.654685020        775518495.06641614     
   3861701319.7528448        39929823.401624918        893823309.79063070     
   3722621908.1714091        56733178.129233837        879135325.24408233     
   3580631844.8317499        63834360.329430580        871370852.95799792     
   3435731129.7338600        61233370.002198100        870529892.93237627     
   3287919762.8777480        48930207.147551656        876612445.16721714     
   3462436327.1155491        49296672.633722544        1010066158.4272329     
   3339329064.7210431        58535343.268751383        990567758.22285676     
   3213744451.6028843        59516178.158266664        978177810.69240880     
   3085682487.7610688        52239177.302265644        972896315.83588767     
   2955143173.1956019        36704340.700752974        974723273.65329170     
   3058143093.2874045        57155049.508565068        1121303813.9544370     
   2951536381.2611523        58987556.405401349        1097500515.9659009     
   2842885619.5458217        54006564.338648319        1080990611.0647604     
   2732190808.1414056        42212073.308272839        1071774099.2510048     
   2619451947.0479083        23604083.314296722        1069850980.5246392     
   3944729032.8453979        70758767.222152948        671441423.35088801     
   3811641206.9001122        64076811.845551968        680949771.71940768     
   3672030129.0701156        35650683.519919157        696719360.27746606     
   3525895799.3554163       -14519617.754724741        718750189.02506924     
   3373238217.7560067       -86434091.978402138        747042257.96221304     
   3617781716.0943494        60281682.654685020        775518495.06641614     
   3499331192.6501808        52744132.576990604        776828601.35733032     
   3376011921.1104450        28977422.180746078        783334375.85212064     
   3247823901.4751434       -11018448.534060121        795035818.55079353     
   3114767133.7442737       -67243479.567418575        811932929.45333743     
   3287919762.8777480        48930207.147551656        876612445.16721714     
   3181062050.5470839        39623714.952487826        871654563.80119658     
   3070990093.9099884        19603075.069326878        870826778.65338469     
   2957703892.9664688       -11131712.501913071        874129089.72378337     
   2841203447.7165260       -52580647.761239052        881561497.01239169     
   2955143173.1956019        36704340.700752974        974723273.65329170     
   2856833780.5908184        24715558.972030401        965427659.05099642     
   2756964647.4687438        7527642.1856765747        959196568.68124437     
   2655535773.8293891       -14859409.658288360        956030002.54404163     
   2552547159.6727471       -42445596.559870601        955927960.63937449     
   2619451947.0479083        23604083.314296722        1069850980.5246392     
   2526646382.7813873        8019664.6356234550        1058147887.1067390     
   2433935581.7867155       -7248876.4702136517        1048443745.9357100     
   2341319544.0639057       -22201540.003182411        1040738557.0115607     
   2248798269.6129484       -36838325.963308215        1035032320.3342859     
   3373238217.7560067       -86434091.978402138        747042257.96221304     
   3333591748.8322277       -121385012.11744738        740652290.19410908     
   3302486259.4515686       -127866000.44608092        725685573.02082908     
   3279921749.6140361       -105877056.96429229        702142106.44236767     
   3265898219.3196330       -55418181.672083378        670021890.45871925     
   3114767133.7442737       -67243479.567418575        811932929.45333743     
   3056901896.4311652       -97354632.179930568        810461841.75670016     
   3006250299.0568242       -103420318.32987845        802436196.81348157     
   2962812341.6212406       -85440538.017299294        787855994.62368190     
   2926588024.1244307       -43415291.242154360        766721235.18729794     
   2841203447.7165260       -52580647.761239052        881561497.01239169     
   2770897133.8958077       -76118725.282696843        883460726.51545858     
   2706477120.4094896       -80035801.689467072        880827590.93055081     
   2647943407.2575808       -64331876.981555700        873662090.25766456     
   2595295994.4400721       -29006951.158966899        861964224.49679780     
   2552547159.6727471       -42445596.559870601        955927960.63937449     
   2475577461.2261343       -57677291.425757408        959648944.47039938     
   2403166723.5095677       -57712450.524834871        960859755.37204599     
   2335314946.5230465       -42551073.857089639        959560393.34431541     
   2272022130.2665710       -12193161.422524929        955750858.38721061     
   2248798269.6129484       -36838325.963308215        1035032320.3342859     
   2170942878.4221630       -42030330.609110713        1039026495.6215115     
   2096319108.3570666       -36450264.835957170        1042532690.1379644     
   2024926959.4176526       -20098128.643862724        1045550903.8836364     
   1956766431.6039212        7026077.9671791792        1048081136.8585389     
   3265898219.3196330       -55418181.672083378        670021890.45871925     
   2866442315.1253767       -49064902.636898160        513765701.18589032     
   2505604189.1327968        86014303.737208843        359130470.43882382     
   2183383841.3418808        349819437.45018381        206116198.21754184     
   1899781271.7526455        742350498.50211751        54722884.522026770     
   2926588024.1244307       -43415291.242154360        766721235.18729794     
   2528643582.0154729       -67352632.640701771        650412640.36522341     
   2151542719.2270517       -21811376.304133177        540635893.33693922     
   1795285435.7591696        93208477.767580211        437390994.10243219     
   1459871731.6118367        277706929.57443416        340677942.66170204     
   2595295994.4400721       -29006951.158966899        861964224.49679780     
   2212894126.6107254       -79025579.332973242        764866658.76416349     
   1833561639.2207847       -118812939.37561452        679211830.09331918     
   1457298532.2702594       -148369031.28689969        604999738.48427558     
   1084104805.7591364       -167693855.06680989        542230383.93701839     
   2272022130.2665710       -12193161.422524929        955750858.38721061     
   1919193948.9111462       -84083742.713690162        857127756.38269866     
   1551660949.1139987       -204990385.47725689        774858280.70798576     
   1169423130.8751292       -374913089.71323055        708942431.36308110     
   772480494.19453573       -593851855.42162740        659380208.34797025     
   1956766431.6039212        7026077.9671791792        1048081136.8585389     
   1647543048.9167268       -82527122.782859087        927195933.22082448     
   1305840648.9066889       -280343714.60905963        827575245.18092811     
   931659231.57379341       -586423697.51144910        749219072.73883212     
   524998796.91804254       -1000767071.4900128        692127415.89456201     
   3768653052.2224851        1130595915.6667457        801022128.06804979     
   3779380025.0594797        1007918208.8247911        885049666.48422205     
   3790804433.5635080        887565287.53961861        973930607.86274099     
   3802926277.7345710        769537151.81122947        1067664952.2036072     
   3815745557.5726695        653833801.63962305        1166252699.5068202     
   3208421401.4540162        962526420.43620491        756823181.39948559     
   3236233234.5135579        867653689.83359730        852975531.21520460     
   3263823968.2553015        772043961.50499940        951000145.26145613     
   3291193602.6792493        675697235.45041180        1050897023.5382402     
   3318342137.7853999        578613511.66983390        1152666166.0455563     
   2686296944.6714473        805889083.40143418        721882938.41024637     
   2722676098.7197819        736266067.26804733        829088475.47654140     
   2757915618.4654856        662844270.12589717        935185138.04155469     
   2792015503.9085608        585623691.97498417        1040172926.1052861     
   2824975755.0490084        504604332.81530839        1144051839.6677353     
   2202279681.8747792        660683904.56243384        696201399.10033178     
   2238708617.6781497        613755341.12814057        813388499.26823258     
   2273079384.1940589        559966213.40231168        926485586.20303679     
   2305391981.4225078        499316521.38494694        1035492659.9047455     
   2335646409.3634958        431806265.07604694        1140409720.3733582     
   1756369613.0640111        526910883.91920334        679778563.46974206     
   1784330791.3886631        500121511.41387749        805875602.59027779     
   1809315265.4410222        463409791.33424318        924901489.74590349     
   1831323035.2210884        416775723.68029988        1036856224.9366180     
   1850354100.7288625        360219308.45204830        1141739808.1624222     
   3815745557.5726695        653833801.63962305        1166252699.5068202     
   3799740245.5254793        535888969.20404530        1188279984.7020495     
   3787261165.0430856        429698241.98445976        1205431626.6401927     
   3778308316.1254921        335261619.98087239        1217707625.3212507     
   3772881698.7726970        252579103.19328129        1225107980.7452230     
   3318342137.7853999        578613511.66983390        1152666166.0455563     
   3295168171.2117181        471448546.39487982        1181096036.7631783     
   3275522232.9731345        376043675.57025051        1206399539.4496713     
   3259404323.0696492        292398899.19594932        1228576674.1050355     
   3246814441.5012612        220514217.27197289        1247627440.7292731     
   2824975755.0490084        504604332.81530839        1144051839.6677353     
   2799631063.1658573        409718613.46608514        1178886392.1397655     
   2777816196.3881040        326598977.80151856        1212343851.8066237     
   2759531154.7157469        255245425.82160771        1244424218.6683118     
   2744775938.1487865        195657957.52635491        1275127492.7248282     
   2335646409.3634958        431806265.07604694        1140409720.3733582     
   2313128921.3878961        350699170.41765958        1181651050.8318114     
   2294143055.2879920        281364148.67826051        1223264563.7110510     
   2278688811.0637851        223801199.85784823        1265250259.0110769     
   2266766188.7152734        178010323.95642376        1307608136.7318888     
   1850354100.7288625        360219308.45204830        1141739808.1624222     
   1835661745.8778341        294390217.24960458        1189390012.8393152     
   1824502809.6728010        240339188.20048082        1239161675.1629519     
   1816877292.1137629        198066221.30467141        1291054795.1333325     
   1812785193.2007208        167571316.56218266        1345069372.7504556     
   3772881698.7726970        252579103.19328129        1225107980.7452230     
   3666708534.3354530        157502199.06442761        1187908541.9745159     
   3568764903.2459817        89857072.761491537        1159794713.1895390     
   3479050805.5042877        49643724.284478426        1140766494.3902907     
   3397566241.1103721        36862153.633389473        1130823885.5767744     
   3246814441.5012612        220514217.27197289        1247627440.7292731     
   3167141072.4628568        143775454.74730325        1226444738.3420854     
   3094008443.6434050        88839159.619143963        1212329005.1365392     
   3027416555.0429068        55705331.887494802        1205280241.1126394     
   2967365406.6613617        44373971.552357793        1205298446.2703822     
   2744775938.1487865        195657957.52635491        1275127492.7248282     
   2685834819.3546906        135527073.05951118        1267991268.0708649     
   2631745647.6507244        91569345.559765577        1265903371.7944596     
   2582508423.0368896        63784775.027124166        1268863803.8956101     
   2538123145.5131826        52173361.461579680        1276872564.3743193     
   2266766188.7152734        178010323.95642376        1307608136.7318888     
   2222789775.0109525        132757054.00104439        1312548131.1608577     
   2181976515.2679410        98047630.583357334        1320517813.1632969     
   2144326409.4862347        73882053.703359008        1331517182.7392077     
   2109839457.6658354        60260323.361051559        1345546239.8885880     
   1812785193.2007208        167571316.56218266        1345069372.7504556     
   1778005939.4316444        135465397.57190979        1360115327.6120625     
   1744701046.4950511        108274014.68991506        1376172329.2430537     
   1712870514.3909433        85997167.916205585        1393240377.6434293     
   1682514343.1193182        68634857.250768960        1411319472.8131890     
   3397566241.1103721        36862153.633389473        1130823885.5767744     
   3311131818.9266429        36673260.175559163        1124989261.7994363     
   3225749820.2282391        39992445.002146006        1121457708.6032693     
   3141420245.0151615        46819708.113147855        1120229225.9882686     
   3058143093.2874045        57155049.508565068        1121303813.9544370     
   2967365406.6613617        44373971.552357793        1205298446.2703822     
   2886381909.6428227        38101058.989871979        1201454074.1880639     
   2806333377.2605476        34944695.214931726        1200903655.2911835     
   2727219809.5145378        34904880.227542877        1203647189.5797403     
   2649041206.4047894        37981614.027696133        1209684677.0537326     
   2538123145.5131826        52173361.461579680        1276872564.3743193     
   2465421666.8148870        40665757.740950942        1274881408.6631174     
   2393537693.9037948        31883173.311002374        1277175088.7416213     
   2322471226.7799063        25825608.171733975        1283753604.6098320     
   2252222265.4432235        22493062.323144555        1294616956.2677455     
   2109839457.6658354        60260323.361051559        1345546239.8885880     
   2048251090.4428363        44367356.428796768        1345271265.2245975     
   1987362770.1579800        30807879.290350914        1350272008.9545808     
   1927174496.8112688        19581891.945723295        1360548471.0785403     
   1867686270.4026997        10689394.394904137        1376100651.5964718     
   1682514343.1193182        68634857.250768960        1411319472.8131890     
   1634870180.5266693        49205855.053405106        1412623643.8725045     
   1587808606.0231054        31718813.152989030        1420194415.9300644     
   1541329619.6086233        16173731.549511075        1434031788.9858680     
   1495433221.2832236        2570610.2429764271        1454135763.0399156     
   3058143093.2874045        57155049.508565068        1121303813.9544370     
   2951536381.2611523        58987556.405401349        1097500515.9659009     
   2842885619.5458217        54006564.338648319        1080990611.0647604     
   2732190808.1414056        42212073.308272839        1071774099.2510048     
   2619451947.0479083        23604083.314296722        1069850980.5246392     
   2649041206.4047894        37981614.027696133        1209684677.0537326     
   2559615443.1522593        37396763.123494744        1187925689.2523808     
   2469065196.5855293        33063634.505304813        1172647274.6052024     
   2377390466.7046065        24982228.173133612        1163849433.1121976     
   2284591253.5094886        13152544.126978755        1161532164.7733676     
   2252222265.4432235        22493062.323144555        1294616956.2677455     
   2177655108.2980795        18794150.817993760        1275975106.0909400     
   2102883034.2136288        14412182.848484039        1263001009.1350956     
   2027906043.1898682        9347158.4146126509        1255694665.4002109     
   1952724135.2268009        3599077.5163820982        1254056074.8862817     
   1867686270.4026997        10689394.394904137        1376100651.5964718     
   1805655376.6986175        3179719.4889105558        1361648766.4815848     
   1744339132.4301131       -1947790.6318252087        1352051814.6544411     
   1683737537.5971885       -4693135.9672906399        1347309796.1150420     
   1623850592.1998422       -5056316.5174968243        1347422710.8633881     
   1495433221.2832236        2570610.2429764271        1454135763.0399156     
   1443616248.3538737       -9446530.8637554049        1444946670.4243114     
   1393433491.2349868       -16016285.935611665        1439799691.1632383     
   1344884949.9265671       -17138654.972577512        1438694825.2566934     
   1297970624.4286132       -12813637.974656701        1441632072.7046776     
   2619451947.0479083        23604083.314296722        1069850980.5246392     
   2526646382.7813873        8019664.6356234550        1058147887.1067390     
   2433935581.7867155       -7248876.4702136517        1048443745.9357100     
   2341319544.0639057       -22201540.003182411        1040738557.0115607     
   2248798269.6129484       -36838325.963308215        1035032320.3342859     
   2284591253.5094886        13152544.126978755        1161532164.7733676     
   2199310520.7458768        2179357.2643430233        1151413103.3971965     
   2114231822.7606823       -8120380.3368996382        1144019291.2803826     
   2029355159.5539038       -17746668.676754355        1139350728.4229195     
   1944680531.1255431       -26699507.755219936        1137407414.8248045     
   1952724135.2268009        3599077.5163820982        1254056074.8862817     
   1877043368.2874594       -2140337.2337993383        1245646195.6428370     
   1801671907.6330945       -6848731.0340553522        1240687862.6712196     
   1726609753.2637093       -10526103.884384036        1239181075.9714272     
   1651856905.1792989       -13172455.784788132        1241125835.5434651     
   1623850592.1998422       -5056316.5174968243        1347422710.8633881     
   1559844925.4061282       -4939418.8588210344        1340847163.8436496     
   1496255836.4039567       -3433928.5616677403        1338449460.1082177     
   1433083325.1933169       -539845.62606966496        1340229599.6570911     
   1370327391.7742190        3742829.9479920864        1346187582.4902620     
   1297970624.4286132       -12813637.974656701        1441632072.7046776     
   1247715192.1018841       -6217887.6107164025        1437016007.9996386     
   1197983609.0732613        2124027.0802425742        1437304083.5913806     
   1148775875.3427322        12212106.098181009        1442496299.4798999     
   1100091990.9103050        24046349.443128705        1452592655.6651995     
   2248798269.6129484       -36838325.963308215        1035032320.3342859     
   2170942878.4221630       -42030330.609110713        1039026495.6215115     
   2096319108.3570666       -36450264.835957170        1042532690.1379644     
   2024926959.4176526       -20098128.643862724        1045550903.8836364     
   1956766431.6039212        7026077.9671791792        1048081136.8585389     
   1944680531.1255431       -26699507.755219936        1137407414.8248045     
   1868798680.5061216       -28397374.411213517        1149741475.9956384     
   1795759062.6334224       -20621131.911456704        1163275286.5329571     
   1725561677.5074551       -3370780.2559305429        1178008846.4367535     
   1658206525.1282094        23353680.555332303        1193942155.7070305     
   1651856905.1792989       -13172455.784788132        1241125835.5434651     
   1582770681.2376897       -9929558.6190252304        1261345496.1557872     
   1516137301.6638436        1489486.4392837286        1284452636.2718475     
   1451956766.4577649        21084679.390154004        1310447255.8916483     
   1390229075.6194520        48856020.233568192        1339329355.0151839     
   1370327391.7742190        3742829.9479920864        1346187582.4902620     
   1312858880.6168692        13373116.767440557        1373838556.1019540     
   1257453825.4483228        29881590.216234803        1406064739.3546407     
   1204112226.2685831        53268250.294387698        1442866132.2483218     
   1152834083.0776470        83533097.001884818        1484242734.7830026     
   1100091990.9103050        24046349.443128705        1452592655.6651995     
   1059063278.6436617        41510651.748195291        1487220655.8341422     
   1019708633.9868598        64555179.419398189        1528111595.7813327     
   982028056.93991244        93179932.456786811        1575265475.5067778     
   946021547.50280344        127384910.86030325        1628682295.0104795     
   1956766431.6039212        7026077.9671791792        1048081136.8585389     
   1647543048.9167268       -82527122.782859087        927195933.22082448     
   1305840648.9066889       -280343714.60905963        827575245.18092811     
   931659231.57379341       -586423697.51144910        749219072.73883212     
   524998796.91804254       -1000767071.4900128        692127415.89456201     
   1658206525.1282094        23353680.555332303        1193942155.7070305     
   1408730560.7781751       -36288023.081826150        1049216867.8486325     
   1135491536.7426159       -175139925.67072189        922283963.77956367     
   838489453.02152801       -393202027.21138477        813143443.49983191     
   517724309.61492008       -690474327.70377827        721795307.00944555     
   1390229075.6194520        48856020.233568192        1339329355.0151839     
   1190580153.0109322        16149700.730602801        1180932600.1796448     
   975884128.35421753       -66713625.599681854        1036856097.3249660     
   746141001.64930391       -199733958.75729820        907099846.45114446     
   501350772.89619291       -382911298.74223202        791663847.55819380     
   1152834083.0776470        83533097.001884818        1484242734.7830026     
   993091825.61500669        74786048.654421955        1322343130.2138698     
   827018423.74148977        44935185.604052812        1171291645.8171265     
   654613877.45710588       -6019492.1492153108        1031088281.5927657     
   475878186.76185703       -78077984.605364949        901733037.54080188     
   946021547.50280344        127384910.86030325        1628682295.0104795     
   816265578.59039283        139621020.68963459        1473448457.9513049     
   688894422.90444350        159806507.94050351        1325590609.2560439     
   563908080.44494724        187941372.61288553        1185108748.9246924     
   441306551.21191877        224025614.70682132        1052002876.9572672     
   1756369613.0640111        526910883.91920334        679778563.46974206     
   1784330791.3886631        500121511.41387749        805875602.59027779     
   1809315265.4410222        463409791.33424318        924901489.74590349     
   1831323035.2210884        416775723.68029988        1036856224.9366180     
   1850354100.7288625        360219308.45204830        1141739808.1624222     
   1326454158.3762372        397936247.51287115        669459265.15377927     
   1339689741.9093537        375523628.07592857        791278749.01154780     
   1350692797.2378891        345669247.95704782        907831984.28649616     
   1359463324.3618424        308373107.15622902        1019118970.9786240     
   1366001323.2812147        263635205.67347211        1125139709.0879321     
   890420737.94855154        267126221.38456547        662088337.78774536     
   894087593.49610496        250637415.05779761        780498471.79507661     
   896266096.90678799        229187434.94146219        895447260.60167754     
   896956248.18060088        202776281.03555930        1006934704.2075486     
   896158047.31754327        171403953.34008884        1114960802.6126893     
   448269351.78095424        134480805.53428626        657665781.37164044     
   447524346.14891630        125462872.35948475        773534770.94086385     
   446035164.44771945        113964352.28748642        887747318.69144726     
   443801806.67736340        99985245.318290904        1000303424.6233907     
   440824272.83784819        83525551.451898396        1111203088.7366939     
 -0.12655501646641198       -3.7966504939923595E-002   656191595.90546417     
 -0.13221196687817816       -1.9009850927830262E-002   770387646.44890940     
 -0.13931710638605951       -4.8799734857447596E-003   884732158.55580473     
 -0.14787001751264811        4.4238250883023578E-003   999225132.22615063     
 -0.15787086610513340        8.9008184979986471E-003   1113866567.4599469     
   1850354100.7288625        360219308.45204830        1141739808.1624222     
   1835661745.8778341        294390217.24960458        1189390012.8393152     
   1824502809.6728010        240339188.20048082        1239161675.1629519     
   1816877292.1137629        198066221.30467141        1291054795.1333325     
   1812785193.2007208        167571316.56218266        1345069372.7504556     
   1366001323.2812147        263635205.67347211        1125139709.0879321     
   1360569872.8093500        215939731.97247690        1180823358.9905128     
   1357788486.3217146        177077804.88557991        1237324642.8838346     
   1357657163.8183081        147049424.41278124        1294643560.7678959     
   1360175905.2991321        125854590.55408025        1352780112.6426995     
   896158047.31754327        171403953.34008884        1114960802.6126893     
   896262290.77911925        140724534.00682440        1177647317.3022316     
   898133243.56315899        115934145.74843958        1239847642.3265114     
   901770905.66966140        97032788.564930886        1301561777.6855283     
   907175277.09862804        84020462.456302732        1362789723.3792822     
   440824272.83784819        83525551.451898396        1111203088.7366939     
   442738999.78714228        68744623.352648854        1179861887.7744703     
   445537081.39713395        56908210.789057449        1246730673.4909813     
   449218517.66782308        48016313.761125132        1311809445.8862267     
   453783308.59920990        42068932.268850803        1375098204.9602072     
 -0.15787086610513340        8.9008184979986471E-003   1113866567.4599469     
 -0.16658138925039645        9.9482750334259837E-003   1187467070.4072299     
 -0.17636021992601020        7.4352268847271974E-003   1257973736.3772454     
 -0.18720765265370762        1.3599984234018703E-003   1325386565.3699918     
 -0.19912254080033398       -8.2737617123818524E-003   1389705557.3854711     
   1812785193.2007208        167571316.56218266        1345069372.7504556     
   1778005939.4316444        135465397.57190979        1360115327.6120625     
   1744701046.4950511        108274014.68991506        1376172329.2430537     
   1712870514.3909433        85997167.916205585        1393240377.6434293     
   1682514343.1193182        68634857.250768960        1411319472.8131890     
   1360175905.2991321        125854590.55408025        1352780112.6426995     
   1331076507.8953905        100870664.18643081        1369545920.0744646     
   1303082881.1160483        79572639.900110245        1388026264.2588046     
   1276195024.9611080        61960517.695129097        1408221145.1957216     
   1250412939.4305656        48034297.571477950        1430130562.8852143     
   907175277.09862804        84020462.456302732        1362789723.3792822     
   885765707.44076967        66761520.125440717        1380845361.4717748     
   865093318.19922662        51959845.848963886        1401319026.3000338     
   845158109.37400007        39615439.626874149        1424210717.8640597     
   825960080.96508861        29728301.459168583        1449520436.1638544     
   453783308.59920990        42068932.268850803        1375098204.9602072     
   442073538.06778193        33137965.388941064        1394013651.8039927     
   430732357.74458623        25435632.536471918        1416050615.3667388     
   419759767.62962008        18961933.711435080        1441209095.6484430     
   409155767.72288680        13716868.913840666        1469489092.6491067     
 -0.19912254080033398       -8.2737617123818524E-003   1389705557.3854711     
 -0.22357293443315754       -2.3068537693624380E-002   1409050791.0711203     
 -0.24787541524845585       -3.7369924005087506E-002   1432221031.4589205     
 -0.27203082963878195       -5.1181349108498170E-002   1459216278.5488720     
 -0.29603933773245683       -6.4502913084056937E-002   1490036532.3409734     
   1682514343.1193182        68634857.250768960        1411319472.8131890     
   1634870180.5266693        49205855.053405106        1412623643.8725045     
   1587808606.0231054        31718813.152989030        1420194415.9300644     
   1541329619.6086233        16173731.549511075        1434031788.9858680     
   1495433221.2832236        2570610.2429764271        1454135763.0399156     
   1250412939.4305656        48034297.571477950        1430130562.8852143     
   1219492424.9922659        34906328.172035873        1434144979.2358220     
   1189008851.6195889        23234828.991341412        1443303054.8304729     
   1158962219.3125367        13019800.029393256        1457604789.6691642     
   1129352528.0711083        4261241.2861928344        1477050183.7518995     
   825960080.96508861        29728301.459168583        1449520436.1638544     
   808554809.66913152        21938843.354045451        1456075176.2783842     
   791440832.41533983        15120365.389473826        1466650633.8827553     
   774618149.20371258        9272867.5654524267        1481246808.9769666     
   758086760.03425241        4396349.8819845617        1499863701.5610192     
   409155767.72288680        13716868.913840666        1469489092.6491067     
   402057334.55726868        10303400.599435791        1478414235.0001926     
   395104548.41035652        7375422.3473844528        1490237153.0869153     
   388297409.28215313        4932934.1576952487        1504957846.9092784     
   381635917.17265433        2975936.0303548723        1522576316.4672821     
 -0.29603933773245683       -6.4502913084056937E-002   1490036532.3409734     
 -0.34332230282151271       -9.1790654747399794E-002   1501162155.4012446     
 -0.39535803660199625      -0.13492061177080669        1514062612.4429526     
 -0.45214531523602675      -0.19388939858406520        1528737903.4660985     
 -0.51368433316513673      -0.26869696943622656        1545188028.4706829     
   1495433221.2832236        2570610.2429764271        1454135763.0399156     
   1443616248.3538737       -9446530.8637554049        1444946670.4243114     
   1393433491.2349868       -16016285.935611665        1439799691.1632383     
   1344884949.9265671       -17138654.972577512        1438694825.2566934     
   1297970624.4286132       -12813637.974656701        1441632072.7046776     
   1129352528.0711083        4261241.2861928344        1477050183.7518995     
   1089217713.5382009       -5133240.0056540370        1467862986.8189228     
   1050308560.8663535       -10442181.760632098        1463014723.0329385     
   1012625070.0555634       -11665583.978752315        1462505392.3939457     
   976167241.10583282       -8803446.6600075364        1466334994.9019454     
   758086760.03425241        4396349.8819845617        1499863701.5610192     
   730482160.44768393       -2121054.6299934387        1490201754.0363646     
   703694668.77276611       -5914766.1031385064        1485175559.4511631     
   677724285.00949979       -6984784.5374452174        1484785117.8054147     
   652571009.15788531       -5331109.9329118431        1489030429.0991242     
   381635917.17265433        2975936.0303548723        1522576316.4672821     
   367409589.08231825       -409974.73679287732        1511962972.0766368     
   353591814.95422530       -2434038.9631293863        1506282200.4179075     
   340182594.78837687       -3096256.6486524940        1505534001.4910972     
   327181928.58476996       -2396627.7933681160        1509718375.2962029     
 -0.51368433316513673      -0.26869696943622656        1545188028.4706829     
 -0.55789539654682585      -0.32604752231435441        1533146640.9397388     
 -0.58926931557733320      -0.34060724707718115        1526334645.9331753     
 -0.60780912125701791      -0.31238642053158477        1524752043.4509912     
 -0.61350910615501508      -0.24136688526975358        1528398833.4931870     
   1297970624.4286132       -12813637.974656701        1441632072.7046776     
   1247715192.1018841       -6217887.6107164025        1437016007.9996386     
   1197983609.0732613        2124027.0802425742        1437304083.5913806     
   1148775875.3427322        12212106.098181009        1442496299.4798999     
   1100091990.9103050        24046349.443128705        1452592655.6651995     
   976167241.10583282       -8803446.6600075364        1466334994.9019454     
   938222006.48941243       -3932731.9709389210        1461655789.7130978     
   900669658.84951282        2247605.9732023478        1461939912.2372930     
   863510198.18614280        9737567.1724394560        1467187362.4745317     
   826743624.49929261        18537151.626746148        1477398140.4248159     
   652571009.15788531       -5331109.9329118431        1489030429.0991242     
   627105079.15538490       -2134698.8476398587        1484135294.0512908     
   601901073.80783439        1934794.4207996726        1484262674.1327667     
   576958993.11523116        6877369.8723946214        1489412569.3435528     
   552278837.07757664        12693027.507152528        1499584979.6836476     
   327181928.58476996       -2396627.7933681160        1509718375.2962029     
   314364410.09980583       -823788.24080532789        1504454521.0142164     
   301677853.94821560        1185592.4230032265        1504272369.2778029     
   289122260.12999874        3631514.1980568022        1509171920.0869651     
   276697628.64515275        6513977.0843465030        1519153173.4417019     
 -0.61350910615501508      -0.24136688526975358        1528398833.4931870     
 -0.67732143154215418      -0.15042863932523720        1522613470.6018736     
 -0.72933561662574498       -2.0162912090864377E-002   1521968997.6724007     
 -0.76955494403636515       0.14941848696970150        1526465414.7047660     
 -0.79797459848665142       0.35833282312077019        1536102721.6989701     
   1100091990.9103050        24046349.443128705        1452592655.6651995     
   1059063278.6436617        41510651.748195291        1487220655.8341422     
   1019708633.9868598        64555179.419398189        1528111595.7813327     
   982028056.93991244        93179932.456786811        1575265475.5067778     
   946021547.50280344        127384910.86030325        1628682295.0104795     
   826743624.49929261        18537151.626746148        1477398140.4248159     
   799859433.17695904        32801581.278252006        1512890813.9189734     
   774230792.56239760        51251179.955664366        1553739380.5120938     
   749857702.65560317        73885947.658965915        1599943840.2041759     
   726740163.45658267        100705884.38818623        1651504192.9952173     
   552278837.07757664        12693027.507152528        1499584979.6836476     
   536947604.75872529        22980115.922858477        1535454056.7839365     
   522453406.24556828        36057317.024209559        1575771980.3038957     
   508796241.53810710        51924630.811215475        1620538750.2435246     
   495976110.63634074        70582057.283869505        1669754366.6028256     
   276697628.64515275        6513977.0843465030        1519153173.4417019     
   270327793.38895506        12046255.682004511        1554910384.4290304     
   264376475.03637561        18973590.625054516        1594209395.1567364     
   258843673.58741534        27295981.913503088        1637050205.6248257     
   253729389.04207328        37013429.547345094        1683432815.8332970     
 -0.79797459848665142       0.35833282312077019        1536102721.6989701     
 -0.93235291282339339       0.55567922058613184        1571259796.8542528     
  -1.0651838843201966       0.75818273362856559        1609051625.0706229     
  -1.1964753135138342       0.96581770740352224        1649478206.3480842     
  -1.3262200861317655        1.1786095908762815        1692539540.6866357     
   946021547.50280344        127384910.86030325        1628682295.0104795     
   816265578.59039283        139621020.68963459        1473448457.9513049     
   688894422.90444350        159806507.94050351        1325590609.2560439     
   563908080.44494724        187941372.61288553        1185108748.9246924     
   441306551.21191877        224025614.70682132        1052002876.9572672     
   726740163.45658267        100705884.38818623        1651504192.9952173     
   617737090.03682876        106377137.76693569        1496049296.6410654     
   510522626.51309949        118010424.13243268        1350697144.5597937     
   405096772.88539362        135605743.48468059        1215447736.7514153     
   301459529.15371865        159163095.82368708        1090301073.2158968     
   495976110.63634074        70582057.283869505        1669754366.6028256     
   415516663.87771505        72025673.562578559        1513382840.4015253     
   336249623.68468034        77443978.393253461        1369840814.3820710     
   258174990.05723518        86836971.775896072        1239128288.5444605     
   181292762.99537927        100204653.71050441        1121245262.8886931     
   253729389.04207328        37013429.547345094        1683432815.8332970     
   209604300.11305365        36566628.076567098        1525449089.2326748     
   166075414.41918364        38107170.722953886        1383021618.7228570     
   123142731.96046722        41635057.486517757        1256150404.3038521     
   80806252.736910090        47150288.367282815        1144835445.9756584     
  -1.3262200861317655        1.1786095908762815        1692539540.6866357     
  -1.2571658915348705        1.3088715550951142        1532248043.1345124     
  -1.2833949562425888        1.1215205732970659        1390239557.5821636     
  -1.4049034142997447       0.61657300144633864        1266514084.0295882     
  -1.6216912428308643      -0.20597177809487627        1161071622.4767921     
 -0.12655501646641198       -3.7966504939923595E-002   656191595.90546417     
 -0.13221196687817816       -1.9009850927830262E-002   770387646.44890940     
 -0.13931710638605951       -4.8799734857447596E-003   884732158.55580473     
 -0.14787001751264811        4.4238250883023578E-003   999225132.22615063     
 -0.15787086610513340        8.9008184979986471E-003   1113866567.4599469     
  -448269352.03004110       -134480805.60901234        657665781.38864553     
  -447524346.40978807       -125462872.39936335        773534770.95749748     
  -446035164.72324055       -113964352.30206613        887747318.70805478     
  -443801806.97039855       -99985245.317120299        1000303424.6403174     
  -440824273.15126204       -83525551.444526717        1111203088.7542853     
  -890420738.18556917       -267126221.45567074        662088337.82061279     
  -894087593.74439132       -250637415.09682480        780498471.82723761     
  -896266097.16917682       -229187434.95785594        895447260.63382292     
  -896956248.45992517       -202776281.03876388        1006934704.2403685     
  -896158047.61663675       -171403953.33954889        1114960802.6468749     
  -1326454158.5931389       -397936247.57794166        669459265.20136607     
  -1339689742.1360221       -375523628.11139446        791278749.05813003     
  -1350692797.4771254       -345669247.97224945        907831984.33310926     
  -1359463324.6164501       -308373107.16050702        1019118971.0263041     
  -1366001323.5539944       -263635205.67616615        1125139709.1377149     
  -1756369613.2527509       -526910883.97582525        679778563.53090525     
  -1784330791.5846798       -500121511.44307238        805875602.65017414     
  -1809315265.6470873       -463409791.34524703        924901489.80591393     
  -1831323035.4399724       -416775723.68234932        1036856224.9981244     
  -1850354100.9633360       -360219308.45437860        1141739808.2268057     
 -0.15787086610513340        8.9008184979986471E-003   1113866567.4599469     
 -0.16658138925039645        9.9482750334259837E-003   1187467070.4072299     
 -0.17636021992601020        7.4352268847271974E-003   1257973736.3772454     
 -0.18720765265370762        1.3599984234018703E-003   1325386565.3699918     
 -0.19912254080033398       -8.2737617123818524E-003   1389705557.3854711     
  -440824273.15126204       -83525551.444526717        1111203088.7542853     
  -442739000.11788094       -68744623.345889181        1179861887.7940600     
  -445537081.74742973       -56908210.790350795        1246730673.5132687     
  -449218518.03990817       -48016313.777911454        1311809445.9119098     
  -453783308.99531633       -42068932.308571234        1375098204.9899852     
  -896158047.61663675       -171403953.33954889        1114960802.6468749     
  -896262291.09344506       -140724534.00900641        1177647317.3403025     
  -898133243.89504433       -115934145.76110110        1239847642.3698657     
  -901770906.02143466       -97032788.595831960        1301561777.7355630     
  -907175277.47261620       -84020462.513200074        1362789723.4373968     
  -1366001323.5539944       -263635205.67616615        1125139709.1377149     
  -1360569873.0932732       -215939731.97940338        1180823359.0459573     
  -1357788486.6192040       -177077804.90481547        1237324642.9470367     
  -1357657164.1317868       -147049424.45239991        1294643560.8409529     
  -1360175905.6310222       -125854590.62216145        1352780112.7277064     
  -1850354100.9633360       -360219308.45437860        1141739808.2268057     
  -1835661746.1173654       -294390217.25707853        1189390012.9110243     
  -1824502809.9199080       -240339188.22149181        1239161675.2447820     
  -1816877292.3709641       -198066221.34761518        1291054795.2280779     
  -1812785193.4705343       -167571316.63545293        1345069372.8609133     
 -0.19912254080033398       -8.2737617123818524E-003   1389705557.3854711     
 -0.22357293443315754       -2.3068537693624380E-002   1409050791.0711203     
 -0.24787541524845585       -3.7369924005087506E-002   1432221031.4589205     
 -0.27203082963878195       -5.1181349108498170E-002   1459216278.5488720     
 -0.29603933773245683       -6.4502913084056937E-002   1490036532.3409734     
  -453783308.99531633       -42068932.308571234        1375098204.9899852     
  -442073538.51174736       -33137965.462817818        1394013651.8415997     
  -430732358.23686171       -25435632.646008387        1416050615.4140286     
  -419759768.17065859       -18961933.858141199        1441209095.7072725     
  -409155768.31313956       -13716869.099220261        1469489092.7213297     
  -907175277.47261620       -84020462.513200074        1362789723.4373968     
  -885765707.85627472       -66761520.219473094        1380845361.5446742     
  -865093318.65744615       -51959845.984122813        1401319026.3914304     
  -845158109.87613297       -39615439.807154953        1424210717.9776645     
  -825960081.51233196       -29728301.688562781        1449520436.3033769     
  -1360175905.6310222       -125854590.62216145        1352780112.7277064     
  -1331076508.2571554       -100870664.29303592        1369545920.1803448     
  -1303082881.5096323       -79572640.051721990        1388026264.3911257     
  -1276195025.3884540       -61960517.898222804        1408221145.3600485     
  -1250412939.8936179       -48034297.832535505        1430130563.0871127     
  -1812785193.4705343       -167571316.63545293        1345069372.8609133     
  -1778005939.7143881       -135465397.68350053        1360115327.7486115     
  -1744701046.7934165       -108274014.84879643        1376172329.4131150     
  -1712870514.7076204       -85997168.131343484        1393240377.8544228     
  -1682514343.4569969       -68634857.531133533        1411319473.0725377     
 -0.29603933773245683       -6.4502913084056937E-002   1490036532.3409734     
 -0.34332230282151271       -9.1790654747399794E-002   1501162155.4012446     
 -0.39535803660199625      -0.13492061177080669        1514062612.4429526     
 -0.45214531523602675      -0.19388939858406520        1528737903.4660985     
 -0.51368433316513673      -0.26869696943622656        1545188028.4706829     
  -409155768.31313956       -13716869.099220261        1469489092.7213297     
  -402057335.23855197       -10303400.851417080        1478414235.0783784     
  -395104549.19236171       -7375422.6982706934        1490237153.1765616     
  -388297410.17457068       -4932934.6397892833        1504957847.0158796     
  -381635918.18517816       -2975936.6759673357        1522576316.5963275     
  -825960081.51233196       -29728301.688562781        1449520436.3033769     
  -808554810.28817070       -21938843.657358557        1456075176.4296174     
  -791440833.11605358       -15120365.799632430        1466650634.0566874     
  -774618149.99597907       -9272868.1153841317        1481246809.1845880     
  -758086760.92794919       -4396350.6046158373        1499863701.8133175     
  -1250412939.8936179       -48034297.832535505        1430130563.0871127     
  -1219492425.4921796       -34906328.509617031        1434144979.4549572     
  -1189008852.1664305       -23234829.438997924        1443303055.0833282     
  -1158962219.9163711       -13019800.620677352        1457604789.9722261     
  -1129352528.7420003       -4261242.0546525717        1477050184.1216502     
  -1682514343.4569969       -68634857.531133533        1411319473.0725377     
  -1634870180.8505771       -49205855.408191383        1412623644.1544003     
  -1587808606.3434935       -31718813.616366506        1420194416.2564857     
  -1541329619.9357450       -16173732.155661583        1434031789.3787928     
  -1495433221.6273305       -2570611.0260696411        1454135763.5213242     
 -0.51368433316513673      -0.26869696943622656        1545188028.4706829     
 -0.55789539654682585      -0.32604752231435441        1533146640.9397388     
 -0.58926931557733320      -0.34060724707718115        1526334645.9331753     
 -0.60780912125701791      -0.31238642053158477        1524752043.4509912     
 -0.61350910615501508      -0.24136688526975358        1528398833.4931870     
  -381635918.18517816       -2975936.6759673357        1522576316.5963275     
  -367409590.18113512        409973.96393360198        1511962972.2750175     
  -353591816.11242324        2434038.1527310461        1506282200.6901572     
  -340182595.97904277        3096255.8904240876        1505534001.8417442     
  -327181929.78099245        2396627.1770156771        1509718375.7297852     
  -758086760.92794919       -4396350.6046158373        1499863701.8133175     
  -730482161.41259718        2121053.7714459002        1490201754.4287789     
  -703694669.78074312        5914765.2025166452        1485175559.9927585     
  -677724286.03238475        6984783.6885989010        1484785118.5052590     
  -652571010.16752434        5331109.2296903729        1489030429.9662774     
  -1129352528.7420003       -4261242.0546525717        1477050184.1216502     
  -1089217714.2522812        5133239.0964902043        1467862987.4010203     
  -1050308561.5942259        10442180.808756411        1463014723.8409803     
  -1012625070.7678351        11665583.082139432        1462505393.4415314     
  -976167241.77310586        8803445.9166500568        1466334996.2026725     
  -1495433221.6273305       -2570611.0260696411        1454135763.5213242     
  -1443616248.7001867        9446529.9390739202        1444946671.1917443     
  -1393433491.5528743        16016284.971443355        1439799692.2348237     
  -1344884950.1853902        17138654.071052790        1438694826.6505642     
  -1297970624.5977383        12813637.237891257        1441632074.4389634     
 -0.61350910615501508      -0.24136688526975358        1528398833.4931870     
 -0.67732143154215418      -0.15042863932523720        1522613470.6018736     
 -0.72933561662574498       -2.0162912090864377E-002   1521968997.6724007     
 -0.76955494403636515       0.14941848696970150        1526465414.7047660     
 -0.79797459848665142       0.35833282312077019        1536102721.6989701     
  -327181929.78099245        2396627.1770156771        1509718375.7297852     
  -314364411.41910839        823787.80970780551        1504454521.5319867     
  -301677855.36566305       -1185592.5857307762        1504272369.8824801     
  -289122261.62065613       -3631514.0092973262        1509171920.7812665     
  -276697630.18409127       -6513976.4610026777        1519153174.2283399     
  -652571010.16752434        5331109.2296903729        1489030429.9662774     
  -627105080.27579582        2134698.3353824317        1484135295.0883877     
  -601901075.01274538       -1934794.6545184851        1484262675.3452401     
  -576958994.37837040       -6877369.7400036752        1489412570.7368348     
  -552278838.37267292       -12693026.921082646        1499584981.2631712     
  -976167241.77310586        8803445.9166500568        1466334996.2026725     
  -938222007.24739003        3932731.4265775681        1461655791.2710764     
  -900669659.67058742       -2247606.2265390158        1461939914.0606787     
  -863510199.04269576       -9737567.0426934361        1467187364.5714746     
  -826743625.36371875       -18537151.021892756        1477398142.8034618     
  -1297970624.5977383        12813637.237891257        1441632074.4389634     
  -1247715192.3338842        6217887.0833109617        1437016010.0800588     
  -1197983609.3391829       -2124027.3017756939        1437304086.0287981     
  -1148775875.6136312       -12212105.917364597        1442496302.2851818     
  -1100091991.1572299       -24046348.763452411        1452592658.8492115     
 -0.79797459848665142       0.35833282312077019        1536102721.6989701     
 -0.93235291282339339       0.55567922058613184        1571259796.8542528     
  -1.0651838843201966       0.75818273362856559        1609051625.0706229     
  -1.1964753135138342       0.96581770740352224        1649478206.3480842     
  -1.3262200861317655        1.1786095908762815        1692539540.6866357     
  -276697630.18409127       -6513976.4610026777        1519153174.2283399     
  -270327795.18293631       -12046254.630212024        1554910385.2911923     
  -264376477.07348245       -18973589.105090849        1594209396.0971811     
  -258843675.85572764       -27295979.885631897        1637050206.6463125     
  -253729391.52967522       -37013426.971849471        1683432816.9385865     
  -552278838.37267292       -12693026.921082646        1499584981.2631712     
  -536947606.28727520       -22980114.872239888        1535454058.5248075     
  -522453407.98682153       -36057315.439879894        1575771982.2116339     
  -508796243.47131109       -51924628.623997450        1620538752.3236463     
  -495976112.74074441       -70582054.424594447        1669754368.8608518     
  -826743625.36371875       -18537151.021892756        1477398142.8034618     
  -799859434.24536335       -32801580.170387536        1512890816.5550995     
  -774230793.80519807       -51251178.246178538        1553739383.4139774     
  -749857704.04321504       -73885945.249244243        1599943843.3800945     
  -726740164.95942569       -100705881.17962222        1651504196.4534495     
  -1100091991.1572299       -24046348.763452411        1452592658.8492115     
  -1059063279.0572042       -41510650.524659276        1487220659.3820672     
  -1019708634.5286148       -64555177.523991704        1528111599.7042100     
  -982028057.57145011       -93179929.761404246        1575265479.8156435     
  -946021548.18572056       -127384907.23693407        1628682299.7163637     
  -1.3262200861317655        1.1786095908762815        1692539540.6866357     
  -1.2571658915348705        1.3088715550951142        1532248043.1345124     
  -1.2833949562425888        1.1215205732970659        1390239557.5821636     
  -1.4049034142997447       0.61657300144633864        1266514084.0295882     
  -1.6216912428308643      -0.20597177809487627        1161071622.4767921     
  -253729391.52967522       -37013426.971849471        1683432816.9385865     
  -209604302.42147169       -36566625.022880837        1525449090.2142699     
  -166075416.68494129       -38107167.646156490        1383021619.5621331     
  -123142734.32008493       -41635054.841682568        1256150404.9821692     
  -80806255.326907158       -47150286.609462917        1144835446.4743836     
  -495976112.74074441       -70582054.424594447        1669754368.8608518     
  -415516665.81509805       -72025670.023414388        1513382842.4752212     
  -336249625.53752416       -77443974.449141636        1369840816.2341678     
  -258174991.90801671       -86836967.701759994        1239128290.1376956     
  -181292764.92658508       -100204649.78129265        1121245264.1857915     
  -726740164.95942569       -100705881.17962222        1651504196.4534495     
  -617737091.43805122       -106377133.69274683        1496049299.9173727     
  -510522627.84114236       -118010419.28742881        1350697147.5982726     
  -405096774.16870248       -135605737.96366858        1215447739.4961538     
  -301459530.42072695       -159163089.72146159        1090301075.6110089     
  -946021548.18572056       -127384907.23693407        1628682299.7163637     
  -816265579.29033196       -139621016.03088424        1473448462.5407159     
  -688894423.59580839       -159806502.16105366        1325590613.6544473     
  -563908081.10213435       -187941365.62739345        1185108753.0575519     
  -441306551.80933523       -224025606.42997041        1052002880.7500334     
  -1756369613.2527509       -526910883.97582525        679778563.53090525     
  -1784330791.5846798       -500121511.44307238        805875602.65017414     
  -1809315265.6470873       -463409791.34524703        924901489.80591393     
  -1831323035.4399724       -416775723.68234932        1036856224.9981244     
  -1850354100.9633360       -360219308.45437860        1141739808.2268057     
  -2202279682.0291781       -660683904.60875344        696201399.17314899     
  -2238708617.8379722       -613755341.15301657        813388499.33826745     
  -2273079384.3617582       -559966213.41391611        926485586.27171421     
  -2305391981.6005344       -499316521.39145213        1035492659.9734898     
  -2335646409.5543022       -431806265.08562464        1140409720.4435942     
  -2686296944.7871938       -805889083.43615806        721882938.49201655     
  -2722676098.8389740       -736266067.28727341        829088475.55438590     
  -2757915618.5902586       -662844270.13673413        935185138.11694193     
  -2792015504.0410452       -585623691.98453999        1040172926.1796842     
  -2824975755.1913366       -504604332.83069110        1144051839.7426133     
  -3208421401.5267982       -962526420.45803952        756823181.48750758     
  -3236233234.5876846       -867653689.84584296        852975531.29852986     
  -3263823968.3325872       -772043961.51370072        951000145.34159672     
  -3291193602.7615066       -675697235.46161246        1050897023.6167082     
  -3318342137.8744421       -578613511.68957889        1152666166.1238642     
  -3768653052.2479911       -1130595915.6743975        801022128.15962195     
  -3779380025.0841041       -1007918208.8287253        885049666.57069933     
  -3790804433.5887461       -887565287.54481626        973930607.94567895     
  -3802926277.7619166       -769537151.82266998        1067664952.2845610     
  -3815745557.6036162       -653833801.66228700        1166252699.5873456     
  -1850354100.9633360       -360219308.45437860        1141739808.2268057     
  -1835661746.1173654       -294390217.25707853        1189390012.9110243     
  -1824502809.9199080       -240339188.22149181        1239161675.2447820     
  -1816877292.3709641       -198066221.34761518        1291054795.2280779     
  -1812785193.4705343       -167571316.63545293        1345069372.8609133     
  -2335646409.5543022       -431806265.08562464        1140409720.4435942     
  -2313128921.5777264       -350699170.43389040        1181651050.9077530     
  -2294143055.4794774       -281364148.70990640        1223264563.7948916     
  -2278688811.2595520       -223801199.91367114        1265250259.1050093     
  -2266766188.9179530       -178010324.04518712        1307608136.8381071     
  -2824975755.1913366       -504604332.83069110        1144051839.7426133     
  -2799631063.3028994       -409718613.49014503        1178886392.2185991     
  -2777816196.5225973       -326598977.84338534        1212343851.8910055     
  -2759531154.8504310       -255245425.89041448        1244424218.7598321     
  -2744775938.2864022       -195657957.63123095        1275127492.8250787     
  -3318342137.8744421       -578613511.68957889        1152666166.1238642     
  -3295168171.2928796       -471448546.42584050        1181096036.8435638     
  -3275522233.0492678       -376043675.62192965        1206399539.5331244     
  -3259404323.1436009       -292398899.27784288        1228576674.1925457     
  -3246814441.5758839       -220514217.39358354        1247627440.8218284     
  -3815745557.6036162       -653833801.66228700        1166252699.5873456     
  -3799740245.5476732       -535888969.24098241        1188279984.7826455     
  -3787261165.0594878       -429698242.04553914        1205431626.7212470     
  -3778308316.1390643       -335261620.07596242        1217707625.4031506     
  -3772881698.7863970       -252579103.33224678        1225107980.8283560     
  -1812785193.4705343       -167571316.63545293        1345069372.8609133     
  -1778005939.7143881       -135465397.68350053        1360115327.7486115     
  -1744701046.7934165       -108274014.84879643        1376172329.4131150     
  -1712870514.7076204       -85997168.131343484        1393240377.8544228     
  -1682514343.4569969       -68634857.531133533        1411319473.0725377     
  -2266766188.9179530       -178010324.04518712        1307608136.8381071     
  -2222789775.2088141       -132757054.12854385        1312548131.2882764     
  -2181976515.4644976       -98047630.761301279        1320517813.3182440     
  -2144326409.6849992       -73882053.943458080        1331517182.9280090     
  -2109839457.8703213       -60260323.675014734        1345546240.1175723     
  -2744775938.2864022       -195657957.63123095        1275127492.8250787     
  -2685834819.4728670       -135527073.20447588        1267991268.1864669     
  -2631745647.7537966       -91569345.759271622        1265903371.9306450     
  -2582508423.1291919       -63784775.295618892        1268863804.0576138     
  -2538123145.5990534       -52173361.813518643        1276872564.5673718     
  -3246814441.5758839       -220514217.39358354        1247627440.8218284     
  -3167141072.5065432       -143775454.91129470        1226444738.4431822     
  -3094008443.6613140       -88839159.842706800        1212329005.2503178     
  -3027416555.0401964       -55705332.187823653        1205280241.2432368     
  -2967365406.6431875       -44373971.946641564        1205298446.4219377     
  -3772881698.7863970       -252579103.33224678        1225107980.8283560     
  -3666708534.3098464       -157502199.24899960        1187908542.0584219     
  -3568764903.1870508       -89857073.011608839        1159794713.2772624     
  -3479050805.4180121       -49643724.620069265        1140766494.4848773     
  -3397566241.0027304       -36862154.074390173        1130823885.6812677     
  -1682514343.4569969       -68634857.531133533        1411319473.0725377     
  -1634870180.8505771       -49205855.408191383        1412623644.1544003     
  -1587808606.3434935       -31718813.616366506        1420194416.2564857     
  -1541329619.9357450       -16173732.155661583        1434031789.3787928     
  -1495433221.6273305       -2570611.0260696411        1454135763.5213242     
  -2109839457.8703213       -60260323.675014734        1345546240.1175723     
  -2048251090.5823565       -44367356.812794089        1345271265.4576180     
  -1987362770.2404768       -30807879.770859122        1350272009.2080283     
  -1927174496.8446822       -19581892.549207211        1360548471.3688018     
  -1867686270.3949738       -10689395.147843361        1376100651.9399405     
  -2538123145.5990534       -52173361.813518643        1276872564.5673718     
  -2465421666.8005643       -40665758.163320661        1274881408.8443913     
  -2393537693.7949123       -31883173.822580814        1277175088.9219170     
  -2322471226.5820980       -25825608.791298985        1283753604.7999477     
  -2252222265.1621184       -22493063.069467545        1294616956.4784844     
  -2967365406.6431875       -44373971.946641564        1205298446.4219377     
  -2886381909.5052009       -38101059.459778309        1201454074.3147206     
  -2806333377.0068021       -34944695.771539688        1200903655.3981524     
  -2727219809.1479902       -34904880.881923914        1203647189.6722295     
  -2649041205.9287672       -37981614.790943027        1209684677.1369536     
  -3397566241.0027304       -36862154.074390173        1130823885.6812677     
  -3311131818.6962705       -36673260.702167869        1124989261.8686066     
  -3225749819.8761473       -39992445.617738366        1121457708.6367333     
  -3141420244.5423651       -46819708.821109176        1120229225.9856493     
  -3058143092.6949196       -57155050.312269568        1121303813.9153535     
  -1495433221.6273305       -2570611.0260696411        1454135763.5213242     
  -1443616248.7001867        9446529.9390739202        1444946671.1917443     
  -1393433491.5528743        16016284.971443355        1439799692.2348237     
  -1344884950.1853902        17138654.071052790        1438694826.6505642     
  -1297970624.5977383        12813637.237891257        1441632074.4389634     
  -1867686270.3949738       -10689395.147843361        1376100651.9399405     
  -1805655376.6444020       -3179720.3591343164        1361648767.1156693     
  -1744339132.3013136        1947789.7379604578        1352051815.5928590     
  -1683737537.3657067        4693135.1434522867        1347309797.3715110     
  -1623850591.8375814        5056315.8573374748        1347422712.4516256     
  -2252222265.1621184       -22493063.069467545        1294616956.4784844     
  -2177655107.9344001       -18794151.661079526        1275975106.5939257     
  -2102883033.7418170       -14412183.703139782        1263001009.9396336     
  -2027906042.5843699       -9347159.1956539154        1255694666.5156014     
  -1952724134.4620566       -3599078.1386175156        1254056076.3218353     
  -2649041205.9287672       -37981614.790943027        1209684677.1369536     
  -2559615442.5701823       -37396763.966753960        1187925689.6265166     
  -2469065195.8743868       -33063635.351860881        1172647275.2751436     
  -2377390465.8413792       -24982228.946263075        1163849434.0828340     
  -2284591252.4711580       -13152544.749954700        1161532166.0495925     
  -3058143092.6949196       -57155050.312269568        1121303813.9153535     
  -2951536380.5517507       -58987557.276173949        1097500516.2134395     
  -2842885618.6990209       -54006565.208200455        1080990611.5993927     
  -2732190807.1367345       -42212074.108377337        1071774100.0732117     
  -2619451945.8648877       -23604083.976683497        1069850981.6348947     
  -1297970624.5977383        12813637.237891257        1441632074.4389634     
  -1247715192.3338842        6217887.0833109617        1437016010.0800588     
  -1197983609.3391829       -2124027.3017756939        1437304086.0287981     
  -1148775875.6136312       -12212105.917364597        1442496302.2851818     
  -1100091991.1572299       -24046348.763452411        1452592658.8492115     
  -1623850591.8375814        5056315.8573374748        1347422712.4516256     
  -1559844925.0828555        4939418.3987484574        1340847165.7663913     
  -1496255836.0901678        3433928.4000294805        1338449462.3751097     
  -1433083324.8595262        539845.86115622520        1340229602.2777796     
  -1370327391.3909233       -3742829.2178428769        1346187585.4743998     
  -1952724134.4620566       -3599078.1386175156        1254056076.3218353     
  -1877043367.5412917        2140336.8013488054        1245646197.4018984     
  -1801671906.8754597        6848730.8915358782        1240687864.7622209     
  -1726609752.4645627        10526104.131941199        1239181078.4028008     
  -1651856904.3085988        13172456.522570252        1241125838.3236392     
  -2284591252.4711580       -13152544.749954700        1161532166.0495925     
  -2199310519.7091928       -2179357.7088896036        1151413104.9865797     
  -2114231821.6950541        8120380.1727514267        1144019293.1901336     
  -2029355158.4287393        17746668.894984007        1139350730.6602519     
  -1944680529.9102483        26699508.457795382        1137407417.3969347     
  -2619451945.8648877       -23604083.976683497        1069850981.6348947     
  -2526646381.5865622       -8019665.1319720745        1058147888.5204345     
  -2433935580.5489540        7248876.2436728477        1048443747.6588451     
  -2341319542.7520604        22201540.150274634        1040738559.0501291     
  -2248798268.1958838        36838326.587818027        1035032322.6942813     
  -1100091991.1572299       -24046348.763452411        1452592658.8492115     
  -1059063279.0572042       -41510650.524659276        1487220659.3820672     
  -1019708634.5286148       -64555177.523991704        1528111599.7042100     
  -982028057.57145011       -93179929.761404246        1575265479.8156435     
  -946021548.18572056       -127384907.23693407        1628682299.7163637     
  -1370327391.3909233       -3742829.2178428769        1346187585.4743998     
  -1312858880.3722043       -13373115.488522887        1373838559.4467487     
  -1257453825.2991600       -29881588.244784057        1406064743.0694511     
  -1204112226.1717894       -53268247.486626565        1442866136.3425074     
  -1152834082.9900999       -83533093.214067936        1484242739.2659149     
  -1651856904.3085988        13172456.522570252        1241125838.3236392     
  -1582770680.4824224        9929559.9090639949        1261345499.2988658     
  -1516137300.9761689       -1489484.4375092387        1284452639.7855067     
  -1451956765.7898390       -21084676.517162025        1310447259.7835670     
  -1390229074.9234259       -48856016.329872549        1339329359.2930479     
  -1944680529.9102483        26699508.457795382        1137407417.3969347     
  -1868798679.3878608        28397375.668090224        1149741478.9384146     
  -1795759061.5596464        20621133.897815108        1163275289.8523769     
  -1725561676.4255924        3370783.1469980478        1178008850.1388204     
  -1658206523.9857018       -23353676.584362268        1193942159.7977519     
  -2248798268.1958838        36838326.587818027        1035032322.6942813     
  -2170942877.0885344        42030331.788520813        1039026498.3653961     
  -2096319107.0495868        36450266.761212468        1042532693.2700609     
  -2024926958.0790627        20098131.505827665        1045550907.4082731     
  -1956766430.1769350       -7026073.9775456190        1048081140.7800328     
  -946021548.18572056       -127384907.23693407        1628682299.7163637     
  -816265579.29033196       -139621016.03088424        1473448462.5407159     
  -688894423.59580839       -159806502.16105366        1325590613.6544473     
  -563908081.10213435       -187941365.62739345        1185108753.0575519     
  -441306551.80933523       -224025606.42997041        1052002880.7500334     
  -1152834082.9900999       -83533093.214067936        1484242739.2659149     
  -993091825.70222449       -74786043.797510028        1322343134.5766976     
  -827018423.95516944       -44935179.517013758        1171291650.0052791     
  -654613877.74893379        6019499.6274124980        1031088285.5516627     
  -475878187.08352304        78077993.635761082        901733041.21585071     
  -1390229074.9234259       -48856016.329872549        1339329359.2930479     
  -1190580152.5904238       -16149695.707007766        1180932604.3603046     
  -975884128.13820362        66713631.979920805        1036856101.3737855     
  -746141001.56676340        199733966.73091605        907099850.33349466     
  -501350772.87610531        382911308.54597420        791663851.23942482     
  -1658206523.9857018       -23353676.584362268        1193942159.7977519     
  -1408730559.9549391        36288028.240589559        1049216871.8915341     
  -1135491536.1449161        175139932.32975030        922283967.75996602     
  -838489452.55563581        393202035.68310010        813143447.40304685     
  -517724309.18708783        690474338.30067062        721795310.82077658     
  -1956766430.1769350       -7026073.9775456190        1048081140.7800328     
  -1647543047.7957749        82527128.045280814        927195937.17038941     
  -1305840647.9753032        280343721.53247410        827575249.16382039     
  -931659230.71553504        586423706.48398864        749219076.76031792     
  -524998796.01646703        1000767082.8998413        692127419.95989466     
  -3768653052.2479911       -1130595915.6743975        801022128.15962195     
  -3779380025.0841041       -1007918208.8287253        885049666.57069933     
  -3790804433.5887461       -887565287.54481626        973930607.94567895     
  -3802926277.7619166       -769537151.82266998        1067664952.2845610     
  -3815745557.6036162       -653833801.66228700        1166252699.5873456     
  -4339857696.7109089       -1301957309.0132725        859510622.96165776     
  -4335467733.2442274       -1125206548.0629930        942835187.49379969     
  -4332233478.5247126       -952308149.60326827        1020456364.5015867     
  -4330154932.5523643       -783262113.63409889        1092374153.9850192     
  -4329232095.3271818       -618068440.15548420        1158588555.9440968     
  -4894901134.6756868       -1468470340.4027059        937319510.34691262     
  -4905556493.4440880       -1246695202.9091818        1019406449.0750419     
  -4917825834.0382938       -1030300004.8350049        1085233209.7905593     
  -4931709156.4583054       -819284746.18017542        1134799792.4934649     
  -4947206460.7041187       -613649426.94469273        1168106197.1837590     
  -5433783366.1423254       -1630135009.8426979        1034448790.3153868     
  -5489646305.6836882       -1372384173.3672924        1114763451.3144259     
  -5547581500.1294928       -1121540853.2400270        1168261143.8125966     
  -5607588949.4797382       -877605049.46089983        1194941867.8098979     
  -5669668653.7344255       -640576762.02991295        1194805623.3063307     
  -5956504391.1108255       -1786951317.3332477        1150898462.8670797     
  -6087737169.9630251       -1502273459.4373245        1228906194.2119520     
  -6221500476.7983036       -1226030694.8183322        1269540166.5676982     
  -6357794311.6166649       -958223023.47627223        1272800379.9343183     
  -6496618674.4181004       -698850445.41114235        1238686834.3118129     
  -3815745557.6036162       -653833801.66228700        1166252699.5873456     
  -3799740245.5476732       -535888969.24098241        1188279984.7826455     
  -3787261165.0594878       -429698242.04553914        1205431626.7212470     
  -3778308316.1390643       -335261620.07596242        1217707625.4031506     
  -3772881698.7863970       -252579103.33224678        1225107980.8283560     
  -4329232095.3271818       -618068440.15548420        1158588555.9440968     
  -4300141934.1657209       -462052710.71155047        1141397723.8861079     
  -4281519014.5091138       -340927786.28379667        1130362212.0069165     
  -4273363336.3573604       -254693666.87222004        1125482020.3065228     
  -4275674899.7104592       -203350352.47682142        1126757148.7849269     
  -4947206460.7041187       -613649426.94469273        1168106197.1837590     
  -4873514412.0500088       -410107688.96199179        1103599402.9458704     
  -4817230614.8378468       -264593455.78578353        1056278892.3222752     
  -4778355069.0676327       -177106727.41607046        1026144665.3129733     
  -4756887774.7393675       -147647503.85285020        1013196721.9179653     
  -5669668653.7344255       -640576762.02991295        1194805623.3063307     
  -5519857679.2005348       -380053903.99230313        1074885021.9619324     
  -5394395966.0456886       -200695250.55150485        983181667.66732359     
  -5293283514.2698851       -102500801.70751548        919695560.42250359     
  -5216520323.8731213       -85470557.460334301        884426700.22747374     
  -6496618674.4181004       -698850445.41114235        1238686834.3118129     
  -6239171735.6173010       -371891355.80248809        1055254580.9342952     
  -6013015068.1326370       -149233170.58095717        911070538.04206073     
  -5818148671.9641113       -30875889.746551991        806134705.63511360     
  -5654572547.1117249       -16819513.299269676        740447083.71345055     
  -3772881698.7863970       -252579103.33224678        1225107980.8283560     
  -3666708534.3098464       -157502199.24899960        1187908542.0584219     
  -3568764903.1870508       -89857073.011608839        1159794713.2772624     
  -3479050805.4180121       -49643724.620069265        1140766494.4848773     
  -3397566241.0027304       -36862154.074390173        1130823885.6812677     
  -4275674899.7104592       -203350352.47682142        1126757148.7849269     
  -4156697003.2808094       -137965215.36849499        1089087177.2380509     
  -4041984842.4156837       -86799196.808586597        1059033335.7374589     
  -3931538417.1150885       -49852296.797107935        1036595624.2831498     
  -3825357727.3790164       -27124515.334047794        1021774042.8751236     
  -4756887774.7393675       -147647503.85285020        1013196721.9179653     
  -4629303660.4780216       -113213687.95586443        979680648.34825087     
  -4502021483.9919739       -79786331.309867859        952311224.88232732     
  -4375041245.2812233       -47365433.914865017        931088451.52019489     
  -4248362944.3457704       -15950995.770851135        916012328.26185453     
  -5216520323.8731213       -85470557.460334301        884426700.22747374     
  -5084528505.9014874       -83247617.011110783        859688955.38901997     
  -4948874827.9159203       -68818476.515444756        839628380.71186590     
  -4809559289.9164219       -42183135.973342419        824244976.19601142     
  -4666581891.9029903       -3341595.3847932816        813538741.84145617     
  -5654572547.1117249       -16819513.299269676        740447083.71345055     
  -5522371539.5512028       -48067002.534230947        729112098.36035872     
  -5382544874.1875229       -53895632.425315619        720984803.22607636     
  -5235092551.0206804       -34305402.972533941        716065198.31060195     
  -5080014570.0506744        10703685.824126959        714353283.61393404     
  -3397566241.0027304       -36862154.074390173        1130823885.6812677     
  -3311131818.6962705       -36673260.702167869        1124989261.8686066     
  -3225749819.8761473       -39992445.617738366        1121457708.6367333     
  -3141420244.5423651       -46819708.821109176        1120229225.9856493     
  -3058143092.6949196       -57155050.312269568        1121303813.9153535     
  -3825357727.3790164       -27124515.334047794        1021774042.8751236     
  -3730383031.4960532       -18519736.006909370        1015360707.0552527     
  -3638237899.3760257       -19346835.889560223        1011271614.3392303     
  -3548922331.0189338       -29605814.982002258        1009506764.7270584     
  -3462436326.4247804       -49296673.284227610        1010066158.2187343     
  -4248362944.3457704       -15950995.770851135        916012328.26185453     
  -4144787481.9632707        1087817.3881113529        906946950.11207509     
  -4045818723.6203060        2770950.4152958393        900226987.58920658     
  -3951456669.3168778       -10901596.689308405        895852440.69324744     
  -3861701319.0529828       -39929823.925691605        893823309.42419994     
  -4666581891.9029903       -3341595.3847932816        813538741.84145617     
  -4554345170.0979242        22149399.482904196        799747991.03907251     
  -4448492292.6089926        26360913.296828270        788323828.38665938     
  -4349023259.4361897        9292946.0569770336        779266253.88421798     
  -4255938070.5795264       -29054502.236653328        772575267.53174770     
  -5080014570.0506744        10703685.824126959        714353283.61393404     
  -4959056095.9000130        44665010.277467966        693763829.83624649     
  -4846258606.3420801        51423052.755043268        675562136.73159122     
  -4741622101.3768787        30977813.256845713        659748204.29997027     
  -4645146581.0044098       -16670708.217121363        646322032.54137778     
  -3058143092.6949196       -57155050.312269568        1121303813.9153535     
  -2951536380.5517507       -58987557.276173949        1097500516.2134395     
  -2842885618.6990209       -54006565.208200455        1080990611.5993927     
  -2732190807.1367345       -42212074.108377337        1071774100.0732117     
  -2619451945.8648877       -23604083.976683497        1069850981.6348947     
  -3462436326.4247804       -49296673.284227610        1010066158.2187343     
  -3339329063.9114799       -58535343.962629914        990567758.28858113     
  -3213744450.6584773       -59516178.842024922        978177811.02785647     
  -3085682486.6657805       -52239177.922433734        972896316.43655765     
  -2955143171.9333816       -36704341.203839898        974723274.51468408     
  -3861701319.0529828       -39929823.925691605        893823309.42419994     
  -3722621907.3650904       -56733178.677248478        879135325.13430440     
  -3580631843.9073586       -63834360.862673998        871370853.09539580     
  -3435731128.6797905       -61233370.481981039        870529893.30747426     
  -3287919761.6823821       -48930207.535150051        876612445.77054024     
  -4255938070.5795264       -29054502.236653328        772575267.53174770     
  -4101414910.9125853       -53581061.420038223        763203216.75060475     
  -3943547798.4456658       -66961111.270153761        760569737.80201066     
  -3782336733.1787663       -69194651.787013769        764674830.68596542     
  -3617781715.1118908       -60281682.970608473        775518495.40246785     
  -4645146581.0044098       -16670708.217121363        646322032.54137778     
  -4475708074.5539627       -49078992.190992594        642771433.13748789     
  -4302492314.2733936       -68896430.064458847        645774465.14770365     
  -4125499300.1627131       -76123021.837546349        655331128.57202804     
  -3944729032.2219081       -70758767.510225773        671441423.41046095     
  -2619451945.8648877       -23604083.976683497        1069850981.6348947     
  -2526646381.5865622       -8019665.1319720745        1058147888.5204345     
  -2433935580.5489540        7248876.2436728477        1048443747.6588451     
  -2341319542.7520604        22201540.150274634        1040738559.0501291     
  -2248798268.1958838        36838326.587818027        1035032322.6942813     
  -2955143171.9333816       -36704341.203839898        974723274.51468408     
  -2856833779.3130937       -24715559.336490035        965427660.19786608     
  -2756964646.1474047       -7527642.3178128004        959196570.11676991     
  -2655535772.4363227        14859409.852186799        956030004.27139568     
  -2552547158.1798439        42445597.173493862        955927962.66173685     
  -3287919761.6823821       -48930207.535150051        876612445.77054024     
  -3181062049.3405604       -39623715.231286645        871654564.66849995     
  -3070990092.6672297       -19603075.155724406        870826779.78502882     
  -2957703891.6623869        11131712.691541553        874129091.12012863     
  -2841203446.3260345        52580648.310504079        881561498.67379892     
  -3617781715.1118908       -60281682.970608473        775518495.40246785     
  -3499331191.6689692       -52744132.816368580        776828601.93233573     
  -3376011920.1084166       -28977422.270034790        783334376.66361904     
  -3247823900.4302430        11018448.668367267        795035819.59632993     
  -3114767132.6344471        67243479.998854518        811932930.73045588     
  -3944729032.2219081       -70758767.510225773        671441423.41046095     
  -3811641206.2983108       -64076812.091728449        680949771.98937190     
  -3672030128.4709716       -35650683.660762787        696719360.75254762     
  -3525895798.7399001        14519617.782652378        718750189.69999731     
  -3373238217.1050911        86434092.238521814        747042258.83171487     
  -2248798268.1958838        36838326.587818027        1035032322.6942813     
  -2170942877.0885344        42030331.788520813        1039026498.3653961     
  -2096319107.0495868        36450266.761212468        1042532693.2700609     
  -2024926958.0790627        20098131.505827665        1045550907.4082731     
  -1956766430.1769350       -7026073.9775456190        1048081140.7800328     
  -2552547158.1798439        42445597.173493862        955927962.66173685     
  -2475577459.8223119        57677292.519101739        959648946.87832975     
  -2403166722.1460052        57712452.260619283        960859758.17422891     
  -2335314945.1509385        42551076.398003578        959560396.54943538     
  -2272022128.8370976        12193164.931300759        955750862.00394869     
  -2841203446.3260345        52580648.310504079        881561498.67379892     
  -2770897132.5875735        76118726.240239978        883460728.55423832     
  -2706477119.1431684        80035803.189803362        880827593.35974348     
  -2647943405.9928179        64331879.159171700        873662093.09031951     
  -2595295993.1365242        29006954.148371100        861964227.74595487     
  -3114767132.6344471        67243479.998854518        811932930.73045588     
  -3056901895.3843241        97354632.951933742        810461843.39312017     
  -3006250298.0410762        103420319.54876733        802436198.82661104     
  -2962812340.6047049        85440539.789341211        787855997.03092909     
  -2926588023.0752082        43415293.673659444        766721238.00606847     
  -3373238217.1050911        86434092.238521814        747042258.83171487     
  -3333591748.2125607        121385012.65417671        740652291.39497674     
  -3302486258.8397317        127866001.33749914        725685574.57482386     
  -3279921748.9865975        105877058.28849840        702142108.37125671     
  -3265898218.6531601        55418183.507173777        670021892.78427565     
  -1956766430.1769350       -7026073.9775456190        1048081140.7800328     
  -1647543047.7957749        82527128.045280814        927195937.17038941     
  -1305840647.9753032        280343721.53247410        827575249.16382039     
  -931659230.71553504        586423706.48398864        749219076.76031792     
  -524998796.01646703        1000767082.8998413        692127419.95989466     
  -2272022128.8370976        12193164.931300759        955750862.00394869     
  -1919193947.8128211        84083747.300299764        857127760.11671579     
  -1551660948.2462683        204990391.47688472        774858284.57969344     
  -1169423130.1374400        374913097.46106136        708942435.39287937     
  -772480493.48633718        593851865.25280952        659380212.55626750     
  -2595295993.1365242        29006954.148371100        861964227.74595487     
  -2212894125.6201739        79025583.218225241        764866662.20127594     
  -1833561638.4585788        118812944.43890178        679211833.75393474     
  -1457298531.6517308        148369037.81041002        604999742.40393424     
  -1084104805.1996379        167693863.33274829        542230388.15128839     
  -2926588023.0752082        43415293.673659444        766721238.00606847     
  -2528643581.2178340        67352635.799052358        650412643.42406774     
  -2151542718.6122327        21811380.418517590        540635896.68654346     
  -1795285435.2584109       -93208472.467950761        437390997.79349953     
  -1459871731.1563737       -277706922.86034340        340677946.74493319     
  -3265898218.6531601        55418183.507173777        670021892.78427565     
  -2866442314.6057916        49064905.042803884        513765703.78509194     
  -2505604188.7072358       -86014300.584279776        359130473.37752247     
  -2183383840.9574847       -349819433.37403655        206116201.56156528     
  -1899781271.3565338       -742350493.32646239        54722888.337226212     
  -5956504391.1108255       -1786951317.3332477        1150898462.8670797     
  -6087737169.9630251       -1502273459.4373245        1228906194.2119520     
  -6221500476.7983036       -1226030694.8183322        1269540166.5676982     
  -6357794311.6166649       -958223023.47627223        1272800379.9343183     
  -6496618674.4181004       -698850445.41114235        1238686834.3118129     
  -6809019399.7514467       -2042705819.9254339        1354409249.2903712     
  -6827600599.6882648       -1395537237.4328859        1203447338.8412488     
  -6897364758.7030640       -918978518.53360081        1092862542.4092467     
  -7018311876.7958403       -613029663.22757864        1022654859.9943656     
  -7190441953.9665966       -477690671.51481915        992824291.59660459     
  -8337283582.2344503       -2501185074.6703353        1712721870.8736398     
  -8021067851.8094692       -1424882162.1472366        1276029149.0198071     
  -7804687511.5573711       -681363883.53373384        957464414.18934131     
  -7688142561.4781456       -270630238.82982349        757027666.38224232     
  -7671433001.5718040       -192681228.03550863        674718905.59850991     
  -10541296938.559835       -3162389081.5679507        2225836327.6168857     
  -9668138926.3266392       -1590308233.5803773        1446651624.7476265     
  -8943468735.3612194       -513186789.81872749        863345781.90798056     
  -8367286365.6635790        68975249.716991901        475918799.09794748     
  -7939591817.2337170        156177885.02679014        284370676.31752849     
  -13421059468.727602       -4026317840.6182809        2893752619.5201092     
  -11768813823.239771       -1891815451.7323072        1715314766.0247078     
  -10313708430.114616       -414447237.38858986        810506645.56516564     
  -9055743289.3521404        405786802.41287136        179328258.14148399     
  -7994918400.9523401        568886667.67207575       -178220396.24633947     
  -6496618674.4181004       -698850445.41114235        1238686834.3118129     
  -6239171735.6173010       -371891355.80248809        1055254580.9342952     
  -6013015068.1326370       -149233170.58095717        911070538.04206073     
  -5818148671.9641113       -30875889.746551991        806134705.63511360     
  -5654572547.1117249       -16819513.299269676        740447083.71345055     
  -7190441953.9665966       -477690671.51481915        992824291.59660459     
  -6899640572.4257069       -301079285.70461249        848874449.99178767     
  -6622012524.2349997       -168379011.06168342        726029285.50139749     
  -6357557809.3944759       -79589847.586035252        624288798.12543201     
  -6106276427.9041357       -34711795.277667046        543652987.86389315     
  -7671433001.5718040       -192681228.03550863        674718905.59850991     
  -7399115844.0647068       -181969146.05591249        591387903.39334047     
  -7121855081.9418392       -154778382.02375460        511018044.93173814     
  -6839650715.2032013       -111108935.93902659        433609330.21370250     
  -6552502743.8487940       -50960807.801734924        359161759.23923391     
  -7939591817.2337170        156177885.02679014        284370676.31752849     
  -7737597550.5342951       -14560936.856393337        282794941.13895327     
  -7512542741.2531490       -108431283.46716452        266036816.33308527     
  -7264427389.3902855       -125433154.80553007        234096301.89992347     
  -6993251494.9456949       -65566550.871478558        186973397.83947060     
  -7994918400.9523401        568886667.67207575       -178220396.24633947     
  -7915085691.8344784        201145341.89394951       -76904436.771374241     
  -7794075502.1689425       -29337715.391923428       -8914400.2945636660     
  -7631887831.9557276       -122562504.18553591        25749713.184097398     
  -7428522681.1948347       -78529024.486889362        27087903.664605107     
  -5654572547.1117249       -16819513.299269676        740447083.71345055     
  -5522371539.5512028       -48067002.534230947        729112098.36035872     
  -5382544874.1875229       -53895632.425315619        720984803.22607636     
  -5235092551.0206804       -34305402.972533941        716065198.31060195     
  -5080014570.0506744        10703685.824126959        714353283.61393404     
  -6106276427.9041357       -34711795.277667046        543652987.86389315     
  -5955866824.7112570       -35977571.313908815        540595507.45022643     
  -5802755730.9299784       -28238378.722157001        541418091.95063293     
  -5646943146.5603018       -11494217.502409458        546120741.36511266     
  -5488429071.6022282        14254912.345329523        554703455.69366622     
  -6552502743.8487940       -50960807.801734924        359161759.23923391     
  -6381963474.4656525       -21668549.471889973        358636922.01443481     
  -6213646881.7088766        214786.77006816864        362664524.39897287     
  -6047552965.5784674        14689200.924145937        371244566.39284903     
  -5883681726.0744200        21754692.990342617        384377047.99606335     
  -6993251494.9456949       -65566550.871478558        186973397.83947060     
  -6800661488.8143940       -5139937.0081801414        183236342.05298093     
  -6615218326.5242186        31463864.051363468        184724100.57109621     
  -6436922008.0751743        44244852.307141066        191436673.39381227     
  -6265772533.4672575        33203027.759158611        203374060.52113536     
  -7428522681.1948347       -78529024.486889362        27087903.664605107     
  -7211960867.7574711        13608266.077237129        14393767.565870630     
  -7007470065.3760004        65508853.121723175        7596820.4669974316     
  -6815050274.0504198        77172736.646576881        6697062.3680013679     
  -6634701493.7807302        48599916.651789188        11694493.268872030     
  -5080014570.0506744        10703685.824126959        714353283.61393404     
  -4959056095.9000130        44665010.277467966        693763829.83624649     
  -4846258606.3420801        51423052.755043268        675562136.73159122     
  -4741622101.3768787        30977813.256845713        659748204.29997027     
  -4645146581.0044098       -16670708.217121363        646322032.54137778     
  -5488429071.6022282        14254912.345329523        554703455.69366622     
  -5361965367.6872807        27456157.914742231        533381244.04355568     
  -5240136850.8214226        25206779.987184763        518696851.28153878     
  -5122943521.0046597        7506778.5626444817        510650277.40761799     
  -5010385378.2369938       -25643846.358868361        509241522.42179048     
  -5883681726.0744200        21754692.990342617        384377047.99606335     
  -5739569768.9235783        17838766.717316866        366435508.94110894     
  -5596567201.2781925        10224875.426097631        359381846.98930854     
  -5454674023.1382589       -1086980.8832950592        363216062.14066672     
  -5313890234.5037851       -16096802.210875273        377938154.39517993     
  -6265772533.4672575        33203027.759158611        203374060.52113536     
  -6091869299.6089134        15812836.685176611        192926624.52890983     
  -5915549657.7123852        6477339.0717966557        197617123.85490173     
  -5736813607.7776775        5196534.9190211296        217445558.49911082     
  -5555661149.8047886        11970424.226845980        252411928.46154597     
  -6634701493.7807302        48599916.651789188        11694493.268872030     
  -6418863959.7432795        21378367.818325043        12854590.806952683     
  -6197084220.1240110        13964170.924248695        33402681.878315780     
  -5969362274.9229221        26357325.969576120        73338766.482958034     
  -5735698124.1400108        58557832.954312086        132662844.62088995     
  -4645146581.0044098       -16670708.217121363        646322032.54137778     
  -4475708074.5539627       -49078992.190992594        642771433.13748789     
  -4302492314.2733936       -68896430.064458847        645774465.14770365     
  -4125499300.1627131       -76123021.837546349        655331128.57202804     
  -3944729032.2219081       -70758767.510225773        671441423.41046095     
  -5010385378.2369938       -25643846.358868361        509241522.42179048     
  -4826982689.6359615       -41720987.897577524        527530258.52629054     
  -4641700779.0631161       -51534056.196889877        546238316.61671007     
  -4454539646.5184488       -55083051.256805897        565365696.69304121     
  -4265499292.0019660       -52367973.077334166        584912398.75529015     
  -5313890234.5037851       -16096802.210875273        377938154.39517993     
  -5134049962.1184387       -21100780.824310780        415851855.50672448     
  -4954228499.6195736       -26167459.059334040        448050569.17599201     
  -4774425847.0071898       -31296836.915971518        474534295.40298527     
  -4594642004.2812881       -36488914.394215107        495303034.18769974     
  -5555661149.8047886        11970424.226845980        252411928.46154597     
  -5396909892.0013895        12781629.028820992        307736224.07878399     
  -5240075475.9427671        7203361.3481953144        351211222.82554835     
  -5085157901.6289244       -4764378.8150343895        382836924.70185095     
  -4932157169.0598688       -23121591.460875511        402613329.70768601     
  -5735698124.1400108        58557832.954312086        132662844.62088995     
  -5615562479.2848186        59926241.661794662        203183364.24246818     
  -5499241708.0327005        48578405.025701523        255720277.56538701     
  -5386735810.3836660        24514323.045994759        290273584.58964592     
  -5278044786.3377132       -12266004.277318239        306843285.31525028     
  -3944729032.2219081       -70758767.510225773        671441423.41046095     
  -3811641206.2983108       -64076812.091728449        680949771.98937190     
  -3672030128.4709716       -35650683.660762787        696719360.75254762     
  -3525895798.7399001        14519617.782652378        718750189.69999731     
  -3373238217.1050911        86434092.238521814        747042258.83171487     
  -4265499292.0019660       -52367973.077334166        584912398.75529015     
  -4116393394.6174760       -50959626.125539780        598812689.27886927     
  -3962129176.8452969       -32356877.881443977        619990319.61886859     
  -3802706638.6854286        3440271.6549472809        648445289.77529824     
  -3638125780.1378679        56431822.483641624        684177599.74815023     
  -4594642004.2812881       -36488914.394215107        495303034.18769974     
  -4426614893.6297503       -39483233.367286205        512002846.55388665     
  -4254794394.1065607       -29832922.768189669        536996098.36865807     
  -4079180505.7117372       -7537982.5969815254        570282789.63200998     
  -3899773228.4452696        27401587.146378756        611862920.34394014     
  -4932157169.0598688       -23121591.460875511        402613329.70768601     
  -4742305703.3351221       -29647633.816944361        420520243.81443214     
  -4550025780.2547750       -28078818.321029186        447736697.00191301     
  -4355317399.8188429       -18415144.973153114        484262689.27012914     
  -4158180562.0273137       -656613.77328920364        530098220.61908084     
  -5278044786.3377132       -12266004.277318239        306843285.31525028     
  -5063465823.7336044       -21452827.474565268        324364881.06049430     
  -4847823335.2899351       -27094564.539955616        352212115.51863188     
  -4631117321.0067320       -29191215.473565578        390384988.68965793     
  -4413347780.8839779       -27742780.275329590        438883500.57357508     
  -3373238217.1050911        86434092.238521814        747042258.83171487     
  -3333591748.2125607        121385012.65417671        740652291.39497674     
  -3302486258.8397317        127866001.33749914        725685574.57482386     
  -3279921748.9865975        105877058.28849840        702142108.37125671     
  -3265898218.6531601        55418183.507173777        670021892.78427565     
  -3638125780.1378679        56431822.483641624        684177599.74815023     
  -3602027353.7517867        67110244.884405375        679493820.53806806     
  -3573571906.2893090        52312070.873159409        686258872.94064403     
  -3552759437.7504435        12037300.449870825        704472756.95588410     
  -3539589948.1351881       -53714066.385447502        734135472.58377886     
  -3899773228.4452696        27401587.146378756        611862920.34394014     
  -3810006898.8625689        30972295.243183136        609932996.72261560     
  -3726985547.6073823        12059742.248257875        639477485.71002698     
  -3650709174.6797113       -29336071.838393211        700496387.30616975     
  -3581177780.0795670       -93215147.016767740        792989701.51104915     
  -4158180562.0273137       -656613.77328920364        530098220.61908084     
  -3957530383.5449133        12971163.730490923        531969819.94861805     
  -3762727182.7939439        7109015.4628164768        585341412.88296974     
  -3573770959.7743979       -18243058.576254845        690212999.42212319     
  -3390661714.4862938       -63085058.386812329        846584579.56608915     
  -4413347780.8839779       -27742780.275329590        438883500.57357508     
  -4044597807.7988176        13106850.346310616        445604290.21608007     
  -3680796811.8489923        37459890.516835451        523850654.45946914     
  -3321944793.0345073        45316340.236214876        673622593.30374837     
  -2968041751.3553672        36676199.504465699        894920106.74889934     
  -3265898218.6531601        55418183.507173777        670021892.78427565     
  -2866442314.6057916        49064905.042803884        513765703.78509194     
  -2505604188.7072358       -86014300.584279776        359130473.37752247     
  -2183383840.9574847       -349819433.37403655        206116201.56156528     
  -1899781271.3565338       -742350493.32646239        54722888.337226212     
  -3539589948.1351881       -53714066.385447502        734135472.58377886     
  -3117872505.6324577       -84164512.468415499        617205757.64481306     
  -2746048434.8306670       -280926197.55451405        521340229.29956740     
  -2424117735.7298074       -643999121.64372063        446538887.54805052     
  -2152080408.3298850       -1173383284.7360547        392801732.39026457     
  -3581177780.0795670       -93215147.016767740        792989701.51104915     
  -3081646719.1154361       -131097136.71650851        702231601.48814821     
  -2643284623.4043674       -372875677.25980526        651980916.06108248     
  -2266091492.9463840       -818550768.64669228        642237645.22985566     
  -1950067327.7414460       -1468122410.8771033        673001788.99446380     
  -3390661714.4862938       -63085058.386812329        846584579.56608915     
  -2757764955.0547342       -91732967.701524138        768843235.31509697     
  -2197312754.4283695       -361862739.70022553        751052533.66205394     
  -1709305112.6072106       -873474374.38293004        793212474.60696578     
  -1293742029.5912414       -1626567871.7496257        895323058.14981580     
  -2968041751.3553672        36676199.504465699        894920106.74889934     
  -2146227213.4503422        33927994.576607227        817040659.12566781     
  -1408132827.9026475       -247887384.87569690        818555082.10249496     
  -753758594.71229172       -808769938.85245943        899463375.67938745     
  -183104513.87925345       -1648719667.3536127        1059765539.8563319     
 </DataArray>
 <DataArray  type="Float64" Name="VM" NumberOfComponents="1" format="ascii">
   12939089385.030087     
   11342241176.987139     
   10209829734.275663     
   9270508424.2798805     
   8299749532.5073862     
   10131485852.671270     
   9322289011.5029354     
   8825838289.6240444     
   8442326130.4393501     
   8033934183.5098457     
   7982066378.6562929     
   7734564844.0628662     
   7668753876.5866575     
   7669381042.9402971     
   7666525029.7232494     
   6490750491.4938555     
   6586375311.5988617     
   6757416495.7471771     
   6961863435.3833370     
   7173070266.7031860     
   5657106859.5323400     
   5890887430.8500652     
   6116998087.3211546     
   6333057508.5836363     
   6538907899.2039852     
   8299749532.5073862     
   8018657397.5955877     
   7779463456.6619368     
   7571481976.0526762     
   7389720066.7402620     
   8033934183.5098457     
   7745829855.3504009     
   7473137754.6557360     
   7213933876.0971251     
   6968229274.7166910     
   7666525029.7232494     
   7381248960.3101139     
   7101118593.6298418     
   6826219447.6224709     
   6556749186.2865610     
   7173070266.7031860     
   6912316066.9178772     
   6659260395.5943823     
   6409999087.4158220     
   6161374247.9084425     
   6538907899.2039852     
   6331347390.9877977     
   6145846404.1885529     
   5968393943.6284637     
   5790004497.6322927     
   7389720066.7402620     
   7218817671.5311499     
   7040465367.9134407     
   6853972315.9841194     
   6659165270.0223360     
   6968229274.7166910     
   6805497396.2174864     
   6638720720.0060120     
   6467663195.7698011     
   6292307488.7052269     
   6556749186.2865610     
   6401367100.4266796     
   6245423836.8828030     
   6088958363.5933924     
   5932066988.8073549     
   6161374247.9084425     
   6011330710.2316446     
   5864154817.1737595     
   5719959389.8396559     
   5578922989.9311590     
   5790004497.6322927     
   5641654665.9600677     
   5499459579.3503485     
   5363396967.1967001     
   5233730918.4682627     
   6659165270.0223360     
   6429618350.0818644     
   6204347845.6491737     
   5983932889.4644022     
   5769777320.4952240     
   6292307488.7052269     
   6108937173.8714027     
   5928679812.0614862     
   5751757699.9380741     
   5578812872.4688168     
   5932066988.8073549     
   5783441116.7181816     
   5636165285.7098036     
   5490293114.1802731     
   5346088629.9033594     
   5578922989.9311590     
   5454551500.5247660     
   5329061441.6819286     
   5202437370.7184753     
   5074851178.3387280     
   5233730918.4682627     
   5124417369.5505075     
   5010711409.5912094     
   4892507327.3176451     
   4770054853.5428715     
   5769777320.4952240     
   5656721938.9942436     
   5541420592.4230328     
   5422393573.6923923     
   5298643702.4014320     
   5578812872.4688168     
   5429538267.5281706     
   5278848075.1906614     
   5125848055.5358505     
   4969805035.7651396     
   5346088629.9033594     
   5173913421.2800159     
   5001767000.5012016     
   4829311092.0162640     
   4656220395.6626434     
   5074851178.3387280     
   4892338966.7783909     
   4712108351.0055037     
   4534258824.2124348     
   4358924019.4376869     
   4770054853.5428715     
   4588482715.2150059     
   4412576850.1034088     
   4242625412.0914950     
   4079126197.7655225     
   5298643702.4014320     
   5083911724.1244478     
   4872672330.7569313     
   4665845380.9237394     
   4464731337.5202513     
   4969805035.7651396     
   4783331060.7848063     
   4601865720.5545731     
   4426336635.6421537     
   4258021612.7652712     
   4656220395.6626434     
   4495346706.6821222     
   4340774908.9416599     
   4193410187.5910983     
   4054500061.4564342     
   4358924019.4376869     
   4220574783.8045840     
   4089556998.0686159     
   3966751295.3290014     
   3853407164.0264640     
   4079126197.7655225     
   3959741719.6494122     
   3848430778.5100365     
   3746084912.1625981     
   3654036961.2126641     
   4464731337.5202513     
   4124032575.3947992     
   3809305601.2515054     
   3542486603.4811287     
   3364835723.9177399     
   4258021612.7652712     
   4069708148.7338481     
   3900357595.1999292     
   3759808121.1908579     
   3665621752.1825094     
   4054500061.4564342     
   3968774531.7251225     
   3893880782.5454254     
   3833213556.6504202     
   3792914621.9514284     
   3853407164.0264640     
   3821776201.1088538     
   3791167021.3761845     
   3762161046.3109608     
   3736083657.6293902     
   3654036961.2126641     
   3630139637.6427484     
   3595121634.9565153     
   3548996436.9695978     
   3492411845.0917854     
   3364835723.9177399     
   2585135557.9621730     
   1924922106.2826974     
   1743486916.7491093     
   2412306941.3582110     
   3665621752.1825094     
   3022261449.8496265     
   2419967372.9415355     
   2019704265.0770941     
   2149405123.7023430     
   3792914621.9514284     
   3254093660.8657742     
   2723161886.6094356     
   2277650686.7480254     
   2110450820.1469042     
   3736083657.6293902     
   3257088767.1011014     
   2768330089.0847578     
   2308277040.7913475     
   1986439738.5105085     
   3492411845.0917854     
   3025129123.0066690     
   2541034651.0173287     
   2062328827.2818453     
   1661003718.0178468     
   5657106859.5323400     
   5890887430.8500652     
   6116998087.3211546     
   6333057508.5836363     
   6538907899.2039852     
   5151290539.2130327     
   5311670531.1402206     
   5468654075.5724945     
   5619399814.4964304     
   5762491186.7060595     
   4643721429.7304707     
   4756108516.0819836     
   4869587909.9191599     
   4981547984.5301466     
   5090086761.3962755     
   4134661261.4010057     
   4225031139.7057276     
   4321285694.3220835     
   4421757439.1143475     
   4524983947.9679594     
   3625614231.1482100     
   3720248013.3190751     
   3826095457.8896022     
   3943053131.2775521     
   4070993177.7915916     
   6538907899.2039852     
   6331347390.9877977     
   6145846404.1885529     
   5968393943.6284637     
   5790004497.6322927     
   5762491186.7060595     
   5655224110.5779829     
   5563910077.3354530     
   5479444382.9974480     
   5396310070.0175285     
   5090086761.3962755     
   5057119756.8897314     
   5034708342.4573669     
   5017637268.0543156     
   5002713391.1502447     
   4524983947.9679594     
   4541606259.5225782     
   4563014816.8314304     
   4586745450.1909456     
   4611077122.9114943     
   4070993177.7915916     
   4113999514.2796674     
   4154492082.8383193     
   4191625925.6976132     
   4224707106.2773614     
   5790004497.6322927     
   5641654665.9600677     
   5499459579.3503485     
   5363396967.1967001     
   5233730918.4682627     
   5396310070.0175285     
   5258638674.9802856     
   5125470854.0073195     
   4996888735.2921476     
   4873083187.2171831     
   5002713391.1502447     
   4878369778.9448767     
   4757736177.3165417     
   4640773725.5886793     
   4527506187.9848185     
   4611077122.9114943     
   4503556086.0728121     
   4399885151.8328409     
   4299659849.7788277     
   4202666188.7804294     
   4224707106.2773614     
   4138287553.2375102     
   4056950799.6539898     
   3979647038.6016974     
   3905875260.7983766     
   5233730918.4682627     
   5124417369.5505075     
   5010711409.5912094     
   4892507327.3176451     
   4770054853.5428715     
   4873083187.2171831     
   4770976534.0172348     
   4665984170.2480507     
   4558099669.8266668     
   4447562984.8198099     
   4527506187.9848185     
   4432993519.2941580     
   4337175749.2454777     
   4240130453.4000540     
   4142088211.2076550     
   4202666188.7804294     
   4115809389.8859687     
   4029239600.7748094     
   3943091326.4822702     
   3857578233.0795431     
   3905875260.7983766     
   3826265982.5398202     
   3748474069.8903995     
   3672652095.9929495     
   3598983785.5109830     
   4770054853.5428715     
   4588482715.2150059     
   4412576850.1034088     
   4242625412.0914950     
   4079126197.7655225     
   4447562984.8198099     
   4283941467.4144669     
   4126425532.1421452     
   3975339531.0547462     
   3831211200.8889527     
   4142088211.2076550     
   3996069708.2446356     
   3856720547.3752065     
   3724390340.6323609     
   3599622212.7158809     
   3857578233.0795431     
   3728639117.2522326     
   3607065466.0439882     
   3493215360.7307181     
   3387625744.0081162     
   3598983785.5109830     
   3486325396.5433116     
   3381863831.2804918     
   3285942207.6500106     
   3199062246.2269888     
   4079126197.7655225     
   3959741719.6494122     
   3848430778.5100365     
   3746084912.1625981     
   3654036961.2126641     
   3831211200.8889527     
   3724771077.3523054     
   3625093970.2200441     
   3532777001.1767802     
   3448688012.6948404     
   3599622212.7158809     
   3503430511.3797765     
   3412650205.2447257     
   3327666680.9340315     
   3249006939.4480915     
   3387625744.0081162     
   3299644459.5720773     
   3215638577.5634432     
   3135846112.1939158     
   3060561683.0504665     
   3199062246.2269888     
   3118136343.2290430     
   3039644901.3069701     
   2963724219.1984420     
   2890530815.5709782     
   3654036961.2126641     
   3630139637.6427484     
   3595121634.9565153     
   3548996436.9695978     
   3492411845.0917854     
   3448688012.6948404     
   3409145916.4106660     
   3360186830.4604583     
   3301643915.1588788     
   3233797362.1327529     
   3249006939.4480915     
   3199389115.2183971     
   3142548477.5531859     
   3078302517.9187388     
   3006764257.3143487     
   3060561683.0504665     
   3006222435.0544448     
   2947369687.8816633     
   2883946098.2367010     
   2816081581.9361629     
   2890530815.5709782     
   2836323880.0932364     
   2780812299.0537806     
   2724143984.1006703     
   2666581716.0603943     
   3492411845.0917854     
   3025129123.0066690     
   2541034651.0173287     
   2062328827.2818453     
   1661003718.0178468     
   3233797362.1327529     
   2799642004.3446655     
   2356565599.3779140     
   1907441857.2310567     
   1466667821.0089688     
   3006764257.3143487     
   2614016777.9113951     
   2231121192.9618306     
   1860114083.5521219     
   1505736876.3714619     
   2816081581.9361629     
   2460843853.6056557     
   2137513602.4777856     
   1858585600.9351885     
   1646958376.0181136     
   2666581716.0603943     
   2331577300.2970209     
   2050497250.9536984     
   1855321100.2537422     
   1799911402.3112888     
   3625614231.1482100     
   3720248013.3190751     
   3826095457.8896022     
   3943053131.2775521     
   4070993177.7915916     
   3138563145.1771617     
   3255887058.4096918     
   3382600629.2509995     
   3518213371.5700493     
   3662249092.1647544     
   2695206121.5266719     
   2830653976.9468913     
   2973399779.2199812     
   3122357187.0984201     
   3276611417.1131368     
   2299047073.0532198     
   2449345846.2466369     
   2604367680.6081190     
   2762202747.4630346     
   2921430649.2764993     
   1955330079.0500083     
   2118934200.8603537     
   2283909860.7539339     
   2447326617.6490192     
   2607248423.5949054     
   4070993177.7915916     
   4113999514.2796674     
   4154492082.8383193     
   4191625925.6976132     
   4224707106.2773614     
   3662249092.1647544     
   3702952647.3063684     
   3742314106.4175167     
   3779466808.1438432     
   3813683847.0102968     
   3276611417.1131368     
   3320852578.9868789     
   3365268284.6982908     
   3409043799.1643605     
   3451505483.2878914     
   2921430649.2764993     
   2975103450.1490378     
   3030824493.9428411     
   3087897511.0079613     
   3145779071.0559268     
   2607248423.5949054     
   2675792329.9560227     
   2748570332.9768577     
   2825044912.0160246     
   2904846700.5828371     
   4224707106.2773614     
   4138287553.2375102     
   4056950799.6539898     
   3979647038.6016974     
   3905875260.7983766     
   3813683847.0102968     
   3756141224.0419979     
   3703395251.0793061     
   3654834088.7977147     
   3610233476.0520167     
   3451505483.2878914     
   3419280406.7981234     
   3391314923.8166280     
   3367304499.4954042     
   3347174835.9006619     
   3145779071.0559268     
   3135550284.5477953     
   3128577809.2254658     
   3124736963.8300166     
   3124003567.0228276     
   2904846700.5828371     
   2913509709.3263645     
   2923756155.4416676     
   2935536603.1447678     
   2948822492.0626864     
   3905875260.7983766     
   3826265982.5398202     
   3748474069.8903995     
   3672652095.9929495     
   3598983785.5109830     
   3610233476.0520167     
   3543042998.4340000     
   3479248548.0898852     
   3419071896.0291758     
   3362775358.1357980     
   3347174835.9006619     
   3294793965.8323889     
   3247653656.6672297     
   3206030299.5154724     
   3170244609.7101994     
   3124003567.0228276     
   3087991230.0309997     
   3059254315.6471844     
   3038078948.1771684     
   3024791041.1507268     
   2948822492.0626864     
   2929384443.1715698     
   2919355302.9887481     
   2918967462.9643040     
   2928483464.7737474     
   3598983785.5109830     
   3486325396.5433116     
   3381863831.2804918     
   3285942207.6500106     
   3199062246.2269888     
   3362775358.1357980     
   3269680524.4332480     
   3184500709.9393134     
   3107547834.0121088     
   3039235579.4121146     
   3170244609.7101994     
   3096117766.8748517     
   3029444219.4945140     
   2970495313.6614122     
   2919603810.9652820     
   3024791041.1507268     
   2969330237.9842453     
   2920659641.0344291     
   2878997601.6591072     
   2844603821.2635365     
   2928483464.7737474     
   2891602828.1928825     
   2860646866.9095879     
   2835769239.8763723     
   2817167505.8528681     
   3199062246.2269888     
   3118136343.2290430     
   3039644901.3069701     
   2963724219.1984420     
   2890530815.5709782     
   3039235579.4121146     
   2968069210.2654786     
   2900612163.6539025     
   2837070998.1554480     
   2777679629.9556651     
   2919603810.9652820     
   2860457520.6502242     
   2806479440.8505969     
   2757929609.2714381     
   2715095537.8746066     
   2844603821.2635365     
   2799010301.3347373     
   2760121777.6182265     
   2728213314.8887668     
   2703580087.3610525     
   2817167505.8528681     
   2785612147.6803813     
   2762273298.4984035     
   2747397476.9719276     
   2741241267.8987150     
   2890530815.5709782     
   2836323880.0932364     
   2780812299.0537806     
   2724143984.1006703     
   2666581716.0603943     
   2777679629.9556651     
   2740802853.1505642     
   2705888874.9167318     
   2673294873.5828900     
   2643475489.2780247     
   2715095537.8746066     
   2700732349.1596274     
   2691815743.0612798     
   2688833390.8742280     
   2692324664.1479154     
   2703580087.3610525     
   2714501317.0477371     
   2734147484.3925099     
   2763000332.1127553     
   2801541341.3654599     
   2741241267.8987150     
   2777562167.2358932     
   2825512474.4157119     
   2885470542.4565129     
   2957785128.7062292     
   2666581716.0603943     
   2331577300.2970209     
   2050497250.9536984     
   1855321100.2537422     
   1799911402.3112888     
   2643475489.2780247     
   2310741605.6170053     
   2017599577.8294859     
   1780723147.7338657     
   1632554439.6019614     
   2692324664.1479154     
   2362693340.0065846     
   2060853465.8878343     
   1792802314.5257008     
   1571668374.1664796     
   2801541341.3654599     
   2482605279.8742256     
   2182793800.7121315     
   1903135607.1638851     
   1645928079.5446360     
   2957785128.7062292     
   2661760087.9287663     
   2379410688.3571749     
   2112056075.1073699     
   1861774727.5535326     
   1955330079.0500083     
   2118934200.8603537     
   2283909860.7539339     
   2447326617.6490192     
   2607248423.5949054     
   1653637452.4595370     
   1819633925.6439452     
   1987320314.6780221     
   2154024838.5590472     
   2318006728.1961188     
   1393353394.7470057     
   1570239958.9950418     
   1748108766.2332850     
   1924972668.5477359     
   2099591937.2471023     
   1206780723.7609258     
   1398191477.7245884     
   1589147267.6986377     
   1778877253.8649101     
   1966926378.9069748     
   1136557183.6079695     
   1334350545.1729202     
   1532401049.7087376     
   1730708697.2154224     
   1929273487.6929743     
   2607248423.5949054     
   2675792329.9560227     
   2748570332.9768577     
   2825044912.0160246     
   2904846700.5828371     
   2318006728.1961188     
   2405620640.9967117     
   2495481663.6427069     
   2587183729.7554383     
   2680443170.2913766     
   2099591937.2471023     
   2203978903.4774628     
   2308165130.0396075     
   2411906707.5948138     
   2515033324.9529982     
   1966926378.9069748     
   2084833312.7750840     
   2199863458.0087981     
   2311939681.8819094     
   2421008906.8001471     
   1929273487.6929743     
   2056753298.2602913     
   2178874425.9926457     
   2295636870.8900347     
   2407040632.9524617     
   2904846700.5828371     
   2913509709.3263645     
   2923756155.4416676     
   2935536603.1447678     
   2948822492.0626864     
   2680443170.2913766     
   2697154254.1923461     
   2716710839.6066165     
   2739105606.6517487     
   2764343934.1575928     
   2515033324.9529982     
   2539705624.8388557     
   2568505635.5255327     
   2601443601.0563397     
   2638535184.8223066     
   2421008906.8001471     
   2451876812.6587720     
   2488135732.0851970     
   2529792349.7199206     
   2576854446.6008539     
   2407040632.9524617     
   2440547560.5802994     
   2480679594.1555538     
   2527436733.6782255     
   2580818979.1483126     
   2948822492.0626864     
   2929384443.1715698     
   2919355302.9887481     
   2918967462.9643040     
   2928483464.7737474     
   2764343934.1575928     
   2759733263.9173350     
   2763336138.3335805     
   2775267312.0348320     
   2795652800.9005661     
   2638535184.8223066     
   2645178291.2871280     
   2658539559.1752238     
   2678658742.5334058     
   2705578573.7572789     
   2576854446.6008539     
   2591281469.3326807     
   2610683484.3456678     
   2635067006.5982146     
   2664438969.8013930     
   2580818979.1483126     
   2600089123.5545621     
   2622433370.5916600     
   2647851720.2596083     
   2676344172.5584073     
   2928483464.7737474     
   2891602828.1928825     
   2860646866.9095879     
   2835769239.8763723     
   2817167505.8528681     
   2795652800.9005661     
   2766925737.6733570     
   2745079391.2963290     
   2730224267.2521300     
   2722496753.2288914     
   2705578573.7572789     
   2682771306.2005076     
   2667699887.1432877     
   2660423517.0330634     
   2661013176.7551765     
   2664438969.8013930     
   2644472856.6712408     
   2632973975.2398577     
   2629959118.7241755     
   2635448085.1729527     
   2676344172.5584073     
   2655487877.5611858     
   2643689156.1089129     
   2640948008.2015853     
   2647264433.8392043     
   2817167505.8528681     
   2785612147.6803813     
   2762273298.4984035     
   2747397476.9719276     
   2741241267.8987150     
   2722496753.2288914     
   2700607101.8065534     
   2687190253.1411409     
   2682396775.9900665     
   2686380272.9153934     
   2661013176.7551765     
   2646238222.6242609     
   2640119533.0348687     
   2642727837.4270277     
   2654134184.6709318     
   2635448085.1729527     
   2624735195.7996030     
   2622815157.2560978     
   2629706175.7432795     
   2645426374.0873609     
   2647264433.8392043     
   2637243891.3712263     
   2636127631.5132766     
   2643915654.2653513     
   2660607959.6274514     
   2741241267.8987150     
   2777562167.2358932     
   2825512474.4157119     
   2885470542.4565129     
   2957785128.7062292     
   2686380272.9153934     
   2735165488.0261326     
   2793688950.0415268     
   2862132532.9105878     
   2940663909.3735871     
   2654134184.6709318     
   2710970154.6245117     
   2775714579.2465386     
   2848436105.7974806     
   2929198874.9908433     
   2645426374.0873609     
   2706142032.7198439     
   2773039764.1403651     
   2846134194.4752073     
   2925439341.0628757     
   2660607959.6274514     
   2721501800.0419188     
   2786959166.6235867     
   2856980059.3724627     
   2931564478.2885442     
   2957785128.7062292     
   2661760087.9287663     
   2379410688.3571749     
   2112056075.1073699     
   1861774727.5535326     
   2940663909.3735871     
   2653618774.1001420     
   2384839858.2855992     
   2135298214.8449984     
   1906436150.9453483     
   2929198874.9908433     
   2649320062.3717222     
   2392156441.5537071     
   2158261475.6434846     
   1948413323.3620045     
   2925439341.0628757     
   2649262412.4370317     
   2400198102.0593343     
   2178419626.7984195     
   1984159105.8034959     
   2931564478.2885442     
   2653931460.5069642     
   2407965548.4243851     
   2193666742.0408049     
   2011035041.3562343     
   1136557183.6079695     
   1334350545.1729202     
   1532401049.7087376     
   1730708697.2154224     
   1929273487.6929743     
   1206780723.8618228     
   1398191477.8211858     
   1589147267.7929223     
   1778877253.9584177     
   1966926379.0008895     
   1393353394.9135170     
   1570239959.1596756     
   1748108766.3979580     
   1924972668.7142718     
   2099591937.4170866     
   1653637452.6547813     
   1819633925.8424718     
   1987320314.8811729     
   2154024838.7684503     
   2318006728.4133606     
   1955330079.2477317     
   2118934201.0652227     
   2283909860.9670534     
   2447326617.8719287     
   2607248423.8291907     
   1929273487.6929743     
   2056753298.2602913     
   2178874425.9926457     
   2295636870.8900347     
   2407040632.9524617     
   1966926379.0008895     
   2084833312.8736215     
   2199863458.1130075     
   2311939681.9927793     
   2421008906.9186583     
   2099591937.4170866     
   2203978903.6559734     
   2308165130.2284498     
   2411906707.7957287     
   2515033325.1677580     
   2318006728.4133606     
   2405620641.2248592     
   2495481663.8841596     
   2587183730.0125628     
   2680443170.5666289     
   2607248423.8291907     
   2675792330.2010541     
   2748570333.2356238     
   2825044912.2915211     
   2904846700.8782377     
   2407040632.9524617     
   2440547560.5802994     
   2480679594.1555538     
   2527436733.6782255     
   2580818979.1483126     
   2421008906.9186583     
   2451876812.7943015     
   2488135732.2402806     
   2529792349.8971386     
   2576854446.8028316     
   2515033325.1677580     
   2539705625.0832901     
   2568505635.8047948     
   2601443601.3756957     
   2638535185.1871581     
   2680443170.5666289     
   2697154254.5030880     
   2716710839.9605341     
   2739105607.0567541     
   2764343934.6218743     
   2904846700.8782377     
   2913509709.6547141     
   2923756155.8128028     
   2935536603.5688653     
   2948822492.5503440     
   2580818979.1483126     
   2600089123.5545621     
   2622433370.5916600     
   2647851720.2596083     
   2676344172.5584073     
   2576854446.8028316     
   2591281469.5523095     
   2610683484.5908689     
   2635067006.8769150     
   2664438970.1215658     
   2638535185.1871581     
   2645178291.6796875     
   2658539559.6109748     
   2678658743.0279641     
   2705578574.3264890     
   2764343934.6218743     
   2759733264.4063954     
   2763336138.8702340     
   2775267312.6424069     
   2795652801.6030884     
   2948822492.5503440     
   2929384443.6643901     
   2919355303.5166731     
   2918967463.5585628     
   2928483465.4671879     
   2676344172.5584073     
   2655487877.5611858     
   2643689156.1089129     
   2640948008.2015853     
   2647264433.8392043     
   2664438970.1215658     
   2644472857.1104507     
   2632973975.8080163     
   2629959119.4311461     
   2635448086.0283179     
   2705578574.3264890     
   2682771306.9999819     
   2667699888.1940708     
   2660423518.3563833     
   2661013178.3718553     
   2795652801.6030884     
   2766925738.7008996     
   2745079392.6824455     
   2730224269.0312119     
   2722496755.4352660     
   2928483465.4671879     
   2891602829.2829704     
   2860646868.4431262     
   2835769241.9021702     
   2817167508.4205604     
   2647264433.8392043     
   2637243891.3712263     
   2636127631.5132766     
   2643915654.2653513     
   2660607959.6274514     
   2635448086.0283179     
   2624735196.8222032     
   2622815158.4499364     
   2629706177.1116214     
   2645426375.6326909     
   2661013178.3718553     
   2646238224.5740762     
   2640119535.3275952     
   2642727840.0709748     
   2654134187.6727853     
   2722496755.4352660     
   2700607104.5047693     
   2687190256.3497405     
   2682396779.7255511     
   2686380277.1918116     
   2817167508.4205604     
   2785612150.8849473     
   2762273302.3705735     
   2747397481.5402598     
   2741241273.1887994     
   2660607959.6274514     
   2721501800.0419188     
   2786959166.6235867     
   2856980059.3724627     
   2931564478.2885442     
   2645426375.6326909     
   2706142034.4290686     
   2773039766.0116396     
   2846134196.5060153     
   2925439343.2501001     
   2654134187.6727853     
   2710970157.9739361     
   2775714582.9405627     
   2848436109.8309302     
   2929198879.3564625     
   2686380277.1918116     
   2735165492.8551974     
   2793688955.4218087     
   2862132538.8357329     
   2940663915.8323784     
   2741241273.1887994     
   2777562173.3045740     
   2825512481.2685399     
   2885470550.0898962     
   2957785137.1071296     
   2931564478.2885442     
   2653931460.5069642     
   2407965548.4243851     
   2193666742.0408049     
   2011035041.3562343     
   2925439343.2501001     
   2649262414.3780012     
   2400198103.7065187     
   2178419628.1068826     
   1984159106.7354991     
   2929198879.3564625     
   2649320066.3842654     
   2392156445.1154141     
   2158261478.6515856     
   1948413325.7120683     
   2940663915.8323784     
   2653618780.2504597     
   2384839863.9785643     
   2135298219.9078522     
   1906436155.1751456     
   2957785137.1071296     
   2661760096.2165847     
   2379410696.3337736     
   2112056082.5215790     
   1861774734.0735567     
   1955330079.2477317     
   2118934201.0652227     
   2283909860.9670534     
   2447326617.8719287     
   2607248423.8291907     
   2299047073.2362127     
   2449345846.4373283     
   2604367680.8071828     
   2762202747.6713023     
   2921430649.4947844     
   2695206121.6835132     
   2830653977.1101909     
   2973399779.3903260     
   3122357187.2763376     
   3276611417.2990580     
   3138563145.2996154     
   3255887058.5361605     
   3382600629.3821330     
   3518213371.7063274     
   3662249092.3065157     
   3625614231.2298489     
   3720248013.4015412     
   3826095457.9736462     
   3943053131.3637328     
   4070993177.8803372     
   2607248423.8291907     
   2675792330.2010541     
   2748570333.2356238     
   2825044912.2915211     
   2904846700.8782377     
   2921430649.4947844     
   2975103450.3715324     
   3030824494.1713724     
   3087897511.2442455     
   3145779071.3017359     
   3276611417.2990580     
   3320852579.1707406     
   3365268284.8807602     
   3409043799.3458700     
   3451505483.4687824     
   3662249092.3065157     
   3702952647.4405117     
   3742314106.5436130     
   3779466808.2611213     
   3813683847.1177716     
   4070993177.8803372     
   4113999514.3563108     
   4154492082.9014544     
   4191625925.7454314     
   4224707106.3077655     
   2904846700.8782377     
   2913509709.6547141     
   2923756155.8128028     
   2935536603.5688653     
   2948822492.5503440     
   3145779071.3017359     
   3135550284.8040900     
   3128577809.4991965     
   3124736964.1287179     
   3124003567.3548732     
   3451505483.4687824     
   3419280406.9660282     
   3391314923.9757042     
   3367304499.6505847     
   3347174836.0580935     
   3813683847.1177716     
   3756141224.1141667     
   3703395251.1177669     
   3654834088.8048859     
   3610233476.0317926     
   4224707106.3077655     
   4138287553.2128205     
   4056950799.5735674     
   3979647038.4656501     
   3905875260.6083670     
   2948822492.5503440     
   2929384443.6643901     
   2919355303.5166731     
   2918967463.5585628     
   2928483465.4671879     
   3124003567.3548732     
   3087991230.3052492     
   3059254315.8847198     
   3038078948.4007039     
   3024791041.3849497     
   3347174836.0580935     
   3294793965.8793731     
   3247653656.6167312     
   3206030299.3819351     
   3170244609.5098596     
   3610233476.0317926     
   3543042998.2651200     
   3479248547.7783675     
   3419071895.5820475     
   3362775357.5613031     
   3905875260.6083670     
   3826265982.1797709     
   3748474069.3610134     
   3672652095.2954035     
   3598983784.6470079     
   2928483465.4671879     
   2891602829.2829704     
   2860646868.4431262     
   2835769241.9021702     
   2817167508.4205604     
   3024791041.3849497     
   2969330238.5599632     
   2920659641.9931955     
   2878997603.0452957     
   2844603823.1237502     
   3170244609.5098596     
   3096117766.9506598     
   3029444219.8818221     
   2970495314.3993587     
   2919603812.0967875     
   3362775357.5613031     
   3269680524.0682740     
   3184500709.8123245     
   3107547834.1562338     
   3039235579.8656387     
   3598983784.6470079     
   3486325395.8286414     
   3381863830.7364869     
   3285942207.3032808     
   3199062246.1102700     
   2817167508.4205604     
   2785612150.8849473     
   2762273302.3705735     
   2747397481.5402598     
   2741241273.1887994     
   2844603823.1237502     
   2799010303.7885194     
   2760121780.7017255     
   2728213318.6374140     
   2703580091.8087263     
   2919603812.0967875     
   2860457522.3161554     
   2806479443.0903687     
   2757929612.1254053     
   2715095541.3833981     
   3039235579.8656387     
   2968069211.1830349     
   2900612165.0750532     
   2837071000.1220121     
   2777679632.5113945     
   3199062246.1102700     
   3118136343.5018077     
   3039644902.0061884     
   2963724220.3639684     
   2890530817.2455578     
   2741241273.1887994     
   2777562173.3045740     
   2825512481.2685399     
   2885470550.0898962     
   2957785137.1071296     
   2703580091.8087263     
   2714501322.3114905     
   2734147490.4876633     
   2763000339.0432568     
   2801541349.1222162     
   2715095541.3833981     
   2700732353.5021853     
   2691815748.2666106     
   2688833396.9597144     
   2692324671.1160831     
   2777679632.5113945     
   2740802856.5272136     
   2705888879.1553955     
   2673294878.7146330     
   2643475495.3195748     
   2890530817.2455578     
   2836323882.5469179     
   2780812302.3331699     
   2724143988.2438869     
   2666581721.0923891     
   2957785137.1071296     
   2661760096.2165847     
   2379410696.3337736     
   2112056082.5215790     
   1861774734.0735567     
   2801541349.1222162     
   2482605287.7044153     
   2182793808.5608277     
   1903135615.0091014     
   1645928087.4192994     
   2692324671.1160831     
   2362693347.2962933     
   2060853473.6103413     
   1792802322.9273698     
   1571668383.6726174     
   2643475495.3195748     
   2310741612.2693467     
   2017599585.3775926     
   1780723156.6752882     
   1632554450.5932126     
   2666581721.0923891     
   2331577306.2424884     
   2050497258.2704637     
   1855321109.6478305     
   1799911414.4954321     
   3625614231.2298489     
   3720248013.4015412     
   3826095457.9736462     
   3943053131.3637328     
   4070993177.8803372     
   4134661261.4379354     
   4225031139.7400203     
   4321285694.3533974     
   4421757439.1424389     
   4524983947.9926519     
   4643721429.7207680     
   4756108516.0663490     
   4869587909.8961802     
   4981547984.4988394     
   5090086761.3559666     
   5151290539.1547527     
   5311670531.0731039     
   5468654075.4941235     
   5619399814.4051828     
   5762491186.6008997     
   5657106859.4233074     
   5890887430.7298708     
   6116998087.1864634     
   6333057508.4322815     
   6538907899.0346832     
   4070993177.8803372     
   4113999514.3563108     
   4154492082.9014544     
   4191625925.7454314     
   4224707106.3077655     
   4524983947.9926519     
   4541606259.5295372     
   4563014816.8195114     
   4586745450.1589384     
   4611077122.8583775     
   5090086761.3559666     
   5057119756.8283415     
   5034708342.3744993     
   5017637267.9495907     
   5002713391.0235510     
   5762491186.6008997     
   5655224110.4505453     
   5563910077.1863365     
   5479444382.8272200     
   5396310069.8268890     
   6538907899.0346832     
   6331347390.7969685     
   6145846403.9778948     
   5968393943.3995991     
   5790004497.3867359     
   4224707106.3077655     
   4138287553.2128205     
   4056950799.5735674     
   3979647038.4656501     
   3905875260.6083670     
   4611077122.8583775     
   4503556085.9535389     
   4399885151.6443262     
   4299659849.5180321     
   4202666188.4446731     
   5002713391.0235510     
   4878369778.7508516     
   4757736177.0503731     
   4640773725.2452278     
   4527506187.5585728     
   5396310069.8268890     
   5258638674.7308540     
   5125470853.6930943     
   4996888734.9066114     
   4873083186.7530031     
   5790004497.3867359     
   5641654665.6736717     
   5499459579.0162649     
   5363396966.8074036     
   5233730918.0151024     
   3905875260.6083670     
   3826265982.1797709     
   3748474069.3610134     
   3672652095.2954035     
   3598983784.6470079     
   4202666188.4446731     
   4115809389.3720002     
   4029239600.0800729     
   3943091325.6044483     
   3857578232.0165424     
   4527506187.5585728     
   4432993518.6995020     
   4337175748.4781599     
   4240130452.4558187     
   4142088210.0820808     
   4873083186.7530031     
   4770976533.4112024     
   4665984169.4957695     
   4558099668.9236736     
   4447562983.7612133     
   5233730918.0151024     
   5124417368.9974985     
   5010711408.9352522     
   4892507326.5557766     
   4770054852.6717167     
   3598983784.6470079     
   3486325395.8286414     
   3381863830.7364869     
   3285942207.3032808     
   3199062246.1102700     
   3857578232.0165424     
   3728639116.2861114     
   3607065465.1899381     
   3493215360.0086446     
   3387625743.4434428     
   4142088210.0820808     
   3996069707.1792855     
   3856720546.3790588     
   3724390339.7182651     
   3599622211.9011807     
   4447562983.7612133     
   4283941466.3979397     
   4126425531.1707687     
   3975339530.1344566     
   3831211200.0288353     
   4770054852.6717167     
   4588482714.3876972     
   4412576849.3176918     
   4242625411.3468599     
   4079126197.0631070     
   3199062246.1102700     
   3118136343.5018077     
   3039644902.0061884     
   2963724220.3639684     
   2890530817.2455578     
   3387625743.4434428     
   3299644459.3222356     
   3215638577.6604037     
   3135846112.6738029     
   3060561683.9543877     
   3599622211.9011807     
   3503430510.8150311     
   3412650204.9578843     
   3327666680.9580588     
   3249006939.8223104     
   3831211200.0288353     
   3724771076.6881380     
   3625093969.7760696     
   3532777000.9825673     
   3448688012.7869220     
   4079126197.0631070     
   3959741719.0997629     
   3848430778.1332679     
   3746084911.9838090     
   3654036961.2635789     
   2890530817.2455578     
   2836323882.5469179     
   2780812302.3331699     
   2724143988.2438869     
   2666581721.0923891     
   3060561683.9543877     
   3006222436.6620898     
   2947369690.2387357     
   2883946101.3810234     
   2816081585.8928604     
   3249006939.8223104     
   3199389116.1961732     
   3142548479.1733828     
   3078302520.2115088     
   3006764260.2962518     
   3448688012.7869220     
   3409145916.9922919     
   3360186831.5610838     
   3301643916.7977529     
   3233797364.3140230     
   3654036961.2635789     
   3630139638.0627651     
   3595121635.7657695     
   3548996438.1766281     
   3492411846.6888843     
   2666581721.0923891     
   2331577306.2424884     
   2050497258.2704637     
   1855321109.6478305     
   1799911414.4954321     
   2816081585.8928604     
   2460843858.5773125     
   2137513608.7698033     
   1858585609.0083914     
   1646958386.4632566     
   3006764260.2962518     
   2614016781.8369751     
   2231121198.0084763     
   1860114089.9432080     
   1505736884.3865192     
   3233797364.3140230     
   2799642007.2488303     
   2356565603.0354028     
   1907441861.5461845     
   1466667825.5143049     
   3492411846.6888843     
   3025129125.0132856     
   2541034653.2986608     
   2062328829.3764212     
   1661003718.6770830     
   5657106859.4233074     
   5890887430.7298708     
   6116998087.1864634     
   6333057508.4322815     
   6538907899.0346832     
   6490750491.3362093     
   6586375311.4162531     
   6757416495.5395470     
   6961863435.1531553     
   7173070266.4542131     
   7982066378.4559965     
   7734564843.8270540     
   7668753876.3164530     
   7669381042.6405802     
   7666525029.4004393     
   10131485852.433538     
   9322289011.2227592     
   8825838289.3014069     
   8442326130.0794859     
   8033934183.1194687     
   12939089384.759869     
   11342241176.670246     
   10209829733.909367     
   9270508423.8687229     
   8299749532.0572119     
   6538907899.0346832     
   6331347390.7969685     
   6145846403.9778948     
   5968393943.3995991     
   5790004497.3867359     
   7173070266.4542131     
   6912316066.6541729     
   6659260395.3171511     
   6409999087.1260691     
   6161374247.6070108     
   7666525029.4004393     
   7381248959.9750252     
   7101118593.2830086     
   6826219447.2643099     
   6556749185.9173346     
   8033934183.1194687     
   7745829854.9454527     
   7473137754.2360096     
   7213933875.6624994     
   6968229274.2670212     
   8299749532.0572119     
   8018657397.1231518     
   7779463456.1662741     
   7571481975.5333033     
   7389720066.1970148     
   5790004497.3867359     
   5641654665.6736717     
   5499459579.0162649     
   5363396966.8074036     
   5233730918.0151024     
   6161374247.6070108     
   6011330709.9125490     
   5864154816.8330097     
   5719959389.4727602     
   5578922989.5329437     
   6556749185.9173346     
   6401367100.0553961     
   6245423836.5078526     
   6088958363.2128859     
   5932066988.4190712     
   6968229274.2670212     
   6805497395.7732191     
   6638720719.5674515     
   6467663195.3371191     
   6292307488.2784386     
   7389720066.1970148     
   7218817670.9923916     
   7040465367.3808575     
   6853972315.4592466     
   6659165269.5064201     
   5233730918.0151024     
   5124417368.9974985     
   5010711408.9352522     
   4892507326.5557766     
   4770054852.6717167     
   5578922989.5329437     
   5454551500.1002779     
   5329061441.2280445     
   5202437370.2312422     
   5074851177.8124390     
   5932066988.4190712     
   5783441116.3894310     
   5636165285.4386282     
   5490293113.9630356     
   5346088629.7333221     
   6292307488.2784386     
   6108937173.6023064     
   5928679811.9508591     
   5751757699.9842405     
   5578812872.6655846     
   6659165269.5064201     
   6429618349.8340998     
   6204347845.6749496     
   5983932889.7660265     
   5769777321.0689869     
   4770054852.6717167     
   4588482714.3876972     
   4412576849.3176918     
   4242625411.3468599     
   4079126197.0631070     
   5074851177.8124390     
   4892338966.3312063     
   4712108350.6352682     
   4534258823.9157057     
   4358924019.2095060     
   5346088629.7333221     
   5173913421.2579527     
   5001767000.6247635     
   4829311092.2791986     
   4656220396.0551510     
   5578812872.6655846     
   5429538267.9741211     
   5278848075.8828831     
   5125848056.4656286     
   4969805036.9196014     
   5769777321.0689869     
   5656721939.9495287     
   5541420593.7559595     
   5422393575.3922281     
   5298643704.4541616     
   4079126197.0631070     
   3959741719.0997629     
   3848430778.1332679     
   3746084911.9838090     
   3654036961.2635789     
   4358924019.2095060     
   4220574783.7106342     
   4089556998.1224928     
   3966751295.5474977     
   3853407164.4301901     
   4656220396.0551510     
   4495346707.2059555     
   4340774909.6027870     
   4193410188.3967538     
   4054500062.4148946     
   4969805036.9196014     
   4783331062.0851374     
   4601865721.9988670     
   4426336637.2277651     
   4258021614.4877810     
   5298643704.4541616     
   5083911726.3561068     
   4872672333.1583920     
   4665845383.4831696     
   4464731340.2213135     
   3654036961.2635789     
   3630139638.0627651     
   3595121635.7657695     
   3548996438.1766281     
   3492411846.6888843     
   3853407164.4301901     
   3821776201.7657986     
   3791167022.3139300     
   3762161047.5608768     
   3736083659.2257075     
   4054500062.4148946     
   3968774532.8345661     
   3893880783.8343711     
   3833213558.1622672     
   3792914623.7443080     
   4258021614.4877810     
   4069708150.5129480     
   3900357597.0505109     
   3759808123.1453295     
   3665621754.2899570     
   4464731340.2213135     
   4124032578.0638261     
   3809305603.8646545     
   3542486606.0122733     
   3364835726.3318820     
   3492411846.6888843     
   3025129125.0132856     
   2541034653.2986608     
   2062328829.3764212     
   1661003718.6770830     
   3736083659.2257075     
   3257088768.9733539     
   2768330091.2046719     
   2308277042.9618459     
   1986439740.1329463     
   3792914623.7443080     
   3254093662.7313247     
   2723161888.6138849     
   2277650688.9187899     
   2110450822.3213983     
   3665621754.2899570     
   3022261451.7295313     
   2419967374.7432661     
   2019704267.0750072     
   2149405126.1309304     
   3364835726.3318820     
   2585135559.6607385     
   1924922107.4211493     
   1743486917.9620364     
   2412306943.5104160     
 </DataArray>
 <DataArray  type="Float64" Name="strain" NumberOfComponents="3" format="ascii">
  0.20355273528060813        0.0000000000000000       0.12539594684620384     
  0.18668781980087651       -2.7313811588415310E-002   7.4330306527937526E-002
  0.16982290432114489       -4.4661088195945518E-002   3.5121954641055671E-002
  0.15295798884141326       -5.2041829822590674E-002   7.7708911855582617E-003
  0.13609307336168164       -4.9456036468350714E-002  -7.7228838385546700E-003
  0.15987633690610903        0.0000000000000000        9.6452907529239892E-002
  0.15318410760930920       -2.1835557406223345E-002   6.2688237071594044E-002
  0.14649187831250937       -3.6164230514753308E-002   3.7411650548427280E-002
  0.13979964901570952       -4.2986019325589875E-002   2.0623147959739616E-002
  0.13310741971890969       -4.2300923838733101E-002   1.2322729305531112E-002
  0.12644880100139383        0.0000000000000000        7.4217947736063772E-002
  0.12656005339062043       -1.6357303224031380E-002   5.5294596455846640E-002
  0.12667130577984703       -2.7667372833561084E-002   4.1490124613203283E-002
  0.12678255816907361       -3.3930208828589117E-002   3.2804532208133716E-002
  0.12689381055830021       -3.5145811209115467E-002   2.9237819240637893E-002
  0.10327012756646251        0.0000000000000000        5.8691067466675462E-002
  0.10681565714481020       -1.0879049041839417E-002   5.2149384680695382E-002
  0.11036118672315789       -1.9170515152368860E-002   4.7357376835383706E-002
  0.11390671630150558       -2.4874398331588339E-002   4.4315043930740469E-002
  0.11745224587985327       -2.7990698579497850E-002   4.3022385966765664E-002
   9.0340316601315057E-002   0.0000000000000000        4.9872266721074969E-002
   9.3950918871878508E-002  -5.4007948596474535E-003   5.3252601746140216E-002
   9.7561521142441959E-002  -1.0673657471176642E-002   5.5013407214968543E-002
  0.10117212341300540       -1.5818587834587564E-002   5.5154683127559931E-002
  0.10478272568356883       -2.0835585949880237E-002   5.3676429483914448E-002
  0.13609307336168164       -4.9456036468350714E-002  -7.7228838385546700E-003
  0.13292382158125210       -4.2927850826410367E-002  -3.3325255941621390E-003
  0.12975456980082259       -3.8481415589954326E-002  -3.8629067990748195E-004
  0.12658531802039308       -3.6116730758982432E-002   1.1158209042094018E-003
  0.12341606623996354       -3.5833796333494955E-002   1.1738091581883492E-003
  0.13310741971890969       -4.2300923838733101E-002   1.2322729305531112E-002
  0.12888715449807969       -3.8445305473855773E-002   1.2254447448255188E-002
  0.12466688927724967       -3.5755525650630851E-002   1.1528262040315988E-002
  0.12044662405641963       -3.4231584369058231E-002   1.0144173081713894E-002
  0.11622635883558963       -3.3873481629138058E-002   8.1021805724485751E-003
  0.12689381055830021       -3.5145811209115467E-002   2.9237819240637893E-002
  0.12240875167654441       -3.3962760121301214E-002   2.5626809145525422E-002
  0.11792369279478865       -3.3029635711307404E-002   2.2144115279224497E-002
  0.11343863391303285       -3.2346437979134064E-002   1.8789737641735162E-002
  0.10895357503127709       -3.1913166924781119E-002   1.5563676233057482E-002
  0.11745224587985327       -2.7990698579497850E-002   4.3022385966765664E-002
  0.11348861311664644       -2.9480214768746654E-002   3.6784559497648611E-002
  0.10952498035343958       -3.0303745771983963E-002   3.1461269036817764E-002
  0.10556134759023274       -3.0461291589209832E-002   2.7052514584273185E-002
  0.10159771482702587       -2.9952852220424202E-002   2.3558296140014902E-002
  0.10478272568356883       -2.0835585949880237E-002   5.3676429483914448E-002
  0.10212673881838563       -2.4997669416192088E-002   4.5727698504624631E-002
   9.9470751953202430E-002  -2.7577855832660519E-002   3.9479723313095759E-002
   9.6814765088019214E-002  -2.8576145199285596E-002   3.4932503909327978E-002
   9.4158778222836026E-002  -2.7992537516067326E-002   3.2086040293321086E-002
  0.12341606623996354       -3.5833796333494955E-002   1.1738091581883492E-003
  0.12026738913542656       -3.6286608775666557E-002   6.2372992786824399E-004
  0.11711871203088961       -3.6129164547671989E-002   3.2919555406694945E-004
  0.11397003492635263       -3.5361463649511433E-002   2.9020603678456963E-004
  0.11082135782181568       -3.3983506081184889E-002   5.0676137602073679E-004
  0.11622635883558963       -3.3873481629138058E-002   8.1021805724485751E-003
  0.11331865846923869       -3.3917641829601441E-002   7.9402414893827711E-003
  0.11041095810288773       -3.3600489369179448E-002   8.0047110261701748E-003
  0.10750325773653673       -3.2922024247872335E-002   8.2955891828108176E-003
  0.10459555737018580       -3.1882246465679942E-002   8.8128759593045225E-003
  0.10895357503127709       -3.1913166924781119E-002   1.5563676233057482E-002
  0.10625771516644657       -3.1548674883536229E-002   1.5540933287965020E-002
  0.10356185530161607       -3.1071814190686876E-002   1.5715462726060236E-002
  0.10086599543678555       -3.0482584846233122E-002   1.6087264547343133E-002
   9.8170135571955072E-002  -2.9780986850174967E-002   1.6656338751813743E-002
  0.10159771482702587       -2.9952852220424202E-002   2.3558296140014902E-002
   9.9084559227050270E-002  -2.9179707937471037E-002   2.3425805323615136E-002
   9.6571403627074642E-002  -2.8543139012194289E-002   2.3461450653737431E-002
   9.4058248027099015E-002  -2.8043145444593912E-002   2.3665232130381866E-002
   9.1545092427123387E-002  -2.7679727234669924E-002   2.4037149753548384E-002
   9.4158778222836026E-002  -2.7992537516067326E-002   3.2086040293321086E-002
   9.1799190651049731E-002  -2.6810740991405936E-002   3.1594857596333029E-002
   8.9439603079263491E-002  -2.6014463833701745E-002   3.1242674809201530E-002
   8.7080015507477224E-002  -2.5603706042954717E-002   3.1029491931926657E-002
   8.4720427935690956E-002  -2.5578467619164991E-002   3.0955308964508294E-002
  0.11082135782181568       -3.3983506081184889E-002   5.0676137602073679E-004
  0.10708795783906078       -3.2450625929753618E-002   5.5703226931783090E-004
  0.10335455785630590       -3.1218157282278836E-002   1.4474495510367613E-003
   9.9621157873551039E-002  -3.0286100138760930E-002   3.1780132211772644E-003
   9.5887757890796121E-002  -2.9654454499199401E-002   5.7487232797400756E-003
  0.10459555737018580       -3.1882246465679942E-002   8.8128759593045225E-003
  0.10161021918104282       -3.0722893778251506E-002   8.3601537340060733E-003
   9.8624880991899880E-002  -2.9685703941235986E-002   8.5634087075092680E-003
   9.5639542802756883E-002  -2.8770676954633825E-002   9.4226408798150155E-003
   9.2654204613613955E-002  -2.7977812818444581E-002   1.0937850250922532E-002
   9.8170135571955072E-002  -2.9780986850174967E-002   1.6656338751813743E-002
   9.5748689986804192E-002  -2.8995161626749283E-002   1.5878872061463031E-002
   9.3327244401653381E-002  -2.8153250600193136E-002   1.5573213380294680E-002
   9.0905798816502556E-002  -2.7255253770506721E-002   1.5739362708308294E-002
   8.8484353231351690E-002  -2.6301171137689733E-002   1.6377320045504448E-002
   9.1545092427123387E-002  -2.7679727234669924E-002   2.4037149753548384E-002
   8.9503370256344889E-002  -2.7267429475247171E-002   2.3113187251689184E-002
   8.7461648085566335E-002  -2.6620797259150369E-002   2.2476863569392391E-002
   8.5419925914787864E-002  -2.5739830586379672E-002   2.2128178706658019E-002
   8.3378203744009297E-002  -2.4624529456934899E-002   2.2067132663485870E-002
   8.4720427935690956E-002  -2.5578467619164991E-002   3.0955308964508294E-002
   8.2874259989664925E-002  -2.5539697323745017E-002   3.0063099304684121E-002
   8.1028092043638866E-002  -2.5088343918107499E-002   2.9274359274802458E-002
   7.9181924097612821E-002  -2.4224407402252568E-002   2.8589088874863465E-002
   7.7335756151586749E-002  -2.2947887776180037E-002   2.8007288104866968E-002
   9.5887757890796121E-002  -2.9654454499199401E-002   5.7487232797400756E-003
   9.3892339180465689E-002  -2.9076583084611918E-002   8.8046124574944207E-003
   9.1896920470135174E-002  -2.8305848616016080E-002   1.1081212031593152E-002
   8.9901501759804728E-002  -2.7342251093411634E-002   1.2578522002036518E-002
   8.7906083049474226E-002  -2.6185790516798368E-002   1.3296542368824382E-002
   9.2654204613613955E-002  -2.7977812818444581E-002   1.0937850250922532E-002
   9.0012406337016487E-002  -2.7197576607923407E-002   1.3335236387528315E-002
   8.7370608060419075E-002  -2.6320433398325016E-002   1.5219152995255364E-002
   8.4728809783821579E-002  -2.5346383189649296E-002   1.6589600074104510E-002
   8.2087011507224139E-002  -2.4275425981896581E-002   1.7446577624075199E-002
   8.8484353231351690E-002  -2.6301171137689733E-002   1.6377320045504448E-002
   8.5461995463264412E-002  -2.5318570131234563E-002   1.8020247086030172E-002
   8.2439637695177204E-002  -2.4335018180633737E-002   1.9415524672454672E-002
   7.9417279927089968E-002  -2.3350515285887073E-002   2.0563152804778228E-002
   7.6394922159002732E-002  -2.2365061446994683E-002   2.1463131483000275E-002
   8.3378203744009297E-002  -2.4624529456934899E-002   2.2067132663485870E-002
   8.0241106559209463E-002  -2.3439563654545942E-002   2.2859644553000047E-002
   7.7104009374409629E-002  -2.2349602962942621E-002   2.3670327063190354E-002
   7.3966912189609810E-002  -2.1354647382124958E-002   2.4499180194056711E-002
   7.0829815004810004E-002  -2.0454696912092951E-002   2.5346203945599111E-002
   7.7335756151586749E-002  -2.2947887776180037E-002   2.8007288104866968E-002
   7.4349739624851557E-002  -2.1560557177857279E-002   2.7853428788438328E-002
   7.1363723098116297E-002  -2.0364187745251484E-002   2.7983560167463048E-002
   6.8377706571381092E-002  -1.9358779478362835E-002   2.8397682241940662E-002
   6.5391690044645873E-002  -1.8544332377191108E-002   2.9095795011871817E-002
   8.7906083049474226E-002  -2.6185790516798368E-002   1.3296542368824382E-002
   8.4283832887069421E-002  -2.4959781983125651E-002   1.4055811516413386E-002
   8.0661582724664727E-002  -2.3787540589341738E-002   1.5262525009222094E-002
   7.7039332562259949E-002  -2.2669066335446852E-002   1.6916682847250814E-002
   7.3417082399855227E-002  -2.1604359221441105E-002   1.9018285030498849E-002
   8.2087011507224139E-002  -2.4275425981896581E-002   1.7446577624075199E-002
   7.8890190197913296E-002  -2.3217401279946176E-002   1.8222543898281846E-002
   7.5693368888602314E-002  -2.2282148588677719E-002   1.9401923533456378E-002
   7.2496547579291457E-002  -2.1469667908090767E-002   2.0984716529599448E-002
   6.9299726269980544E-002  -2.0779959238185874E-002   2.2970922886710599E-002
   7.6394922159002732E-002  -2.2365061446994683E-002   2.1463131483000275E-002
   7.3579498718534198E-002  -2.1475020576766812E-002   2.2186790013031615E-002
   7.0764075278065594E-002  -2.0776756588013479E-002   2.3269830919779563E-002
   6.7948651837597018E-002  -2.0270269480734904E-002   2.4712254203243925E-002
   6.5133228397128484E-002  -1.9955559254930588E-002   2.6514059863424977E-002
   7.0829815004810004E-002  -2.0454696912092951E-002   2.5346203945599111E-002
   6.8351758448932223E-002  -1.9732639873587504E-002   2.5948549860662320E-002
   6.5873701893054484E-002  -1.9271364587349349E-002   2.6866247168190659E-002
   6.3395645337176745E-002  -1.9070871053378707E-002   2.8099295868184083E-002
   6.0917588781299013E-002  -1.9131159271675330E-002   2.9647695960642678E-002
   6.5391690044645873E-002  -1.8544332377191108E-002   2.9095795011871817E-002
   6.3206969389107442E-002  -1.7990259170408029E-002   2.9507823441174336E-002
   6.1022248733568998E-002  -1.7765972586685261E-002   3.0191172278690198E-002
   5.8837528078030561E-002  -1.7871472626022494E-002   3.1145841524419668E-002
   5.6652807422492124E-002  -1.8306759288420071E-002   3.2371831178362565E-002
   7.3417082399855227E-002  -2.1604359221441105E-002   1.9018285030498849E-002
   6.7475497668847861E-002  -2.0441436533504220E-002   1.9309519245340079E-002
   6.1533912937840551E-002  -1.9028315557816589E-002   2.2700195025892600E-002
   5.5592328206833269E-002  -1.7364996294377655E-002   2.9190312372155774E-002
   4.9650743475825876E-002  -1.5451478743187086E-002   3.8779871284129963E-002
   6.9299726269980544E-002  -2.0779959238185874E-002   2.2970922886710599E-002
   6.6023695516358893E-002  -2.0003837969991167E-002   2.3052025517755315E-002
   6.2747664762737243E-002  -1.8932119494535493E-002   2.5364794537860863E-002
   5.9471634009115648E-002  -1.7564803811818228E-002   2.9909229947026425E-002
   5.6195603255493998E-002  -1.5901890921840356E-002   3.6685331745252348E-002
   6.5133228397128484E-002  -1.9955559254930588E-002   2.6514059863424977E-002
   6.3654976444242006E-002  -1.9566239406478086E-002   2.6430429830183511E-002
   6.2176724491355542E-002  -1.8835923431254398E-002   2.7710691009352015E-002
   6.0698472538469085E-002  -1.7764611329259689E-002   3.0354843400930115E-002
   5.9220220585582600E-002  -1.6352303100493348E-002   3.4362887004918102E-002
   6.0917588781299013E-002  -1.9131159271675330E-002   2.9647695960642678E-002
   6.0369340452497117E-002  -1.9128640842965020E-002   2.9444732182624403E-002
   5.9821092123695283E-002  -1.8739727367973413E-002   2.9737884440365674E-002
   5.9272843794893469E-002  -1.7964418846700816E-002   3.0527152733866324E-002
   5.8724595466091566E-002  -1.6802715279146591E-002   3.1812537063126194E-002
   5.6652807422492124E-002  -1.8306759288420071E-002   3.2371831178362565E-002
   5.6166787541124363E-002  -1.8691042279451925E-002   3.2094932575078061E-002
   5.5680767659756547E-002  -1.8643531304692526E-002   3.1446374830902596E-002
   5.5194747778388731E-002  -1.8164226364141719E-002   3.0426157945835933E-002
   5.4708727897020970E-002  -1.7253127457799555E-002   2.9034281919877836E-002
   4.9650743475825876E-002  -1.5451478743187086E-002   3.8779871284129963E-002
   3.5940093497149772E-002  -1.1296602642831388E-002   3.5405095222467375E-002
   2.2229443518473724E-002  -2.9092077318956522E-003   3.5470720214819396E-002
   8.5187935397977033E-003   9.7107059896200040E-003   3.8976746261186107E-002
  -5.1918564388784283E-003   2.6563138521715768E-002   4.5923173361567038E-002
   5.6195603255493998E-002  -1.5901890921840356E-002   3.6685331745252348E-002
   4.5504084391095212E-002  -1.2259941970350852E-002   3.3316540157444230E-002
   3.4812565526696426E-002  -4.9555181030995210E-003   3.2545609744175752E-002
   2.4121046662297640E-002   6.0113806799135389E-003   3.4372540505447774E-002
   1.3429527797898855E-002   2.0640754378688175E-002   3.8797332441259158E-002
   5.9220220585582600E-002  -1.6352303100493348E-002   3.4362887004918102E-002
   5.0705292955986553E-002  -1.3223281297869871E-002   3.0430035996145521E-002
   4.2190365326390658E-002  -7.0018284743032649E-003   2.8252506282438458E-002
   3.3675437696794770E-002   2.3120553702070772E-003   2.7830297863796753E-002
   2.5160510067198660E-002   1.4718370235660583E-002   2.9163410740221218E-002
   5.8724595466091566E-002  -1.6802715279146591E-002   3.1812537063126194E-002
   5.1543719191824051E-002  -1.4186620625389224E-002   2.6745582738571402E-002
   4.4362842917556516E-002  -9.0481388455068493E-003   2.2591409829607032E-002
   3.7181966643289030E-002  -1.3872699394996083E-003   1.9350018336234558E-002
   3.0001090369021571E-002   8.7959860926329902E-003   1.7021408258452997E-002
   5.4708727897020970E-002  -1.7253127457799555E-002   2.9034281919877836E-002
   4.8019363098607437E-002  -1.5149959952908520E-002   2.2263180384721915E-002
   4.1329998300193904E-002  -1.1094449216710503E-002   1.5562320385682366E-002
   3.4640633501780427E-002  -5.0865952492063389E-003   8.9317019227601463E-003
   2.7951268703366838E-002   2.8736019496053977E-003   2.3713249959544935E-003
   9.0340316601315057E-002   0.0000000000000000        4.9872266721074969E-002
   9.3950918871878508E-002  -5.4007948596474535E-003   5.3252601746140216E-002
   9.7561521142441959E-002  -1.0673657471176642E-002   5.5013407214968543E-002
  0.10117212341300540       -1.5818587834587564E-002   5.5154683127559931E-002
  0.10478272568356883       -2.0835585949880237E-002   5.3676429483914448E-002
   8.2412381055127160E-002   0.0000000000000000        4.4826114243412152E-002
   8.4632184230029328E-002  -4.5751619726233095E-003   4.8306416220243092E-002
   8.6851987404931524E-002  -9.0455599472551232E-003   5.0624649561988443E-002
   8.9071790579833707E-002  -1.3411193923895436E-002   5.1780814268648181E-002
   9.1291593754735889E-002  -1.7672063902544256E-002   5.1774910340222330E-002
   7.4239333877074390E-002   0.0000000000000000        4.0617178777836847E-002
   7.5525798877466660E-002  -3.7495290855991677E-003   4.4174279456306732E-002
   7.6812263877858875E-002  -7.4174624233336022E-003   4.7026772420842348E-002
   7.8098728878251131E-002  -1.1003800013203299E-002   4.9174657671443682E-002
   7.9385193878643401E-002  -1.4508541855208267E-002   5.0617935208110712E-002
   6.5821175067156804E-002   0.0000000000000000        3.7245460324349076E-002
   6.6631762814190434E-002  -2.9238961985750250E-003   4.0856191454331135E-002
   6.7442350561224051E-002  -5.7893648994120812E-003   4.4219775791530233E-002
   6.8252938308257696E-002  -8.5964061025111671E-003   4.7336213335946370E-002
   6.9063526055291327E-002  -1.1345019807872281E-002   5.0205504087579574E-002
   5.7157904625374359E-002   0.0000000000000000        3.4710958882948825E-002
   5.7950076040200707E-002  -2.0982633115508818E-003   3.8352152214316287E-002
   5.8742247455027041E-002  -4.1612673754905620E-003   4.2203659674052110E-002
   5.9534418869853369E-002  -6.1890121918190301E-003   4.6265481262156315E-002
   6.0326590284679710E-002  -8.1814977605362965E-003   5.0537616978628873E-002
  0.10478272568356883       -2.0835585949880237E-002   5.3676429483914448E-002
  0.10212673881838563       -2.4997669416192088E-002   4.5727698504624631E-002
   9.9470751953202430E-002  -2.7577855832660519E-002   3.9479723313095759E-002
   9.6814765088019214E-002  -2.8576145199285596E-002   3.4932503909327978E-002
   9.4158778222836026E-002  -2.7992537516067326E-002   3.2086040293321086E-002
   9.1291593754735889E-002  -1.7672063902544256E-002   5.1774910340222330E-002
   9.0097358469534330E-002  -2.1265056664034061E-002   4.6578350948978595E-002
   8.8903123184332772E-002  -2.3627058989197335E-002   4.2604538929937145E-002
   8.7708887899131241E-002  -2.4758070878034114E-002   3.9853474283098024E-002
   8.6514652613929641E-002  -2.4658092330544362E-002   3.8325157008461237E-002
   7.9385193878643401E-002  -1.4508541855208267E-002   5.0617935208110712E-002
   7.9174701757864799E-002  -1.7532443911876031E-002   4.7822640791396170E-002
   7.8964209637086266E-002  -1.9676262145734154E-002   4.5772085331325235E-002
   7.8753717516307692E-002  -2.0939996556782598E-002   4.4466268827897990E-002
   7.8543225395529118E-002  -2.1323647145021392E-002   4.3905191281114350E-002
   6.9063526055291327E-002  -1.1345019807872281E-002   5.0205504087579574E-002
   6.9358768683377051E-002  -1.3799831159718006E-002   4.9460568031877344E-002
   6.9654011311462816E-002  -1.5725465302270945E-002   4.8982362517260084E-002
   6.9949253939548567E-002  -1.7121922235531103E-002   4.8770887543727832E-002
   7.0244496567634263E-002  -1.7989201959498442E-002   4.8826143111280529E-002
   6.0326590284679710E-002  -8.1814977605362965E-003   5.0537616978628873E-002
   6.0649559246071100E-002  -1.0067218407559976E-002   5.1492132670422144E-002
   6.0972528207462462E-002  -1.1774668458807766E-002   5.2235370487741684E-002
   6.1295497168853845E-002  -1.3303847914279588E-002   5.2767330430587532E-002
   6.1618466130245214E-002  -1.4654756773975465E-002   5.3088012498959662E-002
   9.4158778222836026E-002  -2.7992537516067326E-002   3.2086040293321086E-002
   9.1799190651049731E-002  -2.6810740991405936E-002   3.1594857596333029E-002
   8.9439603079263491E-002  -2.6014463833701745E-002   3.1242674809201530E-002
   8.7080015507477224E-002  -2.5603706042954717E-002   3.1029491931926657E-002
   8.4720427935690956E-002  -2.5578467619164991E-002   3.0955308964508294E-002
   8.6514652613929641E-002  -2.4658092330544362E-002   3.8325157008461237E-002
   8.4325903684023984E-002  -2.4035182248705315E-002   3.7253188066710331E-002
   8.2137154754118258E-002  -2.3597399534494239E-002   3.6383896498863894E-002
   7.9948405824212559E-002  -2.3344744187911083E-002   3.5717282304922028E-002
   7.7759656894306819E-002  -2.3277216208955925E-002   3.5253345484884624E-002
   7.8543225395529118E-002  -2.1323647145021392E-002   4.3905191281114350E-002
   7.6588992571551884E-002  -2.1259623506004705E-002   4.2452828093929806E-002
   7.4634759747574636E-002  -2.1180335235286736E-002   4.1266819744697772E-002
   7.2680526923597430E-002  -2.1085782332867432E-002   4.0347166233418073E-002
   7.0726294099620182E-002  -2.0975964798746832E-002   3.9693867560090877E-002
   7.0244496567634263E-002  -1.7989201959498442E-002   4.8826143111280529E-002
   6.8588457313633458E-002  -1.8484064763304130E-002   4.7193777677991607E-002
   6.6932418059632640E-002  -1.8763270936079223E-002   4.5891444546703110E-002
   6.5276378805631807E-002  -1.8826820477823782E-002   4.4919143717415018E-002
   6.3620339551630975E-002  -1.8674713388537767E-002   4.4276875190127171E-002
   6.1618466130245214E-002  -1.4654756773975465E-002   5.3088012498959662E-002
   6.0324297910268741E-002  -1.5708506020603471E-002   5.1476036818895690E-002
   5.9030129690292241E-002  -1.6346206636871717E-002   5.0257770904880025E-002
   5.7735961470315740E-002  -1.6567858622780131E-002   4.9433214756912598E-002
   5.6441793250339253E-002  -1.6373461978328702E-002   4.9002368374993555E-002
   8.4720427935690956E-002  -2.5578467619164991E-002   3.0955308964508294E-002
   8.2874259989664925E-002  -2.5539697323745017E-002   3.0063099304684121E-002
   8.1028092043638866E-002  -2.5088343918107499E-002   2.9274359274802458E-002
   7.9181924097612821E-002  -2.4224407402252568E-002   2.8589088874863465E-002
   7.7335756151586749E-002  -2.2947887776180037E-002   2.8007288104866968E-002
   7.7759656894306819E-002  -2.3277216208955925E-002   3.5253345484884624E-002
   7.6016499840128510E-002  -2.3140882515735595E-002   3.4655746286850891E-002
   7.4273342785950242E-002  -2.2681810026357031E-002   3.4160699242570140E-002
   7.2530185731771918E-002  -2.1899998740820228E-002   3.3768204352042253E-002
   7.0787028677593608E-002  -2.0795448659125249E-002   3.3478261615267471E-002
   7.0726294099620182E-002  -2.0975964798746832E-002   3.9693867560090877E-002
   6.9085230461099933E-002  -2.0742067707726138E-002   3.9301034509788439E-002
   6.7444166822579754E-002  -2.0275276134606505E-002   3.9009836137049267E-002
   6.5803103184059533E-002  -1.9575590079387944E-002   3.8820272441873367E-002
   6.4162039545539284E-002  -1.8643009542070474E-002   3.8732343424260664E-002
   6.3620339551630975E-002  -1.8674713388537767E-002   4.4276875190127171E-002
   6.2080451852579183E-002  -1.8343252899716698E-002   4.3998963973496646E-002
   6.0540564153527425E-002  -1.7868742242856006E-002   4.3821769958239803E-002
   5.9000676454475647E-002  -1.7251181417955661E-002   4.3745293144356427E-002
   5.7460788755423875E-002  -1.6490570425015706E-002   4.3769533531846760E-002
   5.6441793250339253E-002  -1.6373461978328702E-002   4.9002368374993555E-002
   5.5002164014566257E-002  -1.5944438091707230E-002   4.8749534677975576E-002
   5.3562534778793254E-002  -1.5462208351105428E-002   4.8596500706141674E-002
   5.2122905543020279E-002  -1.4926772756523342E-002   4.8543266459491641E-002
   5.0683276307247255E-002  -1.4338131307960938E-002   4.8589831938025602E-002
   7.7335756151586749E-002  -2.2947887776180037E-002   2.8007288104866968E-002
   7.4349739624851557E-002  -2.1560557177857279E-002   2.7853428788438328E-002
   7.1363723098116297E-002  -2.0364187745251484E-002   2.7983560167463048E-002
   6.8377706571381092E-002  -1.9358779478362835E-002   2.8397682241940662E-002
   6.5391690044645873E-002  -1.8544332377191108E-002   2.9095795011871817E-002
   7.0787028677593608E-002  -2.0795448659125249E-002   3.3478261615267471E-002
   6.8089009888603308E-002  -1.9614056874946800E-002   3.3072139404615064E-002
   6.5390991099612994E-002  -1.8601720481959891E-002   3.2958021973999545E-002
   6.2692972310622652E-002  -1.7758439480164378E-002   3.3135909323420351E-002
   5.9994953521632394E-002  -1.7084213869560327E-002   3.3605801452878031E-002
   6.4162039545539284E-002  -1.8643009542070474E-002   3.8732343424260664E-002
   6.1760032578877321E-002  -1.7667556572036482E-002   3.8095864093910234E-002
   5.9358025612215343E-002  -1.6839253218668238E-002   3.7759403628179908E-002
   5.6956018645553344E-002  -1.6158099481966001E-002   3.7722962027069637E-002
   5.4554011678891380E-002  -1.5624095361929546E-002   3.7986539290579407E-002
   5.7460788755423875E-002  -1.6490570425015706E-002   4.3769533531846760E-002
   5.5362807695673630E-002  -1.5721056269126028E-002   4.2924602856323796E-002
   5.3264826635923405E-002  -1.5076785955376643E-002   4.2387705130004380E-002
   5.1166845576173153E-002  -1.4557759483767583E-002   4.2158840352888464E-002
   4.9068864516422936E-002  -1.4163976854298793E-002   4.2238008524975973E-002
   5.0683276307247255E-002  -1.4338131307960938E-002   4.8589831938025602E-002
   4.8897335238992201E-002  -1.3774555966215740E-002   4.7558355691855708E-002
   4.7111394170737120E-002  -1.3314318692084971E-002   4.6842926479472954E-002
   4.5325453102482066E-002  -1.2957419485569147E-002   4.6443544300876875E-002
   4.3539512034226985E-002  -1.2703858346667929E-002   4.6360209156067700E-002
   6.5391690044645873E-002  -1.8544332377191108E-002   2.9095795011871817E-002
   6.3206969389107442E-002  -1.7990259170408029E-002   2.9507823441174336E-002
   6.1022248733568998E-002  -1.7765972586685261E-002   3.0191172278690198E-002
   5.8837528078030561E-002  -1.7871472626022494E-002   3.1145841524419668E-002
   5.6652807422492124E-002  -1.8306759288420071E-002   3.2371831178362565E-002
   5.9994953521632394E-002  -1.7084213869560327E-002   3.3605801452878031E-002
   5.8058465881284729E-002  -1.6617587086967728E-002   3.3662572725484313E-002
   5.6121978240937023E-002  -1.6397102569206456E-002   3.3944489620258561E-002
   5.4185490600589366E-002  -1.6422760316276722E-002   3.4451552137201052E-002
   5.2249002960241653E-002  -1.6694560328178343E-002   3.5183760276311288E-002
   5.4554011678891380E-002  -1.5624095361929546E-002   3.7986539290579407E-002
   5.2819582267688951E-002  -1.5244915003527287E-002   3.7771697764718518E-002
   5.1085152856486502E-002  -1.5028232551727826E-002   3.7735827074980001E-002
   4.9350723445284045E-002  -1.4974048006530896E-002   3.7878927221363948E-002
   4.7616294034081630E-002  -1.5082361367936614E-002   3.8200998203870309E-002
   4.9068864516422936E-002  -1.4163976854298793E-002   4.2238008524975973E-002
   4.7490318548320150E-002  -1.3872242920086916E-002   4.1835198558876512E-002
   4.5911772580217343E-002  -1.3659362534249108E-002   4.1565184642853921E-002
   4.4333226612114592E-002  -1.3525335696785084E-002   4.1427966776908472E-002
   4.2754680644011805E-002  -1.3470162407694913E-002   4.1423544961039560E-002
   4.3539512034226985E-002  -1.2703858346667929E-002   4.6360209156067700E-002
   4.2070674723178339E-002  -1.2499570836646545E-002   4.5853075107958691E-002
   4.0601837412129665E-002  -1.2290492516770474E-002   4.5432562323880765E-002
   3.9133000101081006E-002  -1.2076623387039236E-002   4.5098670803834298E-002
   3.7664162790032346E-002  -1.1857963447453213E-002   4.4851400547819054E-002
   5.6652807422492124E-002  -1.8306759288420071E-002   3.2371831178362565E-002
   5.6166787541124363E-002  -1.8691042279451925E-002   3.2094932575078061E-002
   5.5680767659756547E-002  -1.8643531304692526E-002   3.1446374830902596E-002
   5.5194747778388731E-002  -1.8164226364141719E-002   3.0426157945835933E-002
   5.4708727897020970E-002  -1.7253127457799555E-002   2.9034281919877836E-002
   5.2249002960241653E-002  -1.6694560328178343E-002   3.5183760276311288E-002
   5.1435138101419073E-002  -1.6907086685154671E-002   3.5120013142790341E-002
   5.0621273242596465E-002  -1.6754923467448765E-002   3.4772235195250870E-002
   4.9807408383773843E-002  -1.6238070675061191E-002   3.4140426433692882E-002
   4.8993543524951277E-002  -1.5356528307991391E-002   3.3224586858116245E-002
   4.7616294034081630E-002  -1.5082361367936614E-002   3.8200998203870309E-002
   4.6562212524676946E-002  -1.5123131090857320E-002   3.8283298149003206E-002
   4.5508131015272166E-002  -1.4866315630205233E-002   3.8169195606990537E-002
   4.4454049505867455E-002  -1.4311914985980499E-002   3.7858690577832130E-002
   4.3399967996462702E-002  -1.3459929158183143E-002   3.7351783061527907E-002
   4.2754680644011805E-002  -1.3470162407694913E-002   4.1423544961039560E-002
   4.1548010810897693E-002  -1.3339175496559962E-002   4.1584787593717309E-002
   4.0341340977783642E-002  -1.2977707792961753E-002   4.1637256066121994E-002
   3.9134671144669550E-002  -1.2385759296900056E-002   4.1580950378253670E-002
   3.7928001311555472E-002  -1.1563330008374936E-002   4.1415870530112461E-002
   3.7664162790032346E-002  -1.1857963447453213E-002   4.4851400547819054E-002
   3.6392532960081603E-002  -1.1555219902262659E-002   4.5024481476932166E-002
   3.5120903130130901E-002  -1.1089099955717954E-002   4.5176416572645123E-002
   3.3849273300180192E-002  -1.0459603607819310E-002   4.5307205834957578E-002
   3.2577643470229456E-002  -9.6667308585666190E-003   4.5416849263870018E-002
   5.4708727897020970E-002  -1.7253127457799555E-002   2.9034281919877836E-002
   4.8019363098607437E-002  -1.5149959952908520E-002   2.2263180384721915E-002
   4.1329998300193904E-002  -1.1094449216710503E-002   1.5562320385682366E-002
   3.4640633501780427E-002  -5.0865952492063389E-003   8.9317019227601463E-003
   2.7951268703366838E-002   2.8736019496053977E-003   2.3713249959544935E-003
   4.8993543524951277E-002  -1.5356528307991391E-002   3.3224586858116245E-002
   4.2480822863461387E-002  -1.3765761787422393E-002   2.8184547749159683E-002
   3.5968102201971525E-002  -1.1121236534537476E-002   2.3427555377934034E-002
   2.9455381540481593E-002  -7.4229525493361773E-003   1.8953609744438729E-002
   2.2942660878991772E-002  -2.6709098318186131E-003   1.4762710848673755E-002
   4.3399967996462702E-002  -1.3459929158183143E-002   3.7351783061527907E-002
   3.7276696673510287E-002  -1.2381563621936514E-002   3.3144221879780417E-002
   3.1153425350557817E-002  -1.1148023852364165E-002   2.9432512637377166E-002
   2.5030154027605486E-002  -9.7593098494662914E-003   2.6216655334318609E-002
   1.8906882704652989E-002  -8.2154216132425129E-003   2.3496649970604133E-002
   3.7928001311555472E-002  -1.1563330008374936E-002   4.1415870530112461E-002
   3.2406984528754221E-002  -1.0997365456450567E-002   3.7142202776583609E-002
   2.6885967745952928E-002  -1.1174811170190941E-002   3.3577192164012719E-002
   2.1364950963151639E-002  -1.2095667149596156E-002   3.0720838692400183E-002
   1.5843934180350398E-002  -1.3759933394666468E-002   2.8573142361745379E-002
   3.2577643470229456E-002  -9.6667308585666190E-003   4.5416849263870018E-002
   2.7871686429193077E-002  -9.6131672909646193E-003   4.0178490439569059E-002
   2.3165729388156781E-002  -1.1201598488017772E-002   3.5861593957840221E-002
   1.8459772347120471E-002  -1.4432024449726452E-002   3.2466159818682727E-002
   1.3753815306084105E-002  -1.9304445176090423E-002   2.9992188022097688E-002
   5.7157904625374359E-002   0.0000000000000000        3.4710958882948825E-002
   5.7950076040200707E-002  -2.0982633115508818E-003   3.8352152214316287E-002
   5.8742247455027041E-002  -4.1612673754905620E-003   4.2203659674052110E-002
   5.9534418869853369E-002  -6.1890121918190301E-003   4.6265481262156315E-002
   6.0326590284679710E-002  -8.1814977605362965E-003   5.0537616978628873E-002
   4.8661057922052581E-002   0.0000000000000000        3.2795671193977707E-002
   4.9598952126057978E-002  -1.7202713420078342E-003   3.6962273019325531E-002
   5.0536846330063369E-002  -3.4517204828598529E-003   4.1210006294663100E-002
   5.1474740534068766E-002  -5.1943474225560511E-003   4.5538871019990407E-002
   5.2412634738074157E-002  -6.9481521610964322E-003   4.9948867195307445E-002
   4.0742170327516952E-002   0.0000000000000000        3.1281593997777343E-002
   4.1696604642322790E-002  -1.3422793724647856E-003   3.5927167270650130E-002
   4.2651038957128608E-002  -2.7421735902291421E-003   4.0524689315134040E-002
   4.3605473271934432E-002  -4.1996826532930704E-003   4.5074160131229064E-002
   4.4559907586740263E-002  -5.7148065616565678E-003   4.9575579718935198E-002
   3.3401241841767487E-002   0.0000000000000000        3.0168727294347709E-002
   3.4243033588995123E-002  -9.6428740292173708E-004   3.5246834968290078E-002
   3.5084825336222758E-002  -2.0326266975984331E-003   4.0147708735464929E-002
   3.5926617083450400E-002  -3.2050178840300923E-003   4.4871348595872301E-002
   3.6768408830678036E-002  -4.4814609622166983E-003   4.9417754549512187E-002
   2.6638272464804168E-002   0.0000000000000000        2.9457071083688825E-002
   2.7238238966074996E-002  -5.8629543337868940E-004   3.4921276112245374E-002
   2.7838205467345820E-002  -1.3230798049677240E-003   4.0079064555655818E-002
   2.8438171968616640E-002  -2.2103531147671107E-003   4.4930436413920111E-002
   2.9038138469887467E-002  -3.2481153627768409E-003   4.9475391687038295E-002
   6.0326590284679710E-002  -8.1814977605362965E-003   5.0537616978628873E-002
   6.0649559246071100E-002  -1.0067218407559976E-002   5.1492132670422144E-002
   6.0972528207462462E-002  -1.1774668458807766E-002   5.2235370487741684E-002
   6.1295497168853845E-002  -1.3303847914279588E-002   5.2767330430587532E-002
   6.1618466130245214E-002  -1.4654756773975465E-002   5.3088012498959662E-002
   5.2412634738074157E-002  -6.9481521610964322E-003   4.9948867195307445E-002
   5.2562226788220902E-002  -8.6183650828105928E-003   5.1180828259737729E-002
   5.2711818838367654E-002  -1.0110216572028163E-002   5.2277313376152421E-002
   5.2861410888514412E-002  -1.1423706628749091E-002   5.3238322544551540E-002
   5.3011002938661157E-002  -1.2558835252973424E-002   5.4063855764935165E-002
   4.4559907586740263E-002  -5.7148065616565678E-003   4.9575579718935198E-002
   4.4611924652100531E-002  -7.1695117580612014E-003   5.1085076992723175E-002
   4.4663941717460805E-002  -8.4457646852485434E-003   5.2534900244953692E-002
   4.4715958782821072E-002  -9.5435653432186032E-003   5.3925049475626846E-002
   4.4767975848181339E-002  -1.0462913731971352E-002   5.5255524684742562E-002
   3.6768408830678036E-002  -4.4814609622166983E-003   4.9417754549512187E-002
   3.6798652837709965E-002  -5.7206584333118187E-003   5.1204878869378495E-002
   3.6828896844741894E-002  -6.7813127984689501E-003   5.3008131094145539E-002
   3.6859140851773838E-002  -7.6634240576881202E-003   5.4827511223813331E-002
   3.6889384858805767E-002  -8.3669922109693030E-003   5.6663019258381853E-002
   2.9038138469887467E-002  -3.2481153627768409E-003   4.9475391687038295E-002
   2.9122411345049212E-002  -4.2718051085624282E-003   5.1540233889703663E-002
   2.9206684220210950E-002  -5.1168609116893256E-003   5.3697005923727920E-002
   2.9290957095372692E-002  -5.7832827721576241E-003   5.5945707789111072E-002
   2.9375229970534433E-002  -6.2710706899672258E-003   5.8286339485853073E-002
   6.1618466130245214E-002  -1.4654756773975465E-002   5.3088012498959662E-002
   6.0324297910268741E-002  -1.5708506020603471E-002   5.1476036818895690E-002
   5.9030129690292241E-002  -1.6346206636871717E-002   5.0257770904880025E-002
   5.7735961470315740E-002  -1.6567858622780131E-002   4.9433214756912598E-002
   5.6441793250339253E-002  -1.6373461978328702E-002   4.9002368374993555E-002
   5.3011002938661157E-002  -1.2558835252973424E-002   5.4063855764935165E-002
   5.2066807267311097E-002  -1.3439447783192563E-002   5.3145938661490366E-002
   5.1122611595961029E-002  -1.3989389557897958E-002   5.2534256889250036E-002
   5.0178415924610968E-002  -1.4208660577089621E-002   5.2228810448214376E-002
   4.9234220253260907E-002  -1.4097260840767512E-002   5.2229599338383226E-002
   4.4767975848181339E-002  -1.0462913731971352E-002   5.5255524684742562E-002
   4.4086278290613956E-002  -1.1170389545781602E-002   5.4946288283070813E-002
   4.3404580733046580E-002  -1.1632572478924196E-002   5.4855812777759916E-002
   4.2722883175479204E-002  -1.1849462531399044E-002   5.4984098168809774E-002
   4.2041185617911814E-002  -1.1821059703206252E-002   5.5331144456220505E-002
   3.6889384858805767E-002  -8.3669922109693030E-003   5.6663019258381853E-002
   3.6382710980177320E-002  -8.9013313083706885E-003   5.6877085683637162E-002
   3.5876037101548894E-002  -9.2757553999504149E-003   5.7222438570409533E-002
   3.5369363222920447E-002  -9.4902644857085220E-003   5.7699077918699007E-002
   3.4862689344292000E-002  -9.5448585656449855E-003   5.8307003728505481E-002
   2.9375229970534433E-002  -6.2710706899672258E-003   5.8286339485853073E-002
   2.8956105336001191E-002  -6.6322730709597252E-003   5.8938330863189378E-002
   2.8536980701467943E-002  -6.9189383209766718E-003   5.9634134267198997E-002
   2.8117856066934694E-002  -7.1310664400179571E-003   6.0373749697881937E-002
   2.7698731432401459E-002  -7.2686574280837746E-003   6.1157177155238190E-002
   5.6441793250339253E-002  -1.6373461978328702E-002   4.9002368374993555E-002
   5.5002164014566257E-002  -1.5944438091707230E-002   4.8749534677975576E-002
   5.3562534778793254E-002  -1.5462208351105428E-002   4.8596500706141674E-002
   5.2122905543020279E-002  -1.4926772756523342E-002   4.8543266459491641E-002
   5.0683276307247255E-002  -1.4338131307960938E-002   4.8589831938025602E-002
   4.9234220253260907E-002  -1.4097260840767512E-002   5.2229599338383226E-002
   4.7915859865764354E-002  -1.3796891898382915E-002   5.2063009881482769E-002
   4.6597499478267801E-002  -1.3449255299387210E-002   5.2039158395951288E-002
   4.5279139090771248E-002  -1.3054351043780306E-002   5.2158044881788747E-002
   4.3960778703274681E-002  -1.2612179131562345E-002   5.2419669338995084E-002
   4.2041185617911814E-002  -1.1821059703206252E-002   5.5331144456220505E-002
   4.0887032324876699E-002  -1.1649345705058586E-002   5.5244861042068417E-002
   3.9732879031841570E-002  -1.1436302247668936E-002   5.5344253845470259E-002
   3.8578725738806434E-002  -1.1181929331037298E-002   5.5629322866426058E-002
   3.7424572445771340E-002  -1.0886226955163711E-002   5.6100068104935640E-002
   3.4862689344292000E-002  -9.5448585656449855E-003   5.8307003728505481E-002
   3.3915681391903291E-002  -9.5017995117342366E-003   5.8295088159732555E-002
   3.2968673439514581E-002  -9.4233491959507185E-003   5.8511787054698505E-002
   3.2021665487125865E-002  -9.3095076182942906E-003   5.8957100413403414E-002
   3.1074657534737142E-002  -9.1602747787650970E-003   5.9631028235847115E-002
   2.7698731432401459E-002  -7.2686574280837746E-003   6.1157177155238190E-002
   2.7001807066844130E-002  -7.3542533184099285E-003   6.1213691234475190E-002
   2.6304882701286812E-002  -7.4103961442323757E-003   6.1541758023636123E-002
   2.5607958335729500E-002  -7.4370859055512654E-003   6.2141377522720948E-002
   2.4911033970172178E-002  -7.4343226023665110E-003   6.3012549731729678E-002
   5.0683276307247255E-002  -1.4338131307960938E-002   4.8589831938025602E-002
   4.8897335238992201E-002  -1.3774555966215740E-002   4.7558355691855708E-002
   4.7111394170737120E-002  -1.3314318692084971E-002   4.6842926479472954E-002
   4.5325453102482066E-002  -1.2957419485569147E-002   4.6443544300876875E-002
   4.3539512034226985E-002  -1.2703858346667929E-002   4.6360209156067700E-002
   4.3960778703274681E-002  -1.2612179131562345E-002   5.2419669338995084E-002
   4.2473273570253517E-002  -1.2174797830369719E-002   5.1476779867603170E-002
   4.0985768437232298E-002  -1.1794265407839233E-002   5.0814715232892105E-002
   3.9498263304211106E-002  -1.1470581863970805E-002   5.0433475434861902E-002
   3.8010758171189915E-002  -1.1203747198764463E-002   5.0333060473512603E-002
   3.7424572445771340E-002  -1.0886226955163711E-002   5.6100068104935640E-002
   3.6200281050878025E-002  -1.0575039694523836E-002   5.5292254597274063E-002
   3.4975989655984724E-002  -1.0274212123593408E-002   5.4730043729187480E-002
   3.3751698261091402E-002  -9.9837442423724616E-003   5.4413435500675809E-002
   3.2527406866198108E-002  -9.7036360508609698E-003   5.4342429911738876E-002
   3.1074657534737142E-002  -9.1602747787650970E-003   5.9631028235847115E-002
   3.0078357680865739E-002  -8.9752815586779111E-003   5.9004779880868677E-002
   2.9082057826994346E-002  -8.7541588393476536E-003   5.8588911968359116E-002
   2.8085757973122925E-002  -8.4969066207741199E-003   5.8383424498318487E-002
   2.7089458119251519E-002  -8.2035249029574903E-003   5.8388317470746819E-002
   2.4911033970172178E-002  -7.4343226023665110E-003   6.3012549731729678E-002
   2.4107503460216673E-002  -7.3755234228319588E-003   6.2614355718386833E-002
   2.3303972950261174E-002  -7.2341055551017955E-003   6.2391319950406990E-002
   2.2500442440305673E-002  -7.0100689991757937E-003   6.2343442427790045E-002
   2.1696911930350171E-002  -6.7034137550540107E-003   6.2470723150536034E-002
   4.3539512034226985E-002  -1.2703858346667929E-002   4.6360209156067700E-002
   4.2070674723178339E-002  -1.2499570836646545E-002   4.5853075107958691E-002
   4.0601837412129665E-002  -1.2290492516770474E-002   4.5432562323880765E-002
   3.9133000101081006E-002  -1.2076623387039236E-002   4.5098670803834298E-002
   3.7664162790032346E-002  -1.1857963447453213E-002   4.4851400547819054E-002
   3.8010758171189915E-002  -1.1203747198764463E-002   5.0333060473512603E-002
   3.6644278559442897E-002  -1.0960229982656999E-002   4.9894567813878521E-002
   3.5277798947695872E-002  -1.0706498786085074E-002   4.9574169288816583E-002
   3.3911319335948834E-002  -1.0442553609048758E-002   4.9371864898326512E-002
   3.2544839724201816E-002  -1.0168394451548046E-002   4.9287654642408196E-002
   3.2527406866198108E-002  -9.7036360508609698E-003   5.4342429911738876E-002
   3.1294757824293321E-002  -9.4208891286672869E-003   5.3978001811189606E-002
   3.0062108782388519E-002  -9.1225050553997294E-003   5.3763140715752847E-002
   2.8829459740483742E-002  -8.8084838310582801E-003   5.3697846625428515E-002
   2.7596810698578923E-002  -8.4788254556429632E-003   5.3782119540216819E-002
   2.7089458119251519E-002  -8.2035249029574903E-003   5.8388317470746819E-002
   2.6022112517729575E-002  -7.8815482746776577E-003   5.8103377099891489E-002
   2.4954766916207620E-002  -7.5385113247142463E-003   5.7999476604689432E-002
   2.3887421314685634E-002  -7.1744140530677469E-003   5.8076615985140620E-002
   2.2820075713163690E-002  -6.7892564597378940E-003   5.8334795241244686E-002
   2.1696911930350171E-002  -6.7034137550540107E-003   6.2470723150536034E-002
   2.0826342639751652E-002  -6.3422074206880286E-003   6.2270693679984335E-002
   1.9955773349153140E-002  -5.9545175940289297E-003   6.2283176955626490E-002
   1.9085204058554631E-002  -5.5403442750773108E-003   6.2508172977462334E-002
   1.8214634767956109E-002  -5.0996874638327139E-003   6.2945681745491977E-002
   3.7664162790032346E-002  -1.1857963447453213E-002   4.4851400547819054E-002
   3.6392532960081603E-002  -1.1555219902262659E-002   4.5024481476932166E-002
   3.5120903130130901E-002  -1.1089099955717954E-002   4.5176416572645123E-002
   3.3849273300180192E-002  -1.0459603607819310E-002   4.5307205834957578E-002
   3.2577643470229456E-002  -9.6667308585666190E-003   4.5416849263870018E-002
   3.2544839724201816E-002  -1.0168394451548046E-002   4.9287654642408196E-002
   3.1288631547158094E-002  -9.8172829760508340E-003   4.9822130626477668E-002
   3.0032423370114324E-002  -9.3224808450247248E-003   5.0408595749761476E-002
   2.8776215193070571E-002  -8.6839880584694516E-003   5.1047050012259315E-002
   2.7520007016026832E-002  -7.9018046163855105E-003   5.1737493413971325E-002
   2.7596810698578923E-002  -8.4788254556429632E-003   5.3782119540216819E-002
   2.6429159147056625E-002  -8.0793460498388703E-003   5.4658304833417451E-002
   2.5261507595534308E-002  -7.5558617343311554E-003   5.5659614238446724E-002
   2.4093856044011978E-002  -6.9083725091195914E-003   5.6786047755304755E-002
   2.2926204492489693E-002  -6.1368783742044575E-003   5.8037605383991303E-002
   2.2820075713163690E-002  -6.7892564597378940E-003   5.8334795241244686E-002
   2.1814115759777285E-002  -6.3414091236270037E-003   5.9533004097751335E-002
   2.0808155806390873E-002  -5.7892426236377005E-003   6.0929472038701096E-002
   1.9802195853004446E-002  -5.1327569597697876E-003   6.2524199064093941E-002
   1.8796235899618024E-002  -4.3719521320234878E-003   6.4317185173930119E-002
   1.8214634767956109E-002  -5.0996874638327139E-003   6.2945681745491977E-002
   1.7443501385320054E-002  -4.6034721974150539E-003   6.4446228419479501E-002
   1.6672368002684006E-002  -4.0226235129443288E-003   6.6218169150524420E-002
   1.5901234620047940E-002  -3.3571414104197825E-003   6.8261503938627038E-002
   1.5130101237411875E-002  -2.6070258898422960E-003   7.0576232783787440E-002
   3.2577643470229456E-002  -9.6667308585666190E-003   4.5416849263870018E-002
   2.7871686429193077E-002  -9.6131672909646193E-003   4.0178490439569059E-002
   2.3165729388156781E-002  -1.1201598488017772E-002   3.5861593957840221E-002
   1.8459772347120471E-002  -1.4432024449726452E-002   3.2466159818682727E-002
   1.3753815306084105E-002  -1.9304445176090423E-002   2.9992188022097688E-002
   2.7520007016026832E-002  -7.9018046163855105E-003   5.1737493413971325E-002
   2.3660282795045381E-002  -7.6484531885879781E-003   4.5466064273440743E-002
   1.9800558574063876E-002  -8.5964564448917785E-003   3.9965638430447759E-002
   1.5940834353082391E-002  -1.0745814385297387E-002   3.5236215884992719E-002
   1.2081110132100892E-002  -1.4096527009804238E-002   3.1277796637075972E-002
   2.2926204492489693E-002  -6.1368783742044575E-003   5.8037605383991303E-002
   1.9762254046529190E-002  -5.6837390862112813E-003   5.1173746007784612E-002
   1.6598303600568701E-002  -5.9913144017657849E-003   4.4930430884081857E-002
   1.3434353154608222E-002  -7.0596043208681555E-003   3.9307660012882925E-002
   1.0270402708647708E-002  -8.8886088435181643E-003   3.4305433394188400E-002
   1.8796235899618024E-002  -4.3719521320234878E-003   6.4317185173930119E-002
   1.6177600183644669E-002  -3.7190249838346678E-003   5.7301535642601029E-002
   1.3558964467671233E-002  -3.3861723586399023E-003   5.0755971318742148E-002
   1.0940328751697842E-002  -3.3733942564391182E-003   4.4680492202353178E-002
   8.3216930357244423E-003  -3.6806906772320347E-003   3.9075098293434751E-002
   1.5130101237411875E-002  -2.6070258898422960E-003   7.0576232783787440E-002
   1.2906321206391708E-002  -1.7543108814580544E-003   6.3849433177889880E-002
   1.0682541175371540E-002  -7.8103031551382540E-004   5.7442259734428569E-002
   8.4587611443513594E-003   3.1281580799002312E-004   5.1354712453403339E-002
   6.2349811133312061E-003   1.5272274890540949E-003   4.5586791334814913E-002
   2.6638272464804168E-002   0.0000000000000000        2.9457071083688825E-002
   2.7238238966074996E-002  -5.8629543337868940E-004   3.4921276112245374E-002
   2.7838205467345820E-002  -1.3230798049677240E-003   4.0079064555655818E-002
   2.8438171968616640E-002  -2.2103531147671107E-003   4.4930436413920111E-002
   2.9038138469887467E-002  -3.2481153627768409E-003   4.9475391687038295E-002
   2.0117888068706263E-002   0.0000000000000000        2.9009901489997103E-002
   2.0450544224776254E-002  -4.3972157494795959E-004   3.4288745790500404E-002
   2.0783200380846245E-002  -9.9230985357198157E-004   3.9339385985748168E-002
   2.1115856536916229E-002  -1.6577648358720616E-003   4.4161822075740376E-002
   2.1448512692986220E-002  -2.4360865218482058E-003   4.8756054060477061E-002
   1.3504714525553033E-002   0.0000000000000000        2.8690494637468963E-002
   1.3648272816312760E-002  -2.9314771651723064E-004   3.3821600444453322E-002
   1.3791831107072489E-002  -6.6153990217623655E-004   3.8802714626072696E-002
   1.3935389397832218E-002  -1.1051765569770160E-003   4.3633837182327107E-002
   1.4078947688591945E-002  -1.6240576809195698E-003   4.8314968113216533E-002
   6.7987518353444729E-003   0.0000000000000000        2.8498850526104420E-002
   6.8314247406845146E-003  -1.4657385808650213E-004   3.3519840074104100E-002
   6.8640976460245581E-003  -3.3076995078049022E-004   3.8469050476629379E-002
   6.8967705513646015E-003  -5.5258827808196860E-004   4.3346481733680262E-002
   6.9294434567046441E-003  -8.1202883999093424E-004   4.8152133845256732E-002
  -1.9194177497405818E-012   0.0000000000000000        2.8434969155903447E-002
  -2.1084835266638180E-012   3.4422898559371973E-013   3.3383464679452739E-002
  -2.2975519056722682E-012   6.1525264050121820E-013   3.8338393537418206E-002
  -2.4866194173189804E-012   8.1308050570161328E-013   4.3299755729799862E-002
  -2.6756851942422166E-012   9.3770130549231112E-013   4.8267551256597693E-002
   2.9038138469887467E-002  -3.2481153627768409E-003   4.9475391687038295E-002
   2.9122411345049212E-002  -4.2718051085624282E-003   5.1540233889703663E-002
   2.9206684220210950E-002  -5.1168609116893256E-003   5.3697005923727920E-002
   2.9290957095372692E-002  -5.7832827721576241E-003   5.5945707789111072E-002
   2.9375229970534433E-002  -6.2710706899672258E-003   5.8286339485853073E-002
   2.1448512692986220E-002  -2.4360865218482058E-003   4.8756054060477061E-002
   2.1596465886960115E-002  -3.2038538311721355E-003   5.1169012222922229E-002
   2.1744419080934010E-002  -3.8376456835155742E-003   5.3617401191632837E-002
   2.1892372274907899E-002  -4.3374620788785212E-003   5.6101220966608828E-002
   2.2040325468881801E-002  -4.7033030172609902E-003   5.8620471547850307E-002
   1.4078947688591945E-002  -1.6240576809195698E-003   4.8314968113216533E-002
   1.4234082176284532E-002  -2.1359025537818566E-003   5.1031383749763369E-002
   1.4389216663977118E-002  -2.5584304553418011E-003   5.3726731167482160E-002
   1.4544351151669703E-002  -2.8916413855994594E-003   5.6401010366372892E-002
   1.4699485639362287E-002  -3.1355353445547615E-003   5.9054221346435565E-002
   6.9294434567046441E-003  -8.1202883999093424E-004   4.8152133845256732E-002
   7.0352602130224606E-003  -1.0679512763915639E-003   5.1127348470227048E-002
   7.1410769693402787E-003  -1.2792152271680459E-003   5.4024995851275855E-002
   7.2468937256580926E-003  -1.4458206923203632E-003   5.6845075988403160E-002
   7.3527104819759116E-003  -1.5677676718485363E-003   5.9587588881608977E-002
  -2.6756851942422166E-012   9.3770130549231112E-013   4.8267551256597693E-002
  -2.8260978626737376E-012   9.9871153014241543E-013   5.1456906384313300E-002
  -2.9765131331904726E-012   1.0057215477088377E-012   5.4512195243013969E-002
  -3.1269275363454696E-012   9.5870490365856931E-013   5.7433417832699646E-002
  -3.2773402047769906E-012   8.5771667546197250E-013   6.0220574153370413E-002
   2.9375229970534433E-002  -6.2710706899672258E-003   5.8286339485853073E-002
   2.8956105336001191E-002  -6.6322730709597252E-003   5.8938330863189378E-002
   2.8536980701467943E-002  -6.9189383209766718E-003   5.9634134267198997E-002
   2.8117856066934694E-002  -7.1310664400179571E-003   6.0373749697881937E-002
   2.7698731432401459E-002  -7.2686574280837746E-003   6.1157177155238190E-002
   2.2040325468881801E-002  -4.7033030172609902E-003   5.8620471547850307E-002
   2.1680255143991023E-002  -4.9742048030364389E-003   5.9346989869893466E-002
   2.1320184819100252E-002  -5.1892037405784040E-003   6.0147804784548203E-002
   2.0960114494209488E-002  -5.3482998298867218E-003   6.1022916291814604E-002
   2.0600044169318706E-002  -5.4514930709615300E-003   6.1972324391692618E-002
   1.4699485639362287E-002  -3.1355353445547615E-003   5.9054221346435565E-002
   1.4428954190052291E-002  -3.3161365351131698E-003   5.9836632330443576E-002
   1.4158422740742293E-002  -3.4594691601800686E-003   6.0723824473001467E-002
   1.3887891291432298E-002  -3.5655332197554314E-003   6.1715797774109252E-002
   1.3617359842122300E-002  -3.6343287138392993E-003   6.2812552233767027E-002
   7.3527104819759116E-003  -1.5677676718485363E-003   5.9587588881608977E-002
   7.2022024741849938E-003  -1.6580682671898921E-003   6.0407258244839689E-002
   7.0516944663940768E-003  -1.7297345797817323E-003   6.1362193332558684E-002
   6.9011864586031599E-003  -1.7827666096241824E-003   6.2452394144765867E-002
   6.7506784508122430E-003  -1.8171643567170895E-003   6.3677860681461293E-002
  -3.2773402047769906E-012   8.5771667546197250E-013   6.0220574153370413E-002
  -3.6108728854178374E-012   7.3338904393871474E-013   6.1058867613081880E-002
  -3.9444073007821601E-012   6.1654500949082092E-013   6.2062911363219890E-002
  -4.2779404151038758E-012   5.0713166305227375E-013   6.3232705403784450E-002
  -4.6114743967873295E-012   4.0514813726133525E-013   6.4568249734775512E-002
   2.7698731432401459E-002  -7.2686574280837746E-003   6.1157177155238190E-002
   2.7001807066844130E-002  -7.3542533184099285E-003   6.1213691234475190E-002
   2.6304882701286812E-002  -7.4103961442323757E-003   6.1541758023636123E-002
   2.5607958335729500E-002  -7.4370859055512654E-003   6.2141377522720948E-002
   2.4911033970172178E-002  -7.4343226023665110E-003   6.3012549731729678E-002
   2.0600044169318706E-002  -5.4514930709615300E-003   6.1972324391692618E-002
   2.0150342109010917E-002  -5.5156899887607302E-003   6.2146282433552288E-002
   1.9700640048703109E-002  -5.5577971082422552E-003   6.2543132375987159E-002
   1.9250937988395313E-002  -5.5778144294061300E-003   6.3162874218997120E-002
   1.8801235928087509E-002  -5.5757419522523277E-003   6.4005507962582309E-002
   1.3617359842122300E-002  -3.6343287138392993E-003   6.2812552233767027E-002
   1.3366219277715297E-002  -3.6771266591115667E-003   6.3096590972063313E-002
   1.3115078713308293E-002  -3.7051980722521347E-003   6.3554860801586066E-002
   1.2863938148901280E-002  -3.7185429532610222E-003   6.4187361722335218E-002
   1.2612797584494285E-002  -3.7171613021381861E-003   6.4994093734310837E-002
   6.7506784508122430E-003  -1.8171643567170895E-003   6.3677860681461293E-002
   6.6494385729572994E-003  -1.8385633294624136E-003   6.4064616850008346E-002
   6.5481986951023531E-003  -1.8525990362620419E-003   6.4576943300432996E-002
   6.4469588172474095E-003  -1.8592714771158451E-003   6.5214840032735394E-002
   6.3457189393924642E-003  -1.8585806520240236E-003   6.5978307046915555E-002
  -4.6114743967873295E-012   4.0514813726133525E-013   6.4568249734775512E-002
  -5.2630851066215456E-012   1.8676726831756696E-013   6.5050360067387264E-002
  -5.9146975511792377E-012  -2.7188667983679693E-013   6.5609379872527948E-002
  -6.5663082610134538E-012  -9.7076340022095309E-013   6.6245309150197607E-002
  -7.2179207055711458E-012  -1.9098611581114255E-012   6.6958147900396253E-002
   2.4911033970172178E-002  -7.4343226023665110E-003   6.3012549731729678E-002
   2.4107503460216673E-002  -7.3755234228319588E-003   6.2614355718386833E-002
   2.3303972950261174E-002  -7.2341055551017955E-003   6.2391319950406990E-002
   2.2500442440305673E-002  -7.0100689991757937E-003   6.2343442427790045E-002
   2.1696911930350171E-002  -6.7034137550540107E-003   6.2470723150536034E-002
   1.8801235928087509E-002  -5.5757419522523277E-003   6.4005507962582309E-002
   1.8179294758998286E-002  -5.5316425677852388E-003   6.3607396095486657E-002
   1.7557353589909053E-002  -5.4255791670089690E-003   6.3397304664760665E-002
   1.6935412420819820E-002  -5.2575517499236901E-003   6.3375233670404318E-002
   1.6313471251730584E-002  -5.0275603165292893E-003   6.3541183112417632E-002
   1.2612797584494285E-002  -3.7171613021381861E-003   6.4994093734310837E-002
   1.2185307947278033E-002  -3.6877617127383105E-003   6.4575409341575796E-002
   1.1757818310061794E-002  -3.6170527789161390E-003   6.4357607576217071E-002
   1.1330328672845554E-002  -3.5050345006715855E-003   6.4340688438234636E-002
   1.0902839035629313E-002  -3.3517068780046233E-003   6.4524651927628712E-002
   6.3457189393924642E-003  -1.8585806520240236E-003   6.5978307046915555E-002
   6.1255430250559354E-003  -1.8438808576914725E-003   6.5518395456654263E-002
   5.9053671107194023E-003  -1.8085263908232830E-003   6.5272228684775987E-002
   5.6851911963828770E-003  -1.7525172514194260E-003   6.5239806731280880E-002
   5.4650152820463404E-003  -1.6758534394799851E-003   6.5421129596168789E-002
  -7.2179207055711458E-012  -1.9098611581114255E-012   6.6958147900396253E-002
  -7.6680189975419921E-012  -2.6446483891717776E-012   6.6436354440722017E-002
  -8.1181190242363144E-012  -2.7304408733996866E-012   6.6141167990437594E-002
  -8.5682199182923746E-012  -2.1673947359079904E-012   6.6072588549542954E-002
  -9.0183173429014829E-012  -9.5523589038748469E-013   6.6230616118038099E-002
   2.1696911930350171E-002  -6.7034137550540107E-003   6.2470723150536034E-002
   2.0826342639751652E-002  -6.3422074206880286E-003   6.2270693679984335E-002
   1.9955773349153140E-002  -5.9545175940289297E-003   6.2283176955626490E-002
   1.9085204058554631E-002  -5.5403442750773108E-003   6.2508172977462334E-002
   1.8214634767956109E-002  -5.0996874638327139E-003   6.2945681745491977E-002
   1.6313471251730584E-002  -5.0275603165292893E-003   6.3541183112417632E-002
   1.5656697101344902E-002  -4.7566555652960446E-003   6.3338417554234236E-002
   1.4999922950959203E-002  -4.4658881946941925E-003   6.3350729530282701E-002
   1.4343148800573515E-002  -4.1552582047233895E-003   6.3578119040563041E-002
   1.3686374650187814E-002  -3.8247655953840276E-003   6.4020586085075354E-002
   1.0902839035629313E-002  -3.3517068780046233E-003   6.4524651927628712E-002
   1.0462424813494613E-002  -3.1711037099042549E-003   6.4312529408889263E-002
   1.0022010591359909E-002  -2.9772587953591778E-003   6.4318049212419889E-002
   9.5815963692252142E-003  -2.7701721343695793E-003   6.4541211338220619E-002
   9.1411821470905145E-003  -2.5498437269353413E-003   6.4982015786291397E-002
   5.4650152820463404E-003  -1.6758534394799851E-003   6.5421129596168789E-002
   5.2435257762007909E-003  -1.5855518545124514E-003   6.5193029243949374E-002
   5.0220362703552440E-003  -1.4886293960243574E-003   6.5185136002038124E-002
   4.8005467645096944E-003  -1.3850860640157135E-003   6.5397449870435151E-002
   4.5790572586641458E-003  -1.2749218584866551E-003   6.5829970849140412E-002
  -9.0183173429014829E-012  -9.5523589038748469E-013   6.6230616118038099E-002
  -1.0536547329076384E-011   8.7946316895681775E-013   6.5979917059414528E-002
  -1.2054779049974762E-011   3.3106295482809855E-012   6.5951989899137364E-002
  -1.3573008168787926E-011   6.3380828363435171E-012   6.6146834637206525E-002
  -1.5091240757048041E-011   9.9620867111127609E-012   6.6564451273622038E-002
   1.8214634767956109E-002  -5.0996874638327139E-003   6.2945681745491977E-002
   1.7443501385320054E-002  -4.6034721974150539E-003   6.4446228419479501E-002
   1.6672368002684006E-002  -4.0226235129443288E-003   6.6218169150524420E-002
   1.5901234620047940E-002  -3.3571414104197825E-003   6.8261503938627038E-002
   1.5130101237411875E-002  -2.6070258898422960E-003   7.0576232783787440E-002
   1.3686374650187814E-002  -3.8247655953840276E-003   6.4020586085075354E-002
   1.3166982646558058E-002  -3.4526041445805955E-003   6.5558601936488853E-002
   1.2647590642928305E-002  -3.0169676302175819E-003   6.7328706488857401E-002
   1.2128198639298557E-002  -2.5178560522952503E-003   6.9330899742180957E-002
   1.1608806635668781E-002  -1.9552694108131430E-003   7.1565181696459423E-002
   9.1411821470905145E-003  -2.5498437269353413E-003   6.4982015786291397E-002
   8.8342261663644610E-003  -2.3017360917459845E-003   6.6536342460637249E-002
   8.5272701856384230E-003  -2.0113117474910153E-003   6.8283452479835485E-002
   8.2203142049123747E-003  -1.6785706941702776E-003   7.0223345843886065E-002
   7.9133582241863315E-003  -1.3035129317838789E-003   7.2356022552789112E-002
   4.5790572586641458E-003  -1.2749218584866551E-003   6.5829970849140412E-002
   4.4452319447392278E-003  -1.1508680389113665E-003   6.7379449991924648E-002
   4.3114066308143212E-003  -1.0056558647643030E-003   6.9082407123458575E-002
   4.1775813168894067E-003  -8.3928533604535858E-004   7.0938842243742445E-002
   4.0437560029644957E-003  -6.5175645275461491E-004   7.2948755352776201E-002
  -1.5091240757048041E-011   9.9620867111127609E-012   6.6564451273622038E-002
  -1.8317611316653881E-011   1.3923084907219163E-011   6.8087924530350952E-002
  -2.1543978406812769E-011   1.7962298315410408E-011   6.9725570419726990E-002
  -2.4770343762248181E-011   2.2079338357627876E-011   7.1477388941750319E-002
  -2.7996716056577498E-011   2.6274593611930186E-011   7.3343380096420885E-002
   1.5130101237411875E-002  -2.6070258898422960E-003   7.0576232783787440E-002
   1.2906321206391708E-002  -1.7543108814580544E-003   6.3849433177889880E-002
   1.0682541175371540E-002  -7.8103031551382540E-004   5.7442259734428569E-002
   8.4587611443513594E-003   3.1281580799002312E-004   5.1354712453403339E-002
   6.2349811133312061E-003   1.5272274890540949E-003   4.5586791334814913E-002
   1.1608806635668781E-002  -1.9552694108131430E-003   7.1565181696459423E-002
   9.7637324784458010E-003  -1.3157331540685491E-003   6.4828802854446171E-002
   7.9186583212228281E-003  -5.8577273035828603E-004   5.8530209597591060E-002
   6.0735841639998241E-003   2.3461186031770859E-004   5.2669401925894657E-002
   4.2285100067768755E-003   1.1454206179595250E-003   4.7246379839355535E-002
   7.9133582241863315E-003  -1.3035129317838789E-003   7.2356022552789112E-002
   6.5651493634823581E-003  -8.7715542667893276E-004   6.5579923084066100E-002
   5.2169405027784055E-003  -3.9051514520251074E-004   5.9359768623223078E-002
   3.8687316420744390E-003   1.5640791264542528E-004   5.3695559170259956E-002
   2.5205227813704656E-003   7.6361374686484407E-004   4.8587294725176700E-002
   4.0437560029644957E-003  -6.5175645275461491E-004   7.2948755352776201E-002
   3.3105718615013919E-003  -4.3857769928914991E-004   6.6102793866749249E-002
   2.5773877200382916E-003  -1.9525756004668687E-004   5.9930936811323804E-002
   1.8442035785751982E-003   7.8203964972959825E-005   5.4433184186500262E-002
   1.1110194371120874E-003   3.8180687577016315E-004   4.9609535992278533E-002
  -2.7996716056577498E-011   2.6274593611930186E-011   7.3343380096420885E-002
  -2.7497122634390081E-011   2.8100355375926256E-011   6.6397415202495536E-002
  -2.6997518803861809E-011   2.5108984336164042E-011   6.0243714161893752E-002
  -2.6497921912227440E-011   1.7300733762271037E-011   5.4882276974615493E-002
  -2.5998328490040024E-011   4.6755932459063843E-012   5.0313103640660994E-002
  -1.9194177497405818E-012   0.0000000000000000        2.8434969155903447E-002
  -2.1084835266638180E-012   3.4422898559371973E-013   3.3383464679452739E-002
  -2.2975519056722682E-012   6.1525264050121820E-013   3.8338393537418206E-002
  -2.4866194173189804E-012   8.1308050570161328E-013   4.3299755729799862E-002
  -2.6756851942422166E-012   9.3770130549231112E-013   4.8267551256597693E-002
  -6.7987518391222903E-003   0.0000000000000000        2.8498850526841306E-002
  -6.8314247448329852E-003   1.4657385872621827E-004   3.3519840074824891E-002
  -6.8640976505436784E-003   3.3076995191510042E-004   3.8469050477349040E-002
  -6.8967705562543741E-003   5.5258827956665424E-004   4.3346481734413758E-002
  -6.9294434619650673E-003   8.1202884168086499E-004   4.8152133846019032E-002
  -1.3504714529147799E-002   0.0000000000000000        2.8690494638893223E-002
  -1.3648272820255733E-002   2.9314771710821060E-004   3.3821600445846964E-002
  -1.3791831111363669E-002   6.6153990321495253E-004   3.8802714627465658E-002
  -1.3935389402471599E-002   1.1051765583202271E-003   4.3633837183749302E-002
  -1.4078947693579535E-002   1.6240576824240356E-003   4.8314968114697918E-002
  -2.0117888071995941E-002   0.0000000000000000        2.9009901492059197E-002
  -2.0450544228376728E-002   4.3972157549020184E-004   3.4288745792518970E-002
  -2.0783200384757509E-002   9.9230985451480248E-004   3.9339385987768066E-002
  -2.1115856541138300E-002   1.6577648370738004E-003   4.4161822077806515E-002
  -2.1448512697519077E-002   2.4360865231672028E-003   4.8756054062634314E-002
  -2.6638272467666722E-002   0.0000000000000000        2.9457071086339225E-002
  -2.7238238969195968E-002   5.8629543387219308E-004   3.4921276114840881E-002
  -2.7838205470725217E-002   1.3230798058146507E-003   4.0079064558256272E-002
  -2.8438171972254463E-002   2.2103531158273737E-003   4.4930436416585388E-002
  -2.9038138473783708E-002   3.2481153639103691E-003   4.9475391689828244E-002
  -2.6756851942422166E-012   9.3770130549231112E-013   4.8267551256597693E-002
  -2.8260978626737376E-012   9.9871153014241543E-013   5.1456906384313300E-002
  -2.9765131331904726E-012   1.0057215477088377E-012   5.4512195243013969E-002
  -3.1269275363454696E-012   9.5870490365856931E-013   5.7433417832699646E-002
  -3.2773402047769906E-012   8.5771667546197250E-013   6.0220574153370413E-002
  -6.9294434619650673E-003   8.1202884168086499E-004   4.8152133846019032E-002
  -7.0352602185685693E-003   1.0679512781579183E-003   5.1127348471075938E-002
  -7.1410769751720756E-003   1.2792152288979689E-003   5.4024995852241645E-002
  -7.2468937317755793E-003   1.4458206939010165E-003   5.6845075989516096E-002
  -7.3527104883790830E-003   1.5677676731670614E-003   5.9587588882899362E-002
  -1.4078947693579535E-002   1.6240576824240356E-003   4.8314968114697918E-002
  -1.4234082181512387E-002   2.1359025553171190E-003   5.1031383751413105E-002
  -1.4389216669445232E-002   2.5584304567902024E-003   5.3726731169360845E-002
  -1.4544351157378085E-002   2.8916413868433077E-003   5.6401010368541067E-002
  -1.4699485645310937E-002   3.1355353454764132E-003   5.9054221348953856E-002
  -2.1448512697519077E-002   2.4360865231672028E-003   4.8756054062634314E-002
  -2.1596465891657535E-002   3.2038538324763088E-003   5.1169012225324821E-002
  -2.1744419085795989E-002   3.8376456846824290E-003   5.3617401194371590E-002
  -2.1892372279934447E-002   4.3374620797856020E-003   5.6101220969774622E-002
  -2.2040325474072898E-002   4.7033030177857545E-003   5.8620471551533944E-002
  -2.9038138473783708E-002   3.2481153639103691E-003   4.9475391689828244E-002
  -2.9122411349004028E-002   4.2718051096355169E-003   5.1540233892811059E-002
  -2.9206684224224341E-002   5.1168609125746764E-003   5.3697005927273889E-002
  -2.9290957099444660E-002   5.7832827727279015E-003   5.5945707793216712E-002
  -2.9375229974664976E-002   6.2710706900951235E-003   5.8286339490639577E-002
  -3.2773402047769906E-012   8.5771667546197250E-013   6.0220574153370413E-002
  -3.6108728854178374E-012   7.3338904393871474E-013   6.1058867613081880E-002
  -3.9444073007821601E-012   6.1654500949082092E-013   6.2062911363219890E-002
  -4.2779404151038758E-012   5.0713166305227375E-013   6.3232705403784450E-002
  -4.6114743967873295E-012   4.0514813726133525E-013   6.4568249734775512E-002
  -7.3527104883790830E-003   1.5677676731670614E-003   5.9587588882899362E-002
  -7.2022024812150335E-003   1.6580682681784399E-003   6.0407258246469323E-002
  -7.0516944740509867E-003   1.7297345804175024E-003   6.1362193334607906E-002
  -6.9011864668869381E-003   1.7827666098842732E-003   6.2452394147315141E-002
  -6.7506784597228912E-003   1.8171643565786932E-003   6.3677860684590956E-002
  -1.4699485645310937E-002   3.1355353454764132E-003   5.9054221348953856E-002
  -1.4428954196507214E-002   3.3161365356234890E-003   5.9836632333602549E-002
  -1.4158422747703488E-002   3.4594691602185170E-003   6.0723824476961986E-002
  -1.3887891298899774E-002   3.5655332192614151E-003   6.1715797779032126E-002
  -1.3617359850096052E-002   3.6343287127522800E-003   6.2812552239812997E-002
  -2.2040325474072898E-002   4.7033030177857545E-003   5.8620471551533944E-002
  -2.1680255149487411E-002   4.9742048030685113E-003   5.9346989874481608E-002
  -2.1320184824901927E-002   5.1892037400194614E-003   6.0147804790282117E-002
  -2.0960114500316453E-002   5.3482998286385570E-003   6.1022916298935435E-002
  -2.0600044175730955E-002   5.4514930689258320E-003   6.1972324400441550E-002
  -2.9375229974664976E-002   6.2710706900951235E-003   5.8286339490639577E-002
  -2.8956105340155636E-002   6.6322730705135995E-003   5.8938330869106492E-002
  -2.8536980705646295E-002   6.9189383198204751E-003   5.9634134274568318E-002
  -2.8117856071136954E-002   7.1310664380157089E-003   6.0373749707024985E-002
  -2.7698731436627613E-002   7.2686574250994257E-003   6.1157177166476631E-002
  -4.6114743967873295E-012   4.0514813726133525E-013   6.4568249734775512E-002
  -5.2630851066215456E-012   1.8676726831756696E-013   6.5050360067387264E-002
  -5.9146975511792377E-012  -2.7188667983679693E-013   6.5609379872527948E-002
  -6.5663082610134538E-012  -9.7076340022095309E-013   6.6245309150197607E-002
  -7.2179207055711458E-012  -1.9098611581114255E-012   6.6958147900396253E-002
  -6.7506784597228912E-003   1.8171643565786932E-003   6.3677860684590956E-002
  -6.6494385830521141E-003   1.8385633286691419E-003   6.4064616853396400E-002
  -6.5481987063813422E-003   1.8525990343239637E-003   6.4576943304317666E-002
  -6.4469588297105650E-003   1.8592714735430321E-003   6.5214840037354782E-002
  -6.3457189530398000E-003   1.8585806463264354E-003   6.5978307052507526E-002
  -1.3617359850096052E-002   3.6343287127522800E-003   6.2812552239812997E-002
  -1.3366219286516053E-002   3.6771266571515443E-003   6.3096590978616751E-002
  -1.3115078722936064E-002   3.7051980689197274E-003   6.3554860809123120E-002
  -1.2863938159356065E-002   3.7185429480568266E-003   6.4187361731332146E-002
  -1.2612797595776075E-002   3.7171612945628152E-003   6.4994093745243758E-002
  -2.0600044175730955E-002   5.4514930689258320E-003   6.1972324400441550E-002
  -2.0150342115654907E-002   5.5156899856339467E-003   6.2146282443048151E-002
  -1.9700640055578852E-002   5.5577971035155205E-003   6.2543132386944228E-002
  -1.9250937995502797E-002   5.5778144225705657E-003   6.3162874232129795E-002
  -1.8801235935426746E-002   5.5757419427991256E-003   6.4005507978604839E-002
  -2.7698731436627613E-002   7.2686574250994257E-003   6.1157177166476631E-002
  -2.7001807070468661E-002   7.3542533141163630E-003   6.1213691246690682E-002
  -2.6304882704309723E-002   7.4103961381113588E-003   6.1541758037781051E-002
  -2.5607958338150775E-002   7.4370858970843655E-003   6.2141377539747689E-002
  -2.4911033971991826E-002   7.4343225910354915E-003   6.3012549752590713E-002
  -7.2179207055711458E-012  -1.9098611581114255E-012   6.6958147900396253E-002
  -7.6680189975419921E-012  -2.6446483891717776E-012   6.6436354440722017E-002
  -8.1181190242363144E-012  -2.7304408733996866E-012   6.6141167990437594E-002
  -8.5682199182923746E-012  -2.1673947359079904E-012   6.6072588549542954E-002
  -9.0183173429014829E-012  -9.5523589038748469E-013   6.6230616118038099E-002
  -6.3457189530398000E-003   1.8585806463264354E-003   6.5978307052507526E-002
  -6.1255430395052539E-003   1.8438808503045689E-003   6.5518395465250762E-002
  -5.9053671259707095E-003   1.8085263831076337E-003   6.5272228696573481E-002
  -5.6851912124361676E-003   1.7525172447356158E-003   6.5239806746475587E-002
  -5.4650152989016189E-003   1.6758534351885568E-003   6.5421129614957357E-002
  -1.2612797595776075E-002   3.7171612945628152E-003   6.4994093745243758E-002
  -1.2185307959067184E-002   3.6877617032537516E-003   6.4575409358580416E-002
  -1.1757818322358301E-002   3.6170527689456597E-003   6.4357607599686201E-002
  -1.1330328685649408E-002   3.5050344916385725E-003   6.4340688468561225E-002
  -1.0902839048940523E-002   3.3517068713324605E-003   6.4524651965205349E-002
  -1.8801235935426746E-002   5.5757419427991256E-003   6.4005507978604839E-002
  -1.8179294766353805E-002   5.5316425562029099E-003   6.3607396120710882E-002
  -1.7557353597280882E-002   5.4255791547837377E-003   6.3397304699775808E-002
  -1.6935412428207952E-002   5.2575517385415006E-003   6.3375233715799700E-002
  -1.6313471259135015E-002   5.0275603074763642E-003   6.3541183168782475E-002
  -2.4911033971991826E-002   7.4343225910354915E-003   6.3012549752590713E-002
  -2.4107503461365150E-002   7.3755234091521654E-003   6.2614355751642259E-002
  -2.3303972950738456E-002   7.2341055406217603E-003   6.2391319996842359E-002
  -2.2500442440111769E-002   7.0100689854444981E-003   6.2343442488191111E-002
  -2.1696911929485092E-002   6.7034137436202124E-003   6.2470723225688418E-002
  -9.0183173429014829E-012  -9.5523589038748469E-013   6.6230616118038099E-002
  -1.0536547329076384E-011   8.7946316895681775E-013   6.5979917059414528E-002
  -1.2054779049974762E-011   3.3106295482809855E-012   6.5951989899137364E-002
  -1.3573008168787926E-011   6.3380828363435171E-012   6.6146834637206525E-002
  -1.5091240757048041E-011   9.9620867111127609E-012   6.6564451273622038E-002
  -5.4650152989016189E-003   1.6758534351885568E-003   6.5421129614957357E-002
  -5.2435257960336788E-003   1.5855518539240054E-003   6.5193029266386093E-002
  -5.0220362931657301E-003   1.4886294003994688E-003   6.5185136028240803E-002
  -4.8005467902977822E-003   1.3850860746149919E-003   6.5397449900521543E-002
  -4.5790572874298413E-003   1.2749218765704118E-003   6.5829970883228062E-002
  -1.0902839048940523E-002   3.3517068713324605E-003   6.4524651965205349E-002
  -1.0462424829606843E-002   3.1711037069686865E-003   6.4312529453830133E-002
  -1.0022010610273165E-002   2.9772587974884190E-003   6.4318049264960403E-002
  -9.5815963909394869E-003   2.7701721428917900E-003   6.4541211398596171E-002
  -9.1411821716058019E-003   2.5498437431786536E-003   6.4982015854737424E-002
  -1.6313471259135015E-002   5.0275603074763642E-003   6.3541183168782475E-002
  -1.5656697111256054E-002   4.7566555600132426E-003   6.3338417621746648E-002
  -1.4999922963377094E-002   4.4658881945772860E-003   6.3350729609296080E-002
  -1.4343148815498127E-002   4.1552582111685880E-003   6.3578119131430563E-002
  -1.3686374667619182E-002   3.8247656097870480E-003   6.4020586188150014E-002
  -2.1696911929485092E-002   6.7034137436202124E-003   6.2470723225688418E-002
  -2.0826342640981294E-002   6.3422074130579376E-003   6.2270693770135888E-002
  -1.9955773352477502E-002   5.9545175916663196E-003   6.2283177061247919E-002
  -1.9085204063973699E-002   5.5403442794454139E-003   6.2508173099024539E-002
  -1.8214634775469904E-002   5.0996874763952760E-003   6.2945681883465832E-002
  -1.5091240757048041E-011   9.9620867111127609E-012   6.6564451273622038E-002
  -1.8317611316653881E-011   1.3923084907219163E-011   6.8087924530350952E-002
  -2.1543978406812769E-011   1.7962298315410408E-011   6.9725570419726990E-002
  -2.4770343762248181E-011   2.2079338357627876E-011   7.1477388941750319E-002
  -2.7996716056577498E-011   2.6274593611930186E-011   7.3343380096420885E-002
  -4.5790572874298413E-003   1.2749218765704118E-003   6.5829970883228062E-002
  -4.4452319798978790E-003   1.1508680654111481E-003   6.7379450029284998E-002
  -4.3114066723659202E-003   1.0056559002825649E-003   6.9082407164211185E-002
  -4.1775813648339682E-003   8.3928538118477336E-004   7.0938842288006870E-002
  -4.0437560573020059E-003   6.5175650811755137E-004   7.2948755400672083E-002
  -9.1411821716058019E-003   2.5498437431786536E-003   6.4982015854737424E-002
  -8.8342261970933873E-003   2.3017361168990447E-003   6.6536342536074988E-002
  -8.5272702225809589E-003   2.0113117826027760E-003   6.8283452562504135E-002
  -8.2203142480685304E-003   1.6785707402899308E-003   7.0223345934024670E-002
  -7.9133582735561019E-003   1.3035129899604814E-003   7.2356022650636911E-002
  -1.3686374667619182E-002   3.8247656097870480E-003   6.4020586188150014E-002
  -1.3166982669904119E-002   3.4526041683870246E-003   6.5558602050720977E-002
  -1.2647590672189075E-002   3.0169676649230148E-003   6.7328706614605688E-002
  -1.2128198674474030E-002   2.5178560993953381E-003   6.9330899879804092E-002
  -1.1608806676758985E-002   1.9552694718034253E-003   7.1565181846316148E-002
  -1.8214634775469904E-002   5.0996874763952760E-003   6.2945681883465832E-002
  -1.7443501398330105E-002   4.6034722198750322E-003   6.4446228573222908E-002
  -1.6672368021190289E-002   4.0226235472432120E-003   6.6218169320515774E-002
  -1.5901234644050480E-002   3.3571414585005128E-003   6.8261504125344555E-002
  -1.5130101266910674E-002   2.6070259536463691E-003   7.0576232987709098E-002
  -2.7996716056577498E-011   2.6274593611930186E-011   7.3343380096420885E-002
  -2.7497122634390081E-011   2.8100355375926256E-011   6.6397415202495536E-002
  -2.6997518803861809E-011   2.5108984336164042E-011   6.0243714161893752E-002
  -2.6497921912227440E-011   1.7300733762271037E-011   5.4882276974615493E-002
  -2.5998328490040024E-011   4.6755932459063843E-012   5.0313103640660994E-002
  -4.0437560573020059E-003   6.5175650811755137E-004   7.2948755400672083E-002
  -3.3105719152434574E-003   4.3857776172601115E-004   6.6102793909285029E-002
  -2.5773877731849054E-003   1.9525762265543145E-004   5.9930936847692434E-002
  -1.8442036311263361E-003  -7.8203909094284874E-005   5.4433184215893993E-002
  -1.1110194890678049E-003  -3.8180683352317946E-004   4.9609536013889954E-002
  -7.9133582735561019E-003   1.3035129899604814E-003   7.2356022650636911E-002
  -6.5651494134678946E-003   8.7715549535191673E-004   6.5579923173926247E-002
  -5.2169405533796951E-003   3.9051522020192714E-004   5.9359768703480607E-002
  -3.8687316932914783E-003  -1.5640783548924973E-004   5.3695559239300139E-002
  -2.5205228332032883E-003  -7.6361367172195216E-004   4.8587294781384294E-002
  -1.1608806676758985E-002   1.9552694718034253E-003   7.1565181846316148E-002
  -9.7637325221704516E-003   1.3157332289778084E-003   6.4828802996419480E-002
  -7.9186583675818958E-003   5.8577281774856507E-004   5.8530209729258480E-002
  -6.0735842129933659E-003  -2.3461176188429699E-004   5.2669402044833336E-002
  -4.2285100584048083E-003  -1.1454205099207249E-003   4.7246379943143721E-002
  -1.5130101266910674E-002   2.6070259536463691E-003   7.0576232987709098E-002
  -1.2906321241351111E-002   1.7543109626035891E-003   6.3849433376764353E-002
  -1.0682541215791538E-002   7.8103041529481443E-004   5.7442259925026051E-002
  -8.4587611902319382E-003  -3.1281568827921935E-004   5.1354712632493915E-002
  -6.2349811646724013E-003  -1.5272273481194976E-003   4.5586791499168111E-002
  -2.6638272467666722E-002   0.0000000000000000        2.9457071086339225E-002
  -2.7238238969195968E-002   5.8629543387219308E-004   3.4921276114840881E-002
  -2.7838205470725217E-002   1.3230798058146507E-003   4.0079064558256272E-002
  -2.8438171972254463E-002   2.2103531158273737E-003   4.4930436416585388E-002
  -2.9038138473783708E-002   3.2481153639103691E-003   4.9475391689828244E-002
  -3.3401241844109204E-002   0.0000000000000000        3.0168727297503126E-002
  -3.4243033591534459E-002   9.6428740330625328E-004   3.5246834971324921E-002
  -3.5084825338959721E-002   2.0326266982435221E-003   4.0147708738440951E-002
  -3.5926617086384977E-002   3.2050178848118012E-003   4.4871348598851224E-002
  -3.6768408833810245E-002   4.4814609630111002E-003   4.9417754552555745E-002
  -4.0742170329272437E-002   0.0000000000000000        3.1281594001320717E-002
  -4.1696604644213202E-002   1.3422793727403130E-003   3.5927167274023390E-002
  -4.2651038959153967E-002   2.7421735906723891E-003   4.0524689318400815E-002
  -4.3605473274094725E-002   4.1996826537962287E-003   4.5074160134452979E-002
  -4.4559907589035490E-002   5.7148065621118321E-003   4.9575579722179908E-002
  -4.8661057923156441E-002   0.0000000000000000        3.2795671197791997E-002
  -4.9598952127232192E-002   1.7202713421743730E-003   3.6962273022936296E-002
  -5.0536846331307950E-002   3.4517204831012566E-003   4.1210006298135857E-002
  -5.1474740535383715E-002   5.1943474227806596E-003   4.5538871023390687E-002
  -5.2412634739459479E-002   6.9481521612125632E-003   4.9948867198700786E-002
  -5.7157904625761202E-002   0.0000000000000000        3.4710958886916950E-002
  -5.7950076040591443E-002   2.0982633116084330E-003   3.8352152218063637E-002
  -5.8742247455421691E-002   4.1612673755301276E-003   4.2203659677646090E-002
  -5.9534418870251932E-002   6.1890121917650837E-003   4.6265481265664314E-002
  -6.0326590285082166E-002   8.1814977603132978E-003   5.0537616982118311E-002
  -2.9038138473783708E-002   3.2481153639103691E-003   4.9475391689828244E-002
  -2.9122411349004028E-002   4.2718051096355169E-003   5.1540233892811059E-002
  -2.9206684224224341E-002   5.1168609125746764E-003   5.3697005927273889E-002
  -2.9290957099444660E-002   5.7832827727279015E-003   5.5945707793216712E-002
  -2.9375229974664976E-002   6.2710706900951235E-003   5.8286339490639577E-002
  -3.6768408833810245E-002   4.4814609630111002E-003   4.9417754552555745E-002
  -3.6798652840792659E-002   5.7206584339904599E-003   5.1204878872669300E-002
  -3.6828896847775093E-002   6.7813127988989464E-003   5.3008131097778639E-002
  -3.6859140854757506E-002   7.6634240577365727E-003   5.4827511227883735E-002
  -3.6889384861739948E-002   8.3669922105033129E-003   5.6663019262984643E-002
  -4.4559907589035490E-002   5.7148065621118321E-003   4.9575579722179908E-002
  -4.4611924654264265E-002   7.1695117583454124E-003   5.1085076996139296E-002
  -4.4663941719493026E-002   8.4457646852232303E-003   5.2534900248610239E-002
  -4.4715958784721781E-002   9.5435653427452475E-003   5.3925049479592729E-002
  -4.4767975849950549E-002   1.0462913730911495E-002   5.5255524689086746E-002
  -5.2412634739459479E-002   6.9481521612125632E-003   4.9948867198700786E-002
  -5.2562226789418791E-002   8.6183650827003893E-003   5.1180828263221102E-002
  -5.2711818839378144E-002   1.0110216571547511E-002   5.2277313379768722E-002
  -5.2861410889337469E-002   1.1423706627753957E-002   5.3238322548343646E-002
  -5.3011002939296815E-002   1.2558835251319695E-002   5.4063855768945901E-002
  -6.0326590285082166E-002   8.1814977603132978E-003   5.0537616982118311E-002
  -6.0649559246256306E-002   1.0067218407055326E-002   5.1492132673914642E-002
  -6.0972528207430439E-002   1.1774668457871789E-002   5.2235370491254041E-002
  -6.1295497168604593E-002   1.3303847912762614E-002   5.2767330434136527E-002
  -6.1618466129778719E-002   1.4654756771727874E-002   5.3088012502562100E-002
  -2.9375229974664976E-002   6.2710706900951235E-003   5.8286339490639577E-002
  -2.8956105340155636E-002   6.6322730705135995E-003   5.8938330869106492E-002
  -2.8536980705646295E-002   6.9189383198204751E-003   5.9634134274568318E-002
  -2.8117856071136954E-002   7.1310664380157089E-003   6.0373749707024985E-002
  -2.7698731436627613E-002   7.2686574250994257E-003   6.1157177166476631E-002
  -3.6889384861739948E-002   8.3669922105033129E-003   5.6663019262984643E-002
  -3.6382710982837518E-002   8.9013313072350067E-003   5.6877085689158648E-002
  -3.5876037103935117E-002   9.2757553979674646E-003   5.7222438577123912E-002
  -3.5369363225032702E-002   9.4902644827006971E-003   5.7699077926880393E-002
  -3.4862689346130279E-002   9.5448585614346937E-003   5.8307003738428134E-002
  -4.4767975849950549E-002   1.0462913730911495E-002   5.5255524689086746E-002
  -4.4086278291858731E-002   1.1170389543956402E-002   5.4946288288080236E-002
  -4.3404580733766913E-002   1.1632572476114454E-002   5.4855812783661285E-002
  -4.2722883175675103E-002   1.1849462527385645E-002   5.4984098175829929E-002
  -4.2041185617583292E-002   1.1821059697769955E-002   5.5331144464586118E-002
  -5.3011002939296815E-002   1.2558835251319695E-002   5.4063855768945901E-002
  -5.2066807267219246E-002   1.3439447780677804E-002   5.3145938665871230E-002
  -5.1122611595141698E-002   1.3989389554261458E-002   5.2534256894180439E-002
  -5.0178415923064157E-002   1.4208660572070587E-002   5.2228810453873592E-002
  -4.9234220250986588E-002   1.4097260834105247E-002   5.2229599344950639E-002
  -6.1618466129778719E-002   1.4654756771727874E-002   5.3088012502562100E-002
  -6.0324297908919106E-002   1.5708506017399239E-002   5.1476036822531615E-002
  -5.9030129688059471E-002   1.6346206632408440E-002   5.0257770908681373E-002
  -5.7735961467199857E-002   1.6567858616755572E-002   4.9433214761011354E-002
  -5.6441793246340223E-002   1.6373461970440484E-002   4.9002368379521599E-002
  -2.7698731436627613E-002   7.2686574250994257E-003   6.1157177166476631E-002
  -2.7001807070468661E-002   7.3542533141163630E-003   6.1213691246690682E-002
  -2.6304882704309723E-002   7.4103961381113588E-003   6.1541758037781051E-002
  -2.5607958338150775E-002   7.4370858970843655E-003   6.2141377539747689E-002
  -2.4911033971991826E-002   7.4343225910354915E-003   6.3012549752590713E-002
  -3.4862689346130279E-002   9.5448585614346937E-003   5.8307003738428134E-002
  -3.3915681392308640E-002   9.5017995060318813E-003   5.8295088169830110E-002
  -3.2968673438486987E-002   9.4233491883547321E-003   5.8511787065681227E-002
  -3.2021665484665333E-002   9.3095076084032911E-003   5.8957100425981415E-002
  -3.1074657530843680E-002   9.1602747661774786E-003   5.9631028250730758E-002
  -4.2041185617583292E-002   1.1821059697769955E-002   5.5331144464586118E-002
  -4.0887032322526135E-002   1.1649345697947476E-002   5.5244861049923627E-002
  -3.9732879027468963E-002   1.1436302238598215E-002   5.5344253853283072E-002
  -3.8578725732411806E-002   1.1181929319722174E-002   5.5629322874664405E-002
  -3.7424572437354635E-002   1.0886226941319466E-002   5.6100068114067661E-002
  -4.9234220250986588E-002   1.4097260834105247E-002   5.2229599344950639E-002
  -4.7915859861121124E-002   1.3796891889863033E-002   5.2063009886971226E-002
  -4.6597499471255674E-002   1.3449255288841683E-002   5.2039158400586608E-002
  -4.5279139081390217E-002   1.3054351031041219E-002   5.2158044885796610E-002
  -4.3960778691524739E-002   1.2612179116461453E-002   5.2419669342601324E-002
  -5.6441793246340223E-002   1.6373461970440484E-002   4.9002368379521599E-002
  -5.5002164008093664E-002   1.5944438081778554E-002   4.8749534680972956E-002
  -5.3562534769847098E-002   1.5462208339085098E-002   4.8596500707591778E-002
  -5.2122905531600539E-002   1.4926772742360005E-002   4.8543266459378134E-002
  -5.0683276293353979E-002   1.4338131291603440E-002   4.8589831936331984E-002
  -2.4911033971991826E-002   7.4343225910354915E-003   6.3012549752590713E-002
  -2.4107503461365150E-002   7.3755234091521654E-003   6.2614355751642259E-002
  -2.3303972950738456E-002   7.2341055406217603E-003   6.2391319996842359E-002
  -2.2500442440111769E-002   7.0100689854444981E-003   6.2343442488191111E-002
  -2.1696911929485092E-002   6.7034137436202124E-003   6.2470723225688418E-002
  -3.1074657530843680E-002   9.1602747661774786E-003   5.9631028250730758E-002
  -3.0078357675611025E-002   8.9752815439031047E-003   5.9004779908345670E-002
  -2.9082057820378364E-002   8.7541588238059104E-003   5.8588912009023893E-002
  -2.8085757965145709E-002   8.4969066058860725E-003   5.8383424552765475E-002
  -2.7089458109913044E-002   8.2035248901435320E-003   5.8388317539570439E-002
  -3.7424572437354635E-002   1.0886226941319466E-002   5.6100068114067661E-002
  -3.6200281040601273E-002   1.0575039678654009E-002   5.5292254619070114E-002
  -3.4975989643847918E-002   1.0274212106990088E-002   5.4730043764050787E-002
  -3.3751698247094564E-002   9.9837442263276191E-003   5.4413435549009390E-002
  -3.2527406850341188E-002   9.7036360366666574E-003   5.4342429973946199E-002
  -4.3960778691524739E-002   1.2612179116461453E-002   5.2419669342601324E-002
  -4.2473273556335941E-002   1.2174797813405015E-002   5.1476779883815715E-002
  -4.0985768421147144E-002   1.1794265390174252E-002   5.0814715261922890E-002
  -3.9498263285958339E-002   1.1470581846769180E-002   5.0433475476922812E-002
  -3.8010758150769527E-002   1.1203747183189880E-002   5.0333060528815671E-002
  -5.0683276293353979E-002   1.4338131291603440E-002   4.8589831936331984E-002
  -4.8897335222814975E-002   1.3774555948155853E-002   4.7558355702582378E-002
  -4.7111394152276012E-002   1.3314318673358430E-002   4.6842926502640353E-002
  -4.5325453081737022E-002   1.2957419467210716E-002   4.6443544336505840E-002
  -4.3539512011198045E-002   1.2703858329713047E-002   4.6360209204178771E-002
  -2.1696911929485092E-002   6.7034137436202124E-003   6.2470723225688418E-002
  -2.0826342640981294E-002   6.3422074130579376E-003   6.2270693770135888E-002
  -1.9955773352477502E-002   5.9545175916663196E-003   6.2283177061247919E-002
  -1.9085204063973699E-002   5.5403442794454139E-003   6.2508173099024539E-002
  -1.8214634775469904E-002   5.0996874763952760E-003   6.2945681883465832E-002
  -2.7089458109913044E-002   8.2035248901435320E-003   5.8388317539570439E-002
  -2.6022112510041332E-002   7.8815482653934177E-003   5.8103377183210292E-002
  -2.4954766910169610E-002   7.5385113204513299E-003   5.7999476702921424E-002
  -2.3887421310297884E-002   7.1744140553169009E-003   5.8076616098703786E-002
  -2.2820075710426171E-002   6.7892564699905678E-003   5.8334795370557330E-002
  -3.2527406850341188E-002   9.7036360366666574E-003   5.4342429973946199E-002
  -3.1294757809694942E-002   9.4208891177289394E-003   5.3978001887415597E-002
  -3.0062108769048676E-002   9.1225050492362292E-003   5.3763140806362908E-002
  -2.8829459728402416E-002   8.8084838311884989E-003   5.3697846730788035E-002
  -2.7596810687756164E-002   8.4788254635858318E-003   5.3782119660691033E-002
  -3.8010758150769527E-002   1.1203747183189880E-002   5.0333060528815671E-002
  -3.6644278539942093E-002   1.0960229970064468E-002   4.9894567882751782E-002
  -3.5277798929114659E-002   1.0706498778021128E-002   4.9574169371572455E-002
  -3.3911319318287239E-002   1.0442553607060097E-002   4.9371864995277584E-002
  -3.2544839707459784E-002   1.0168394457181165E-002   4.9287654753867177E-002
  -4.3539512011198045E-002   1.2703858329713047E-002   4.6360209204178771E-002
  -4.2070674700782837E-002   1.2499570822399941E-002   4.5853075169218827E-002
  -4.0601837390367601E-002   1.2290492506805986E-002   4.5432562398549953E-002
  -3.9133000079952379E-002   1.2076623382931546E-002   4.5098670892172260E-002
  -3.7664162769537157E-002   1.1857963450776388E-002   4.4851400650085527E-002
  -1.8214634775469904E-002   5.0996874763952760E-003   6.2945681883465832E-002
  -1.7443501398330105E-002   4.6034722198750322E-003   6.4446228573222908E-002
  -1.6672368021190289E-002   4.0226235472432120E-003   6.6218169320515774E-002
  -1.5901234644050480E-002   3.3571414585005128E-003   6.8261504125344555E-002
  -1.5130101266910674E-002   2.6070259536463691E-003   7.0576232987709098E-002
  -2.2820075710426171E-002   6.7892564699905678E-003   5.8334795370557330E-002
  -2.1814115762094126E-002   6.3414091437189735E-003   5.9533004242692450E-002
  -2.0808155813762080E-002   5.7892426557493992E-003   6.0929472199676218E-002
  -1.9802195865430024E-002   5.1327570060818381E-003   6.2524199241508649E-002
  -1.8796235917097989E-002   4.3719521947160334E-003   6.4317185368189644E-002
  -2.7596810687756164E-002   8.4788254635858318E-003   5.3782119660691033E-002
  -2.6429159140919027E-002   8.0793460675631784E-003   5.4658304969617516E-002
  -2.5261507594081935E-002   7.5558617642556905E-003   5.5659614390705291E-002
  -2.4093856047244840E-002   6.9083725536631616E-003   5.6786047923954572E-002
  -2.2926204500407735E-002   6.1368784357859196E-003   5.8037605569365408E-002
  -3.2544839707459784E-002   1.0168394457181165E-002   4.9287654753867177E-002
  -3.1288631534804795E-002   9.8172829914074736E-003   4.9822130753997960E-002
  -3.0032423362149851E-002   9.3224808727618187E-003   5.0408595893602998E-002
  -2.8776215189494862E-002   8.6839881012445962E-003   5.1047050172682219E-002
  -2.7520007016839886E-002   7.9018046768558059E-003   5.1737493591235917E-002
  -3.7664162769537157E-002   1.1857963450776388E-002   4.4851400650085527E-002
  -3.6392532943751513E-002   1.1555219915251352E-002   4.5024481595833832E-002
  -3.5120903117965840E-002   1.1089099981268141E-002   4.5176416708369305E-002
  -3.3849273292180189E-002   1.0459603648825776E-002   4.5307205987691834E-002
  -3.2577643466394524E-002   9.6667309179255811E-003   4.5416849433801421E-002
  -1.5130101266910674E-002   2.6070259536463691E-003   7.0576232987709098E-002
  -1.2906321241351111E-002   1.7543109626035891E-003   6.3849433376764353E-002
  -1.0682541215791538E-002   7.8103041529481443E-004   5.7442259925026051E-002
  -8.4587611902319382E-003  -3.1281568827921935E-004   5.1354712632493915E-002
  -6.2349811646724013E-003  -1.5272273481194976E-003   4.5586791499168111E-002
  -1.8796235917097989E-002   4.3719521947160334E-003   6.4317185368189644E-002
  -1.6177600209382859E-002   3.7190250652192891E-003   5.7301535831656897E-002
  -1.3558964501667756E-002   3.3861724611589511E-003   5.0755971500228758E-002
  -1.0940328793952625E-002   3.3733943825348771E-003   4.4680492373905381E-002
  -8.3216930862375221E-003   3.6806908293469665E-003   3.9075098452686863E-002
  -2.2926204500407735E-002   6.1368784357859196E-003   5.8037605569365408E-002
  -1.9762254064638690E-002   5.6837391678353222E-003   5.1173746188946531E-002
  -1.6598303628869666E-002   5.9913145070230323E-003   4.4930431059530707E-002
  -1.3434353193100636E-002   7.0596044533490845E-003   3.9307660181118101E-002
  -1.0270402757331626E-002   8.8886090068134305E-003   3.4305433553708409E-002
  -2.7520007016839886E-002   7.9018046768558059E-003   5.1737493591235917E-002
  -2.3660282807118602E-002   7.6484532704511887E-003   4.5466064448633145E-002
  -1.9800558597397353E-002   8.5964565528870857E-003   3.9965638602931862E-002
  -1.5940834387676097E-002   1.0745814524163181E-002   3.5236216054132033E-002
  -1.2081110177954817E-002   1.4096527184279950E-002   3.1277796802233651E-002
  -3.2577643466394524E-002   9.6667309179255811E-003   4.5416849433801421E-002
  -2.7871686436822654E-002   9.6131673730668887E-003   4.0178490610716877E-002
  -2.3165729407250757E-002   1.1201598598751084E-002   3.5861594130432217E-002
  -1.8459772377678860E-002   1.4432024594977486E-002   3.2466159992947108E-002
  -1.3753815348106990E-002   1.9304445361746359E-002   2.9992188198262104E-002
  -5.7157904625761202E-002   0.0000000000000000        3.4710958886916950E-002
  -5.7950076040591443E-002   2.0982633116084330E-003   3.8352152218063637E-002
  -5.8742247455421691E-002   4.1612673755301276E-003   4.2203659677646090E-002
  -5.9534418870251932E-002   6.1890121917650837E-003   4.6265481265664314E-002
  -6.0326590285082166E-002   8.1814977603132978E-003   5.0537616982118311E-002
  -6.5821175066782117E-002   0.0000000000000000        3.7245460328338503E-002
  -6.6631762813755491E-002   2.9238961985045874E-003   4.0856191458064656E-002
  -6.7442350560728864E-002   5.7893648992357579E-003   4.4219775795068757E-002
  -6.8252938307702238E-002   8.5964061021935028E-003   4.7336213339350834E-002
  -6.9063526054675611E-002   1.1345019807377840E-002   5.0205504090910860E-002
  -7.4239333875914582E-002   0.0000000000000000        4.0617178781699549E-002
  -7.5525798876188904E-002   3.7495290854007435E-003   4.4174279459918482E-002
  -7.6812263876463213E-002   7.4174624229413873E-003   4.7026772424257568E-002
  -7.8098728876737536E-002   1.1003800012621932E-002   4.9174657674716814E-002
  -7.9385193877011845E-002   1.4508541854442379E-002   5.0617935211296226E-002
  -8.2412381053158609E-002   0.0000000000000000        4.4826114247000094E-002
  -8.4632184227891677E-002   4.5751619722969004E-003   4.8306416223625123E-002
  -8.6851987402624745E-002   9.0455599466470176E-003   5.0624649565212516E-002
  -8.9071790577357798E-002   1.3411193923050358E-002   5.1780814271762246E-002
  -9.1291593752090852E-002   1.7672063901506913E-002   5.1774910343274333E-002
  -9.0340316598514186E-002   0.0000000000000000        4.9872266724240125E-002
  -9.3950918868863809E-002   5.4007948591930539E-003   5.3252601749184586E-002
  -9.7561521139213403E-002   1.0673657470352649E-002   5.5013407217933588E-002
 -0.10117212340956304        1.5818587833478781E-002   5.5154683130487131E-002
 -0.10478272567991263        2.0835585948571461E-002   5.3676429486845229E-002
  -6.0326590285082166E-002   8.1814977603132978E-003   5.0537616982118311E-002
  -6.0649559246256306E-002   1.0067218407055326E-002   5.1492132673914642E-002
  -6.0972528207430439E-002   1.1774668457871789E-002   5.2235370491254041E-002
  -6.1295497168604593E-002   1.3303847912762614E-002   5.2767330434136527E-002
  -6.1618466129778719E-002   1.4654756771727874E-002   5.3088012502562100E-002
  -6.9063526054675611E-002   1.1345019807377840E-002   5.0205504090910860E-002
  -6.9358768682537597E-002   1.3799831158969432E-002   4.9460568035064677E-002
  -6.9654011310399583E-002   1.5725465301148961E-002   4.8982362520299715E-002
  -6.9949253938261569E-002   1.7121922233916464E-002   4.8770887546615987E-002
  -7.0244496566123540E-002   1.7989201957271939E-002   4.8826143114013502E-002
  -7.9385193877011845E-002   1.4508541854442379E-002   5.0617935211296226E-002
  -7.9174701756023522E-002   1.7532443910883516E-002   4.7822640794321053E-002
  -7.8964209635035199E-002   1.9676262144426176E-002   4.5772085333965255E-002
  -7.8753717514046861E-002   2.0939996555070322E-002   4.4466268830228840E-002
  -7.8543225393058538E-002   2.1323647142816000E-002   4.3905191283111829E-002
  -9.1291593752090852E-002   1.7672063901506913E-002   5.1774910343274333E-002
  -9.0097358466714059E-002   2.1265056662797620E-002   4.6578350951683743E-002
  -8.8903123181337279E-002   2.3627058987703359E-002   4.2604538932250691E-002
  -8.7708887895960500E-002   2.4758070876224166E-002   3.9853474284975154E-002
  -8.6514652610583678E-002   2.4658092328360033E-002   3.8325157009857197E-002
 -0.10478272567991263        2.0835585948571461E-002   5.3676429486845229E-002
 -0.10212673881460925        2.4997669414711706E-002   4.5727698507152789E-002
  -9.9470751949305825E-002   2.7577855830980560E-002   3.9479723315155965E-002
  -9.6814765084002427E-002   2.8576145197378024E-002   3.4932503910854923E-002
  -9.4158778218699057E-002   2.7992537513904125E-002   3.2086040294249524E-002
  -6.1618466129778719E-002   1.4654756771727874E-002   5.3088012502562100E-002
  -6.0324297908919106E-002   1.5708506017399239E-002   5.1476036822531615E-002
  -5.9030129688059471E-002   1.6346206632408440E-002   5.0257770908681373E-002
  -5.7735961467199857E-002   1.6567858616755572E-002   4.9433214761011354E-002
  -5.6441793246340223E-002   1.6373461970440484E-002   4.9002368379521599E-002
  -7.0244496566123540E-002   1.7989201957271939E-002   4.8826143114013502E-002
  -6.8588457311171011E-002   1.8484064760262462E-002   4.7193777680315546E-002
  -6.6932418056218468E-002   1.8763270931935312E-002   4.5891444548623220E-002
  -6.5276378801265925E-002   1.8826820472290305E-002   4.4919143718936495E-002
  -6.3620339546313368E-002   1.8674713381327618E-002   4.4276875191255359E-002
  -7.8543225393058538E-002   2.1323647142816000E-002   4.3905191283111829E-002
  -7.6588992568187714E-002   2.1259623503125703E-002   4.2452828095090871E-002
  -7.4634759743316889E-002   2.1180335231462070E-002   4.1266819744900853E-002
  -7.2680526918446064E-002   2.1085782327825035E-002   4.0347166232541781E-002
  -7.0726294093575254E-002   2.0975964792214669E-002   3.9693867558013698E-002
  -8.6514652610583678E-002   2.4658092328360033E-002   3.8325157009857197E-002
  -8.4325903679969241E-002   2.4035182245988926E-002   3.7253188066857533E-002
  -8.2137154749354790E-002   2.3597399530988859E-002   3.6383896497514188E-002
  -7.9948405818740326E-002   2.3344744183359741E-002   3.5717282301827163E-002
  -7.7759656888125875E-002   2.3277216203101733E-002   3.5253345479796437E-002
  -9.4158778218699057E-002   2.7992537513904125E-002   3.2086040294249524E-002
  -9.1799190646515566E-002   2.6810740988852170E-002   3.1594857595615547E-002
  -8.9439603074332130E-002   2.6014463830515686E-002   3.1242674806463311E-002
  -8.7080015502148680E-002   2.5603706038894506E-002   3.1029491926792753E-002
  -8.4720427929965217E-002   2.5578467613988826E-002   3.0955308956603811E-002
  -5.6441793246340223E-002   1.6373461970440484E-002   4.9002368379521599E-002
  -5.5002164008093664E-002   1.5944438081778554E-002   4.8749534680972956E-002
  -5.3562534769847098E-002   1.5462208339085098E-002   4.8596500707591778E-002
  -5.2122905531600539E-002   1.4926772742360005E-002   4.8543266459378134E-002
  -5.0683276293353979E-002   1.4338131291603440E-002   4.8589831936331984E-002
  -6.3620339546313368E-002   1.8674713381327618E-002   4.4276875191255359E-002
  -6.2080451844899673E-002   1.8343252890698443E-002   4.3998963972394285E-002
  -6.0540564143485957E-002   1.7868742232054126E-002   4.3821769954699982E-002
  -5.9000676442072221E-002   1.7251181405394632E-002   4.3745293138172534E-002
  -5.7460788740658533E-002   1.6490570410720107E-002   4.3769533522811821E-002
  -7.0726294093575254E-002   2.0975964792214669E-002   3.9693867558013698E-002
  -6.9085230452995069E-002   2.0742067699618210E-002   3.9301034504856586E-002
  -6.7444166812414913E-002   2.0275276125023126E-002   3.9009836128865619E-002
  -6.5803103171834756E-002   1.9575590068429249E-002   3.8820272430040721E-002
  -6.4162039531254586E-002   1.8643009529836718E-002   3.8732343408381997E-002
  -7.7759656888125875E-002   2.3277216203101733E-002   3.5253345479796437E-002
  -7.6016499832379930E-002   2.3140882508538026E-002   3.4655746278359809E-002
  -7.4273342776634013E-002   2.2681810017992098E-002   3.4160699230088576E-002
  -7.2530185720888055E-002   2.1899998731463900E-002   3.3768204334982781E-002
  -7.0787028665142179E-002   2.0795448648953413E-002   3.3478261593042402E-002
  -8.4720427929965217E-002   2.5578467613988826E-002   3.0955308956603811E-002
  -8.2874259983054227E-002   2.5539697317457866E-002   3.0063099292904016E-002
  -8.1028092036143223E-002   2.5088343910961125E-002   2.9274359258368951E-002
  -7.9181924089232206E-002   2.4224407394498486E-002   2.8589088852998712E-002
  -7.7335756142321216E-002   2.2947887768070024E-002   2.8007288076793035E-002
  -5.0683276293353979E-002   1.4338131291603440E-002   4.8589831936331984E-002
  -4.8897335222814975E-002   1.3774555948155853E-002   4.7558355702582378E-002
  -4.7111394152276012E-002   1.3314318673358430E-002   4.6842926502640353E-002
  -4.5325453081737022E-002   1.2957419467210716E-002   4.6443544336505840E-002
  -4.3539512011198045E-002   1.2703858329713047E-002   4.6360209204178771E-002
  -5.7460788740658533E-002   1.6490570410720107E-002   4.3769533522811821E-002
  -5.5362807678711518E-002   1.5721056253513568E-002   4.2924602859171851E-002
  -5.3264826616764502E-002   1.5076785939258638E-002   4.2387705144540447E-002
  -5.1166845554817507E-002   1.4557759467955008E-002   4.2158840378917498E-002
  -4.9068864492870498E-002   1.4163976839602910E-002   4.2238008562302976E-002
  -6.4162039531254586E-002   1.8643009529836718E-002   3.8732343408381997E-002
  -6.1760032562698602E-002   1.7667556558871311E-002   3.8095864089153192E-002
  -5.9358025594142605E-002   1.6839253205158895E-002   3.7759403634133819E-002
  -5.6956018625586601E-002   1.6158099468699269E-002   3.7722962043323885E-002
  -5.4554011657030624E-002   1.5624095349492745E-002   3.7986539316723411E-002
  -7.0787028665142179E-002   2.0795448648953413E-002   3.3478261593042402E-002
  -6.8089009874776230E-002   1.9614056864228957E-002   3.3072139392526206E-002
  -6.5390991084410321E-002   1.8601720471059100E-002   3.2958021971420462E-002
  -6.2692972294044372E-002   1.7758439469443603E-002   3.3135909329725169E-002
  -5.9994953503678478E-002   1.7084213859382649E-002   3.3605801467440272E-002
  -7.7335756142321216E-002   2.2947887768070024E-002   2.8007288076793035E-002
  -7.4349739614944413E-002   2.1560557169586603E-002   2.7853428769291144E-002
  -7.1363723087567610E-002   2.0364187736959326E-002   2.7983560156400494E-002
  -6.8377706560190821E-002   1.9358779470187791E-002   2.8397682238121218E-002
  -6.5391690032814004E-002   1.8544332369272443E-002   2.9095795014453307E-002
  -4.3539512011198045E-002   1.2703858329713047E-002   4.6360209204178771E-002
  -4.2070674700782837E-002   1.2499570822399941E-002   4.5853075169218827E-002
  -4.0601837390367601E-002   1.2290492506805986E-002   4.5432562398549953E-002
  -3.9133000079952379E-002   1.2076623382931546E-002   4.5098670892172260E-002
  -3.7664162769537157E-002   1.1857963450776388E-002   4.4851400650085527E-002
  -4.9068864492870498E-002   1.4163976839602910E-002   4.2238008562302976E-002
  -4.7490318525202448E-002   1.3872242907623969E-002   4.1835198608574195E-002
  -4.5911772557534349E-002   1.3659362525440144E-002   4.1565184705060029E-002
  -4.4333226589866312E-002   1.3525335693051393E-002   4.1427966851760478E-002
  -4.2754680622198206E-002   1.3470162410457454E-002   4.1423545048675264E-002
  -5.4554011657030624E-002   1.5624095349492745E-002   3.7986539316723411E-002
  -5.2819582246186242E-002   1.5244914992848024E-002   3.7771697802301663E-002
  -5.1085152835341867E-002   1.5028232544074073E-002   3.7735827124017914E-002
  -4.9350723424497492E-002   1.4974048003170962E-002   3.7878927281872241E-002
  -4.7616294013653103E-002   1.5082361370138575E-002   3.8200998275864623E-002
  -5.9994953503678478E-002   1.7084213859382649E-002   3.3605801467440272E-002
  -5.8058465863734317E-002   1.6617587078072038E-002   3.3662572750401215E-002
  -5.6121978223790100E-002   1.6397102562708172E-002   3.3944489655423495E-002
  -5.4185490583845891E-002   1.6422760313290669E-002   3.4451552182507630E-002
  -5.2249002943901716E-002   1.6694560329819808E-002   3.5183760331653088E-002
  -6.5391690032814004E-002   1.8544332369272443E-002   2.9095795014453307E-002
  -6.3206969377846534E-002   1.7990259163296080E-002   2.9507823452872783E-002
  -6.1022248722879049E-002   1.7765972581342146E-002   3.0191172299277064E-002
  -5.8837528067911600E-002   1.7871472623410375E-002   3.1145841553666551E-002
  -5.6652807412944123E-002   1.8306759289500818E-002   3.2371831216040980E-002
  -3.7664162769537157E-002   1.1857963450776388E-002   4.4851400650085527E-002
  -3.6392532943751513E-002   1.1555219915251352E-002   4.5024481595833832E-002
  -3.5120903117965840E-002   1.1089099981268141E-002   4.5176416708369305E-002
  -3.3849273292180189E-002   1.0459603648825776E-002   4.5307205987691834E-002
  -3.2577643466394524E-002   9.6667309179255811E-003   4.5416849433801421E-002
  -4.2754680622198206E-002   1.3470162410457454E-002   4.1423545048675264E-002
  -4.1548010792967376E-002   1.3339175507763257E-002   4.1584787698060954E-002
  -4.0341340963736511E-002   1.2977707815073680E-002   4.1637256187549918E-002
  -3.9134671134505659E-002   1.2385759332388085E-002   4.1580950517142203E-002
  -3.7928001305274794E-002   1.1563330059707166E-002   4.1415870686837775E-002
  -4.7616294013653103E-002   1.5082361370138575E-002   3.8200998275864623E-002
  -4.6562212507660766E-002   1.5123131100275203E-002   3.8283298237350327E-002
  -4.5508131001668492E-002   1.4866315648879233E-002   3.8169195712255549E-002
  -4.4454049495676162E-002   1.4311915015950288E-002   3.7858690700580511E-002
  -4.3399967989683930E-002   1.3459929201488807E-002   3.7351783202324712E-002
  -5.2249002943901716E-002   1.6694560329819808E-002   3.5183760331653088E-002
  -5.1435138087831740E-002   1.6907086692787184E-002   3.5120013213701874E-002
  -5.0621273231761771E-002   1.6754923482684835E-002   3.4772235282486477E-002
  -4.9807408375691788E-002   1.6238070699512545E-002   3.4140426538006925E-002
  -4.8993543519621763E-002   1.5356528343270365E-002   3.3224586980262968E-002
  -5.6652807412944123E-002   1.8306759289500818E-002   3.2371831216040980E-002
  -5.6166787533480228E-002   1.8691042285299081E-002   3.2094932627115658E-002
  -5.5680767654016361E-002   1.8643531316490311E-002   3.1446374898242369E-002
  -5.5194747774552452E-002   1.8164226383074630E-002   3.0426158029421127E-002
  -5.4708727895088544E-002   1.7253127485052033E-002   2.9034282020651947E-002
  -3.2577643466394524E-002   9.6667309179255811E-003   4.5416849433801421E-002
  -2.7871686436822654E-002   9.6131673730668887E-003   4.0178490610716877E-002
  -2.3165729407250757E-002   1.1201598598751084E-002   3.5861594130432217E-002
  -1.8459772377678860E-002   1.4432024594977486E-002   3.2466159992947108E-002
  -1.3753815348106990E-002   1.9304445361746359E-002   2.9992188198262104E-002
  -3.7928001305274794E-002   1.1563330059707166E-002   4.1415870686837775E-002
  -3.2406984533381852E-002   1.0997365527402436E-002   3.7142202938391017E-002
  -2.6885967761488896E-002   1.1174811265846088E-002   3.3577192331786715E-002
  -2.1364950989595972E-002   1.2095667275038222E-002   3.0720838867024772E-002
  -1.5843934217702998E-002   1.3759933554978510E-002   2.8573142544104924E-002
  -4.3399967989683930E-002   1.3459929201488807E-002   3.7351783202324712E-002
  -3.7276696676427357E-002   1.2381563681737956E-002   3.3144222028721956E-002
  -3.1153425363170825E-002   1.1148023932941259E-002   2.9432512796003840E-002
  -2.5030154049914228E-002   9.7593099550988202E-003   2.6216655504170482E-002
  -1.8906882736657707E-002   8.2154217482106606E-003   2.3496650153222498E-002
  -4.8993543519621763E-002   1.5356528343270365E-002   3.3224586980262968E-002
  -4.2480822865959167E-002   1.3765761836073379E-002   2.8184547881709602E-002
  -3.5968102212296467E-002   1.1121236600036458E-002   2.3427555523083551E-002
  -2.9455381558633763E-002   7.4229526351595430E-003   1.8953609904384980E-002
  -2.2942660904971178E-002   2.6709099414428117E-003   1.4762711025613773E-002
  -5.4708727895088544E-002   1.7253127485052033E-002   2.9034282020651947E-002
  -4.8019363101977214E-002   1.5149959990409023E-002   2.2263180497353985E-002
  -4.1329998308865870E-002   1.1094449267131518E-002   1.5562320513025973E-002
  -3.4640633515754561E-002   5.0865953152201479E-003   8.9317020676678294E-003
  -2.7951268722643252E-002  -2.8736018653250373E-003   2.3713251612798025E-003
  -9.0340316598514186E-002   0.0000000000000000        4.9872266724240125E-002
  -9.3950918868863809E-002   5.4007948591930539E-003   5.3252601749184586E-002
  -9.7561521139213403E-002   1.0673657470352649E-002   5.5013407217933588E-002
 -0.10117212340956304        1.5818587833478781E-002   5.5154683130487131E-002
 -0.10478272567991263        2.0835585948571461E-002   5.3676429486845229E-002
 -0.10327012756289694        0.0000000000000000        5.8691067469249424E-002
 -0.10681565714097332        1.0879049041226562E-002   5.2149384683120782E-002
 -0.11036118671904972        1.9170515151288633E-002   4.7357376837734028E-002
 -0.11390671629712612        2.4874398330186225E-002   4.4315043933089174E-002
 -0.11745224587520252        2.7990698577919332E-002   4.3022385969186200E-002
 -0.12644880099722250        0.0000000000000000        7.4217947737857726E-002
 -0.12656005338608831        1.6357303223260067E-002   5.5294596457524978E-002
 -0.12667130577495417        2.7667372832224618E-002   4.1490124614871456E-002
 -0.12678255816381998        3.3930208826893675E-002   3.2804532209897166E-002
 -0.12689381055268587        3.5145811207267216E-002   2.9237819242602096E-002
 -0.15987633690149083        0.0000000000000000        9.6452907530065052E-002
 -0.15318410760420878        2.1835557405293575E-002   6.2688237072397152E-002
 -0.14649187830692667        3.6164230513160631E-002   3.7411650549345823E-002
 -0.13979964900964462        4.2986019323601098E-002   2.0623147960911057E-002
 -0.13310741971236256        4.2300923836615087E-002   1.2322729307092901E-002
 -0.20355273527570197        0.0000000000000000       0.12539594684587141     
 -0.18668781979533466        2.7313811587327073E-002   7.4330306527737339E-002
 -0.16982290431496733        4.4661088194096581E-002   3.5121954641157180E-002
 -0.15295798883460002        5.2041829820308555E-002   7.7708911861309737E-003
 -0.13609307335423271        4.9456036465962958E-002  -7.7228838373413766E-003
 -0.10478272567991263        2.0835585948571461E-002   5.3676429486845229E-002
 -0.10212673881460925        2.4997669414711706E-002   4.5727698507152789E-002
  -9.9470751949305825E-002   2.7577855830980560E-002   3.9479723315155965E-002
  -9.6814765084002427E-002   2.8576145197378024E-002   3.4932503910854923E-002
  -9.4158778218699057E-002   2.7992537513904125E-002   3.2086040294249524E-002
 -0.11745224587520252        2.7990698577919332E-002   4.3022385969186200E-002
 -0.11348861311190539        2.9480214767051659E-002   3.6784559499644133E-002
 -0.10952498034860823        3.0303745770146936E-002   3.1461269038393892E-002
 -0.10556134758531109        3.0461291587205123E-002   2.7052514585435387E-002
 -0.10159771482201393        2.9952852218226231E-002   2.3558296140768705E-002
 -0.12689381055268587        3.5145811207267216E-002   2.9237819242602096E-002
 -0.12240875167079887        3.3962760119391658E-002   2.5626809147044755E-002
 -0.11792369278891188        3.3029635709313283E-002   2.2144115280375319E-002
 -0.11343863390702488        3.2346437977032225E-002   1.8789737642593774E-002
 -0.10895357502513790        3.1913166922548392E-002   1.5563676233700138E-002
 -0.13310741971236256        4.2300923836615087E-002   1.2322729307092901E-002
 -0.12888715449128962        3.8445305471731590E-002   1.2254447449354642E-002
 -0.12466688927021667        3.5755525648479669E-002   1.1528262041100362E-002
 -0.12044662404914377        3.4231584366859261E-002   1.0144173082330017E-002
 -0.11622635882807086        3.3873481626870497E-002   8.1021805730437258E-003
 -0.13609307335423271        4.9456036465962958E-002  -7.7228838373413766E-003
 -0.13292382157337773        4.2927850824071551E-002  -3.3325255934262173E-003
 -0.12975456979252276        3.8481415587645985E-002  -3.8629067943109219E-004
 -0.12658531801166778        3.6116730756686373E-002   1.1158209046442207E-003
 -0.12341606623081280        3.5833796331192685E-002   1.1738091587995547E-003
  -9.4158778218699057E-002   2.7992537513904125E-002   3.2086040294249524E-002
  -9.1799190646515566E-002   2.6810740988852170E-002   3.1594857595615547E-002
  -8.9439603074332130E-002   2.6014463830515686E-002   3.1242674806463311E-002
  -8.7080015502148680E-002   2.5603706038894506E-002   3.1029491926792753E-002
  -8.4720427929965217E-002   2.5578467613988826E-002   3.0955308956603811E-002
 -0.10159771482201393        2.9952852218226231E-002   2.3558296140768705E-002
  -9.9084559221951404E-002   2.9179707934991136E-002   2.3425805322843146E-002
  -9.6571403621888860E-002   2.8543139009280610E-002   2.3461450651194093E-002
  -9.4058248021826316E-002   2.8043145441094684E-002   2.3665232125821549E-002
  -9.1545092421763785E-002   2.7679727230433299E-002   2.4037149746725536E-002
 -0.10895357502513790        3.1913166922548392E-002   1.5563676233700138E-002
 -0.10625771516040143        3.1548674881130098E-002   1.5540933287292176E-002
 -0.10356185529566496        3.1071814188045520E-002   1.5715462723955492E-002
 -0.10086599543092853        3.0482584843294774E-002   1.6087264543690125E-002
  -9.8170135566192057E-002   2.9780986846877813E-002   1.6656338746496080E-002
 -0.11622635882807086        3.3873481626870497E-002   8.1021805730437258E-003
 -0.11331865846186566        3.3917641827268967E-002   7.9402414889625066E-003
 -0.11041095809566046        3.3600489366810482E-002   8.0047110247475021E-003
 -0.10750325772945526        3.2922024245494882E-002   8.2955891803985320E-003
 -0.10459555736325009        3.1882246463322265E-002   8.8128759559158651E-003
 -0.12341606623081280        3.5833796331192685E-002   1.1738091587995547E-003
 -0.12026738912634405        3.6286608773407975E-002   6.2372992785439396E-004
 -0.11711871202187529        3.6129164545575389E-002   3.2919555356988872E-004
 -0.11397003491740655        3.5361463647695053E-002   2.9020603594672595E-004
 -0.11082135781293778        3.3983506079766801E-002   5.0676137498445462E-004
  -8.4720427929965217E-002   2.5578467613988826E-002   3.0955308956603811E-002
  -8.2874259983054227E-002   2.5539697317457866E-002   3.0063099292904016E-002
  -8.1028092036143223E-002   2.5088343910961125E-002   2.9274359258368951E-002
  -7.9181924089232206E-002   2.4224407394498486E-002   2.8589088852998712E-002
  -7.7335756142321216E-002   2.2947887768070024E-002   2.8007288076793035E-002
  -9.1545092421763785E-002   2.7679727230433299E-002   2.4037149746725536E-002
  -8.9503370251028391E-002   2.7267429470348777E-002   2.3113187241887413E-002
  -8.7461648080292970E-002   2.6620797253893526E-002   2.2476863555533348E-002
  -8.5419925909557548E-002   2.5739830581067373E-002   2.2128178687663445E-002
  -8.3378203738822210E-002   2.4624529451870492E-002   2.2067132638277587E-002
  -9.8170135566192057E-002   2.9780986846877813E-002   1.6656338746496080E-002
  -9.5748689982312896E-002   2.8995161623239840E-002   1.5878872054114722E-002
  -9.3327244398433706E-002   2.8153250596825927E-002   1.5573213369536702E-002
  -9.0905798814554503E-002   2.7255253767636375E-002   1.5739362692762226E-002
  -8.8484353230675369E-002   2.6301171135671000E-002   1.6377320023791130E-002
 -0.10459555736325009        3.1882246463322265E-002   8.8128759559158651E-003
 -0.10161021917690777        3.0722893776130841E-002   8.3601537295860933E-003
  -9.8624880990565406E-002   2.9685703939758536E-002   8.5634087003790757E-003
  -9.5639542804223057E-002   2.8770676954205404E-002   9.4226408682948019E-003
  -9.2654204617880709E-002   2.7977812819471377E-002   1.0937850233333659E-002
 -0.11082135781293778        3.3983506079766801E-002   5.0676137498445462E-004
 -0.10708795783481295        3.2450625929021815E-002   5.5703226830128294E-004
 -0.10335455785668810        3.1218157282690867E-002   1.4474495480603505E-003
  -9.9621157878563252E-002   3.0286100140774215E-002   3.1780132142615151E-003
  -9.5887757900438408E-002   2.9654454503271921E-002   5.7487232669052313E-003
  -7.7335756142321216E-002   2.2947887768070024E-002   2.8007288076793035E-002
  -7.4349739614944413E-002   2.1560557169586603E-002   2.7853428769291144E-002
  -7.1363723087567610E-002   2.0364187736959326E-002   2.7983560156400494E-002
  -6.8377706560190821E-002   1.9358779470187791E-002   2.8397682238121218E-002
  -6.5391690032814004E-002   1.8544332369272443E-002   2.9095795014453307E-002
  -8.3378203738822210E-002   2.4624529451870492E-002   2.2067132638277587E-002
  -8.0241106554444802E-002   2.3439563649886849E-002   2.2859644536139256E-002
  -7.7104009370067492E-002   2.2349602958700754E-002   2.3670327053390769E-002
  -7.3966912185690126E-002   2.1354647378312150E-002   2.4499180190031784E-002
  -7.0829815001312760E-002   2.0454696908720926E-002   2.5346203946062573E-002
  -8.8484353230675369E-002   2.6301171135671000E-002   1.6377320023791130E-002
  -8.5461995464519089E-002   2.5318570130187013E-002   1.8020247071958061E-002
  -8.2439637698362878E-002   2.4335018180442296E-002   1.9415524664292989E-002
  -7.9417279932206652E-002   2.3350515286436429E-002   2.0563152800796028E-002
  -7.6394922166050400E-002   2.2365061448169521E-002   2.1463131481466988E-002
  -9.2654204617880709E-002   2.7977812819471377E-002   1.0937850233333659E-002
  -9.0012406345167273E-002   2.7197576610487301E-002   1.3335236376747307E-002
  -8.7370608072453754E-002   2.6320433402183756E-002   1.5219152989107095E-002
  -8.4728809799740235E-002   2.5346383194560718E-002   1.6589600070413543E-002
  -8.2087011527026771E-002   2.4275425987618088E-002   1.7446577620666395E-002
  -9.5887757900438408E-002   2.9654454503271921E-002   5.7487232669052313E-003
  -9.3892339196389285E-002   2.9076583090787339E-002   8.8046124505069545E-003
  -9.1896920492340189E-002   2.8305848623925198E-002   1.1081212027833437E-002
  -8.9901501788291080E-002   2.7342251102684911E-002   1.2578521998884658E-002
  -8.7906083084241970E-002   2.6185790527066599E-002   1.3296542363660846E-002
  -6.5391690032814004E-002   1.8544332369272443E-002   2.9095795014453307E-002
  -6.3206969377846534E-002   1.7990259163296080E-002   2.9507823452872783E-002
  -6.1022248722879049E-002   1.7765972581342146E-002   3.0191172299277064E-002
  -5.8837528067911600E-002   1.7871472623410375E-002   3.1145841553666551E-002
  -5.6652807412944123E-002   1.8306759289500818E-002   3.2371831216040980E-002
  -7.0829815001312760E-002   2.0454696908720926E-002   2.5346203946062573E-002
  -6.8351758446330235E-002   1.9732639870995050E-002   2.5948549868751003E-002
  -6.5873701891347725E-002   1.9271364586202419E-002   2.6866247183484307E-002
  -6.3395645336365214E-002   1.9070871054342933E-002   2.8099295890262922E-002
  -6.0917588781382676E-002   1.9131159275416698E-002   2.9647695989086509E-002
  -7.6394922166050400E-002   2.2365061448169521E-002   2.1463131481466988E-002
  -7.3579498726992737E-002   2.1475020578693979E-002   2.2186790017335090E-002
  -7.0764075287935060E-002   2.0776756591062977E-002   2.3269830929308517E-002
  -6.7948651848877384E-002   2.0270269485275660E-002   2.4712254217387101E-002
  -6.5133228409819721E-002   1.9955559261332662E-002   2.6514059881570740E-002
  -8.2087011527026771E-002   2.4275425987618088E-002   1.7446577620666395E-002
  -7.8890190219833983E-002   2.3217401286393206E-002   1.8222543898625394E-002
  -7.5693368912641112E-002   2.2282148595923392E-002   1.9401923536749563E-002
  -7.2496547605448283E-002   2.1469667916208329E-002   2.0984716535038930E-002
  -6.9299726298255454E-002   2.0779959247248417E-002   2.2970922893493503E-002
  -8.7906083084241970E-002   2.6185790527066599E-002   1.3296542363660846E-002
  -8.4283832924853919E-002   2.4959781994091934E-002   1.4055811512621419E-002
  -8.0661582765465811E-002   2.3787540600783752E-002   1.5262525005807381E-002
  -7.7039332606077704E-002   2.2669066347140901E-002   1.6916682843218511E-002
  -7.3417082446689652E-002   2.1604359233164394E-002   1.9018285024854920E-002
  -5.6652807412944123E-002   1.8306759289500818E-002   3.2371831216040980E-002
  -5.6166787533480228E-002   1.8691042285299081E-002   3.2094932627115658E-002
  -5.5680767654016361E-002   1.8643531316490311E-002   3.1446374898242369E-002
  -5.5194747774552452E-002   1.8164226383074630E-002   3.0426158029421127E-002
  -5.4708727895088544E-002   1.7253127485052033E-002   2.9034282020651947E-002
  -6.0917588781382676E-002   1.9131159275416698E-002   2.9647695989086509E-002
  -6.0369340453618470E-002   1.9128640850165690E-002   2.9444732223316283E-002
  -5.9821092125854278E-002   1.8739727379332535E-002   2.9737884494094577E-002
  -5.9272843798090079E-002   1.7964418862916730E-002   3.0527152801421646E-002
  -5.8724595470325894E-002   1.6802715300918480E-002   3.1812537145297082E-002
  -6.5133228409819721E-002   1.9955559261332662E-002   2.6514059881570740E-002
  -6.3654976457258733E-002   1.9566239415032563E-002   2.6430429857980012E-002
  -6.2176724504697661E-002   1.8835923442174544E-002   2.7710691047434503E-002
  -6.0698472552136555E-002   1.7764611342758668E-002   3.0354843449934023E-002
  -5.9220220599575608E-002   1.6352303116785039E-002   3.4362887065478798E-002
  -6.9299726298255454E-002   2.0779959247248417E-002   2.2970922893493503E-002
  -6.6023695544401004E-002   2.0003837979899415E-002   2.3052025531106784E-002
  -6.2747664790546484E-002   1.8932119505016661E-002   2.5364794558262023E-002
  -5.9471634036692027E-002   1.7564803822601074E-002   2.9909229974958672E-002
  -5.6195603282837507E-002   1.5901890932651264E-002   3.6685331781197199E-002
  -7.3417082446689652E-002   2.1604359233164394E-002   1.9018285024854920E-002
  -6.7475497715045185E-002   2.0441436544765934E-002   1.9309519242696804E-002
  -6.1533912983400718E-002   1.9028315567858889E-002   2.2700195026576997E-002
  -5.5592328251756196E-002   1.7364996302442787E-002   2.9190312376495761E-002
  -4.9650743520111784E-002   1.5451478748517933E-002   3.8779871292452306E-002
  -5.4708727895088544E-002   1.7253127485052033E-002   2.9034282020651947E-002
  -4.8019363101977214E-002   1.5149959990409023E-002   2.2263180497353985E-002
  -4.1329998308865870E-002   1.1094449267131518E-002   1.5562320513025973E-002
  -3.4640633515754561E-002   5.0865953152201479E-003   8.9317020676678294E-003
  -2.7951268722643252E-002  -2.8736018653250373E-003   2.3713251612798025E-003
  -5.8724595470325894E-002   1.6802715300918480E-002   3.1812537145297082E-002
  -5.1543719198198890E-002   1.4186620653688697E-002   2.6745582831275233E-002
  -4.4362842926071878E-002   9.0481388815780994E-003   2.2591409936314588E-002
  -3.7181966653944853E-002   1.3872699845870265E-003   1.9350018460415522E-002
  -3.0001090381817808E-002  -8.7959860372848198E-003   1.7021408403578131E-002
  -5.9220220599575608E-002   1.6352303116785039E-002   3.4362887065478798E-002
  -5.0705292968341392E-002   1.3223281316968705E-002   3.0430036064486424E-002
  -4.2190365337107100E-002   7.0018284960250837E-003   2.8252506362646909E-002
  -3.3675437705872939E-002  -2.3120553460462857E-003   2.7830297959960414E-002
  -2.5160510074638584E-002  -1.4718370209244491E-002   2.9163410856426764E-002
  -5.6195603282837507E-002   1.5901890932651264E-002   3.6685331781197199E-002
  -4.5504084412404611E-002   1.2259941980248268E-002   3.3316540196987536E-002
  -3.4812565541971700E-002   4.9555181104714227E-003   3.2545609792022340E-002
  -2.4121046671538859E-002  -6.0113806766794470E-003   3.4372540566301853E-002
  -1.3429527801105897E-002  -2.0640754381204218E-002   3.8797332519825353E-002
  -4.9650743520111784E-002   1.5451478748517933E-002   3.8779871292452306E-002
  -3.5940093530388739E-002   1.1296602643528497E-002   3.5405095228778938E-002
  -2.2229443540665639E-002   2.9092077249182891E-003   3.5470720224441449E-002
  -8.5187935509425661E-003  -9.7107060073128651E-003   3.8976746279440123E-002
   5.1918564387805066E-003  -2.6563138553163945E-002   4.5923173393774386E-002
 </DataArray>
 </PointData>
 </Piece>
 <Piece  NumberOfPoints="          1600 "  NumberOfCells="         1024 ">
 <Points>
 <DataArray  type="Float64" NumberOfComponents="3"  format="ascii" >
  0.50000000000000000        0.0000000000000000        0.0000000000000000     
  0.53125000000000000        0.0000000000000000        0.0000000000000000     
  0.56250000000000000        0.0000000000000000        0.0000000000000000     
  0.59375000000000000        0.0000000000000000        0.0000000000000000     
  0.62500000000000000        0.0000000000000000        0.0000000000000000     
  0.50000000000000000        3.1250000000000000E-002   0.0000000000000000     
  0.53125000000000000        3.1250000000000000E-002   0.0000000000000000     
  0.56250000000000000        3.1250000000000000E-002   0.0000000000000000     
  0.59375000000000000        3.1250000000000000E-002   0.0000000000000000     
  0.62500000000000000        3.1250000000000000E-002   0.0000000000000000     
  0.50000000000000000        6.2500000000000000E-002   0.0000000000000000     
  0.53125000000000000        6.2500000000000000E-002   0.0000000000000000     
  0.56250000000000000        6.2500000000000000E-002   0.0000000000000000     
  0.59375000000000000        6.2500000000000000E-002   0.0000000000000000     
  0.62500000000000000        6.2500000000000000E-002   0.0000000000000000     
  0.50000000000000000        9.3750000000000000E-002   0.0000000000000000     
  0.53125000000000000        9.3750000000000000E-002   0.0000000000000000     
  0.56250000000000000        9.3750000000000000E-002   0.0000000000000000     
  0.59375000000000000        9.3750000000000000E-002   0.0000000000000000     
  0.62500000000000000        9.3750000000000000E-002   0.0000000000000000     
  0.50000000000000000       0.12500000000000000        0.0000000000000000     
  0.53125000000000000       0.12500000000000000        0.0000000000000000     
  0.56250000000000000       0.12500000000000000        0.0000000000000000     
  0.59375000000000000       0.12500000000000000        0.0000000000000000     
  0.62500000000000000       0.12500000000000000        0.0000000000000000     
  0.62500000000000000        0.0000000000000000        0.0000000000000000     
  0.65625000000000000        0.0000000000000000        0.0000000000000000     
  0.68750000000000000        0.0000000000000000        0.0000000000000000     
  0.71875000000000000        0.0000000000000000        0.0000000000000000     
  0.75000000000000000        0.0000000000000000        0.0000000000000000     
  0.62500000000000000        3.1250000000000000E-002   0.0000000000000000     
  0.65625000000000000        3.1250000000000000E-002   0.0000000000000000     
  0.68750000000000000        3.1250000000000000E-002   0.0000000000000000     
  0.71875000000000000        3.1250000000000000E-002   0.0000000000000000     
  0.75000000000000000        3.1250000000000000E-002   0.0000000000000000     
  0.62500000000000000        6.2500000000000000E-002   0.0000000000000000     
  0.65625000000000000        6.2500000000000000E-002   0.0000000000000000     
  0.68750000000000000        6.2500000000000000E-002   0.0000000000000000     
  0.71875000000000000        6.2500000000000000E-002   0.0000000000000000     
  0.75000000000000000        6.2500000000000000E-002   0.0000000000000000     
  0.62500000000000000        9.3750000000000000E-002   0.0000000000000000     
  0.65625000000000000        9.3750000000000000E-002   0.0000000000000000     
  0.68750000000000000        9.3750000000000000E-002   0.0000000000000000     
  0.71875000000000000        9.3750000000000000E-002   0.0000000000000000     
  0.75000000000000000        9.3750000000000000E-002   0.0000000000000000     
  0.62500000000000000       0.12500000000000000        0.0000000000000000     
  0.65625000000000000       0.12500000000000000        0.0000000000000000     
  0.68750000000000000       0.12500000000000000        0.0000000000000000     
  0.71875000000000000       0.12500000000000000        0.0000000000000000     
  0.75000000000000000       0.12500000000000000        0.0000000000000000     
  0.75000000000000000        0.0000000000000000        0.0000000000000000     
  0.78125000000000000        0.0000000000000000        0.0000000000000000     
  0.81250000000000000        0.0000000000000000        0.0000000000000000     
  0.84375000000000000        0.0000000000000000        0.0000000000000000     
  0.87500000000000000        0.0000000000000000        0.0000000000000000     
  0.75000000000000000        3.1250000000000000E-002   0.0000000000000000     
  0.78125000000000000        3.1250000000000000E-002   0.0000000000000000     
  0.81250000000000000        3.1250000000000000E-002   0.0000000000000000     
  0.84375000000000000        3.1250000000000000E-002   0.0000000000000000     
  0.87500000000000000        3.1250000000000000E-002   0.0000000000000000     
  0.75000000000000000        6.2500000000000000E-002   0.0000000000000000     
  0.78125000000000000        6.2500000000000000E-002   0.0000000000000000     
  0.81250000000000000        6.2500000000000000E-002   0.0000000000000000     
  0.84375000000000000        6.2500000000000000E-002   0.0000000000000000     
  0.87500000000000000        6.2500000000000000E-002   0.0000000000000000     
  0.75000000000000000        9.3750000000000000E-002   0.0000000000000000     
  0.78125000000000000        9.3750000000000000E-002   0.0000000000000000     
  0.81250000000000000        9.3750000000000000E-002   0.0000000000000000     
  0.84375000000000000        9.3750000000000000E-002   0.0000000000000000     
  0.87500000000000000        9.3750000000000000E-002   0.0000000000000000     
  0.75000000000000000       0.12500000000000000        0.0000000000000000     
  0.78125000000000000       0.12500000000000000        0.0000000000000000     
  0.81250000000000000       0.12500000000000000        0.0000000000000000     
  0.84375000000000000       0.12500000000000000        0.0000000000000000     
  0.87500000000000000       0.12500000000000000        0.0000000000000000     
  0.87500000000000000        0.0000000000000000        0.0000000000000000     
  0.90625000000000000        0.0000000000000000        0.0000000000000000     
  0.93750000000000000        0.0000000000000000        0.0000000000000000     
  0.96875000000000000        0.0000000000000000        0.0000000000000000     
   1.0000000000000000        0.0000000000000000        0.0000000000000000     
  0.87500000000000000        3.1250000000000000E-002   0.0000000000000000     
  0.90625000000000000        3.1250000000000000E-002   0.0000000000000000     
  0.93750000000000000        3.1250000000000000E-002   0.0000000000000000     
  0.96875000000000000        3.1250000000000000E-002   0.0000000000000000     
   1.0000000000000000        3.1250000000000000E-002   0.0000000000000000     
  0.87500000000000000        6.2500000000000000E-002   0.0000000000000000     
  0.90625000000000000        6.2500000000000000E-002   0.0000000000000000     
  0.93750000000000000        6.2500000000000000E-002   0.0000000000000000     
  0.96875000000000000        6.2500000000000000E-002   0.0000000000000000     
   1.0000000000000000        6.2500000000000000E-002   0.0000000000000000     
  0.87500000000000000        9.3750000000000000E-002   0.0000000000000000     
  0.90625000000000000        9.3750000000000000E-002   0.0000000000000000     
  0.93750000000000000        9.3750000000000000E-002   0.0000000000000000     
  0.96875000000000000        9.3750000000000000E-002   0.0000000000000000     
   1.0000000000000000        9.3750000000000000E-002   0.0000000000000000     
  0.87500000000000000       0.12500000000000000        0.0000000000000000     
  0.90625000000000000       0.12500000000000000        0.0000000000000000     
  0.93750000000000000       0.12500000000000000        0.0000000000000000     
  0.96875000000000000       0.12500000000000000        0.0000000000000000     
   1.0000000000000000       0.12500000000000000        0.0000000000000000     
   1.0000000000000000        0.0000000000000000        0.0000000000000000     
   1.0312500000000000        0.0000000000000000        0.0000000000000000     
   1.0625000000000000        0.0000000000000000        0.0000000000000000     
   1.0937500000000000        0.0000000000000000        0.0000000000000000     
   1.1250000000000000        0.0000000000000000        0.0000000000000000     
   1.0000000000000000        3.1250000000000000E-002   0.0000000000000000     
   1.0312500000000000        3.1250000000000000E-002   0.0000000000000000     
   1.0625000000000000        3.1250000000000000E-002   0.0000000000000000     
   1.0937500000000000        3.1250000000000000E-002   0.0000000000000000     
   1.1250000000000000        3.1250000000000000E-002   0.0000000000000000     
   1.0000000000000000        6.2500000000000000E-002   0.0000000000000000     
   1.0312500000000000        6.2500000000000000E-002   0.0000000000000000     
   1.0625000000000000        6.2500000000000000E-002   0.0000000000000000     
   1.0937500000000000        6.2500000000000000E-002   0.0000000000000000     
   1.1250000000000000        6.2500000000000000E-002   0.0000000000000000     
   1.0000000000000000        9.3750000000000000E-002   0.0000000000000000     
   1.0312500000000000        9.3750000000000000E-002   0.0000000000000000     
   1.0625000000000000        9.3750000000000000E-002   0.0000000000000000     
   1.0937500000000000        9.3750000000000000E-002   0.0000000000000000     
   1.1250000000000000        9.3750000000000000E-002   0.0000000000000000     
   1.0000000000000000       0.12500000000000000        0.0000000000000000     
   1.0312500000000000       0.12500000000000000        0.0000000000000000     
   1.0625000000000000       0.12500000000000000        0.0000000000000000     
   1.0937500000000000       0.12500000000000000        0.0000000000000000     
   1.1250000000000000       0.12500000000000000        0.0000000000000000     
   1.1250000000000000        0.0000000000000000        0.0000000000000000     
   1.1562500000000000        0.0000000000000000        0.0000000000000000     
   1.1875000000000000        0.0000000000000000        0.0000000000000000     
   1.2187500000000000        0.0000000000000000        0.0000000000000000     
   1.2500000000000000        0.0000000000000000        0.0000000000000000     
   1.1250000000000000        3.1250000000000000E-002   0.0000000000000000     
   1.1562500000000000        3.1250000000000000E-002   0.0000000000000000     
   1.1875000000000000        3.1250000000000000E-002   0.0000000000000000     
   1.2187500000000000        3.1250000000000000E-002   0.0000000000000000     
   1.2500000000000000        3.1250000000000000E-002   0.0000000000000000     
   1.1250000000000000        6.2500000000000000E-002   0.0000000000000000     
   1.1562500000000000        6.2500000000000000E-002   0.0000000000000000     
   1.1875000000000000        6.2500000000000000E-002   0.0000000000000000     
   1.2187500000000000        6.2500000000000000E-002   0.0000000000000000     
   1.2500000000000000        6.2500000000000000E-002   0.0000000000000000     
   1.1250000000000000        9.3750000000000000E-002   0.0000000000000000     
   1.1562500000000000        9.3750000000000000E-002   0.0000000000000000     
   1.1875000000000000        9.3750000000000000E-002   0.0000000000000000     
   1.2187500000000000        9.3750000000000000E-002   0.0000000000000000     
   1.2500000000000000        9.3750000000000000E-002   0.0000000000000000     
   1.1250000000000000       0.12500000000000000        0.0000000000000000     
   1.1562500000000000       0.12500000000000000        0.0000000000000000     
   1.1875000000000000       0.12500000000000000        0.0000000000000000     
   1.2187500000000000       0.12500000000000000        0.0000000000000000     
   1.2500000000000000       0.12500000000000000        0.0000000000000000     
   1.2500000000000000        0.0000000000000000        0.0000000000000000     
   1.2812500000000000        0.0000000000000000        0.0000000000000000     
   1.3125000000000000        0.0000000000000000        0.0000000000000000     
   1.3437500000000000        0.0000000000000000        0.0000000000000000     
   1.3750000000000000        0.0000000000000000        0.0000000000000000     
   1.2500000000000000        3.1250000000000000E-002   0.0000000000000000     
   1.2812500000000000        3.1250000000000000E-002   0.0000000000000000     
   1.3125000000000000        3.1250000000000000E-002   0.0000000000000000     
   1.3437500000000000        3.1250000000000000E-002   0.0000000000000000     
   1.3750000000000000        3.1250000000000000E-002   0.0000000000000000     
   1.2500000000000000        6.2500000000000000E-002   0.0000000000000000     
   1.2812500000000000        6.2500000000000000E-002   0.0000000000000000     
   1.3125000000000000        6.2500000000000000E-002   0.0000000000000000     
   1.3437500000000000        6.2500000000000000E-002   0.0000000000000000     
   1.3750000000000000        6.2500000000000000E-002   0.0000000000000000     
   1.2500000000000000        9.3750000000000000E-002   0.0000000000000000     
   1.2812500000000000        9.3750000000000000E-002   0.0000000000000000     
   1.3125000000000000        9.3750000000000000E-002   0.0000000000000000     
   1.3437500000000000        9.3750000000000000E-002   0.0000000000000000     
   1.3750000000000000        9.3750000000000000E-002   0.0000000000000000     
   1.2500000000000000       0.12500000000000000        0.0000000000000000     
   1.2812500000000000       0.12500000000000000        0.0000000000000000     
   1.3125000000000000       0.12500000000000000        0.0000000000000000     
   1.3437500000000000       0.12500000000000000        0.0000000000000000     
   1.3750000000000000       0.12500000000000000        0.0000000000000000     
   1.3750000000000000        0.0000000000000000        0.0000000000000000     
   1.4062500000000000        0.0000000000000000        0.0000000000000000     
   1.4375000000000000        0.0000000000000000        0.0000000000000000     
   1.4687500000000000        0.0000000000000000        0.0000000000000000     
   1.5000000000000000        0.0000000000000000        0.0000000000000000     
   1.3750000000000000        3.1250000000000000E-002   0.0000000000000000     
   1.4062500000000000        3.1250000000000000E-002   0.0000000000000000     
   1.4375000000000000        3.1250000000000000E-002   0.0000000000000000     
   1.4687500000000000        3.1250000000000000E-002   0.0000000000000000     
   1.5000000000000000        3.1250000000000000E-002   0.0000000000000000     
   1.3750000000000000        6.2500000000000000E-002   0.0000000000000000     
   1.4062500000000000        6.2500000000000000E-002   0.0000000000000000     
   1.4375000000000000        6.2500000000000000E-002   0.0000000000000000     
   1.4687500000000000        6.2500000000000000E-002   0.0000000000000000     
   1.5000000000000000        6.2500000000000000E-002   0.0000000000000000     
   1.3750000000000000        9.3750000000000000E-002   0.0000000000000000     
   1.4062500000000000        9.3750000000000000E-002   0.0000000000000000     
   1.4375000000000000        9.3750000000000000E-002   0.0000000000000000     
   1.4687500000000000        9.3750000000000000E-002   0.0000000000000000     
   1.5000000000000000        9.3750000000000000E-002   0.0000000000000000     
   1.3750000000000000       0.12500000000000000        0.0000000000000000     
   1.4062500000000000       0.12500000000000000        0.0000000000000000     
   1.4375000000000000       0.12500000000000000        0.0000000000000000     
   1.4687500000000000       0.12500000000000000        0.0000000000000000     
   1.5000000000000000       0.12500000000000000        0.0000000000000000     
  0.50000000000000000       0.12500000000000000        0.0000000000000000     
  0.53125000000000000       0.12500000000000000        0.0000000000000000     
  0.56250000000000000       0.12500000000000000        0.0000000000000000     
  0.59375000000000000       0.12500000000000000        0.0000000000000000     
  0.62500000000000000       0.12500000000000000        0.0000000000000000     
  0.50000000000000000       0.15625000000000000        0.0000000000000000     
  0.53125000000000000       0.15625000000000000        0.0000000000000000     
  0.56250000000000000       0.15625000000000000        0.0000000000000000     
  0.59375000000000000       0.15625000000000000        0.0000000000000000     
  0.62500000000000000       0.15625000000000000        0.0000000000000000     
  0.50000000000000000       0.18750000000000000        0.0000000000000000     
  0.53125000000000000       0.18750000000000000        0.0000000000000000     
  0.56250000000000000       0.18750000000000000        0.0000000000000000     
  0.59375000000000000       0.18750000000000000        0.0000000000000000     
  0.62500000000000000       0.18750000000000000        0.0000000000000000     
  0.50000000000000000       0.21875000000000000        0.0000000000000000     
  0.53125000000000000       0.21875000000000000        0.0000000000000000     
  0.56250000000000000       0.21875000000000000        0.0000000000000000     
  0.59375000000000000       0.21875000000000000        0.0000000000000000     
  0.62500000000000000       0.21875000000000000        0.0000000000000000     
  0.50000000000000000       0.25000000000000000        0.0000000000000000     
  0.53125000000000000       0.25000000000000000        0.0000000000000000     
  0.56250000000000000       0.25000000000000000        0.0000000000000000     
  0.59375000000000000       0.25000000000000000        0.0000000000000000     
  0.62500000000000000       0.25000000000000000        0.0000000000000000     
  0.62500000000000000       0.12500000000000000        0.0000000000000000     
  0.65625000000000000       0.12500000000000000        0.0000000000000000     
  0.68750000000000000       0.12500000000000000        0.0000000000000000     
  0.71875000000000000       0.12500000000000000        0.0000000000000000     
  0.75000000000000000       0.12500000000000000        0.0000000000000000     
  0.62500000000000000       0.15625000000000000        0.0000000000000000     
  0.65625000000000000       0.15625000000000000        0.0000000000000000     
  0.68750000000000000       0.15625000000000000        0.0000000000000000     
  0.71875000000000000       0.15625000000000000        0.0000000000000000     
  0.75000000000000000       0.15625000000000000        0.0000000000000000     
  0.62500000000000000       0.18750000000000000        0.0000000000000000     
  0.65625000000000000       0.18750000000000000        0.0000000000000000     
  0.68750000000000000       0.18750000000000000        0.0000000000000000     
  0.71875000000000000       0.18750000000000000        0.0000000000000000     
  0.75000000000000000       0.18750000000000000        0.0000000000000000     
  0.62500000000000000       0.21875000000000000        0.0000000000000000     
  0.65625000000000000       0.21875000000000000        0.0000000000000000     
  0.68750000000000000       0.21875000000000000        0.0000000000000000     
  0.71875000000000000       0.21875000000000000        0.0000000000000000     
  0.75000000000000000       0.21875000000000000        0.0000000000000000     
  0.62500000000000000       0.25000000000000000        0.0000000000000000     
  0.65625000000000000       0.25000000000000000        0.0000000000000000     
  0.68750000000000000       0.25000000000000000        0.0000000000000000     
  0.71875000000000000       0.25000000000000000        0.0000000000000000     
  0.75000000000000000       0.25000000000000000        0.0000000000000000     
  0.75000000000000000       0.12500000000000000        0.0000000000000000     
  0.78125000000000000       0.12500000000000000        0.0000000000000000     
  0.81250000000000000       0.12500000000000000        0.0000000000000000     
  0.84375000000000000       0.12500000000000000        0.0000000000000000     
  0.87500000000000000       0.12500000000000000        0.0000000000000000     
  0.75000000000000000       0.15625000000000000        0.0000000000000000     
  0.78125000000000000       0.15625000000000000        0.0000000000000000     
  0.81250000000000000       0.15625000000000000        0.0000000000000000     
  0.84375000000000000       0.15625000000000000        0.0000000000000000     
  0.87500000000000000       0.15625000000000000        0.0000000000000000     
  0.75000000000000000       0.18750000000000000        0.0000000000000000     
  0.78125000000000000       0.18750000000000000        0.0000000000000000     
  0.81250000000000000       0.18750000000000000        0.0000000000000000     
  0.84375000000000000       0.18750000000000000        0.0000000000000000     
  0.87500000000000000       0.18750000000000000        0.0000000000000000     
  0.75000000000000000       0.21875000000000000        0.0000000000000000     
  0.78125000000000000       0.21875000000000000        0.0000000000000000     
  0.81250000000000000       0.21875000000000000        0.0000000000000000     
  0.84375000000000000       0.21875000000000000        0.0000000000000000     
  0.87500000000000000       0.21875000000000000        0.0000000000000000     
  0.75000000000000000       0.25000000000000000        0.0000000000000000     
  0.78125000000000000       0.25000000000000000        0.0000000000000000     
  0.81250000000000000       0.25000000000000000        0.0000000000000000     
  0.84375000000000000       0.25000000000000000        0.0000000000000000     
  0.87500000000000000       0.25000000000000000        0.0000000000000000     
  0.87500000000000000       0.12500000000000000        0.0000000000000000     
  0.90625000000000000       0.12500000000000000        0.0000000000000000     
  0.93750000000000000       0.12500000000000000        0.0000000000000000     
  0.96875000000000000       0.12500000000000000        0.0000000000000000     
   1.0000000000000000       0.12500000000000000        0.0000000000000000     
  0.87500000000000000       0.15625000000000000        0.0000000000000000     
  0.90625000000000000       0.15625000000000000        0.0000000000000000     
  0.93750000000000000       0.15625000000000000        0.0000000000000000     
  0.96875000000000000       0.15625000000000000        0.0000000000000000     
   1.0000000000000000       0.15625000000000000        0.0000000000000000     
  0.87500000000000000       0.18750000000000000        0.0000000000000000     
  0.90625000000000000       0.18750000000000000        0.0000000000000000     
  0.93750000000000000       0.18750000000000000        0.0000000000000000     
  0.96875000000000000       0.18750000000000000        0.0000000000000000     
   1.0000000000000000       0.18750000000000000        0.0000000000000000     
  0.87500000000000000       0.21875000000000000        0.0000000000000000     
  0.90625000000000000       0.21875000000000000        0.0000000000000000     
  0.93750000000000000       0.21875000000000000        0.0000000000000000     
  0.96875000000000000       0.21875000000000000        0.0000000000000000     
   1.0000000000000000       0.21875000000000000        0.0000000000000000     
  0.87500000000000000       0.25000000000000000        0.0000000000000000     
  0.90625000000000000       0.25000000000000000        0.0000000000000000     
  0.93750000000000000       0.25000000000000000        0.0000000000000000     
  0.96875000000000000       0.25000000000000000        0.0000000000000000     
   1.0000000000000000       0.25000000000000000        0.0000000000000000     
   1.0000000000000000       0.12500000000000000        0.0000000000000000     
   1.0312500000000000       0.12500000000000000        0.0000000000000000     
   1.0625000000000000       0.12500000000000000        0.0000000000000000     
   1.0937500000000000       0.12500000000000000        0.0000000000000000     
   1.1250000000000000       0.12500000000000000        0.0000000000000000     
   1.0000000000000000       0.15625000000000000        0.0000000000000000     
   1.0312500000000000       0.15625000000000000        0.0000000000000000     
   1.0625000000000000       0.15625000000000000        0.0000000000000000     
   1.0937500000000000       0.15625000000000000        0.0000000000000000     
   1.1250000000000000       0.15625000000000000        0.0000000000000000     
   1.0000000000000000       0.18750000000000000        0.0000000000000000     
   1.0312500000000000       0.18750000000000000        0.0000000000000000     
   1.0625000000000000       0.18750000000000000        0.0000000000000000     
   1.0937500000000000       0.18750000000000000        0.0000000000000000     
   1.1250000000000000       0.18750000000000000        0.0000000000000000     
   1.0000000000000000       0.21875000000000000        0.0000000000000000     
   1.0312500000000000       0.21875000000000000        0.0000000000000000     
   1.0625000000000000       0.21875000000000000        0.0000000000000000     
   1.0937500000000000       0.21875000000000000        0.0000000000000000     
   1.1250000000000000       0.21875000000000000        0.0000000000000000     
   1.0000000000000000       0.25000000000000000        0.0000000000000000     
   1.0312500000000000       0.25000000000000000        0.0000000000000000     
   1.0625000000000000       0.25000000000000000        0.0000000000000000     
   1.0937500000000000       0.25000000000000000        0.0000000000000000     
   1.1250000000000000       0.25000000000000000        0.0000000000000000     
   1.1250000000000000       0.12500000000000000        0.0000000000000000     
   1.1562500000000000       0.12500000000000000        0.0000000000000000     
   1.1875000000000000       0.12500000000000000        0.0000000000000000     
   1.2187500000000000       0.12500000000000000        0.0000000000000000     
   1.2500000000000000       0.12500000000000000        0.0000000000000000     
   1.1250000000000000       0.15625000000000000        0.0000000000000000     
   1.1562500000000000       0.15625000000000000        0.0000000000000000     
   1.1875000000000000       0.15625000000000000        0.0000000000000000     
   1.2187500000000000       0.15625000000000000        0.0000000000000000     
   1.2500000000000000       0.15625000000000000        0.0000000000000000     
   1.1250000000000000       0.18750000000000000        0.0000000000000000     
   1.1562500000000000       0.18750000000000000        0.0000000000000000     
   1.1875000000000000       0.18750000000000000        0.0000000000000000     
   1.2187500000000000       0.18750000000000000        0.0000000000000000     
   1.2500000000000000       0.18750000000000000        0.0000000000000000     
   1.1250000000000000       0.21875000000000000        0.0000000000000000     
   1.1562500000000000       0.21875000000000000        0.0000000000000000     
   1.1875000000000000       0.21875000000000000        0.0000000000000000     
   1.2187500000000000       0.21875000000000000        0.0000000000000000     
   1.2500000000000000       0.21875000000000000        0.0000000000000000     
   1.1250000000000000       0.25000000000000000        0.0000000000000000     
   1.1562500000000000       0.25000000000000000        0.0000000000000000     
   1.1875000000000000       0.25000000000000000        0.0000000000000000     
   1.2187500000000000       0.25000000000000000        0.0000000000000000     
   1.2500000000000000       0.25000000000000000        0.0000000000000000     
   1.2500000000000000       0.12500000000000000        0.0000000000000000     
   1.2812500000000000       0.12500000000000000        0.0000000000000000     
   1.3125000000000000       0.12500000000000000        0.0000000000000000     
   1.3437500000000000       0.12500000000000000        0.0000000000000000     
   1.3750000000000000       0.12500000000000000        0.0000000000000000     
   1.2500000000000000       0.15625000000000000        0.0000000000000000     
   1.2812500000000000       0.15625000000000000        0.0000000000000000     
   1.3125000000000000       0.15625000000000000        0.0000000000000000     
   1.3437500000000000       0.15625000000000000        0.0000000000000000     
   1.3750000000000000       0.15625000000000000        0.0000000000000000     
   1.2500000000000000       0.18750000000000000        0.0000000000000000     
   1.2812500000000000       0.18750000000000000        0.0000000000000000     
   1.3125000000000000       0.18750000000000000        0.0000000000000000     
   1.3437500000000000       0.18750000000000000        0.0000000000000000     
   1.3750000000000000       0.18750000000000000        0.0000000000000000     
   1.2500000000000000       0.21875000000000000        0.0000000000000000     
   1.2812500000000000       0.21875000000000000        0.0000000000000000     
   1.3125000000000000       0.21875000000000000        0.0000000000000000     
   1.3437500000000000       0.21875000000000000        0.0000000000000000     
   1.3750000000000000       0.21875000000000000        0.0000000000000000     
   1.2500000000000000       0.25000000000000000        0.0000000000000000     
   1.2812500000000000       0.25000000000000000        0.0000000000000000     
   1.3125000000000000       0.25000000000000000        0.0000000000000000     
   1.3437500000000000       0.25000000000000000        0.0000000000000000     
   1.3750000000000000       0.25000000000000000        0.0000000000000000     
   1.3750000000000000       0.12500000000000000        0.0000000000000000     
   1.4062500000000000       0.12500000000000000        0.0000000000000000     
   1.4375000000000000       0.12500000000000000        0.0000000000000000     
   1.4687500000000000       0.12500000000000000        0.0000000000000000     
   1.5000000000000000       0.12500000000000000        0.0000000000000000     
   1.3750000000000000       0.15625000000000000        0.0000000000000000     
   1.4062500000000000       0.15625000000000000        0.0000000000000000     
   1.4375000000000000       0.15625000000000000        0.0000000000000000     
   1.4687500000000000       0.15625000000000000        0.0000000000000000     
   1.5000000000000000       0.15625000000000000        0.0000000000000000     
   1.3750000000000000       0.18750000000000000        0.0000000000000000     
   1.4062500000000000       0.18750000000000000        0.0000000000000000     
   1.4375000000000000       0.18750000000000000        0.0000000000000000     
   1.4687500000000000       0.18750000000000000        0.0000000000000000     
   1.5000000000000000       0.18750000000000000        0.0000000000000000     
   1.3750000000000000       0.21875000000000000        0.0000000000000000     
   1.4062500000000000       0.21875000000000000        0.0000000000000000     
   1.4375000000000000       0.21875000000000000        0.0000000000000000     
   1.4687500000000000       0.21875000000000000        0.0000000000000000     
   1.5000000000000000       0.21875000000000000        0.0000000000000000     
   1.3750000000000000       0.25000000000000000        0.0000000000000000     
   1.4062500000000000       0.25000000000000000        0.0000000000000000     
   1.4375000000000000       0.25000000000000000        0.0000000000000000     
   1.4687500000000000       0.25000000000000000        0.0000000000000000     
   1.5000000000000000       0.25000000000000000        0.0000000000000000     
  0.50000000000000000       0.25000000000000000        0.0000000000000000     
  0.53125000000000000       0.25000000000000000        0.0000000000000000     
  0.56250000000000000       0.25000000000000000        0.0000000000000000     
  0.59375000000000000       0.25000000000000000        0.0000000000000000     
  0.62500000000000000       0.25000000000000000        0.0000000000000000     
  0.50000000000000000       0.28125000000000000        0.0000000000000000     
  0.53125000000000000       0.28125000000000000        0.0000000000000000     
  0.56250000000000000       0.28125000000000000        0.0000000000000000     
  0.59375000000000000       0.28125000000000000        0.0000000000000000     
  0.62500000000000000       0.28125000000000000        0.0000000000000000     
  0.50000000000000000       0.31250000000000000        0.0000000000000000     
  0.53125000000000000       0.31250000000000000        0.0000000000000000     
  0.56250000000000000       0.31250000000000000        0.0000000000000000     
  0.59375000000000000       0.31250000000000000        0.0000000000000000     
  0.62500000000000000       0.31250000000000000        0.0000000000000000     
  0.50000000000000000       0.34375000000000000        0.0000000000000000     
  0.53125000000000000       0.34375000000000000        0.0000000000000000     
  0.56250000000000000       0.34375000000000000        0.0000000000000000     
  0.59375000000000000       0.34375000000000000        0.0000000000000000     
  0.62500000000000000       0.34375000000000000        0.0000000000000000     
  0.50000000000000000       0.37500000000000000        0.0000000000000000     
  0.53125000000000000       0.37500000000000000        0.0000000000000000     
  0.56250000000000000       0.37500000000000000        0.0000000000000000     
  0.59375000000000000       0.37500000000000000        0.0000000000000000     
  0.62500000000000000       0.37500000000000000        0.0000000000000000     
  0.62500000000000000       0.25000000000000000        0.0000000000000000     
  0.65625000000000000       0.25000000000000000        0.0000000000000000     
  0.68750000000000000       0.25000000000000000        0.0000000000000000     
  0.71875000000000000       0.25000000000000000        0.0000000000000000     
  0.75000000000000000       0.25000000000000000        0.0000000000000000     
  0.62500000000000000       0.28125000000000000        0.0000000000000000     
  0.65625000000000000       0.28125000000000000        0.0000000000000000     
  0.68750000000000000       0.28125000000000000        0.0000000000000000     
  0.71875000000000000       0.28125000000000000        0.0000000000000000     
  0.75000000000000000       0.28125000000000000        0.0000000000000000     
  0.62500000000000000       0.31250000000000000        0.0000000000000000     
  0.65625000000000000       0.31250000000000000        0.0000000000000000     
  0.68750000000000000       0.31250000000000000        0.0000000000000000     
  0.71875000000000000       0.31250000000000000        0.0000000000000000     
  0.75000000000000000       0.31250000000000000        0.0000000000000000     
  0.62500000000000000       0.34375000000000000        0.0000000000000000     
  0.65625000000000000       0.34375000000000000        0.0000000000000000     
  0.68750000000000000       0.34375000000000000        0.0000000000000000     
  0.71875000000000000       0.34375000000000000        0.0000000000000000     
  0.75000000000000000       0.34375000000000000        0.0000000000000000     
  0.62500000000000000       0.37500000000000000        0.0000000000000000     
  0.65625000000000000       0.37500000000000000        0.0000000000000000     
  0.68750000000000000       0.37500000000000000        0.0000000000000000     
  0.71875000000000000       0.37500000000000000        0.0000000000000000     
  0.75000000000000000       0.37500000000000000        0.0000000000000000     
  0.75000000000000000       0.25000000000000000        0.0000000000000000     
  0.78125000000000000       0.25000000000000000        0.0000000000000000     
  0.81250000000000000       0.25000000000000000        0.0000000000000000     
  0.84375000000000000       0.25000000000000000        0.0000000000000000     
  0.87500000000000000       0.25000000000000000        0.0000000000000000     
  0.75000000000000000       0.28125000000000000        0.0000000000000000     
  0.78125000000000000       0.28125000000000000        0.0000000000000000     
  0.81250000000000000       0.28125000000000000        0.0000000000000000     
  0.84375000000000000       0.28125000000000000        0.0000000000000000     
  0.87500000000000000       0.28125000000000000        0.0000000000000000     
  0.75000000000000000       0.31250000000000000        0.0000000000000000     
  0.78125000000000000       0.31250000000000000        0.0000000000000000     
  0.81250000000000000       0.31250000000000000        0.0000000000000000     
  0.84375000000000000       0.31250000000000000        0.0000000000000000     
  0.87500000000000000       0.31250000000000000        0.0000000000000000     
  0.75000000000000000       0.34375000000000000        0.0000000000000000     
  0.78125000000000000       0.34375000000000000        0.0000000000000000     
  0.81250000000000000       0.34375000000000000        0.0000000000000000     
  0.84375000000000000       0.34375000000000000        0.0000000000000000     
  0.87500000000000000       0.34375000000000000        0.0000000000000000     
  0.75000000000000000       0.37500000000000000        0.0000000000000000     
  0.78125000000000000       0.37500000000000000        0.0000000000000000     
  0.81250000000000000       0.37500000000000000        0.0000000000000000     
  0.84375000000000000       0.37500000000000000        0.0000000000000000     
  0.87500000000000000       0.37500000000000000        0.0000000000000000     
  0.87500000000000000       0.25000000000000000        0.0000000000000000     
  0.90625000000000000       0.25000000000000000        0.0000000000000000     
  0.93750000000000000       0.25000000000000000        0.0000000000000000     
  0.96875000000000000       0.25000000000000000        0.0000000000000000     
   1.0000000000000000       0.25000000000000000        0.0000000000000000     
  0.87500000000000000       0.28125000000000000        0.0000000000000000     
  0.90625000000000000       0.28125000000000000        0.0000000000000000     
  0.93750000000000000       0.28125000000000000        0.0000000000000000     
  0.96875000000000000       0.28125000000000000        0.0000000000000000     
   1.0000000000000000       0.28125000000000000        0.0000000000000000     
  0.87500000000000000       0.31250000000000000        0.0000000000000000     
  0.90625000000000000       0.31250000000000000        0.0000000000000000     
  0.93750000000000000       0.31250000000000000        0.0000000000000000     
  0.96875000000000000       0.31250000000000000        0.0000000000000000     
   1.0000000000000000       0.31250000000000000        0.0000000000000000     
  0.87500000000000000       0.34375000000000000        0.0000000000000000     
  0.90625000000000000       0.34375000000000000        0.0000000000000000     
  0.93750000000000000       0.34375000000000000        0.0000000000000000     
  0.96875000000000000       0.34375000000000000        0.0000000000000000     
   1.0000000000000000       0.34375000000000000        0.0000000000000000     
  0.87500000000000000       0.37500000000000000        0.0000000000000000     
  0.90625000000000000       0.37500000000000000        0.0000000000000000     
  0.93750000000000000       0.37500000000000000        0.0000000000000000     
  0.96875000000000000       0.37500000000000000        0.0000000000000000     
   1.0000000000000000       0.37500000000000000        0.0000000000000000     
   1.0000000000000000       0.25000000000000000        0.0000000000000000     
   1.0312500000000000       0.25000000000000000        0.0000000000000000     
   1.0625000000000000       0.25000000000000000        0.0000000000000000     
   1.0937500000000000       0.25000000000000000        0.0000000000000000     
   1.1250000000000000       0.25000000000000000        0.0000000000000000     
   1.0000000000000000       0.28125000000000000        0.0000000000000000     
   1.0312500000000000       0.28125000000000000        0.0000000000000000     
   1.0625000000000000       0.28125000000000000        0.0000000000000000     
   1.0937500000000000       0.28125000000000000        0.0000000000000000     
   1.1250000000000000       0.28125000000000000        0.0000000000000000     
   1.0000000000000000       0.31250000000000000        0.0000000000000000     
   1.0312500000000000       0.31250000000000000        0.0000000000000000     
   1.0625000000000000       0.31250000000000000        0.0000000000000000     
   1.0937500000000000       0.31250000000000000        0.0000000000000000     
   1.1250000000000000       0.31250000000000000        0.0000000000000000     
   1.0000000000000000       0.34375000000000000        0.0000000000000000     
   1.0312500000000000       0.34375000000000000        0.0000000000000000     
   1.0625000000000000       0.34375000000000000        0.0000000000000000     
   1.0937500000000000       0.34375000000000000        0.0000000000000000     
   1.1250000000000000       0.34375000000000000        0.0000000000000000     
   1.0000000000000000       0.37500000000000000        0.0000000000000000     
   1.0312500000000000       0.37500000000000000        0.0000000000000000     
   1.0625000000000000       0.37500000000000000        0.0000000000000000     
   1.0937500000000000       0.37500000000000000        0.0000000000000000     
   1.1250000000000000       0.37500000000000000        0.0000000000000000     
   1.1250000000000000       0.25000000000000000        0.0000000000000000     
   1.1562500000000000       0.25000000000000000        0.0000000000000000     
   1.1875000000000000       0.25000000000000000        0.0000000000000000     
   1.2187500000000000       0.25000000000000000        0.0000000000000000     
   1.2500000000000000       0.25000000000000000        0.0000000000000000     
   1.1250000000000000       0.28125000000000000        0.0000000000000000     
   1.1562500000000000       0.28125000000000000        0.0000000000000000     
   1.1875000000000000       0.28125000000000000        0.0000000000000000     
   1.2187500000000000       0.28125000000000000        0.0000000000000000     
   1.2500000000000000       0.28125000000000000        0.0000000000000000     
   1.1250000000000000       0.31250000000000000        0.0000000000000000     
   1.1562500000000000       0.31250000000000000        0.0000000000000000     
   1.1875000000000000       0.31250000000000000        0.0000000000000000     
   1.2187500000000000       0.31250000000000000        0.0000000000000000     
   1.2500000000000000       0.31250000000000000        0.0000000000000000     
   1.1250000000000000       0.34375000000000000        0.0000000000000000     
   1.1562500000000000       0.34375000000000000        0.0000000000000000     
   1.1875000000000000       0.34375000000000000        0.0000000000000000     
   1.2187500000000000       0.34375000000000000        0.0000000000000000     
   1.2500000000000000       0.34375000000000000        0.0000000000000000     
   1.1250000000000000       0.37500000000000000        0.0000000000000000     
   1.1562500000000000       0.37500000000000000        0.0000000000000000     
   1.1875000000000000       0.37500000000000000        0.0000000000000000     
   1.2187500000000000       0.37500000000000000        0.0000000000000000     
   1.2500000000000000       0.37500000000000000        0.0000000000000000     
   1.2500000000000000       0.25000000000000000        0.0000000000000000     
   1.2812500000000000       0.25000000000000000        0.0000000000000000     
   1.3125000000000000       0.25000000000000000        0.0000000000000000     
   1.3437500000000000       0.25000000000000000        0.0000000000000000     
   1.3750000000000000       0.25000000000000000        0.0000000000000000     
   1.2500000000000000       0.28125000000000000        0.0000000000000000     
   1.2812500000000000       0.28125000000000000        0.0000000000000000     
   1.3125000000000000       0.28125000000000000        0.0000000000000000     
   1.3437500000000000       0.28125000000000000        0.0000000000000000     
   1.3750000000000000       0.28125000000000000        0.0000000000000000     
   1.2500000000000000       0.31250000000000000        0.0000000000000000     
   1.2812500000000000       0.31250000000000000        0.0000000000000000     
   1.3125000000000000       0.31250000000000000        0.0000000000000000     
   1.3437500000000000       0.31250000000000000        0.0000000000000000     
   1.3750000000000000       0.31250000000000000        0.0000000000000000     
   1.2500000000000000       0.34375000000000000        0.0000000000000000     
   1.2812500000000000       0.34375000000000000        0.0000000000000000     
   1.3125000000000000       0.34375000000000000        0.0000000000000000     
   1.3437500000000000       0.34375000000000000        0.0000000000000000     
   1.3750000000000000       0.34375000000000000        0.0000000000000000     
   1.2500000000000000       0.37500000000000000        0.0000000000000000     
   1.2812500000000000       0.37500000000000000        0.0000000000000000     
   1.3125000000000000       0.37500000000000000        0.0000000000000000     
   1.3437500000000000       0.37500000000000000        0.0000000000000000     
   1.3750000000000000       0.37500000000000000        0.0000000000000000     
   1.3750000000000000       0.25000000000000000        0.0000000000000000     
   1.4062500000000000       0.25000000000000000        0.0000000000000000     
   1.4375000000000000       0.25000000000000000        0.0000000000000000     
   1.4687500000000000       0.25000000000000000        0.0000000000000000     
   1.5000000000000000       0.25000000000000000        0.0000000000000000     
   1.3750000000000000       0.28125000000000000        0.0000000000000000     
   1.4062500000000000       0.28125000000000000        0.0000000000000000     
   1.4375000000000000       0.28125000000000000        0.0000000000000000     
   1.4687500000000000       0.28125000000000000        0.0000000000000000     
   1.5000000000000000       0.28125000000000000        0.0000000000000000     
   1.3750000000000000       0.31250000000000000        0.0000000000000000     
   1.4062500000000000       0.31250000000000000        0.0000000000000000     
   1.4375000000000000       0.31250000000000000        0.0000000000000000     
   1.4687500000000000       0.31250000000000000        0.0000000000000000     
   1.5000000000000000       0.31250000000000000        0.0000000000000000     
   1.3750000000000000       0.34375000000000000        0.0000000000000000     
   1.4062500000000000       0.34375000000000000        0.0000000000000000     
   1.4375000000000000       0.34375000000000000        0.0000000000000000     
   1.4687500000000000       0.34375000000000000        0.0000000000000000     
   1.5000000000000000       0.34375000000000000        0.0000000000000000     
   1.3750000000000000       0.37500000000000000        0.0000000000000000     
   1.4062500000000000       0.37500000000000000        0.0000000000000000     
   1.4375000000000000       0.37500000000000000        0.0000000000000000     
   1.4687500000000000       0.37500000000000000        0.0000000000000000     
   1.5000000000000000       0.37500000000000000        0.0000000000000000     
  0.50000000000000000       0.37500000000000000        0.0000000000000000     
  0.53125000000000000       0.37500000000000000        0.0000000000000000     
  0.56250000000000000       0.37500000000000000        0.0000000000000000     
  0.59375000000000000       0.37500000000000000        0.0000000000000000     
  0.62500000000000000       0.37500000000000000        0.0000000000000000     
  0.50000000000000000       0.40625000000000000        0.0000000000000000     
  0.53125000000000000       0.40625000000000000        0.0000000000000000     
  0.56250000000000000       0.40625000000000000        0.0000000000000000     
  0.59375000000000000       0.40625000000000000        0.0000000000000000     
  0.62500000000000000       0.40625000000000000        0.0000000000000000     
  0.50000000000000000       0.43750000000000000        0.0000000000000000     
  0.53125000000000000       0.43750000000000000        0.0000000000000000     
  0.56250000000000000       0.43750000000000000        0.0000000000000000     
  0.59375000000000000       0.43750000000000000        0.0000000000000000     
  0.62500000000000000       0.43750000000000000        0.0000000000000000     
  0.50000000000000000       0.46875000000000000        0.0000000000000000     
  0.53125000000000000       0.46875000000000000        0.0000000000000000     
  0.56250000000000000       0.46875000000000000        0.0000000000000000     
  0.59375000000000000       0.46875000000000000        0.0000000000000000     
  0.62500000000000000       0.46875000000000000        0.0000000000000000     
  0.50000000000000000       0.50000000000000000        0.0000000000000000     
  0.53125000000000000       0.50000000000000000        0.0000000000000000     
  0.56250000000000000       0.50000000000000000        0.0000000000000000     
  0.59375000000000000       0.50000000000000000        0.0000000000000000     
  0.62500000000000000       0.50000000000000000        0.0000000000000000     
  0.62500000000000000       0.37500000000000000        0.0000000000000000     
  0.65625000000000000       0.37500000000000000        0.0000000000000000     
  0.68750000000000000       0.37500000000000000        0.0000000000000000     
  0.71875000000000000       0.37500000000000000        0.0000000000000000     
  0.75000000000000000       0.37500000000000000        0.0000000000000000     
  0.62500000000000000       0.40625000000000000        0.0000000000000000     
  0.65625000000000000       0.40625000000000000        0.0000000000000000     
  0.68750000000000000       0.40625000000000000        0.0000000000000000     
  0.71875000000000000       0.40625000000000000        0.0000000000000000     
  0.75000000000000000       0.40625000000000000        0.0000000000000000     
  0.62500000000000000       0.43750000000000000        0.0000000000000000     
  0.65625000000000000       0.43750000000000000        0.0000000000000000     
  0.68750000000000000       0.43750000000000000        0.0000000000000000     
  0.71875000000000000       0.43750000000000000        0.0000000000000000     
  0.75000000000000000       0.43750000000000000        0.0000000000000000     
  0.62500000000000000       0.46875000000000000        0.0000000000000000     
  0.65625000000000000       0.46875000000000000        0.0000000000000000     
  0.68750000000000000       0.46875000000000000        0.0000000000000000     
  0.71875000000000000       0.46875000000000000        0.0000000000000000     
  0.75000000000000000       0.46875000000000000        0.0000000000000000     
  0.62500000000000000       0.50000000000000000        0.0000000000000000     
  0.65625000000000000       0.50000000000000000        0.0000000000000000     
  0.68750000000000000       0.50000000000000000        0.0000000000000000     
  0.71875000000000000       0.50000000000000000        0.0000000000000000     
  0.75000000000000000       0.50000000000000000        0.0000000000000000     
  0.75000000000000000       0.37500000000000000        0.0000000000000000     
  0.78125000000000000       0.37500000000000000        0.0000000000000000     
  0.81250000000000000       0.37500000000000000        0.0000000000000000     
  0.84375000000000000       0.37500000000000000        0.0000000000000000     
  0.87500000000000000       0.37500000000000000        0.0000000000000000     
  0.75000000000000000       0.40625000000000000        0.0000000000000000     
  0.78125000000000000       0.40625000000000000        0.0000000000000000     
  0.81250000000000000       0.40625000000000000        0.0000000000000000     
  0.84375000000000000       0.40625000000000000        0.0000000000000000     
  0.87500000000000000       0.40625000000000000        0.0000000000000000     
  0.75000000000000000       0.43750000000000000        0.0000000000000000     
  0.78125000000000000       0.43750000000000000        0.0000000000000000     
  0.81250000000000000       0.43750000000000000        0.0000000000000000     
  0.84375000000000000       0.43750000000000000        0.0000000000000000     
  0.87500000000000000       0.43750000000000000        0.0000000000000000     
  0.75000000000000000       0.46875000000000000        0.0000000000000000     
  0.78125000000000000       0.46875000000000000        0.0000000000000000     
  0.81250000000000000       0.46875000000000000        0.0000000000000000     
  0.84375000000000000       0.46875000000000000        0.0000000000000000     
  0.87500000000000000       0.46875000000000000        0.0000000000000000     
  0.75000000000000000       0.50000000000000000        0.0000000000000000     
  0.78125000000000000       0.50000000000000000        0.0000000000000000     
  0.81250000000000000       0.50000000000000000        0.0000000000000000     
  0.84375000000000000       0.50000000000000000        0.0000000000000000     
  0.87500000000000000       0.50000000000000000        0.0000000000000000     
  0.87500000000000000       0.37500000000000000        0.0000000000000000     
  0.90625000000000000       0.37500000000000000        0.0000000000000000     
  0.93750000000000000       0.37500000000000000        0.0000000000000000     
  0.96875000000000000       0.37500000000000000        0.0000000000000000     
   1.0000000000000000       0.37500000000000000        0.0000000000000000     
  0.87500000000000000       0.40625000000000000        0.0000000000000000     
  0.90625000000000000       0.40625000000000000        0.0000000000000000     
  0.93750000000000000       0.40625000000000000        0.0000000000000000     
  0.96875000000000000       0.40625000000000000        0.0000000000000000     
   1.0000000000000000       0.40625000000000000        0.0000000000000000     
  0.87500000000000000       0.43750000000000000        0.0000000000000000     
  0.90625000000000000       0.43750000000000000        0.0000000000000000     
  0.93750000000000000       0.43750000000000000        0.0000000000000000     
  0.96875000000000000       0.43750000000000000        0.0000000000000000     
   1.0000000000000000       0.43750000000000000        0.0000000000000000     
  0.87500000000000000       0.46875000000000000        0.0000000000000000     
  0.90625000000000000       0.46875000000000000        0.0000000000000000     
  0.93750000000000000       0.46875000000000000        0.0000000000000000     
  0.96875000000000000       0.46875000000000000        0.0000000000000000     
   1.0000000000000000       0.46875000000000000        0.0000000000000000     
  0.87500000000000000       0.50000000000000000        0.0000000000000000     
  0.90625000000000000       0.50000000000000000        0.0000000000000000     
  0.93750000000000000       0.50000000000000000        0.0000000000000000     
  0.96875000000000000       0.50000000000000000        0.0000000000000000     
   1.0000000000000000       0.50000000000000000        0.0000000000000000     
   1.0000000000000000       0.37500000000000000        0.0000000000000000     
   1.0312500000000000       0.37500000000000000        0.0000000000000000     
   1.0625000000000000       0.37500000000000000        0.0000000000000000     
   1.0937500000000000       0.37500000000000000        0.0000000000000000     
   1.1250000000000000       0.37500000000000000        0.0000000000000000     
   1.0000000000000000       0.40625000000000000        0.0000000000000000     
   1.0312500000000000       0.40625000000000000        0.0000000000000000     
   1.0625000000000000       0.40625000000000000        0.0000000000000000     
   1.0937500000000000       0.40625000000000000        0.0000000000000000     
   1.1250000000000000       0.40625000000000000        0.0000000000000000     
   1.0000000000000000       0.43750000000000000        0.0000000000000000     
   1.0312500000000000       0.43750000000000000        0.0000000000000000     
   1.0625000000000000       0.43750000000000000        0.0000000000000000     
   1.0937500000000000       0.43750000000000000        0.0000000000000000     
   1.1250000000000000       0.43750000000000000        0.0000000000000000     
   1.0000000000000000       0.46875000000000000        0.0000000000000000     
   1.0312500000000000       0.46875000000000000        0.0000000000000000     
   1.0625000000000000       0.46875000000000000        0.0000000000000000     
   1.0937500000000000       0.46875000000000000        0.0000000000000000     
   1.1250000000000000       0.46875000000000000        0.0000000000000000     
   1.0000000000000000       0.50000000000000000        0.0000000000000000     
   1.0312500000000000       0.50000000000000000        0.0000000000000000     
   1.0625000000000000       0.50000000000000000        0.0000000000000000     
   1.0937500000000000       0.50000000000000000        0.0000000000000000     
   1.1250000000000000       0.50000000000000000        0.0000000000000000     
   1.1250000000000000       0.37500000000000000        0.0000000000000000     
   1.1562500000000000       0.37500000000000000        0.0000000000000000     
   1.1875000000000000       0.37500000000000000        0.0000000000000000     
   1.2187500000000000       0.37500000000000000        0.0000000000000000     
   1.2500000000000000       0.37500000000000000        0.0000000000000000     
   1.1250000000000000       0.40625000000000000        0.0000000000000000     
   1.1562500000000000       0.40625000000000000        0.0000000000000000     
   1.1875000000000000       0.40625000000000000        0.0000000000000000     
   1.2187500000000000       0.40625000000000000        0.0000000000000000     
   1.2500000000000000       0.40625000000000000        0.0000000000000000     
   1.1250000000000000       0.43750000000000000        0.0000000000000000     
   1.1562500000000000       0.43750000000000000        0.0000000000000000     
   1.1875000000000000       0.43750000000000000        0.0000000000000000     
   1.2187500000000000       0.43750000000000000        0.0000000000000000     
   1.2500000000000000       0.43750000000000000        0.0000000000000000     
   1.1250000000000000       0.46875000000000000        0.0000000000000000     
   1.1562500000000000       0.46875000000000000        0.0000000000000000     
   1.1875000000000000       0.46875000000000000        0.0000000000000000     
   1.2187500000000000       0.46875000000000000        0.0000000000000000     
   1.2500000000000000       0.46875000000000000        0.0000000000000000     
   1.1250000000000000       0.50000000000000000        0.0000000000000000     
   1.1562500000000000       0.50000000000000000        0.0000000000000000     
   1.1875000000000000       0.50000000000000000        0.0000000000000000     
   1.2187500000000000       0.50000000000000000        0.0000000000000000     
   1.2500000000000000       0.50000000000000000        0.0000000000000000     
   1.2500000000000000       0.37500000000000000        0.0000000000000000     
   1.2812500000000000       0.37500000000000000        0.0000000000000000     
   1.3125000000000000       0.37500000000000000        0.0000000000000000     
   1.3437500000000000       0.37500000000000000        0.0000000000000000     
   1.3750000000000000       0.37500000000000000        0.0000000000000000     
   1.2500000000000000       0.40625000000000000        0.0000000000000000     
   1.2812500000000000       0.40625000000000000        0.0000000000000000     
   1.3125000000000000       0.40625000000000000        0.0000000000000000     
   1.3437500000000000       0.40625000000000000        0.0000000000000000     
   1.3750000000000000       0.40625000000000000        0.0000000000000000     
   1.2500000000000000       0.43750000000000000        0.0000000000000000     
   1.2812500000000000       0.43750000000000000        0.0000000000000000     
   1.3125000000000000       0.43750000000000000        0.0000000000000000     
   1.3437500000000000       0.43750000000000000        0.0000000000000000     
   1.3750000000000000       0.43750000000000000        0.0000000000000000     
   1.2500000000000000       0.46875000000000000        0.0000000000000000     
   1.2812500000000000       0.46875000000000000        0.0000000000000000     
   1.3125000000000000       0.46875000000000000        0.0000000000000000     
   1.3437500000000000       0.46875000000000000        0.0000000000000000     
   1.3750000000000000       0.46875000000000000        0.0000000000000000     
   1.2500000000000000       0.50000000000000000        0.0000000000000000     
   1.2812500000000000       0.50000000000000000        0.0000000000000000     
   1.3125000000000000       0.50000000000000000        0.0000000000000000     
   1.3437500000000000       0.50000000000000000        0.0000000000000000     
   1.3750000000000000       0.50000000000000000        0.0000000000000000     
   1.3750000000000000       0.37500000000000000        0.0000000000000000     
   1.4062500000000000       0.37500000000000000        0.0000000000000000     
   1.4375000000000000       0.37500000000000000        0.0000000000000000     
   1.4687500000000000       0.37500000000000000        0.0000000000000000     
   1.5000000000000000       0.37500000000000000        0.0000000000000000     
   1.3750000000000000       0.40625000000000000        0.0000000000000000     
   1.4062500000000000       0.40625000000000000        0.0000000000000000     
   1.4375000000000000       0.40625000000000000        0.0000000000000000     
   1.4687500000000000       0.40625000000000000        0.0000000000000000     
   1.5000000000000000       0.40625000000000000        0.0000000000000000     
   1.3750000000000000       0.43750000000000000        0.0000000000000000     
   1.4062500000000000       0.43750000000000000        0.0000000000000000     
   1.4375000000000000       0.43750000000000000        0.0000000000000000     
   1.4687500000000000       0.43750000000000000        0.0000000000000000     
   1.5000000000000000       0.43750000000000000        0.0000000000000000     
   1.3750000000000000       0.46875000000000000        0.0000000000000000     
   1.4062500000000000       0.46875000000000000        0.0000000000000000     
   1.4375000000000000       0.46875000000000000        0.0000000000000000     
   1.4687500000000000       0.46875000000000000        0.0000000000000000     
   1.5000000000000000       0.46875000000000000        0.0000000000000000     
   1.3750000000000000       0.50000000000000000        0.0000000000000000     
   1.4062500000000000       0.50000000000000000        0.0000000000000000     
   1.4375000000000000       0.50000000000000000        0.0000000000000000     
   1.4687500000000000       0.50000000000000000        0.0000000000000000     
   1.5000000000000000       0.50000000000000000        0.0000000000000000     
  0.50000000000000000       0.50000000000000000        0.0000000000000000     
  0.53125000000000000       0.50000000000000000        0.0000000000000000     
  0.56250000000000000       0.50000000000000000        0.0000000000000000     
  0.59375000000000000       0.50000000000000000        0.0000000000000000     
  0.62500000000000000       0.50000000000000000        0.0000000000000000     
  0.50000000000000000       0.53125000000000000        0.0000000000000000     
  0.53125000000000000       0.53125000000000000        0.0000000000000000     
  0.56250000000000000       0.53125000000000000        0.0000000000000000     
  0.59375000000000000       0.53125000000000000        0.0000000000000000     
  0.62500000000000000       0.53125000000000000        0.0000000000000000     
  0.50000000000000000       0.56250000000000000        0.0000000000000000     
  0.53125000000000000       0.56250000000000000        0.0000000000000000     
  0.56250000000000000       0.56250000000000000        0.0000000000000000     
  0.59375000000000000       0.56250000000000000        0.0000000000000000     
  0.62500000000000000       0.56250000000000000        0.0000000000000000     
  0.50000000000000000       0.59375000000000000        0.0000000000000000     
  0.53125000000000000       0.59375000000000000        0.0000000000000000     
  0.56250000000000000       0.59375000000000000        0.0000000000000000     
  0.59375000000000000       0.59375000000000000        0.0000000000000000     
  0.62500000000000000       0.59375000000000000        0.0000000000000000     
  0.50000000000000000       0.62500000000000000        0.0000000000000000     
  0.53125000000000000       0.62500000000000000        0.0000000000000000     
  0.56250000000000000       0.62500000000000000        0.0000000000000000     
  0.59375000000000000       0.62500000000000000        0.0000000000000000     
  0.62500000000000000       0.62500000000000000        0.0000000000000000     
  0.62500000000000000       0.50000000000000000        0.0000000000000000     
  0.65625000000000000       0.50000000000000000        0.0000000000000000     
  0.68750000000000000       0.50000000000000000        0.0000000000000000     
  0.71875000000000000       0.50000000000000000        0.0000000000000000     
  0.75000000000000000       0.50000000000000000        0.0000000000000000     
  0.62500000000000000       0.53125000000000000        0.0000000000000000     
  0.65625000000000000       0.53125000000000000        0.0000000000000000     
  0.68750000000000000       0.53125000000000000        0.0000000000000000     
  0.71875000000000000       0.53125000000000000        0.0000000000000000     
  0.75000000000000000       0.53125000000000000        0.0000000000000000     
  0.62500000000000000       0.56250000000000000        0.0000000000000000     
  0.65625000000000000       0.56250000000000000        0.0000000000000000     
  0.68750000000000000       0.56250000000000000        0.0000000000000000     
  0.71875000000000000       0.56250000000000000        0.0000000000000000     
  0.75000000000000000       0.56250000000000000        0.0000000000000000     
  0.62500000000000000       0.59375000000000000        0.0000000000000000     
  0.65625000000000000       0.59375000000000000        0.0000000000000000     
  0.68750000000000000       0.59375000000000000        0.0000000000000000     
  0.71875000000000000       0.59375000000000000        0.0000000000000000     
  0.75000000000000000       0.59375000000000000        0.0000000000000000     
  0.62500000000000000       0.62500000000000000        0.0000000000000000     
  0.65625000000000000       0.62500000000000000        0.0000000000000000     
  0.68750000000000000       0.62500000000000000        0.0000000000000000     
  0.71875000000000000       0.62500000000000000        0.0000000000000000     
  0.75000000000000000       0.62500000000000000        0.0000000000000000     
  0.75000000000000000       0.50000000000000000        0.0000000000000000     
  0.78125000000000000       0.50000000000000000        0.0000000000000000     
  0.81250000000000000       0.50000000000000000        0.0000000000000000     
  0.84375000000000000       0.50000000000000000        0.0000000000000000     
  0.87500000000000000       0.50000000000000000        0.0000000000000000     
  0.75000000000000000       0.53125000000000000        0.0000000000000000     
  0.78125000000000000       0.53125000000000000        0.0000000000000000     
  0.81250000000000000       0.53125000000000000        0.0000000000000000     
  0.84375000000000000       0.53125000000000000        0.0000000000000000     
  0.87500000000000000       0.53125000000000000        0.0000000000000000     
  0.75000000000000000       0.56250000000000000        0.0000000000000000     
  0.78125000000000000       0.56250000000000000        0.0000000000000000     
  0.81250000000000000       0.56250000000000000        0.0000000000000000     
  0.84375000000000000       0.56250000000000000        0.0000000000000000     
  0.87500000000000000       0.56250000000000000        0.0000000000000000     
  0.75000000000000000       0.59375000000000000        0.0000000000000000     
  0.78125000000000000       0.59375000000000000        0.0000000000000000     
  0.81250000000000000       0.59375000000000000        0.0000000000000000     
  0.84375000000000000       0.59375000000000000        0.0000000000000000     
  0.87500000000000000       0.59375000000000000        0.0000000000000000     
  0.75000000000000000       0.62500000000000000        0.0000000000000000     
  0.78125000000000000       0.62500000000000000        0.0000000000000000     
  0.81250000000000000       0.62500000000000000        0.0000000000000000     
  0.84375000000000000       0.62500000000000000        0.0000000000000000     
  0.87500000000000000       0.62500000000000000        0.0000000000000000     
  0.87500000000000000       0.50000000000000000        0.0000000000000000     
  0.90625000000000000       0.50000000000000000        0.0000000000000000     
  0.93750000000000000       0.50000000000000000        0.0000000000000000     
  0.96875000000000000       0.50000000000000000        0.0000000000000000     
   1.0000000000000000       0.50000000000000000        0.0000000000000000     
  0.87500000000000000       0.53125000000000000        0.0000000000000000     
  0.90625000000000000       0.53125000000000000        0.0000000000000000     
  0.93750000000000000       0.53125000000000000        0.0000000000000000     
  0.96875000000000000       0.53125000000000000        0.0000000000000000     
   1.0000000000000000       0.53125000000000000        0.0000000000000000     
  0.87500000000000000       0.56250000000000000        0.0000000000000000     
  0.90625000000000000       0.56250000000000000        0.0000000000000000     
  0.93750000000000000       0.56250000000000000        0.0000000000000000     
  0.96875000000000000       0.56250000000000000        0.0000000000000000     
   1.0000000000000000       0.56250000000000000        0.0000000000000000     
  0.87500000000000000       0.59375000000000000        0.0000000000000000     
  0.90625000000000000       0.59375000000000000        0.0000000000000000     
  0.93750000000000000       0.59375000000000000        0.0000000000000000     
  0.96875000000000000       0.59375000000000000        0.0000000000000000     
   1.0000000000000000       0.59375000000000000        0.0000000000000000     
  0.87500000000000000       0.62500000000000000        0.0000000000000000     
  0.90625000000000000       0.62500000000000000        0.0000000000000000     
  0.93750000000000000       0.62500000000000000        0.0000000000000000     
  0.96875000000000000       0.62500000000000000        0.0000000000000000     
   1.0000000000000000       0.62500000000000000        0.0000000000000000     
   1.0000000000000000       0.50000000000000000        0.0000000000000000     
   1.0312500000000000       0.50000000000000000        0.0000000000000000     
   1.0625000000000000       0.50000000000000000        0.0000000000000000     
   1.0937500000000000       0.50000000000000000        0.0000000000000000     
   1.1250000000000000       0.50000000000000000        0.0000000000000000     
   1.0000000000000000       0.53125000000000000        0.0000000000000000     
   1.0312500000000000       0.53125000000000000        0.0000000000000000     
   1.0625000000000000       0.53125000000000000        0.0000000000000000     
   1.0937500000000000       0.53125000000000000        0.0000000000000000     
   1.1250000000000000       0.53125000000000000        0.0000000000000000     
   1.0000000000000000       0.56250000000000000        0.0000000000000000     
   1.0312500000000000       0.56250000000000000        0.0000000000000000     
   1.0625000000000000       0.56250000000000000        0.0000000000000000     
   1.0937500000000000       0.56250000000000000        0.0000000000000000     
   1.1250000000000000       0.56250000000000000        0.0000000000000000     
   1.0000000000000000       0.59375000000000000        0.0000000000000000     
   1.0312500000000000       0.59375000000000000        0.0000000000000000     
   1.0625000000000000       0.59375000000000000        0.0000000000000000     
   1.0937500000000000       0.59375000000000000        0.0000000000000000     
   1.1250000000000000       0.59375000000000000        0.0000000000000000     
   1.0000000000000000       0.62500000000000000        0.0000000000000000     
   1.0312500000000000       0.62500000000000000        0.0000000000000000     
   1.0625000000000000       0.62500000000000000        0.0000000000000000     
   1.0937500000000000       0.62500000000000000        0.0000000000000000     
   1.1250000000000000       0.62500000000000000        0.0000000000000000     
   1.1250000000000000       0.50000000000000000        0.0000000000000000     
   1.1562500000000000       0.50000000000000000        0.0000000000000000     
   1.1875000000000000       0.50000000000000000        0.0000000000000000     
   1.2187500000000000       0.50000000000000000        0.0000000000000000     
   1.2500000000000000       0.50000000000000000        0.0000000000000000     
   1.1250000000000000       0.53125000000000000        0.0000000000000000     
   1.1562500000000000       0.53125000000000000        0.0000000000000000     
   1.1875000000000000       0.53125000000000000        0.0000000000000000     
   1.2187500000000000       0.53125000000000000        0.0000000000000000     
   1.2500000000000000       0.53125000000000000        0.0000000000000000     
   1.1250000000000000       0.56250000000000000        0.0000000000000000     
   1.1562500000000000       0.56250000000000000        0.0000000000000000     
   1.1875000000000000       0.56250000000000000        0.0000000000000000     
   1.2187500000000000       0.56250000000000000        0.0000000000000000     
   1.2500000000000000       0.56250000000000000        0.0000000000000000     
   1.1250000000000000       0.59375000000000000        0.0000000000000000     
   1.1562500000000000       0.59375000000000000        0.0000000000000000     
   1.1875000000000000       0.59375000000000000        0.0000000000000000     
   1.2187500000000000       0.59375000000000000        0.0000000000000000     
   1.2500000000000000       0.59375000000000000        0.0000000000000000     
   1.1250000000000000       0.62500000000000000        0.0000000000000000     
   1.1562500000000000       0.62500000000000000        0.0000000000000000     
   1.1875000000000000       0.62500000000000000        0.0000000000000000     
   1.2187500000000000       0.62500000000000000        0.0000000000000000     
   1.2500000000000000       0.62500000000000000        0.0000000000000000     
   1.2500000000000000       0.50000000000000000        0.0000000000000000     
   1.2812500000000000       0.50000000000000000        0.0000000000000000     
   1.3125000000000000       0.50000000000000000        0.0000000000000000     
   1.3437500000000000       0.50000000000000000        0.0000000000000000     
   1.3750000000000000       0.50000000000000000        0.0000000000000000     
   1.2500000000000000       0.53125000000000000        0.0000000000000000     
   1.2812500000000000       0.53125000000000000        0.0000000000000000     
   1.3125000000000000       0.53125000000000000        0.0000000000000000     
   1.3437500000000000       0.53125000000000000        0.0000000000000000     
   1.3750000000000000       0.53125000000000000        0.0000000000000000     
   1.2500000000000000       0.56250000000000000        0.0000000000000000     
   1.2812500000000000       0.56250000000000000        0.0000000000000000     
   1.3125000000000000       0.56250000000000000        0.0000000000000000     
   1.3437500000000000       0.56250000000000000        0.0000000000000000     
   1.3750000000000000       0.56250000000000000        0.0000000000000000     
   1.2500000000000000       0.59375000000000000        0.0000000000000000     
   1.2812500000000000       0.59375000000000000        0.0000000000000000     
   1.3125000000000000       0.59375000000000000        0.0000000000000000     
   1.3437500000000000       0.59375000000000000        0.0000000000000000     
   1.3750000000000000       0.59375000000000000        0.0000000000000000     
   1.2500000000000000       0.62500000000000000        0.0000000000000000     
   1.2812500000000000       0.62500000000000000        0.0000000000000000     
   1.3125000000000000       0.62500000000000000        0.0000000000000000     
   1.3437500000000000       0.62500000000000000        0.0000000000000000     
   1.3750000000000000       0.62500000000000000        0.0000000000000000     
   1.3750000000000000       0.50000000000000000        0.0000000000000000     
   1.4062500000000000       0.50000000000000000        0.0000000000000000     
   1.4375000000000000       0.50000000000000000        0.0000000000000000     
   1.4687500000000000       0.50000000000000000        0.0000000000000000     
   1.5000000000000000       0.50000000000000000        0.0000000000000000     
   1.3750000000000000       0.53125000000000000        0.0000000000000000     
   1.4062500000000000       0.53125000000000000        0.0000000000000000     
   1.4375000000000000       0.53125000000000000        0.0000000000000000     
   1.4687500000000000       0.53125000000000000        0.0000000000000000     
   1.5000000000000000       0.53125000000000000        0.0000000000000000     
   1.3750000000000000       0.56250000000000000        0.0000000000000000     
   1.4062500000000000       0.56250000000000000        0.0000000000000000     
   1.4375000000000000       0.56250000000000000        0.0000000000000000     
   1.4687500000000000       0.56250000000000000        0.0000000000000000     
   1.5000000000000000       0.56250000000000000        0.0000000000000000     
   1.3750000000000000       0.59375000000000000        0.0000000000000000     
   1.4062500000000000       0.59375000000000000        0.0000000000000000     
   1.4375000000000000       0.59375000000000000        0.0000000000000000     
   1.4687500000000000       0.59375000000000000        0.0000000000000000     
   1.5000000000000000       0.59375000000000000        0.0000000000000000     
   1.3750000000000000       0.62500000000000000        0.0000000000000000     
   1.4062500000000000       0.62500000000000000        0.0000000000000000     
   1.4375000000000000       0.62500000000000000        0.0000000000000000     
   1.4687500000000000       0.62500000000000000        0.0000000000000000     
   1.5000000000000000       0.62500000000000000        0.0000000000000000     
  0.50000000000000000       0.62500000000000000        0.0000000000000000     
  0.53125000000000000       0.62500000000000000        0.0000000000000000     
  0.56250000000000000       0.62500000000000000        0.0000000000000000     
  0.59375000000000000       0.62500000000000000        0.0000000000000000     
  0.62500000000000000       0.62500000000000000        0.0000000000000000     
  0.50000000000000000       0.65625000000000000        0.0000000000000000     
  0.53125000000000000       0.65625000000000000        0.0000000000000000     
  0.56250000000000000       0.65625000000000000        0.0000000000000000     
  0.59375000000000000       0.65625000000000000        0.0000000000000000     
  0.62500000000000000       0.65625000000000000        0.0000000000000000     
  0.50000000000000000       0.68750000000000000        0.0000000000000000     
  0.53125000000000000       0.68750000000000000        0.0000000000000000     
  0.56250000000000000       0.68750000000000000        0.0000000000000000     
  0.59375000000000000       0.68750000000000000        0.0000000000000000     
  0.62500000000000000       0.68750000000000000        0.0000000000000000     
  0.50000000000000000       0.71875000000000000        0.0000000000000000     
  0.53125000000000000       0.71875000000000000        0.0000000000000000     
  0.56250000000000000       0.71875000000000000        0.0000000000000000     
  0.59375000000000000       0.71875000000000000        0.0000000000000000     
  0.62500000000000000       0.71875000000000000        0.0000000000000000     
  0.50000000000000000       0.75000000000000000        0.0000000000000000     
  0.53125000000000000       0.75000000000000000        0.0000000000000000     
  0.56250000000000000       0.75000000000000000        0.0000000000000000     
  0.59375000000000000       0.75000000000000000        0.0000000000000000     
  0.62500000000000000       0.75000000000000000        0.0000000000000000     
  0.62500000000000000       0.62500000000000000        0.0000000000000000     
  0.65625000000000000       0.62500000000000000        0.0000000000000000     
  0.68750000000000000       0.62500000000000000        0.0000000000000000     
  0.71875000000000000       0.62500000000000000        0.0000000000000000     
  0.75000000000000000       0.62500000000000000        0.0000000000000000     
  0.62500000000000000       0.65625000000000000        0.0000000000000000     
  0.65625000000000000       0.65625000000000000        0.0000000000000000     
  0.68750000000000000       0.65625000000000000        0.0000000000000000     
  0.71875000000000000       0.65625000000000000        0.0000000000000000     
  0.75000000000000000       0.65625000000000000        0.0000000000000000     
  0.62500000000000000       0.68750000000000000        0.0000000000000000     
  0.65625000000000000       0.68750000000000000        0.0000000000000000     
  0.68750000000000000       0.68750000000000000        0.0000000000000000     
  0.71875000000000000       0.68750000000000000        0.0000000000000000     
  0.75000000000000000       0.68750000000000000        0.0000000000000000     
  0.62500000000000000       0.71875000000000000        0.0000000000000000     
  0.65625000000000000       0.71875000000000000        0.0000000000000000     
  0.68750000000000000       0.71875000000000000        0.0000000000000000     
  0.71875000000000000       0.71875000000000000        0.0000000000000000     
  0.75000000000000000       0.71875000000000000        0.0000000000000000     
  0.62500000000000000       0.75000000000000000        0.0000000000000000     
  0.65625000000000000       0.75000000000000000        0.0000000000000000     
  0.68750000000000000       0.75000000000000000        0.0000000000000000     
  0.71875000000000000       0.75000000000000000        0.0000000000000000     
  0.75000000000000000       0.75000000000000000        0.0000000000000000     
  0.75000000000000000       0.62500000000000000        0.0000000000000000     
  0.78125000000000000       0.62500000000000000        0.0000000000000000     
  0.81250000000000000       0.62500000000000000        0.0000000000000000     
  0.84375000000000000       0.62500000000000000        0.0000000000000000     
  0.87500000000000000       0.62500000000000000        0.0000000000000000     
  0.75000000000000000       0.65625000000000000        0.0000000000000000     
  0.78125000000000000       0.65625000000000000        0.0000000000000000     
  0.81250000000000000       0.65625000000000000        0.0000000000000000     
  0.84375000000000000       0.65625000000000000        0.0000000000000000     
  0.87500000000000000       0.65625000000000000        0.0000000000000000     
  0.75000000000000000       0.68750000000000000        0.0000000000000000     
  0.78125000000000000       0.68750000000000000        0.0000000000000000     
  0.81250000000000000       0.68750000000000000        0.0000000000000000     
  0.84375000000000000       0.68750000000000000        0.0000000000000000     
  0.87500000000000000       0.68750000000000000        0.0000000000000000     
  0.75000000000000000       0.71875000000000000        0.0000000000000000     
  0.78125000000000000       0.71875000000000000        0.0000000000000000     
  0.81250000000000000       0.71875000000000000        0.0000000000000000     
  0.84375000000000000       0.71875000000000000        0.0000000000000000     
  0.87500000000000000       0.71875000000000000        0.0000000000000000     
  0.75000000000000000       0.75000000000000000        0.0000000000000000     
  0.78125000000000000       0.75000000000000000        0.0000000000000000     
  0.81250000000000000       0.75000000000000000        0.0000000000000000     
  0.84375000000000000       0.75000000000000000        0.0000000000000000     
  0.87500000000000000       0.75000000000000000        0.0000000000000000     
  0.87500000000000000       0.62500000000000000        0.0000000000000000     
  0.90625000000000000       0.62500000000000000        0.0000000000000000     
  0.93750000000000000       0.62500000000000000        0.0000000000000000     
  0.96875000000000000       0.62500000000000000        0.0000000000000000     
   1.0000000000000000       0.62500000000000000        0.0000000000000000     
  0.87500000000000000       0.65625000000000000        0.0000000000000000     
  0.90625000000000000       0.65625000000000000        0.0000000000000000     
  0.93750000000000000       0.65625000000000000        0.0000000000000000     
  0.96875000000000000       0.65625000000000000        0.0000000000000000     
   1.0000000000000000       0.65625000000000000        0.0000000000000000     
  0.87500000000000000       0.68750000000000000        0.0000000000000000     
  0.90625000000000000       0.68750000000000000        0.0000000000000000     
  0.93750000000000000       0.68750000000000000        0.0000000000000000     
  0.96875000000000000       0.68750000000000000        0.0000000000000000     
   1.0000000000000000       0.68750000000000000        0.0000000000000000     
  0.87500000000000000       0.71875000000000000        0.0000000000000000     
  0.90625000000000000       0.71875000000000000        0.0000000000000000     
  0.93750000000000000       0.71875000000000000        0.0000000000000000     
  0.96875000000000000       0.71875000000000000        0.0000000000000000     
   1.0000000000000000       0.71875000000000000        0.0000000000000000     
  0.87500000000000000       0.75000000000000000        0.0000000000000000     
  0.90625000000000000       0.75000000000000000        0.0000000000000000     
  0.93750000000000000       0.75000000000000000        0.0000000000000000     
  0.96875000000000000       0.75000000000000000        0.0000000000000000     
   1.0000000000000000       0.75000000000000000        0.0000000000000000     
   1.0000000000000000       0.62500000000000000        0.0000000000000000     
   1.0312500000000000       0.62500000000000000        0.0000000000000000     
   1.0625000000000000       0.62500000000000000        0.0000000000000000     
   1.0937500000000000       0.62500000000000000        0.0000000000000000     
   1.1250000000000000       0.62500000000000000        0.0000000000000000     
   1.0000000000000000       0.65625000000000000        0.0000000000000000     
   1.0312500000000000       0.65625000000000000        0.0000000000000000     
   1.0625000000000000       0.65625000000000000        0.0000000000000000     
   1.0937500000000000       0.65625000000000000        0.0000000000000000     
   1.1250000000000000       0.65625000000000000        0.0000000000000000     
   1.0000000000000000       0.68750000000000000        0.0000000000000000     
   1.0312500000000000       0.68750000000000000        0.0000000000000000     
   1.0625000000000000       0.68750000000000000        0.0000000000000000     
   1.0937500000000000       0.68750000000000000        0.0000000000000000     
   1.1250000000000000       0.68750000000000000        0.0000000000000000     
   1.0000000000000000       0.71875000000000000        0.0000000000000000     
   1.0312500000000000       0.71875000000000000        0.0000000000000000     
   1.0625000000000000       0.71875000000000000        0.0000000000000000     
   1.0937500000000000       0.71875000000000000        0.0000000000000000     
   1.1250000000000000       0.71875000000000000        0.0000000000000000     
   1.0000000000000000       0.75000000000000000        0.0000000000000000     
   1.0312500000000000       0.75000000000000000        0.0000000000000000     
   1.0625000000000000       0.75000000000000000        0.0000000000000000     
   1.0937500000000000       0.75000000000000000        0.0000000000000000     
   1.1250000000000000       0.75000000000000000        0.0000000000000000     
   1.1250000000000000       0.62500000000000000        0.0000000000000000     
   1.1562500000000000       0.62500000000000000        0.0000000000000000     
   1.1875000000000000       0.62500000000000000        0.0000000000000000     
   1.2187500000000000       0.62500000000000000        0.0000000000000000     
   1.2500000000000000       0.62500000000000000        0.0000000000000000     
   1.1250000000000000       0.65625000000000000        0.0000000000000000     
   1.1562500000000000       0.65625000000000000        0.0000000000000000     
   1.1875000000000000       0.65625000000000000        0.0000000000000000     
   1.2187500000000000       0.65625000000000000        0.0000000000000000     
   1.2500000000000000       0.65625000000000000        0.0000000000000000     
   1.1250000000000000       0.68750000000000000        0.0000000000000000     
   1.1562500000000000       0.68750000000000000        0.0000000000000000     
   1.1875000000000000       0.68750000000000000        0.0000000000000000     
   1.2187500000000000       0.68750000000000000        0.0000000000000000     
   1.2500000000000000       0.68750000000000000        0.0000000000000000     
   1.1250000000000000       0.71875000000000000        0.0000000000000000     
   1.1562500000000000       0.71875000000000000        0.0000000000000000     
   1.1875000000000000       0.71875000000000000        0.0000000000000000     
   1.2187500000000000       0.71875000000000000        0.0000000000000000     
   1.2500000000000000       0.71875000000000000        0.0000000000000000     
   1.1250000000000000       0.75000000000000000        0.0000000000000000     
   1.1562500000000000       0.75000000000000000        0.0000000000000000     
   1.1875000000000000       0.75000000000000000        0.0000000000000000     
   1.2187500000000000       0.75000000000000000        0.0000000000000000     
   1.2500000000000000       0.75000000000000000        0.0000000000000000     
   1.2500000000000000       0.62500000000000000        0.0000000000000000     
   1.2812500000000000       0.62500000000000000        0.0000000000000000     
   1.3125000000000000       0.62500000000000000        0.0000000000000000     
   1.3437500000000000       0.62500000000000000        0.0000000000000000     
   1.3750000000000000       0.62500000000000000        0.0000000000000000     
   1.2500000000000000       0.65625000000000000        0.0000000000000000     
   1.2812500000000000       0.65625000000000000        0.0000000000000000     
   1.3125000000000000       0.65625000000000000        0.0000000000000000     
   1.3437500000000000       0.65625000000000000        0.0000000000000000     
   1.3750000000000000       0.65625000000000000        0.0000000000000000     
   1.2500000000000000       0.68750000000000000        0.0000000000000000     
   1.2812500000000000       0.68750000000000000        0.0000000000000000     
   1.3125000000000000       0.68750000000000000        0.0000000000000000     
   1.3437500000000000       0.68750000000000000        0.0000000000000000     
   1.3750000000000000       0.68750000000000000        0.0000000000000000     
   1.2500000000000000       0.71875000000000000        0.0000000000000000     
   1.2812500000000000       0.71875000000000000        0.0000000000000000     
   1.3125000000000000       0.71875000000000000        0.0000000000000000     
   1.3437500000000000       0.71875000000000000        0.0000000000000000     
   1.3750000000000000       0.71875000000000000        0.0000000000000000     
   1.2500000000000000       0.75000000000000000        0.0000000000000000     
   1.2812500000000000       0.75000000000000000        0.0000000000000000     
   1.3125000000000000       0.75000000000000000        0.0000000000000000     
   1.3437500000000000       0.75000000000000000        0.0000000000000000     
   1.3750000000000000       0.75000000000000000        0.0000000000000000     
   1.3750000000000000       0.62500000000000000        0.0000000000000000     
   1.4062500000000000       0.62500000000000000        0.0000000000000000     
   1.4375000000000000       0.62500000000000000        0.0000000000000000     
   1.4687500000000000       0.62500000000000000        0.0000000000000000     
   1.5000000000000000       0.62500000000000000        0.0000000000000000     
   1.3750000000000000       0.65625000000000000        0.0000000000000000     
   1.4062500000000000       0.65625000000000000        0.0000000000000000     
   1.4375000000000000       0.65625000000000000        0.0000000000000000     
   1.4687500000000000       0.65625000000000000        0.0000000000000000     
   1.5000000000000000       0.65625000000000000        0.0000000000000000     
   1.3750000000000000       0.68750000000000000        0.0000000000000000     
   1.4062500000000000       0.68750000000000000        0.0000000000000000     
   1.4375000000000000       0.68750000000000000        0.0000000000000000     
   1.4687500000000000       0.68750000000000000        0.0000000000000000     
   1.5000000000000000       0.68750000000000000        0.0000000000000000     
   1.3750000000000000       0.71875000000000000        0.0000000000000000     
   1.4062500000000000       0.71875000000000000        0.0000000000000000     
   1.4375000000000000       0.71875000000000000        0.0000000000000000     
   1.4687500000000000       0.71875000000000000        0.0000000000000000     
   1.5000000000000000       0.71875000000000000        0.0000000000000000     
   1.3750000000000000       0.75000000000000000        0.0000000000000000     
   1.4062500000000000       0.75000000000000000        0.0000000000000000     
   1.4375000000000000       0.75000000000000000        0.0000000000000000     
   1.4687500000000000       0.75000000000000000        0.0000000000000000     
   1.5000000000000000       0.75000000000000000        0.0000000000000000     
  0.50000000000000000       0.75000000000000000        0.0000000000000000     
  0.53125000000000000       0.75000000000000000        0.0000000000000000     
  0.56250000000000000       0.75000000000000000        0.0000000000000000     
  0.59375000000000000       0.75000000000000000        0.0000000000000000     
  0.62500000000000000       0.75000000000000000        0.0000000000000000     
  0.50000000000000000       0.78125000000000000        0.0000000000000000     
  0.53125000000000000       0.78125000000000000        0.0000000000000000     
  0.56250000000000000       0.78125000000000000        0.0000000000000000     
  0.59375000000000000       0.78125000000000000        0.0000000000000000     
  0.62500000000000000       0.78125000000000000        0.0000000000000000     
  0.50000000000000000       0.81250000000000000        0.0000000000000000     
  0.53125000000000000       0.81250000000000000        0.0000000000000000     
  0.56250000000000000       0.81250000000000000        0.0000000000000000     
  0.59375000000000000       0.81250000000000000        0.0000000000000000     
  0.62500000000000000       0.81250000000000000        0.0000000000000000     
  0.50000000000000000       0.84375000000000000        0.0000000000000000     
  0.53125000000000000       0.84375000000000000        0.0000000000000000     
  0.56250000000000000       0.84375000000000000        0.0000000000000000     
  0.59375000000000000       0.84375000000000000        0.0000000000000000     
  0.62500000000000000       0.84375000000000000        0.0000000000000000     
  0.50000000000000000       0.87500000000000000        0.0000000000000000     
  0.53125000000000000       0.87500000000000000        0.0000000000000000     
  0.56250000000000000       0.87500000000000000        0.0000000000000000     
  0.59375000000000000       0.87500000000000000        0.0000000000000000     
  0.62500000000000000       0.87500000000000000        0.0000000000000000     
  0.62500000000000000       0.75000000000000000        0.0000000000000000     
  0.65625000000000000       0.75000000000000000        0.0000000000000000     
  0.68750000000000000       0.75000000000000000        0.0000000000000000     
  0.71875000000000000       0.75000000000000000        0.0000000000000000     
  0.75000000000000000       0.75000000000000000        0.0000000000000000     
  0.62500000000000000       0.78125000000000000        0.0000000000000000     
  0.65625000000000000       0.78125000000000000        0.0000000000000000     
  0.68750000000000000       0.78125000000000000        0.0000000000000000     
  0.71875000000000000       0.78125000000000000        0.0000000000000000     
  0.75000000000000000       0.78125000000000000        0.0000000000000000     
  0.62500000000000000       0.81250000000000000        0.0000000000000000     
  0.65625000000000000       0.81250000000000000        0.0000000000000000     
  0.68750000000000000       0.81250000000000000        0.0000000000000000     
  0.71875000000000000       0.81250000000000000        0.0000000000000000     
  0.75000000000000000       0.81250000000000000        0.0000000000000000     
  0.62500000000000000       0.84375000000000000        0.0000000000000000     
  0.65625000000000000       0.84375000000000000        0.0000000000000000     
  0.68750000000000000       0.84375000000000000        0.0000000000000000     
  0.71875000000000000       0.84375000000000000        0.0000000000000000     
  0.75000000000000000       0.84375000000000000        0.0000000000000000     
  0.62500000000000000       0.87500000000000000        0.0000000000000000     
  0.65625000000000000       0.87500000000000000        0.0000000000000000     
  0.68750000000000000       0.87500000000000000        0.0000000000000000     
  0.71875000000000000       0.87500000000000000        0.0000000000000000     
  0.75000000000000000       0.87500000000000000        0.0000000000000000     
  0.75000000000000000       0.75000000000000000        0.0000000000000000     
  0.78125000000000000       0.75000000000000000        0.0000000000000000     
  0.81250000000000000       0.75000000000000000        0.0000000000000000     
  0.84375000000000000       0.75000000000000000        0.0000000000000000     
  0.87500000000000000       0.75000000000000000        0.0000000000000000     
  0.75000000000000000       0.78125000000000000        0.0000000000000000     
  0.78125000000000000       0.78125000000000000        0.0000000000000000     
  0.81250000000000000       0.78125000000000000        0.0000000000000000     
  0.84375000000000000       0.78125000000000000        0.0000000000000000     
  0.87500000000000000       0.78125000000000000        0.0000000000000000     
  0.75000000000000000       0.81250000000000000        0.0000000000000000     
  0.78125000000000000       0.81250000000000000        0.0000000000000000     
  0.81250000000000000       0.81250000000000000        0.0000000000000000     
  0.84375000000000000       0.81250000000000000        0.0000000000000000     
  0.87500000000000000       0.81250000000000000        0.0000000000000000     
  0.75000000000000000       0.84375000000000000        0.0000000000000000     
  0.78125000000000000       0.84375000000000000        0.0000000000000000     
  0.81250000000000000       0.84375000000000000        0.0000000000000000     
  0.84375000000000000       0.84375000000000000        0.0000000000000000     
  0.87500000000000000       0.84375000000000000        0.0000000000000000     
  0.75000000000000000       0.87500000000000000        0.0000000000000000     
  0.78125000000000000       0.87500000000000000        0.0000000000000000     
  0.81250000000000000       0.87500000000000000        0.0000000000000000     
  0.84375000000000000       0.87500000000000000        0.0000000000000000     
  0.87500000000000000       0.87500000000000000        0.0000000000000000     
  0.87500000000000000       0.75000000000000000        0.0000000000000000     
  0.90625000000000000       0.75000000000000000        0.0000000000000000     
  0.93750000000000000       0.75000000000000000        0.0000000000000000     
  0.96875000000000000       0.75000000000000000        0.0000000000000000     
   1.0000000000000000       0.75000000000000000        0.0000000000000000     
  0.87500000000000000       0.78125000000000000        0.0000000000000000     
  0.90625000000000000       0.78125000000000000        0.0000000000000000     
  0.93750000000000000       0.78125000000000000        0.0000000000000000     
  0.96875000000000000       0.78125000000000000        0.0000000000000000     
   1.0000000000000000       0.78125000000000000        0.0000000000000000     
  0.87500000000000000       0.81250000000000000        0.0000000000000000     
  0.90625000000000000       0.81250000000000000        0.0000000000000000     
  0.93750000000000000       0.81250000000000000        0.0000000000000000     
  0.96875000000000000       0.81250000000000000        0.0000000000000000     
   1.0000000000000000       0.81250000000000000        0.0000000000000000     
  0.87500000000000000       0.84375000000000000        0.0000000000000000     
  0.90625000000000000       0.84375000000000000        0.0000000000000000     
  0.93750000000000000       0.84375000000000000        0.0000000000000000     
  0.96875000000000000       0.84375000000000000        0.0000000000000000     
   1.0000000000000000       0.84375000000000000        0.0000000000000000     
  0.87500000000000000       0.87500000000000000        0.0000000000000000     
  0.90625000000000000       0.87500000000000000        0.0000000000000000     
  0.93750000000000000       0.87500000000000000        0.0000000000000000     
  0.96875000000000000       0.87500000000000000        0.0000000000000000     
   1.0000000000000000       0.87500000000000000        0.0000000000000000     
   1.0000000000000000       0.75000000000000000        0.0000000000000000     
   1.0312500000000000       0.75000000000000000        0.0000000000000000     
   1.0625000000000000       0.75000000000000000        0.0000000000000000     
   1.0937500000000000       0.75000000000000000        0.0000000000000000     
   1.1250000000000000       0.75000000000000000        0.0000000000000000     
   1.0000000000000000       0.78125000000000000        0.0000000000000000     
   1.0312500000000000       0.78125000000000000        0.0000000000000000     
   1.0625000000000000       0.78125000000000000        0.0000000000000000     
   1.0937500000000000       0.78125000000000000        0.0000000000000000     
   1.1250000000000000       0.78125000000000000        0.0000000000000000     
   1.0000000000000000       0.81250000000000000        0.0000000000000000     
   1.0312500000000000       0.81250000000000000        0.0000000000000000     
   1.0625000000000000       0.81250000000000000        0.0000000000000000     
   1.0937500000000000       0.81250000000000000        0.0000000000000000     
   1.1250000000000000       0.81250000000000000        0.0000000000000000     
   1.0000000000000000       0.84375000000000000        0.0000000000000000     
   1.0312500000000000       0.84375000000000000        0.0000000000000000     
   1.0625000000000000       0.84375000000000000        0.0000000000000000     
   1.0937500000000000       0.84375000000000000        0.0000000000000000     
   1.1250000000000000       0.84375000000000000        0.0000000000000000     
   1.0000000000000000       0.87500000000000000        0.0000000000000000     
   1.0312500000000000       0.87500000000000000        0.0000000000000000     
   1.0625000000000000       0.87500000000000000        0.0000000000000000     
   1.0937500000000000       0.87500000000000000        0.0000000000000000     
   1.1250000000000000       0.87500000000000000        0.0000000000000000     
   1.1250000000000000       0.75000000000000000        0.0000000000000000     
   1.1562500000000000       0.75000000000000000        0.0000000000000000     
   1.1875000000000000       0.75000000000000000        0.0000000000000000     
   1.2187500000000000       0.75000000000000000        0.0000000000000000     
   1.2500000000000000       0.75000000000000000        0.0000000000000000     
   1.1250000000000000       0.78125000000000000        0.0000000000000000     
   1.1562500000000000       0.78125000000000000        0.0000000000000000     
   1.1875000000000000       0.78125000000000000        0.0000000000000000     
   1.2187500000000000       0.78125000000000000        0.0000000000000000     
   1.2500000000000000       0.78125000000000000        0.0000000000000000     
   1.1250000000000000       0.81250000000000000        0.0000000000000000     
   1.1562500000000000       0.81250000000000000        0.0000000000000000     
   1.1875000000000000       0.81250000000000000        0.0000000000000000     
   1.2187500000000000       0.81250000000000000        0.0000000000000000     
   1.2500000000000000       0.81250000000000000        0.0000000000000000     
   1.1250000000000000       0.84375000000000000        0.0000000000000000     
   1.1562500000000000       0.84375000000000000        0.0000000000000000     
   1.1875000000000000       0.84375000000000000        0.0000000000000000     
   1.2187500000000000       0.84375000000000000        0.0000000000000000     
   1.2500000000000000       0.84375000000000000        0.0000000000000000     
   1.1250000000000000       0.87500000000000000        0.0000000000000000     
   1.1562500000000000       0.87500000000000000        0.0000000000000000     
   1.1875000000000000       0.87500000000000000        0.0000000000000000     
   1.2187500000000000       0.87500000000000000        0.0000000000000000     
   1.2500000000000000       0.87500000000000000        0.0000000000000000     
   1.2500000000000000       0.75000000000000000        0.0000000000000000     
   1.2812500000000000       0.75000000000000000        0.0000000000000000     
   1.3125000000000000       0.75000000000000000        0.0000000000000000     
   1.3437500000000000       0.75000000000000000        0.0000000000000000     
   1.3750000000000000       0.75000000000000000        0.0000000000000000     
   1.2500000000000000       0.78125000000000000        0.0000000000000000     
   1.2812500000000000       0.78125000000000000        0.0000000000000000     
   1.3125000000000000       0.78125000000000000        0.0000000000000000     
   1.3437500000000000       0.78125000000000000        0.0000000000000000     
   1.3750000000000000       0.78125000000000000        0.0000000000000000     
   1.2500000000000000       0.81250000000000000        0.0000000000000000     
   1.2812500000000000       0.81250000000000000        0.0000000000000000     
   1.3125000000000000       0.81250000000000000        0.0000000000000000     
   1.3437500000000000       0.81250000000000000        0.0000000000000000     
   1.3750000000000000       0.81250000000000000        0.0000000000000000     
   1.2500000000000000       0.84375000000000000        0.0000000000000000     
   1.2812500000000000       0.84375000000000000        0.0000000000000000     
   1.3125000000000000       0.84375000000000000        0.0000000000000000     
   1.3437500000000000       0.84375000000000000        0.0000000000000000     
   1.3750000000000000       0.84375000000000000        0.0000000000000000     
   1.2500000000000000       0.87500000000000000        0.0000000000000000     
   1.2812500000000000       0.87500000000000000        0.0000000000000000     
   1.3125000000000000       0.87500000000000000        0.0000000000000000     
   1.3437500000000000       0.87500000000000000        0.0000000000000000     
   1.3750000000000000       0.87500000000000000        0.0000000000000000     
   1.3750000000000000       0.75000000000000000        0.0000000000000000     
   1.4062500000000000       0.75000000000000000        0.0000000000000000     
   1.4375000000000000       0.75000000000000000        0.0000000000000000     
   1.4687500000000000       0.75000000000000000        0.0000000000000000     
   1.5000000000000000       0.75000000000000000        0.0000000000000000     
   1.3750000000000000       0.78125000000000000        0.0000000000000000     
   1.4062500000000000       0.78125000000000000        0.0000000000000000     
   1.4375000000000000       0.78125000000000000        0.0000000000000000     
   1.4687500000000000       0.78125000000000000        0.0000000000000000     
   1.5000000000000000       0.78125000000000000        0.0000000000000000     
   1.3750000000000000       0.81250000000000000        0.0000000000000000     
   1.4062500000000000       0.81250000000000000        0.0000000000000000     
   1.4375000000000000       0.81250000000000000        0.0000000000000000     
   1.4687500000000000       0.81250000000000000        0.0000000000000000     
   1.5000000000000000       0.81250000000000000        0.0000000000000000     
   1.3750000000000000       0.84375000000000000        0.0000000000000000     
   1.4062500000000000       0.84375000000000000        0.0000000000000000     
   1.4375000000000000       0.84375000000000000        0.0000000000000000     
   1.4687500000000000       0.84375000000000000        0.0000000000000000     
   1.5000000000000000       0.84375000000000000        0.0000000000000000     
   1.3750000000000000       0.87500000000000000        0.0000000000000000     
   1.4062500000000000       0.87500000000000000        0.0000000000000000     
   1.4375000000000000       0.87500000000000000        0.0000000000000000     
   1.4687500000000000       0.87500000000000000        0.0000000000000000     
   1.5000000000000000       0.87500000000000000        0.0000000000000000     
  0.50000000000000000       0.87500000000000000        0.0000000000000000     
  0.53125000000000000       0.87500000000000000        0.0000000000000000     
  0.56250000000000000       0.87500000000000000        0.0000000000000000     
  0.59375000000000000       0.87500000000000000        0.0000000000000000     
  0.62500000000000000       0.87500000000000000        0.0000000000000000     
  0.50000000000000000       0.90625000000000000        0.0000000000000000     
  0.53125000000000000       0.90625000000000000        0.0000000000000000     
  0.56250000000000000       0.90625000000000000        0.0000000000000000     
  0.59375000000000000       0.90625000000000000        0.0000000000000000     
  0.62500000000000000       0.90625000000000000        0.0000000000000000     
  0.50000000000000000       0.93750000000000000        0.0000000000000000     
  0.53125000000000000       0.93750000000000000        0.0000000000000000     
  0.56250000000000000       0.93750000000000000        0.0000000000000000     
  0.59375000000000000       0.93750000000000000        0.0000000000000000     
  0.62500000000000000       0.93750000000000000        0.0000000000000000     
  0.50000000000000000       0.96875000000000000        0.0000000000000000     
  0.53125000000000000       0.96875000000000000        0.0000000000000000     
  0.56250000000000000       0.96875000000000000        0.0000000000000000     
  0.59375000000000000       0.96875000000000000        0.0000000000000000     
  0.62500000000000000       0.96875000000000000        0.0000000000000000     
  0.50000000000000000        1.0000000000000000        0.0000000000000000     
  0.53125000000000000        1.0000000000000000        0.0000000000000000     
  0.56250000000000000        1.0000000000000000        0.0000000000000000     
  0.59375000000000000        1.0000000000000000        0.0000000000000000     
  0.62500000000000000        1.0000000000000000        0.0000000000000000     
  0.62500000000000000       0.87500000000000000        0.0000000000000000     
  0.65625000000000000       0.87500000000000000        0.0000000000000000     
  0.68750000000000000       0.87500000000000000        0.0000000000000000     
  0.71875000000000000       0.87500000000000000        0.0000000000000000     
  0.75000000000000000       0.87500000000000000        0.0000000000000000     
  0.62500000000000000       0.90625000000000000        0.0000000000000000     
  0.65625000000000000       0.90625000000000000        0.0000000000000000     
  0.68750000000000000       0.90625000000000000        0.0000000000000000     
  0.71875000000000000       0.90625000000000000        0.0000000000000000     
  0.75000000000000000       0.90625000000000000        0.0000000000000000     
  0.62500000000000000       0.93750000000000000        0.0000000000000000     
  0.65625000000000000       0.93750000000000000        0.0000000000000000     
  0.68750000000000000       0.93750000000000000        0.0000000000000000     
  0.71875000000000000       0.93750000000000000        0.0000000000000000     
  0.75000000000000000       0.93750000000000000        0.0000000000000000     
  0.62500000000000000       0.96875000000000000        0.0000000000000000     
  0.65625000000000000       0.96875000000000000        0.0000000000000000     
  0.68750000000000000       0.96875000000000000        0.0000000000000000     
  0.71875000000000000       0.96875000000000000        0.0000000000000000     
  0.75000000000000000       0.96875000000000000        0.0000000000000000     
  0.62500000000000000        1.0000000000000000        0.0000000000000000     
  0.65625000000000000        1.0000000000000000        0.0000000000000000     
  0.68750000000000000        1.0000000000000000        0.0000000000000000     
  0.71875000000000000        1.0000000000000000        0.0000000000000000     
  0.75000000000000000        1.0000000000000000        0.0000000000000000     
  0.75000000000000000       0.87500000000000000        0.0000000000000000     
  0.78125000000000000       0.87500000000000000        0.0000000000000000     
  0.81250000000000000       0.87500000000000000        0.0000000000000000     
  0.84375000000000000       0.87500000000000000        0.0000000000000000     
  0.87500000000000000       0.87500000000000000        0.0000000000000000     
  0.75000000000000000       0.90625000000000000        0.0000000000000000     
  0.78125000000000000       0.90625000000000000        0.0000000000000000     
  0.81250000000000000       0.90625000000000000        0.0000000000000000     
  0.84375000000000000       0.90625000000000000        0.0000000000000000     
  0.87500000000000000       0.90625000000000000        0.0000000000000000     
  0.75000000000000000       0.93750000000000000        0.0000000000000000     
  0.78125000000000000       0.93750000000000000        0.0000000000000000     
  0.81250000000000000       0.93750000000000000        0.0000000000000000     
  0.84375000000000000       0.93750000000000000        0.0000000000000000     
  0.87500000000000000       0.93750000000000000        0.0000000000000000     
  0.75000000000000000       0.96875000000000000        0.0000000000000000     
  0.78125000000000000       0.96875000000000000        0.0000000000000000     
  0.81250000000000000       0.96875000000000000        0.0000000000000000     
  0.84375000000000000       0.96875000000000000        0.0000000000000000     
  0.87500000000000000       0.96875000000000000        0.0000000000000000     
  0.75000000000000000        1.0000000000000000        0.0000000000000000     
  0.78125000000000000        1.0000000000000000        0.0000000000000000     
  0.81250000000000000        1.0000000000000000        0.0000000000000000     
  0.84375000000000000        1.0000000000000000        0.0000000000000000     
  0.87500000000000000        1.0000000000000000        0.0000000000000000     
  0.87500000000000000       0.87500000000000000        0.0000000000000000     
  0.90625000000000000       0.87500000000000000        0.0000000000000000     
  0.93750000000000000       0.87500000000000000        0.0000000000000000     
  0.96875000000000000       0.87500000000000000        0.0000000000000000     
   1.0000000000000000       0.87500000000000000        0.0000000000000000     
  0.87500000000000000       0.90625000000000000        0.0000000000000000     
  0.90625000000000000       0.90625000000000000        0.0000000000000000     
  0.93750000000000000       0.90625000000000000        0.0000000000000000     
  0.96875000000000000       0.90625000000000000        0.0000000000000000     
   1.0000000000000000       0.90625000000000000        0.0000000000000000     
  0.87500000000000000       0.93750000000000000        0.0000000000000000     
  0.90625000000000000       0.93750000000000000        0.0000000000000000     
  0.93750000000000000       0.93750000000000000        0.0000000000000000     
  0.96875000000000000       0.93750000000000000        0.0000000000000000     
   1.0000000000000000       0.93750000000000000        0.0000000000000000     
  0.87500000000000000       0.96875000000000000        0.0000000000000000     
  0.90625000000000000       0.96875000000000000        0.0000000000000000     
  0.93750000000000000       0.96875000000000000        0.0000000000000000     
  0.96875000000000000       0.96875000000000000        0.0000000000000000     
   1.0000000000000000       0.96875000000000000        0.0000000000000000     
  0.87500000000000000        1.0000000000000000        0.0000000000000000     
  0.90625000000000000        1.0000000000000000        0.0000000000000000     
  0.93750000000000000        1.0000000000000000        0.0000000000000000     
  0.96875000000000000        1.0000000000000000        0.0000000000000000     
   1.0000000000000000        1.0000000000000000        0.0000000000000000     
   1.0000000000000000       0.87500000000000000        0.0000000000000000     
   1.0312500000000000       0.87500000000000000        0.0000000000000000     
   1.0625000000000000       0.87500000000000000        0.0000000000000000     
   1.0937500000000000       0.87500000000000000        0.0000000000000000     
   1.1250000000000000       0.87500000000000000        0.0000000000000000     
   1.0000000000000000       0.90625000000000000        0.0000000000000000     
   1.0312500000000000       0.90625000000000000        0.0000000000000000     
   1.0625000000000000       0.90625000000000000        0.0000000000000000     
   1.0937500000000000       0.90625000000000000        0.0000000000000000     
   1.1250000000000000       0.90625000000000000        0.0000000000000000     
   1.0000000000000000       0.93750000000000000        0.0000000000000000     
   1.0312500000000000       0.93750000000000000        0.0000000000000000     
   1.0625000000000000       0.93750000000000000        0.0000000000000000     
   1.0937500000000000       0.93750000000000000        0.0000000000000000     
   1.1250000000000000       0.93750000000000000        0.0000000000000000     
   1.0000000000000000       0.96875000000000000        0.0000000000000000     
   1.0312500000000000       0.96875000000000000        0.0000000000000000     
   1.0625000000000000       0.96875000000000000        0.0000000000000000     
   1.0937500000000000       0.96875000000000000        0.0000000000000000     
   1.1250000000000000       0.96875000000000000        0.0000000000000000     
   1.0000000000000000        1.0000000000000000        0.0000000000000000     
   1.0312500000000000        1.0000000000000000        0.0000000000000000     
   1.0625000000000000        1.0000000000000000        0.0000000000000000     
   1.0937500000000000        1.0000000000000000        0.0000000000000000     
   1.1250000000000000        1.0000000000000000        0.0000000000000000     
   1.1250000000000000       0.87500000000000000        0.0000000000000000     
   1.1562500000000000       0.87500000000000000        0.0000000000000000     
   1.1875000000000000       0.87500000000000000        0.0000000000000000     
   1.2187500000000000       0.87500000000000000        0.0000000000000000     
   1.2500000000000000       0.87500000000000000        0.0000000000000000     
   1.1250000000000000       0.90625000000000000        0.0000000000000000     
   1.1562500000000000       0.90625000000000000        0.0000000000000000     
   1.1875000000000000       0.90625000000000000        0.0000000000000000     
   1.2187500000000000       0.90625000000000000        0.0000000000000000     
   1.2500000000000000       0.90625000000000000        0.0000000000000000     
   1.1250000000000000       0.93750000000000000        0.0000000000000000     
   1.1562500000000000       0.93750000000000000        0.0000000000000000     
   1.1875000000000000       0.93750000000000000        0.0000000000000000     
   1.2187500000000000       0.93750000000000000        0.0000000000000000     
   1.2500000000000000       0.93750000000000000        0.0000000000000000     
   1.1250000000000000       0.96875000000000000        0.0000000000000000     
   1.1562500000000000       0.96875000000000000        0.0000000000000000     
   1.1875000000000000       0.96875000000000000        0.0000000000000000     
   1.2187500000000000       0.96875000000000000        0.0000000000000000     
   1.2500000000000000       0.96875000000000000        0.0000000000000000     
   1.1250000000000000        1.0000000000000000        0.0000000000000000     
   1.1562500000000000        1.0000000000000000        0.0000000000000000     
   1.1875000000000000        1.0000000000000000        0.0000000000000000     
   1.2187500000000000        1.0000000000000000        0.0000000000000000     
   1.2500000000000000        1.0000000000000000        0.0000000000000000     
   1.2500000000000000       0.87500000000000000        0.0000000000000000     
   1.2812500000000000       0.87500000000000000        0.0000000000000000     
   1.3125000000000000       0.87500000000000000        0.0000000000000000     
   1.3437500000000000       0.87500000000000000        0.0000000000000000     
   1.3750000000000000       0.87500000000000000        0.0000000000000000     
   1.2500000000000000       0.90625000000000000        0.0000000000000000     
   1.2812500000000000       0.90625000000000000        0.0000000000000000     
   1.3125000000000000       0.90625000000000000        0.0000000000000000     
   1.3437500000000000       0.90625000000000000        0.0000000000000000     
   1.3750000000000000       0.90625000000000000        0.0000000000000000     
   1.2500000000000000       0.93750000000000000        0.0000000000000000     
   1.2812500000000000       0.93750000000000000        0.0000000000000000     
   1.3125000000000000       0.93750000000000000        0.0000000000000000     
   1.3437500000000000       0.93750000000000000        0.0000000000000000     
   1.3750000000000000       0.93750000000000000        0.0000000000000000     
   1.2500000000000000       0.96875000000000000        0.0000000000000000     
   1.2812500000000000       0.96875000000000000        0.0000000000000000     
   1.3125000000000000       0.96875000000000000        0.0000000000000000     
   1.3437500000000000       0.96875000000000000        0.0000000000000000     
   1.3750000000000000       0.96875000000000000        0.0000000000000000     
   1.2500000000000000        1.0000000000000000        0.0000000000000000     
   1.2812500000000000        1.0000000000000000        0.0000000000000000     
   1.3125000000000000        1.0000000000000000        0.0000000000000000     
   1.3437500000000000        1.0000000000000000        0.0000000000000000     
   1.3750000000000000        1.0000000000000000        0.0000000000000000     
   1.3750000000000000       0.87500000000000000        0.0000000000000000     
   1.4062500000000000       0.87500000000000000        0.0000000000000000     
   1.4375000000000000       0.87500000000000000        0.0000000000000000     
   1.4687500000000000       0.87500000000000000        0.0000000000000000     
   1.5000000000000000       0.87500000000000000        0.0000000000000000     
   1.3750000000000000       0.90625000000000000        0.0000000000000000     
   1.4062500000000000       0.90625000000000000        0.0000000000000000     
   1.4375000000000000       0.90625000000000000        0.0000000000000000     
   1.4687500000000000       0.90625000000000000        0.0000000000000000     
   1.5000000000000000       0.90625000000000000        0.0000000000000000     
   1.3750000000000000       0.93750000000000000        0.0000000000000000     
   1.4062500000000000       0.93750000000000000        0.0000000000000000     
   1.4375000000000000       0.93750000000000000        0.0000000000000000     
   1.4687500000000000       0.93750000000000000        0.0000000000000000     
   1.5000000000000000       0.93750000000000000        0.0000000000000000     
   1.3750000000000000       0.96875000000000000        0.0000000000000000     
   1.4062500000000000       0.96875000000000000        0.0000000000000000     
   1.4375000000000000       0.96875000000000000        0.0000000000000000     
   1.4687500000000000       0.96875000000000000        0.0000000000000000     
   1.5000000000000000       0.96875000000000000        0.0000000000000000     
   1.3750000000000000        1.0000000000000000        0.0000000000000000     
   1.4062500000000000        1.0000000000000000        0.0000000000000000     
   1.4375000000000000        1.0000000000000000        0.0000000000000000     
   1.4687500000000000        1.0000000000000000        0.0000000000000000     
   1.5000000000000000        1.0000000000000000        0.0000000000000000     
 </DataArray>
 </Points>
 <Cells>
 <DataArray  type="Int32"  Name="connectivity"  format="ascii">
           0           1           6           5
           1           2           7           6
           2           3           8           7
           3           4           9           8
           5           6          11          10
           6           7          12          11
           7           8          13          12
           8           9          14          13
          10          11          16          15
          11          12          17          16
          12          13          18          17
          13          14          19          18
          15          16          21          20
          16          17          22          21
          17          18          23          22
          18          19          24          23
          25          26          31          30
          26          27          32          31
          27          28          33          32
          28          29          34          33
          30          31          36          35
          31          32          37          36
          32          33          38          37
          33          34          39          38
          35          36          41          40
          36          37          42          41
          37          38          43          42
          38          39          44          43
          40          41          46          45
          41          42          47          46
          42          43          48          47
          43          44          49          48
          50          51          56          55
          51          52          57          56
          52          53          58          57
          53          54          59          58
          55          56          61          60
          56          57          62          61
          57          58          63          62
          58          59          64          63
          60          61          66          65
          61          62          67          66
          62          63          68          67
          63          64          69          68
          65          66          71          70
          66          67          72          71
          67          68          73          72
          68          69          74          73
          75          76          81          80
          76          77          82          81
          77          78          83          82
          78          79          84          83
          80          81          86          85
          81          82          87          86
          82          83          88          87
          83          84          89          88
          85          86          91          90
          86          87          92          91
          87          88          93          92
          88          89          94          93
          90          91          96          95
          91          92          97          96
          92          93          98          97
          93          94          99          98
         100         101         106         105
         101         102         107         106
         102         103         108         107
         103         104         109         108
         105         106         111         110
         106         107         112         111
         107         108         113         112
         108         109         114         113
         110         111         116         115
         111         112         117         116
         112         113         118         117
         113         114         119         118
         115         116         121         120
         116         117         122         121
         117         118         123         122
         118         119         124         123
         125         126         131         130
         126         127         132         131
         127         128         133         132
         128         129         134         133
         130         131         136         135
         131         132         137         136
         132         133         138         137
         133         134         139         138
         135         136         141         140
         136         137         142         141
         137         138         143         142
         138         139         144         143
         140         141         146         145
         141         142         147         146
         142         143         148         147
         143         144         149         148
         150         151         156         155
         151         152         157         156
         152         153         158         157
         153         154         159         158
         155         156         161         160
         156         157         162         161
         157         158         163         162
         158         159         164         163
         160         161         166         165
         161         162         167         166
         162         163         168         167
         163         164         169         168
         165         166         171         170
         166         167         172         171
         167         168         173         172
         168         169         174         173
         175         176         181         180
         176         177         182         181
         177         178         183         182
         178         179         184         183
         180         181         186         185
         181         182         187         186
         182         183         188         187
         183         184         189         188
         185         186         191         190
         186         187         192         191
         187         188         193         192
         188         189         194         193
         190         191         196         195
         191         192         197         196
         192         193         198         197
         193         194         199         198
         200         201         206         205
         201         202         207         206
         202         203         208         207
         203         204         209         208
         205         206         211         210
         206         207         212         211
         207         208         213         212
         208         209         214         213
         210         211         216         215
         211         212         217         216
         212         213         218         217
         213         214         219         218
         215         216         221         220
         216         217         222         221
         217         218         223         222
         218         219         224         223
         225         226         231         230
         226         227         232         231
         227         228         233         232
         228         229         234         233
         230         231         236         235
         231         232         237         236
         232         233         238         237
         233         234         239         238
         235         236         241         240
         236         237         242         241
         237         238         243         242
         238         239         244         243
         240         241         246         245
         241         242         247         246
         242         243         248         247
         243         244         249         248
         250         251         256         255
         251         252         257         256
         252         253         258         257
         253         254         259         258
         255         256         261         260
         256         257         262         261
         257         258         263         262
         258         259         264         263
         260         261         266         265
         261         262         267         266
         262         263         268         267
         263         264         269         268
         265         266         271         270
         266         267         272         271
         267         268         273         272
         268         269         274         273
         275         276         281         280
         276         277         282         281
         277         278         283         282
         278         279         284         283
         280         281         286         285
         281         282         287         286
         282         283         288         287
         283         284         289         288
         285         286         291         290
         286         287         292         291
         287         288         293         292
         288         289         294         293
         290         291         296         295
         291         292         297         296
         292         293         298         297
         293         294         299         298
         300         301         306         305
         301         302         307         306
         302         303         308         307
         303         304         309         308
         305         306         311         310
         306         307         312         311
         307         308         313         312
         308         309         314         313
         310         311         316         315
         311         312         317         316
         312         313         318         317
         313         314         319         318
         315         316         321         320
         316         317         322         321
         317         318         323         322
         318         319         324         323
         325         326         331         330
         326         327         332         331
         327         328         333         332
         328         329         334         333
         330         331         336         335
         331         332         337         336
         332         333         338         337
         333         334         339         338
         335         336         341         340
         336         337         342         341
         337         338         343         342
         338         339         344         343
         340         341         346         345
         341         342         347         346
         342         343         348         347
         343         344         349         348
         350         351         356         355
         351         352         357         356
         352         353         358         357
         353         354         359         358
         355         356         361         360
         356         357         362         361
         357         358         363         362
         358         359         364         363
         360         361         366         365
         361         362         367         366
         362         363         368         367
         363         364         369         368
         365         366         371         370
         366         367         372         371
         367         368         373         372
         368         369         374         373
         375         376         381         380
         376         377         382         381
         377         378         383         382
         378         379         384         383
         380         381         386         385
         381         382         387         386
         382         383         388         387
         383         384         389         388
         385         386         391         390
         386         387         392         391
         387         388         393         392
         388         389         394         393
         390         391         396         395
         391         392         397         396
         392         393         398         397
         393         394         399         398
         400         401         406         405
         401         402         407         406
         402         403         408         407
         403         404         409         408
         405         406         411         410
         406         407         412         411
         407         408         413         412
         408         409         414         413
         410         411         416         415
         411         412         417         416
         412         413         418         417
         413         414         419         418
         415         416         421         420
         416         417         422         421
         417         418         423         422
         418         419         424         423
         425         426         431         430
         426         427         432         431
         427         428         433         432
         428         429         434         433
         430         431         436         435
         431         432         437         436
         432         433         438         437
         433         434         439         438
         435         436         441         440
         436         437         442         441
         437         438         443         442
         438         439         444         443
         440         441         446         445
         441         442         447         446
         442         443         448         447
         443         444         449         448
         450         451         456         455
         451         452         457         456
         452         453         458         457
         453         454         459         458
         455         456         461         460
         456         457         462         461
         457         458         463         462
         458         459         464         463
         460         461         466         465
         461         462         467         466
         462         463         468         467
         463         464         469         468
         465         466         471         470
         466         467         472         471
         467         468         473         472
         468         469         474         473
         475         476         481         480
         476         477         482         481
         477         478         483         482
         478         479         484         483
         480         481         486         485
         481         482         487         486
         482         483         488         487
         483         484         489         488
         485         486         491         490
         486         487         492         491
         487         488         493         492
         488         489         494         493
         490         491         496         495
         491         492         497         496
         492         493         498         497
         493         494         499         498
         500         501         506         505
         501         502         507         506
         502         503         508         507
         503         504         509         508
         505         506         511         510
         506         507         512         511
         507         508         513         512
         508         509         514         513
         510         511         516         515
         511         512         517         516
         512         513         518         517
         513         514         519         518
         515         516         521         520
         516         517         522         521
         517         518         523         522
         518         519         524         523
         525         526         531         530
         526         527         532         531
         527         528         533         532
         528         529         534         533
         530         531         536         535
         531         532         537         536
         532         533         538         537
         533         534         539         538
         535         536         541         540
         536         537         542         541
         537         538         543         542
         538         539         544         543
         540         541         546         545
         541         542         547         546
         542         543         548         547
         543         544         549         548
         550         551         556         555
         551         552         557         556
         552         553         558         557
         553         554         559         558
         555         556         561         560
         556         557         562         561
         557         558         563         562
         558         559         564         563
         560         561         566         565
         561         562         567         566
         562         563         568         567
         563         564         569         568
         565         566         571         570
         566         567         572         571
         567         568         573         572
         568         569         574         573
         575         576         581         580
         576         577         582         581
         577         578         583         582
         578         579         584         583
         580         581         586         585
         581         582         587         586
         582         583         588         587
         583         584         589         588
         585         586         591         590
         586         587         592         591
         587         588         593         592
         588         589         594         593
         590         591         596         595
         591         592         597         596
         592         593         598         597
         593         594         599         598
         600         601         606         605
         601         602         607         606
         602         603         608         607
         603         604         609         608
         605         606         611         610
         606         607         612         611
         607         608         613         612
         608         609         614         613
         610         611         616         615
         611         612         617         616
         612         613         618         617
         613         614         619         618
         615         616         621         620
         616         617         622         621
         617         618         623         622
         618         619         624         623
         625         626         631         630
         626         627         632         631
         627         628         633         632
         628         629         634         633
         630         631         636         635
         631         632         637         636
         632         633         638         637
         633         634         639         638
         635         636         641         640
         636         637         642         641
         637         638         643         642
         638         639         644         643
         640         641         646         645
         641         642         647         646
         642         643         648         647
         643         644         649         648
         650         651         656         655
         651         652         657         656
         652         653         658         657
         653         654         659         658
         655         656         661         660
         656         657         662         661
         657         658         663         662
         658         659         664         663
         660         661         666         665
         661         662         667         666
         662         663         668         667
         663         664         669         668
         665         666         671         670
         666         667         672         671
         667         668         673         672
         668         669         674         673
         675         676         681         680
         676         677         682         681
         677         678         683         682
         678         679         684         683
         680         681         686         685
         681         682         687         686
         682         683         688         687
         683         684         689         688
         685         686         691         690
         686         687         692         691
         687         688         693         692
         688         689         694         693
         690         691         696         695
         691         692         697         696
         692         693         698         697
         693         694         699         698
         700         701         706         705
         701         702         707         706
         702         703         708         707
         703         704         709         708
         705         706         711         710
         706         707         712         711
         707         708         713         712
         708         709         714         713
         710         711         716         715
         711         712         717         716
         712         713         718         717
         713         714         719         718
         715         716         721         720
         716         717         722         721
         717         718         723         722
         718         719         724         723
         725         726         731         730
         726         727         732         731
         727         728         733         732
         728         729         734         733
         730         731         736         735
         731         732         737         736
         732         733         738         737
         733         734         739         738
         735         736         741         740
         736         737         742         741
         737         738         743         742
         738         739         744         743
         740         741         746         745
         741         742         747         746
         742         743         748         747
         743         744         749         748
         750         751         756         755
         751         752         757         756
         752         753         758         757
         753         754         759         758
         755         756         761         760
         756         757         762         761
         757         758         763         762
         758         759         764         763
         760         761         766         765
         761         762         767         766
         762         763         768         767
         763         764         769         768
         765         766         771         770
         766         767         772         771
         767         768         773         772
         768         769         774         773
         775         776         781         780
         776         777         782         781
         777         778         783         782
         778         779         784         783
         780         781         786         785
         781         782         787         786
         782         783         788         787
         783         784         789         788
         785         786         791         790
         786         787         792         791
         787         788         793         792
         788         789         794         793
         790         791         796         795
         791         792         797         796
         792         793         798         797
         793         794         799         798
         800         801         806         805
         801         802         807         806
         802         803         808         807
         803         804         809         808
         805         806         811         810
         806         807         812         811
         807         808         813         812
         808         809         814         813
         810         811         816         815
         811         812         817         816
         812         813         818         817
         813         814         819         818
         815         816         821         820
         816         817         822         821
         817         818         823         822
         818         819         824         823
         825         826         831         830
         826         827         832         831
         827         828         833         832
         828         829         834         833
         830         831         836         835
         831         832         837         836
         832         833         838         837
         833         834         839         838
         835         836         841         840
         836         837         842         841
         837         838         843         842
         838         839         844         843
         840         841         846         845
         841         842         847         846
         842         843         848         847
         843         844         849         848
         850         851         856         855
         851         852         857         856
         852         853         858         857
         853         854         859         858
         855         856         861         860
         856         857         862         861
         857         858         863         862
         858         859         864         863
         860         861         866         865
         861         862         867         866
         862         863         868         867
         863         864         869         868
         865         866         871         870
         866         867         872         871
         867         868         873         872
         868         869         874         873
         875         876         881         880
         876         877         882         881
         877         878         883         882
         878         879         884         883
         880         881         886         885
         881         882         887         886
         882         883         888         887
         883         884         889         888
         885         886         891         890
         886         887         892         891
         887         888         893         892
         888         889         894         893
         890         891         896         895
         891         892         897         896
         892         893         898         897
         893         894         899         898
         900         901         906         905
         901         902         907         906
         902         903         908         907
         903         904         909         908
         905         906         911         910
         906         907         912         911
         907         908         913         912
         908         909         914         913
         910         911         916         915
         911         912         917         916
         912         913         918         917
         913         914         919         918
         915         916         921         920
         916         917         922         921
         917         918         923         922
         918         919         924         923
         925         926         931         930
         926         927         932         931
         927         928         933         932
         928         929         934         933
         930         931         936         935
         931         932         937         936
         932         933         938         937
         933         934         939         938
         935         936         941         940
         936         937         942         941
         937         938         943         942
         938         939         944         943
         940         941         946         945
         941         942         947         946
         942         943         948         947
         943         944         949         948
         950         951         956         955
         951         952         957         956
         952         953         958         957
         953         954         959         958
         955         956         961         960
         956         957         962         961
         957         958         963         962
         958         959         964         963
         960         961         966         965
         961         962         967         966
         962         963         968         967
         963         964         969         968
         965         966         971         970
         966         967         972         971
         967         968         973         972
         968         969         974         973
         975         976         981         980
         976         977         982         981
         977         978         983         982
         978         979         984         983
         980         981         986         985
         981         982         987         986
         982         983         988         987
         983         984         989         988
         985         986         991         990
         986         987         992         991
         987         988         993         992
         988         989         994         993
         990         991         996         995
         991         992         997         996
         992         993         998         997
         993         994         999         998
        1000        1001        1006        1005
        1001        1002        1007        1006
        1002        1003        1008        1007
        1003        1004        1009        1008
        1005        1006        1011        1010
        1006        1007        1012        1011
        1007        1008        1013        1012
        1008        1009        1014        1013
        1010        1011        1016        1015
        1011        1012        1017        1016
        1012        1013        1018        1017
        1013        1014        1019        1018
        1015        1016        1021        1020
        1016        1017        1022        1021
        1017        1018        1023        1022
        1018        1019        1024        1023
        1025        1026        1031        1030
        1026        1027        1032        1031
        1027        1028        1033        1032
        1028        1029        1034        1033
        1030        1031        1036        1035
        1031        1032        1037        1036
        1032        1033        1038        1037
        1033        1034        1039        1038
        1035        1036        1041        1040
        1036        1037        1042        1041
        1037        1038        1043        1042
        1038        1039        1044        1043
        1040        1041        1046        1045
        1041        1042        1047        1046
        1042        1043        1048        1047
        1043        1044        1049        1048
        1050        1051        1056        1055
        1051        1052        1057        1056
        1052        1053        1058        1057
        1053        1054        1059        1058
        1055        1056        1061        1060
        1056        1057        1062        1061
        1057        1058        1063        1062
        1058        1059        1064        1063
        1060        1061        1066        1065
        1061        1062        1067        1066
        1062        1063        1068        1067
        1063        1064        1069        1068
        1065        1066        1071        1070
        1066        1067        1072        1071
        1067        1068        1073        1072
        1068        1069        1074        1073
        1075        1076        1081        1080
        1076        1077        1082        1081
        1077        1078        1083        1082
        1078        1079        1084        1083
        1080        1081        1086        1085
        1081        1082        1087        1086
        1082        1083        1088        1087
        1083        1084        1089        1088
        1085        1086        1091        1090
        1086        1087        1092        1091
        1087        1088        1093        1092
        1088        1089        1094        1093
        1090        1091        1096        1095
        1091        1092        1097        1096
        1092        1093        1098        1097
        1093        1094        1099        1098
        1100        1101        1106        1105
        1101        1102        1107        1106
        1102        1103        1108        1107
        1103        1104        1109        1108
        1105        1106        1111        1110
        1106        1107        1112        1111
        1107        1108        1113        1112
        1108        1109        1114        1113
        1110        1111        1116        1115
        1111        1112        1117        1116
        1112        1113        1118        1117
        1113        1114        1119        1118
        1115        1116        1121        1120
        1116        1117        1122        1121
        1117        1118        1123        1122
        1118        1119        1124        1123
        1125        1126        1131        1130
        1126        1127        1132        1131
        1127        1128        1133        1132
        1128        1129        1134        1133
        1130        1131        1136        1135
        1131        1132        1137        1136
        1132        1133        1138        1137
        1133        1134        1139        1138
        1135        1136        1141        1140
        1136        1137        1142        1141
        1137        1138        1143        1142
        1138        1139        1144        1143
        1140        1141        1146        1145
        1141        1142        1147        1146
        1142        1143        1148        1147
        1143        1144        1149        1148
        1150        1151        1156        1155
        1151        1152        1157        1156
        1152        1153        1158        1157
        1153        1154        1159        1158
        1155        1156        1161        1160
        1156        1157        1162        1161
        1157        1158        1163        1162
        1158        1159        1164        1163
        1160        1161        1166        1165
        1161        1162        1167        1166
        1162        1163        1168        1167
        1163        1164        1169        1168
        1165        1166        1171        1170
        1166        1167        1172        1171
        1167        1168        1173        1172
        1168        1169        1174        1173
        1175        1176        1181        1180
        1176        1177        1182        1181
        1177        1178        1183        1182
        1178        1179        1184        1183
        1180        1181        1186        1185
        1181        1182        1187        1186
        1182        1183        1188        1187
        1183        1184        1189        1188
        1185        1186        1191        1190
        1186        1187        1192        1191
        1187        1188        1193        1192
        1188        1189        1194        1193
        1190        1191        1196        1195
        1191        1192        1197        1196
        1192        1193        1198        1197
        1193        1194        1199        1198
        1200        1201        1206        1205
        1201        1202        1207        1206
        1202        1203        1208        1207
        1203        1204        1209        1208
        1205        1206        1211        1210
        1206        1207        1212        1211
        1207        1208        1213        1212
        1208        1209        1214        1213
        1210        1211        1216        1215
        1211        1212        1217        1216
        1212        1213        1218        1217
        1213        1214        1219        1218
        1215        1216        1221        1220
        1216        1217        1222        1221
        1217        1218        1223        1222
        1218        1219        1224        1223
        1225        1226        1231        1230
        1226        1227        1232        1231
        1227        1228        1233        1232
        1228        1229        1234        1233
        1230        1231        1236        1235
        1231        1232        1237        1236
        1232        1233        1238        1237
        1233        1234        1239        1238
        1235        1236        1241        1240
        1236        1237        1242        1241
        1237        1238        1243        1242
        1238        1239        1244        1243
        1240        1241        1246        1245
        1241        1242        1247        1246
        1242        1243        1248        1247
        1243        1244        1249        1248
        1250        1251        1256        1255
        1251        1252        1257        1256
        1252        1253        1258        1257
        1253        1254        1259        1258
        1255        1256        1261        1260
        1256        1257        1262        1261
        1257        1258        1263        1262
        1258        1259        1264        1263
        1260        1261        1266        1265
        1261        1262        1267        1266
        1262        1263        1268        1267
        1263        1264        1269        1268
        1265        1266        1271        1270
        1266        1267        1272        1271
        1267        1268        1273        1272
        1268        1269        1274        1273
        1275        1276        1281        1280
        1276        1277        1282        1281
        1277        1278        1283        1282
        1278        1279        1284        1283
        1280        1281        1286        1285
        1281        1282        1287        1286
        1282        1283        1288        1287
        1283        1284        1289        1288
        1285        1286        1291        1290
        1286        1287        1292        1291
        1287        1288        1293        1292
        1288        1289        1294        1293
        1290        1291        1296        1295
        1291        1292        1297        1296
        1292        1293        1298        1297
        1293        1294        1299        1298
        1300        1301        1306        1305
        1301        1302        1307        1306
        1302        1303        1308        1307
        1303        1304        1309        1308
        1305        1306        1311        1310
        1306        1307        1312        1311
        1307        1308        1313        1312
        1308        1309        1314        1313
        1310        1311        1316        1315
        1311        1312        1317        1316
        1312        1313        1318        1317
        1313        1314        1319        1318
        1315        1316        1321        1320
        1316        1317        1322        1321
        1317        1318        1323        1322
        1318        1319        1324        1323
        1325        1326        1331        1330
        1326        1327        1332        1331
        1327        1328        1333        1332
        1328        1329        1334        1333
        1330        1331        1336        1335
        1331        1332        1337        1336
        1332        1333        1338        1337
        1333        1334        1339        1338
        1335        1336        1341        1340
        1336        1337        1342        1341
        1337        1338        1343        1342
        1338        1339        1344        1343
        1340        1341        1346        1345
        1341        1342        1347        1346
        1342        1343        1348        1347
        1343        1344        1349        1348
        1350        1351        1356        1355
        1351        1352        1357        1356
        1352        1353        1358        1357
        1353        1354        1359        1358
        1355        1356        1361        1360
        1356        1357        1362        1361
        1357        1358        1363        1362
        1358        1359        1364        1363
        1360        1361        1366        1365
        1361        1362        1367        1366
        1362        1363        1368        1367
        1363        1364        1369        1368
        1365        1366        1371        1370
        1366        1367        1372        1371
        1367        1368        1373        1372
        1368        1369        1374        1373
        1375        1376        1381        1380
        1376        1377        1382        1381
        1377        1378        1383        1382
        1378        1379        1384        1383
        1380        1381        1386        1385
        1381        1382        1387        1386
        1382        1383        1388        1387
        1383        1384        1389        1388
        1385        1386        1391        1390
        1386        1387        1392        1391
        1387        1388        1393        1392
        1388        1389        1394        1393
        1390        1391        1396        1395
        1391        1392        1397        1396
        1392        1393        1398        1397
        1393        1394        1399        1398
        1400        1401        1406        1405
        1401        1402        1407        1406
        1402        1403        1408        1407
        1403        1404        1409        1408
        1405        1406        1411        1410
        1406        1407        1412        1411
        1407        1408        1413        1412
        1408        1409        1414        1413
        1410        1411        1416        1415
        1411        1412        1417        1416
        1412        1413        1418        1417
        1413        1414        1419        1418
        1415        1416        1421        1420
        1416        1417        1422        1421
        1417        1418        1423        1422
        1418        1419        1424        1423
        1425        1426        1431        1430
        1426        1427        1432        1431
        1427        1428        1433        1432
        1428        1429        1434        1433
        1430        1431        1436        1435
        1431        1432        1437        1436
        1432        1433        1438        1437
        1433        1434        1439        1438
        1435        1436        1441        1440
        1436        1437        1442        1441
        1437        1438        1443        1442
        1438        1439        1444        1443
        1440        1441        1446        1445
        1441        1442        1447        1446
        1442        1443        1448        1447
        1443        1444        1449        1448
        1450        1451        1456        1455
        1451        1452        1457        1456
        1452        1453        1458        1457
        1453        1454        1459        1458
        1455        1456        1461        1460
        1456        1457        1462        1461
        1457        1458        1463        1462
        1458        1459        1464        1463
        1460        1461        1466        1465
        1461        1462        1467        1466
        1462        1463        1468        1467
        1463        1464        1469        1468
        1465        1466        1471        1470
        1466        1467        1472        1471
        1467        1468        1473        1472
        1468        1469        1474        1473
        1475        1476        1481        1480
        1476        1477        1482        1481
        1477        1478        1483        1482
        1478        1479        1484        1483
        1480        1481        1486        1485
        1481        1482        1487        1486
        1482        1483        1488        1487
        1483        1484        1489        1488
        1485        1486        1491        1490
        1486        1487        1492        1491
        1487        1488        1493        1492
        1488        1489        1494        1493
        1490        1491        1496        1495
        1491        1492        1497        1496
        1492        1493        1498        1497
        1493        1494        1499        1498
        1500        1501        1506        1505
        1501        1502        1507        1506
        1502        1503        1508        1507
        1503        1504        1509        1508
        1505        1506        1511        1510
        1506        1507        1512        1511
        1507        1508        1513        1512
        1508        1509        1514        1513
        1510        1511        1516        1515
        1511        1512        1517        1516
        1512        1513        1518        1517
        1513        1514        1519        1518
        1515        1516        1521        1520
        1516        1517        1522        1521
        1517        1518        1523        1522
        1518        1519        1524        1523
        1525        1526        1531        1530
        1526        1527        1532        1531
        1527        1528        1533        1532
        1528        1529        1534        1533
        1530        1531        1536        1535
        1531        1532        1537        1536
        1532        1533        1538        1537
        1533        1534        1539        1538
        1535        1536        1541        1540
        1536        1537        1542        1541
        1537        1538        1543        1542
        1538        1539        1544        1543
        1540        1541        1546        1545
        1541        1542        1547        1546
        1542        1543        1548        1547
        1543        1544        1549        1548
        1550        1551        1556        1555
        1551        1552        1557        1556
        1552        1553        1558        1557
        1553        1554        1559        1558
        1555        1556        1561        1560
        1556        1557        1562        1561
        1557        1558        1563        1562
        1558        1559        1564        1563
        1560        1561        1566        1565
        1561        1562        1567        1566
        1562        1563        1568        1567
        1563        1564        1569        1568
        1565        1566        1571        1570
        1566        1567        1572        1571
        1567        1568        1573        1572
        1568        1569        1574        1573
        1575        1576        1581        1580
        1576        1577        1582        1581
        1577        1578        1583        1582
        1578        1579        1584        1583
        1580        1581        1586        1585
        1581        1582        1587        1586
        1582        1583        1588        1587
        1583        1584        1589        1588
        1585        1586        1591        1590
        1586        1587        1592        1591
        1587        1588        1593        1592
        1588        1589        1594        1593
        1590        1591        1596        1595
        1591        1592        1597        1596
        1592        1593        1598        1597
        1593        1594        1599        1598
 </DataArray>
 <DataArray  type="Int32"  Name="offsets"  format="ascii"> 
           4
           8
          12
          16
          20
          24
          28
          32
          36
          40
          44
          48
          52
          56
          60
          64
          68
          72
          76
          80
          84
          88
          92
          96
         100
         104
         108
         112
         116
         120
         124
         128
         132
         136
         140
         144
         148
         152
         156
         160
         164
         168
         172
         176
         180
         184
         188
         192
         196
         200
         204
         208
         212
         216
         220
         224
         228
         232
         236
         240
         244
         248
         252
         256
         260
         264
         268
         272
         276
         280
         284
         288
         292
         296
         300
         304
         308
         312
         316
         320
         324
         328
         332
         336
         340
         344
         348
         352
         356
         360
         364
         368
         372
         376
         380
         384
         388
         392
         396
         400
         404
         408
         412
         416
         420
         424
         428
         432
         436
         440
         444
         448
         452
         456
         460
         464
         468
         472
         476
         480
         484
         488
         492
         496
         500
         504
         508
         512
         516
         520
         524
         528
         532
         536
         540
         544
         548
         552
         556
         560
         564
         568
         572
         576
         580
         584
         588
         592
         596
         600
         604
         608
         612
         616
         620
         624
         628
         632
         636
         640
         644
         648
         652
         656
         660
         664
         668
         672
         676
         680
         684
         688
         692
         696
         700
         704
         708
         712
         716
         720
         724
         728
         732
         736
         740
         744
         748
         752
         756
         760
         764
         768
         772
         776
         780
         784
         788
         792
         796
         800
         804
         808
         812
         816
         820
         824
         828
         832
         836
         840
         844
         848
         852
         856
         860
         864
         868
         872
         876
         880
         884
         888
         892
         896
         900
         904
         908
         912
         916
         920
         924
         928
         932
         936
         940
         944
         948
         952
         956
         960
         964
         968
         972
         976
         980
         984
         988
         992
         996
        1000
        1004
        1008
        1012
        1016
        1020
        1024
        1028
        1032
        1036
        1040
        1044
        1048
        1052
        1056
        1060
        1064
        1068
        1072
        1076
        1080
        1084
        1088
        1092
        1096
        1100
        1104
        1108
        1112
        1116
        1120
        1124
        1128
        1132
        1136
        1140
        1144
        1148
        1152
        1156
        1160
        1164
        1168
        1172
        1176
        1180
        1184
        1188
        1192
        1196
        1200
        1204
        1208
        1212
        1216
        1220
        1224
        1228
        1232
        1236
        1240
        1244
        1248
        1252
        1256
        1260
        1264
        1268
        1272
        1276
        1280
        1284
        1288
        1292
        1296
        1300
        1304
        1308
        1312
        1316
        1320
        1324
        1328
        1332
        1336
        1340
        1344
        1348
        1352
        1356
        1360
        1364
        1368
        1372
        1376
        1380
        1384
        1388
        1392
        1396
        1400
        1404
        1408
        1412
        1416
        1420
        1424
        1428
        1432
        1436
        1440
        1444
        1448
        1452
        1456
        1460
        1464
        1468
        1472
        1476
        1480
        1484
        1488
        1492
        1496
        1500
        1504
        1508
        1512
        1516
        1520
        1524
        1528
        1532
        1536
        1540
        1544
        1548
        1552
        1556
        1560
        1564
        1568
        1572
        1576
        1580
        1584
        1588
        1592
        1596
        1600
        1604
        1608
        1612
        1616
        1620
        1624
        1628
        1632
        1636
        1640
        1644
        1648
        1652
        1656
        1660
        1664
        1668
        1672
        1676
        1680
        1684
        1688
        1692
        1696
        1700
        1704
        1708
        1712
        1716
        1720
        1724
        1728
        1732
        1736
        1740
        1744
        1748
        1752
        1756
        1760
        1764
        1768
        1772
        1776
        1780
        1784
        1788
        1792
        1796
        1800
        1804
        1808
        1812
        1816
        1820
        1824
        1828
        1832
        1836
        1840
        1844
        1848
        1852
        1856
        1860
        1864
        1868
        1872
        1876
        1880
        1884
        1888
        1892
        1896
        1900
        1904
        1908
        1912
        1916
        1920
        1924
        1928
        1932
        1936
        1940
        1944
        1948
        1952
        1956
        1960
        1964
        1968
        1972
        1976
        1980
        1984
        1988
        1992
        1996
        2000
        2004
        2008
        2012
        2016
        2020
        2024
        2028
        2032
        2036
        2040
        2044
        2048
        2052
        2056
        2060
        2064
        2068
        2072
        2076
        2080
        2084
        2088
        2092
        2096
        2100
        2104
        2108
        2112
        2116
        2120
        2124
        2128
        2132
        2136
        2140
        2144
        2148
        2152
        2156
        2160
        2164
        2168
        2172
        2176
        2180
        2184
        2188
        2192
        2196
        2200
        2204
        2208
        2212
        2216
        2220
        2224
        2228
        2232
        2236
        2240
        2244
        2248
        2252
        2256
        2260
        2264
        2268
        2272
        2276
        2280
        2284
        2288
        2292
        2296
        2300
        2304
        2308
        2312
        2316
        2320
        2324
        2328
        2332
        2336
        2340
        2344
        2348
        2352
        2356
        2360
        2364
        2368
        2372
        2376
        2380
        2384
        2388
        2392
        2396
        2400
        2404
        2408
        2412
        2416
        2420
        2424
        2428
        2432
        2436
        2440
        2444
        2448
        2452
        2456
        2460
        2464
        2468
        2472
        2476
        2480
        2484
        2488
        2492
        2496
        2500
        2504
        2508
        2512
        2516
        2520
        2524
        2528
        2532
        2536
        2540
        2544
        2548
        2552
        2556
        2560
        2564
        2568
        2572
        2576
        2580
        2584
        2588
        2592
        2596
        2600
        2604
        2608
        2612
        2616
        2620
        2624
        2628
        2632
        2636
        2640
        2644
        2648
        2652
        2656
        2660
        2664
        2668
        2672
        2676
        2680
        2684
        2688
        2692
        2696
        2700
        2704
        2708
        2712
        2716
        2720
        2724
        2728
        2732
        2736
        2740
        2744
        2748
        2752
        2756
        2760
        2764
        2768
        2772
        2776
        2780
        2784
        2788
        2792
        2796
        2800
        2804
        2808
        2812
        2816
        2820
        2824
        2828
        2832
        2836
        2840
        2844
        2848
        2852
        2856
        2860
        2864
        2868
        2872
        2876
        2880
        2884
        2888
        2892
        2896
        2900
        2904
        2908
        2912
        2916
        2920
        2924
        2928
        2932
        2936
        2940
        2944
        2948
        2952
        2956
        2960
        2964
        2968
        2972
        2976
        2980
        2984
        2988
        2992
        2996
        3000
        3004
        3008
        3012
        3016
        3020
        3024
        3028
        3032
        3036
        3040
        3044
        3048
        3052
        3056
        3060
        3064
        3068
        3072
        3076
        3080
        3084
        3088
        3092
        3096
        3100
        3104
        3108
        3112
        3116
        3120
        3124
        3128
        3132
        3136
        3140
        3144
        3148
        3152
        3156
        3160
        3164
        3168
        3172
        3176
        3180
        3184
        3188
        3192
        3196
        3200
        3204
        3208
        3212
        3216
        3220
        3224
        3228
        3232
        3236
        3240
        3244
        3248
        3252
        3256
        3260
        3264
        3268
        3272
        3276
        3280
        3284
        3288
        3292
        3296
        3300
        3304
        3308
        3312
        3316
        3320
        3324
        3328
        3332
        3336
        3340
        3344
        3348
        3352
        3356
        3360
        3364
        3368
        3372
        3376
        3380
        3384
        3388
        3392
        3396
        3400
        3404
        3408
        3412
        3416
        3420
        3424
        3428
        3432
        3436
        3440
        3444
        3448
        3452
        3456
        3460
        3464
        3468
        3472
        3476
        3480
        3484
        3488
        3492
        3496
        3500
        3504
        3508
        3512
        3516
        3520
        3524
        3528
        3532
        3536
        3540
        3544
        3548
        3552
        3556
        3560
        3564
        3568
        3572
        3576
        3580
        3584
        3588
        3592
        3596
        3600
        3604
        3608
        3612
        3616
        3620
        3624
        3628
        3632
        3636
        3640
        3644
        3648
        3652
        3656
        3660
        3664
        3668
        3672
        3676
        3680
        3684
        3688
        3692
        3696
        3700
        3704
        3708
        3712
        3716
        3720
        3724
        3728
        3732
        3736
        3740
        3744
        3748
        3752
        3756
        3760
        3764
        3768
        3772
        3776
        3780
        3784
        3788
        3792
        3796
        3800
        3804
        3808
        3812
        3816
        3820
        3824
        3828
        3832
        3836
        3840
        3844
        3848
        3852
        3856
        3860
        3864
        3868
        3872
        3876
        3880
        3884
        3888
        3892
        3896
        3900
        3904
        3908
        3912
        3916
        3920
        3924
        3928
        3932
        3936
        3940
        3944
        3948
        3952
        3956
        3960
        3964
        3968
        3972
        3976
        3980
        3984
        3988
        3992
        3996
        4000
        4004
        4008
        4012
        4016
        4020
        4024
        4028
        4032
        4036
        4040
        4044
        4048
        4052
        4056
        4060
        4064
        4068
        4072
        4076
        4080
        4084
        4088
        4092
        4096
 </DataArray>
 <DataArray  type="UInt8"  Name="types"  format="ascii">
 9
 9
 9
 9
 9
 9
 9
 9
 9
 9
 9
 9
 9
 9
 9
 9
 9
 9
 9
 9
 9
 9
 9
 9
 9
 9
 9
 9
 9
 9
 9
 9
 9
 9
 9
 9
 9
 9
 9
 9
 9
 9
 9
 9
 9
 9
 9
 9
 9
 9
 9
 9
 9
 9
 9
 9
 9
 9
 9
 9
 9
 9
 9
 9
 9
 9
 9
 9
 9
 9
 9
 9
 9
 9
 9
 9
 9
 9
 9
 9
 9
 9
 9
 9
 9
 9
 9
 9
 9
 9
 9
 9
 9
 9
 9
 9
 9
 9
 9
 9
 9
 9
 9
 9
 9
 9
 9
 9
 9
 9
 9
 9
 9
 9
 9
 9
 9
 9
 9
 9
 9
 9
 9
 9
 9
 9
 9
 9
 9
 9
 9
 9
 9
 9
 9
 9
 9
 9
 9
 9
 9
 9
 9
 9
 9
 9
 9
 9
 9
 9
 9
 9
 9
 9
 9
 9
 9
 9
 9
 9
 9
 9
 9
 9
 9
 9
 9
 9
 9
 9
 9
 9
 9
 9
 9
 9
 9
 9
 9
 9
 9
 9
 9
 9
 9
 9
 9
 9
 9
 9
 9
 9
 9
 9
 9
 9
 9
 9
 9
 9
 9
 9
 9
 9
 9
 9
 9
 9
 9
 9
 9
 9
 9
 9
 9
 9
 9
 9
 9
 9
 9
 9
 9
 9
 9
 9
 9
 9
 9
 9
 9
 9
 9
 9
 9
 9
 9
 9
 9
 9
 9
 9
 9
 9
 9
 9
 9
 9
 9
 9
 9
 9
 9
 9
 9
 9
 9
 9
 9
 9
 9
 9
 9
 9
 9
 9
 9
 9
 9
 9
 9
 9
 9
 9
 9
 9
 9
 9
 9
 9
 9
 9
 9
 9
 9
 9
 9
 9
 9
 9
 9
 9
 9
 9
 9
 9
 9
 9
 9
 9
 9
 9
 9
 9
 9
 9
 9
 9
 9
 9
 9
 9
 9
 9
 9
 9
 9
 9
 9
 9
 9
 9
 9
 9
 9
 9
 9
 9
 9
 9
 9
 9
 9
 9
 9
 9
 9
 9
 9
 9
 9
 9
 9
 9
 9
 9
 9
 9
 9
 9
 9
 9
 9
 9
 9
 9
 9
 9
 9
 9
 9
 9
 9
 9
 9
 9
 9
 9
 9
 9
 9
 9
 9
 9
 9
 9
 9
 9
 9
 9
 9
 9
 9
 9
 9
 9
 9
 9
 9
 9
 9
 9
 9
 9
 9
 9
 9
 9
 9
 9
 9
 9
 9
 9
 9
 9
 9
 9
 9
 9
 9
 9
 9
 9
 9
 9
 9
 9
 9
 9
 9
 9
 9
 9
 9
 9
 9
 9
 9
 9
 9
 9
 9
 9
 9
 9
 9
 9
 9
 9
 9
 9
 9
 9
 9
 9
 9
 9
 9
 9
 9
 9
 9
 9
 9
 9
 9
 9
 9
 9
 9
 9
 9
 9
 9
 9
 9
 9
 9
 9
 9
 9
 9
 9
 9
 9
 9
 9
 9
 9
 9
 9
 9
 9
 9
 9
 9
 9
 9
 9
 9
 9
 9
 9
 9
 9
 9
 9
 9
 9
 9
 9
 9
 9
 9
 9
 9
 9
 9
 9
 9
 9
 9
 9
 9
 9
 9
 9
 9
 9
 9
 9
 9
 9
 9
 9
 9
 9
 9
 9
 9
 9
 9
 9
 9
 9
 9
 9
 9
 9
 9
 9
 9
 9
 9
 9
 9
 9
 9
 9
 9
 9
 9
 9
 9
 9
 9
 9
 9
 9
 9
 9
 9
 9
 9
 9
 9
 9
 9
 9
 9
 9
 9
 9
 9
 9
 9
 9
 9
 9
 9
 9
 9
 9
 9
 9
 9
 9
 9
 9
 9
 9
 9
 9
 9
 9
 9
 9
 9
 9
 9
 9
 9
 9
 9
 9
 9
 9
 9
 9
 9
 9
 9
 9
 9
 9
 9
 9
 9
 9
 9
 9
 9
 9
 9
 9
 9
 9
 9
 9
 9
 9
 9
 9
 9
 9
 9
 9
 9
 9
 9
 9
 9
 9
 9
 9
 9
 9
 9
 9
 9
 9
 9
 9
 9
 9
 9
 9
 9
 9
 9
 9
 9
 9
 9
 9
 9
 9
 9
 9
 9
 9
 9
 9
 9
 9
 9
 9
 9
 9
 9
 9
 9
 9
 9
 9
 9
 9
 9
 9
 9
 9
 9
 9
 9
 9
 9
 9
 9
 9
 9
 9
 9
 9
 9
 9
 9
 9
 9
 9
 9
 9
 9
 9
 9
 9
 9
 9
 9
 9
 9
 9
 9
 9
 9
 9
 9
 9
 9
 9
 9
 9
 9
 9
 9
 9
 9
 9
 9
 9
 9
 9
 9
 9
 9
 9
 9
 9
 9
 9
 9
 9
 9
 9
 9
 9
 9
 9
 9
 9
 9
 9
 9
 9
 9
 9
 9
 9
 9
 9
 9
 9
 9
 9
 9
 9
 9
 9
 9
 9
 9
 9
 9
 9
 9
 9
 9
 9
 9
 9
 9
 9
 9
 9
 9
 9
 9
 9
 9
 9
 9
 9
 9
 9
 9
 9
 9
 9
 9
 9
 9
 9
 9
 9
 9
 9
 9
 9
 9
 9
 9
 9
 9
 9
 9
 9
 9
 9
 9
 9
 9
 9
 9
 9
 9
 9
 9
 9
 9
 9
 9
 9
 9
 9
 9
 9
 9
 9
 9
 9
 9
 9
 9
 9
 9
 9
 9
 9
 9
 9
 9
 9
 9
 9
 9
 9
 9
 9
 9
 9
 9
 9
 9
 9
 9
 9
 9
 9
 9
 9
 9
 9
 9
 9
 9
 9
 9
 9
 9
 9
 9
 9
 9
 9
 9
 9
 9
 9
 9
 9
 9
 9
 9
 9
 9
 9
 9
 9
 9
 9
 9
 9
 9
 9
 9
 9
 9
 9
 9
 9
 9
 9
 9
 9
 9
 9
 9
 9
 9
 9
 9
 9
 9
 9
 9
 9
 9
 9
 9
 9
 9
 9
 9
 9
 9
 9
 9
 9
 9
 9
 9
 9
 9
 9
 9
 9
 9
 9
 9
 9
 9
 9
 9
 9
 9
 9
 9
 9
 9
 9
 9
 9
 9
 9
 9
 9
 9
 9
 9
 9
 9
 9
 9
 9
 9
 9
 9
 9
 9
 9
 9
 9
 9
 9
 9
 9
 9
 9
 9
 9
 9
 9
 9
 9
 9
 9
 9
 9
 9
 9
 9
 9
 9
 9
 9
 9
 9
 9
 9
 9
 9
 9
 9
 9
 </DataArray>
 </Cells> 
 <PointData>
 <DataArray  type="Float64" Name="disp" NumberOfComponents="3" format="ascii">
   7.5460458771608202E-002   5.7138846648322306E-002   0.0000000000000000     
   7.5727793292134860E-002   6.5145672389046255E-002   0.0000000000000000     
   7.6510631551034575E-002   7.2589456570288841E-002   0.0000000000000000     
   7.7808973548307403E-002   7.9470199192050020E-002   0.0000000000000000     
   7.9622819283953317E-002   8.5787900254329835E-002   0.0000000000000000     
   6.5145363786808186E-002   5.8189785175534955E-002   0.0000000000000000     
   6.6439335196816565E-002   6.5413815702841771E-002   0.0000000000000000     
   6.8052800956614631E-002   7.2299675934289737E-002   0.0000000000000000     
   6.9985761066202398E-002   7.8847365869878838E-002   0.0000000000000000     
   7.2238215525579852E-002   8.5056885509609104E-002   0.0000000000000000     
   5.6652093678504871E-002   5.8946178761076724E-002   0.0000000000000000     
   5.8581306483656614E-002   6.5491458777731049E-002   0.0000000000000000     
   6.0697512886600011E-002   7.1899106189732082E-002   0.0000000000000000     
   6.3000712887335025E-002   7.8169120997079830E-002   0.0000000000000000     
   6.5490906485861700E-002   8.4301503199774266E-002   0.0000000000000000     
   4.9980648446698230E-002   5.9408027404947619E-002   0.0000000000000000     
   5.2153707152655007E-002   6.5378601613714130E-002   0.0000000000000000     
   5.4444767340990720E-002   7.1387747336615917E-002   0.0000000000000000     
   5.6853829011705340E-002   7.7435464573652968E-002   0.0000000000000000     
   5.9380892164798880E-002   8.3521753324825296E-002   0.0000000000000000     
   4.5131028091388276E-002   5.9575331107147612E-002   0.0000000000000000     
   4.7156537203811744E-002   6.5075244210790986E-002   0.0000000000000000     
   4.9294564319786752E-002   7.0765599374941215E-002   0.0000000000000000     
   5.1545109439313293E-002   7.6646396599598293E-002   0.0000000000000000     
   5.3908172562391402E-002   8.2717635884762220E-002   0.0000000000000000     
   7.9622819283953317E-002   8.5787900254329835E-002   0.0000000000000000     
   8.1715231160871010E-002   9.1884792352205827E-002   0.0000000000000000     
   8.3849271581959206E-002   9.8103108080755522E-002   0.0000000000000000     
   8.6024940547217849E-002  0.10444284743997895        0.0000000000000000     
   8.8242238056646993E-002  0.11090401042987608        0.0000000000000000     
   7.2238215525579852E-002   8.5056885509609104E-002   0.0000000000000000     
   7.4615137373918478E-002   9.1160851729026299E-002   0.0000000000000000     
   7.6921499650389802E-002   9.7391881403676273E-002   0.0000000000000000     
   7.9157302354993797E-002  0.10374997453355896        0.0000000000000000     
   8.1322545487730491E-002  0.11023513111867436        0.0000000000000000     
   6.5490906485861700E-002   8.4301503199774266E-002   0.0000000000000000     
   6.8003568609298681E-002   9.0430235616132074E-002   0.0000000000000000     
   7.0374174184764673E-002   9.6689301064469935E-002   0.0000000000000000     
   7.2602723212259676E-002  0.10307869954478785        0.0000000000000000     
   7.4689215691783661E-002  0.10959843105708583        0.0000000000000000     
   5.9380892164798880E-002   8.3521753324825296E-002   0.0000000000000000     
   6.1880524867011621E-002   8.9692944013523082E-002   0.0000000000000000     
   6.4207295185083807E-002   9.5995367063136536E-002   0.0000000000000000     
   6.6361203119015430E-002  0.10242902247366566        0.0000000000000000     
   6.8342248668806505E-002  0.10899391024511046        0.0000000000000000     
   5.3908172562391402E-002   8.2717635884762220E-002   0.0000000000000000     
   5.6246006147057284E-002   8.8948976921199352E-002   0.0000000000000000     
   5.8420862651347182E-002   9.5310079399676076E-002   0.0000000000000000     
   6.0432742075261101E-002  0.10180094332019239        0.0000000000000000     
   6.2281644418799041E-002  0.10842156868274827        0.0000000000000000     
   8.8242238056646993E-002  0.11090401042987608        0.0000000000000000     
   9.0442090996339250E-002  0.11751456328074704        0.0000000000000000     
   9.2565426252387298E-002  0.12430247222289194        0.0000000000000000     
   9.4612243824791109E-002  0.13126773725631075        0.0000000000000000     
   9.6582543713550725E-002  0.13841035838100355        0.0000000000000000     
   8.1322545487730491E-002  0.11023513111867436        0.0000000000000000     
   8.3414085475179228E-002  0.11687199494448251        0.0000000000000000     
   8.5428778743919465E-002  0.12368520979644339        0.0000000000000000     
   8.7366625293951131E-002  0.13067477567455699        0.0000000000000000     
   8.9227625125274282E-002  0.13784069257882328        0.0000000000000000     
   7.4689215691783661E-002  0.10959843105708583        0.0000000000000000     
   7.6666392475492701E-002  0.11626939329022690        0.0000000000000000     
   7.8566994415542837E-002  0.12311248393307413        0.0000000000000000     
   8.0391021511934072E-002  0.13012770298562754        0.0000000000000000     
   8.2138473764666417E-002  0.13731505044788708        0.0000000000000000     
   6.8342248668806505E-002  0.10899391024511046        0.0000000000000000     
   7.0199011997279653E-002  0.11570675831798019        0.0000000000000000     
   7.1980073267257458E-002  0.12258429463278418        0.0000000000000000     
   7.3685432478739946E-002  0.12962651918952242        0.0000000000000000     
   7.5315089631727089E-002  0.13683343198819489        0.0000000000000000     
   6.2281644418799041E-002  0.10842156868274827        0.0000000000000000     
   6.4011944040540086E-002  0.11518409002774242        0.0000000000000000     
   6.5668015299063312E-002  0.12210064189557356        0.0000000000000000     
   6.7249858194368725E-002  0.12917122428624167        0.0000000000000000     
   6.8757472726456340E-002  0.13639583719974677        0.0000000000000000     
   9.6582543713550725E-002  0.13841035838100355        0.0000000000000000     
   9.8462684406174200E-002  0.14569943835482513        0.0000000000000000     
  0.10023902439016966       0.15310407993563047        0.0000000000000000     
  0.10191156366553707       0.16062428312341950        0.0000000000000000     
  0.10348030223227644       0.16826004791819232        0.0000000000000000     
   8.9227625125274282E-002  0.13784069257882328        0.0000000000000000     
   9.1006780708098145E-002  0.14515331371822773        0.0000000000000000     
   9.2699094512631974E-002  0.15258299230175582        0.0000000000000000     
   9.4304566538875756E-002  0.16012972832940747        0.0000000000000000     
   9.5823196786829504E-002  0.16779352180118273        0.0000000000000000     
   8.2138473764666417E-002  0.13731505044788708        0.0000000000000000     
   8.3810555833955525E-002  0.14464780666053770        0.0000000000000000     
   8.5408472380017156E-002  0.15209925196426438        0.0000000000000000     
   8.6932223402851311E-002  0.15966938635906713        0.0000000000000000     
   8.8381808902457948E-002  0.16735820984494593        0.0000000000000000     
   7.5315089631727089E-002  0.13683343198819489        0.0000000000000000     
   7.6874009783746367E-002  0.14418291718175502        0.0000000000000000     
   7.8367157992325243E-002  0.15165285892315625        0.0000000000000000     
   7.9794534257463703E-002  0.15924325721239849        0.0000000000000000     
   8.1156138579161735E-002  0.16695411204948188        0.0000000000000000     
   6.8757472726456340E-002  0.13639583719974677        0.0000000000000000     
   7.0197142557470657E-002  0.14375864528187970        0.0000000000000000     
   7.1575151349556193E-002  0.15124381317843130        0.0000000000000000     
   7.2891499102712948E-002  0.15885134088940156        0.0000000000000000     
   7.4146185816940907E-002  0.16658122841479056        0.0000000000000000     
  0.10348030223227644       0.16826004791819232        0.0000000000000000     
  0.10496130606584661       0.17599071978324213        0.0000000000000000     
  0.10637064114170638       0.18379564418186228        0.0000000000000000     
  0.10770830745985580       0.19167482111405268        0.0000000000000000     
  0.10897430502029480       0.19962825057981343        0.0000000000000000     
   9.5823196786829504E-002  0.16779352180118273        0.0000000000000000     
   9.7256593404359507E-002  0.17555274236802601        0.0000000000000000     
   9.8606364539331970E-002  0.18338575968088167        0.0000000000000000     
   9.9872510191746963E-002  0.19129257373974967        0.0000000000000000     
  0.10105503036160443       0.19927318454463011        0.0000000000000000     
   8.8381808902457948E-002  0.16735820984494593        0.0000000000000000     
   8.9749275866473466E-002  0.17514345221672556        0.0000000000000000     
   9.1026671282534208E-002  0.18300284326923083        0.0000000000000000     
   9.2213995150640188E-002  0.19093638300246174        0.0000000000000000     
   9.3311247470791420E-002  0.19894407141641829        0.0000000000000000     
   8.1156138579161735E-002  0.16695411204948188        0.0000000000000000     
   8.2439353452188516E-002  0.17476284932934075        0.0000000000000000     
   8.3631561371313098E-002  0.18264689494690972        0.0000000000000000     
   8.4732762336535525E-002  0.19060624890218877        0.0000000000000000     
   8.5742956347855739E-002  0.19864091119517785        0.0000000000000000     
   7.4146185816940907E-002  0.16658122841479056        0.0000000000000000     
   7.5326826161504629E-002  0.17441093370587166        0.0000000000000000     
   7.6421034805668628E-002  0.18231791471391845        0.0000000000000000     
   7.7428811749432877E-002  0.19030217143893088        0.0000000000000000     
   7.8350156992797432E-002  0.19836370388090899        0.0000000000000000     
  0.10897430502029480       0.19962825057981343        0.0000000000000000     
  0.11016885313655284       0.20766185592816644        0.0000000000000000     
  0.11129217112215929       0.21578156050813366        0.0000000000000000     
  0.11234425897711417       0.22398736431971505        0.0000000000000000     
  0.11332511670141748       0.23227926736291071        0.0000000000000000     
  0.10105503036160443       0.19927318454463011        0.0000000000000000     
  0.10216079941203039       0.20733166317399007        0.0000000000000000     
  0.10319669170615083       0.21547208070629673        0.0000000000000000     
  0.10416270724396574       0.22369443714155010        0.0000000000000000     
  0.10505884602547511       0.23199873247975017        0.0000000000000000     
   9.3311247470791420E-002  0.19894407141641829        0.0000000000000000     
   9.4328571732831670E-002  0.20702833199162898        0.0000000000000000     
   9.5276111426604720E-002  0.21519158820862239        0.0000000000000000     
   9.6153866552110612E-002  0.22343384006739853        0.0000000000000000     
   9.6961837109349303E-002  0.23175508756795737        0.0000000000000000     
   8.5742956347855739E-002  0.19864091119517785        0.0000000000000000     
   8.6672170098956641E-002  0.20675186238108309        0.0000000000000000     
   8.7530430283520977E-002  0.21494008301511064        0.0000000000000000     
   8.8317736901548788E-002  0.22320557309726036        0.0000000000000000     
   8.9034089953040074E-002  0.23154833262753227        0.0000000000000000     
   7.8350156992797432E-002  0.19836370388090899        0.0000000000000000     
   7.9191594510405319E-002  0.20650225434235253        0.0000000000000000     
   7.9959648276899595E-002  0.21471756512576137        0.0000000000000000     
   8.0654318292280300E-002  0.22300963623113554        0.0000000000000000     
   8.1275604556547407E-002  0.23137846765847500        0.0000000000000000     
  0.11332511670141748       0.23227926736291071        0.0000000000000000     
  0.11426056150445629       0.24067124865322093        0.0000000000000000     
  0.11517641059561770       0.24917728720614607        0.0000000000000000     
  0.11607266397490169       0.25779738302168609        0.0000000000000000     
  0.11694932164230828       0.26653153609984109        0.0000000000000000     
  0.10505884602547511       0.23199873247975017        0.0000000000000000     
  0.10588834685708907       0.24040593417130959        0.0000000000000000     
  0.10665444854521773       0.24893700966664112        0.0000000000000000     
  0.10735715108986112       0.25759195896574472        0.0000000000000000     
  0.10799645449101920       0.26637078206862030        0.0000000000000000     
   9.6961837109349303E-002  0.23175508756795737        0.0000000000000000     
   9.7689660053106822E-002  0.24017961212170735        0.0000000000000000     
   9.8326972338169186E-002  0.24873169514005700        0.0000000000000000     
   9.8873773964536379E-002  0.25741133662300636        0.0000000000000000     
   9.9330064932208403E-002  0.26621853657055533        0.0000000000000000     
   8.9034089953040074E-002  0.23154833262753227        0.0000000000000000     
   8.9664501092509549E-002  0.23999228250441421        0.0000000000000000     
   9.0193981974472037E-002  0.24856134362639379        0.0000000000000000     
   9.0622532598927469E-002  0.25725551599347107        0.0000000000000000     
   9.0950152965875913E-002  0.26607479960564601        0.0000000000000000     
   8.1275604556547407E-002  0.23137846765847500        0.0000000000000000     
   8.1812869975297270E-002  0.23984394531943018        0.0000000000000000     
   8.2255477454126286E-002  0.24842595512565147        0.0000000000000000     
   8.2603426993034440E-002  0.25712449707713891        0.0000000000000000     
   8.2856718592021719E-002  0.26593957117389239        0.0000000000000000     
  0.11694932164230828       0.26653153609984109        0.0000000000000000     
  0.11774730496590390       0.27554507194139755        0.0000000000000000     
  0.11840753531375493       0.28500331604714207        0.0000000000000000     
  0.11893001268586144       0.29490626841707457        0.0000000000000000     
  0.11931473708222337       0.30525392905119519        0.0000000000000000     
  0.10799645449101920       0.26637078206862030        0.0000000000000000     
  0.10855366919069108       0.27540620976530750        0.0000000000000000     
  0.10901010563087586       0.28483097284584546        0.0000000000000000     
  0.10936576381157354       0.29464507131023437        0.0000000000000000     
  0.10962064373278413       0.30484850515847406        0.0000000000000000     
   9.9330064932208403E-002  0.26621853657055533        0.0000000000000000     
   9.9706971108988379E-002  0.27525202349172684        0.0000000000000000     
  0.10001561836267946       0.28461052589554392        0.0000000000000000     
  0.10025600669328154       0.29429404378200641        0.0000000000000000     
  0.10042813610079476       0.30430257715111442        0.0000000000000000     
   9.0950152965875913E-002  0.26607479960564601        0.0000000000000000     
   9.1207210720795809E-002  0.27508251312065563        0.0000000000000000     
   9.1424073509165663E-002  0.28434197519623727        0.0000000000000000     
   9.1600741330985502E-002  0.29385318583239078        0.0000000000000000     
   9.1737214186255245E-002  0.30361614502911616        0.0000000000000000     
   8.2856718592021719E-002  0.26593957117389239        0.0000000000000000     
   8.3054388026113354E-002  0.27489767865209397        0.0000000000000000     
   8.3235471070334563E-002  0.28402532074792564        0.0000000000000000     
   8.3399967724685317E-002  0.29332249746138750        0.0000000000000000     
   8.3547877989165645E-002  0.30278920879247928        0.0000000000000000     
   4.5131028091388276E-002   5.9575331107147612E-002   0.0000000000000000     
   4.7156537203811744E-002   6.5075244210790986E-002   0.0000000000000000     
   4.9294564319786752E-002   7.0765599374941215E-002   0.0000000000000000     
   5.1545109439313293E-002   7.6646396599598293E-002   0.0000000000000000     
   5.3908172562391402E-002   8.2717635884762220E-002   0.0000000000000000     
   4.1229292372212449E-002   5.9485927636500638E-002   0.0000000000000000     
   4.2937491402130108E-002   6.4641635450590165E-002   0.0000000000000000     
   4.4777576006186794E-002   7.0104500184833204E-002   0.0000000000000000     
   4.6749546184382491E-002   7.5874521839229755E-002   0.0000000000000000     
   4.8853401936717208E-002   8.1951700413779777E-002   0.0000000000000000     
   3.7401501048808170E-002   5.9177654761830588E-002   0.0000000000000000     
   3.8844264512613420E-002   6.4138024214740241E-002   0.0000000000000000     
   4.0424474583389512E-002   6.9476287646417167E-002   0.0000000000000000     
   4.2142131261136473E-002   7.5192445056861332E-002   0.0000000000000000     
   4.3997234545854268E-002   8.1286496446072734E-002   0.0000000000000000     
   3.3647654121175430E-002   5.8650512483137462E-002   0.0000000000000000     
   3.4876856535261652E-002   6.3564410503241200E-002   0.0000000000000000     
   3.6235260051394921E-002   6.8880961759693049E-002   0.0000000000000000     
   3.7722864669575230E-002   7.4600166252493008E-002   0.0000000000000000     
   3.9339670389802586E-002   8.0722023981641078E-002   0.0000000000000000     
   2.9967751589314248E-002   5.7904500800421255E-002   0.0000000000000000     
   3.1035267470074832E-002   6.2920794316093043E-002   0.0000000000000000     
   3.2209932410203014E-002   6.8318522524660891E-002   0.0000000000000000     
   3.3491746409698792E-002   7.4097685426124812E-002   0.0000000000000000     
   3.4880709468562157E-002   8.0258283020484822E-002   0.0000000000000000     
   5.3908172562391402E-002   8.2717635884762220E-002   0.0000000000000000     
   5.6246006147057284E-002   8.8948976921199352E-002   0.0000000000000000     
   5.8420862651347182E-002   9.5310079399676076E-002   0.0000000000000000     
   6.0432742075261101E-002  0.10180094332019239        0.0000000000000000     
   6.2281644418799041E-002  0.10842156868274827        0.0000000000000000     
   4.8853401936717208E-002   8.1951700413779777E-002   0.0000000000000000     
   5.0956015342410454E-002   8.8246101288913054E-002   0.0000000000000000     
   5.2924258480681725E-002   9.4667789845059316E-002   0.0000000000000000     
   5.4758131351531035E-002  0.10121676608221850        0.0000000000000000     
   5.6457633954958376E-002  0.10789303000039067        0.0000000000000000     
   4.3997234545854268E-002   8.1286496446072734E-002   0.0000000000000000     
   4.5866555346045904E-002   8.7632084066416316E-002   0.0000000000000000     
   4.7626864570214353E-002   9.4102850170256880E-002   0.0000000000000000     
   4.9278162218359602E-002  0.10069879475759450        0.0000000000000000     
   5.0820448290481685E-002  0.10741991782842912        0.0000000000000000     
   3.9339670389802586E-002   8.0722023981641078E-002   0.0000000000000000     
   4.0977626157963638E-002   8.7106925253709097E-002   0.0000000000000000     
   4.2528680919945050E-002   9.3615260375268849E-002   0.0000000000000000     
   4.3992834675746821E-002  0.10024702934632033        0.0000000000000000     
   4.5370087425368945E-002  0.10700223216686358        0.0000000000000000     
   3.4880709468562157E-002   8.0258283020484822E-002   0.0000000000000000     
   3.6289227778163666E-002   8.6670624850791439E-002   0.0000000000000000     
   3.7629707529873831E-002   9.3205020460095184E-002   0.0000000000000000     
   3.8902148723692666E-002   9.9861469848396056E-002   0.0000000000000000     
   4.0106551359620171E-002  0.10663997301569407        0.0000000000000000     
   6.2281644418799041E-002  0.10842156868274827        0.0000000000000000     
   6.4011944040540086E-002  0.11518409002774242        0.0000000000000000     
   6.5668015299063312E-002  0.12210064189557356        0.0000000000000000     
   6.7249858194368725E-002  0.12917122428624167        0.0000000000000000     
   6.8757472726456340E-002  0.13639583719974677        0.0000000000000000     
   5.6457633954958376E-002  0.10789303000039067        0.0000000000000000     
   5.8054185252197063E-002  0.11470460903610431        0.0000000000000000     
   5.9579204204480367E-002  0.12165953062588797        0.0000000000000000     
   6.1032690811808316E-002  0.12875779476974156        0.0000000000000000     
   6.2414645074180902E-002  0.13599940146766518        0.0000000000000000     
   5.0820448290481685E-002  0.10741991782842912        0.0000000000000000     
   5.2274732279173668E-002  0.11427153595965671        0.0000000000000000     
   5.3662023677028631E-002  0.12125896572817310        0.0000000000000000     
   5.4982322484046588E-002  0.12838220713397841        0.0000000000000000     
   5.6235628700227538E-002  0.13564126017707256        0.0000000000000000     
   4.5370087425368945E-002  0.10700223216686358        0.0000000000000000     
   4.6673585121469886E-002  0.11388487079839950        0.0000000000000000     
   4.7916473716708083E-002  0.12089894720242907        0.0000000000000000     
   4.9098753211083541E-002  0.12804446137895217        0.0000000000000000     
   5.0220423604596255E-002  0.13532141332796896        0.0000000000000000     
   4.0106551359620171E-002  0.10663997301569407        0.0000000000000000     
   4.1250743779085733E-002  0.11354461355233278        0.0000000000000000     
   4.2342554323518723E-002  0.12057947504865574        0.0000000000000000     
   4.3381982992919163E-002  0.12774455750466293        0.0000000000000000     
   4.4369029787287038E-002  0.13503986092035436        0.0000000000000000     
   6.8757472726456340E-002  0.13639583719974677        0.0000000000000000     
   7.0197142557470657E-002  0.14375864528187970        0.0000000000000000     
   7.1575151349556193E-002  0.15124381317843130        0.0000000000000000     
   7.2891499102712948E-002  0.15885134088940156        0.0000000000000000     
   7.4146185816940907E-002  0.16658122841479056        0.0000000000000000     
   6.2414645074180902E-002  0.13599940146766518        0.0000000000000000     
   6.3731163236522753E-002  0.14337462443537480        0.0000000000000000     
   6.4988341543758474E-002  0.15087373738858656        0.0000000000000000     
   6.6186179995888106E-002  0.15849674032730035        0.0000000000000000     
   6.7324678592911608E-002  0.16624363325151631        0.0000000000000000     
   5.6235628700227538E-002  0.13564126017707256        0.0000000000000000     
   5.7427280902297033E-002  0.14303048811670346        0.0000000000000000     
   5.8562617666980614E-002  0.15054425421211887        0.0000000000000000     
   5.9641638994278288E-002  0.15818255846331891        0.0000000000000000     
   6.0664344884190036E-002  0.16594540087030349        0.0000000000000000     
   5.0220423604596255E-002  0.13532141332796896        0.0000000000000000     
   5.1285495554793510E-002  0.14272623632586559        0.0000000000000000     
   5.2297979719222572E-002  0.15025536364902833        0.0000000000000000     
   5.3257876097883468E-002  0.15790879529745719        0.0000000000000000     
   5.4165184690776184E-002  0.16568653127115207        0.0000000000000000     
   4.4369029787287038E-002  0.13503986092035436        0.0000000000000000     
   4.5305807194012164E-002  0.14246186906286129        0.0000000000000000     
   4.6194427700484375E-002  0.15000706569931488        0.0000000000000000     
   4.7034891306703665E-002  0.15767545082971515        0.0000000000000000     
   4.7827198012670040E-002  0.16546702445406211        0.0000000000000000     
   7.4146185816940907E-002  0.16658122841479056        0.0000000000000000     
   7.5326826161504629E-002  0.17441093370587166        0.0000000000000000     
   7.6421034805668628E-002  0.18231791471391845        0.0000000000000000     
   7.7428811749432877E-002  0.19030217143893088        0.0000000000000000     
   7.8350156992797432E-002  0.19836370388090899        0.0000000000000000     
   6.7324678592911608E-002  0.16624363325151631        0.0000000000000000     
   6.8393942099653479E-002  0.17409224121055103        0.0000000000000000     
   6.9384075280938165E-002  0.18202038925372130        0.0000000000000000     
   7.0295078136765651E-002  0.19002807738102706        0.0000000000000000     
   7.1126950667135966E-002  0.19811530559246834        0.0000000000000000     
   6.0664344884190036E-002  0.16594540087030349        0.0000000000000000     
   6.1622949371866680E-002  0.17381130770761175        0.0000000000000000     
   6.2509666492459037E-002  0.18175880524978266        0.0000000000000000     
   6.3324496245967102E-002  0.18978789349681638        0.0000000000000000     
   6.4067438632390838E-002  0.19789857244871276        0.0000000000000000     
   5.4165184690776184E-002  0.16568653127115207        0.0000000000000000     
   5.5013847978144265E-002  0.17356813319705375        0.0000000000000000     
   5.5797808440231272E-002  0.18153316270210262        0.0000000000000000     
   5.6517066077037215E-002  0.18958161978629881        0.0000000000000000     
   5.7171620888562091E-002  0.19771350444964225        0.0000000000000000     
   4.7827198012670040E-002  0.16546702445406211        0.0000000000000000     
   4.8566637918486200E-002  0.17336271767887704        0.0000000000000000     
   4.9248501124254863E-002  0.18134346161068113        0.0000000000000000     
   4.9872787629976018E-002  0.18940925624947438        0.0000000000000000     
   5.0439497435649669E-002  0.19756010159525686        0.0000000000000000     
   7.8350156992797432E-002  0.19836370388090899        0.0000000000000000     
   7.9191594510405319E-002  0.20650225434235253        0.0000000000000000     
   7.9959648276899595E-002  0.21471756512576137        0.0000000000000000     
   8.0654318292280300E-002  0.22300963623113554        0.0000000000000000     
   8.1275604556547407E-002  0.23137846765847500        0.0000000000000000     
   7.1126950667135966E-002  0.19811530559246834        0.0000000000000000     
   7.1881797053102561E-002  0.20628053288980644        0.0000000000000000     
   7.2561721475718918E-002  0.21452221827480272        0.0000000000000000     
   7.3166723934984981E-002  0.22284036174745719        0.0000000000000000     
   7.3696804430900806E-002  0.23123496330776983        0.0000000000000000     
   6.4067438632390838E-002  0.19789857244871276        0.0000000000000000     
   6.4737729812973252E-002  0.20608772303781409        0.0000000000000000     
   6.5334605948957181E-002  0.21435222619646260        0.0000000000000000     
   6.5858067040342708E-002  0.22269208192465828        0.0000000000000000     
   6.6308113087129777E-002  0.23110729022240109        0.0000000000000000     
   5.7171620888562091E-002  0.19771350444964225        0.0000000000000000     
   5.7759392790017357E-002  0.20592382478637550        0.0000000000000000     
   5.8278301696614479E-002  0.21420758889074101        0.0000000000000000     
   5.8728347608353465E-002  0.22256479676273877        0.0000000000000000     
   5.9109530525234315E-002  0.23099544840236880        0.0000000000000000     
   5.0439497435649669E-002  0.19756010159525686        0.0000000000000000     
   5.0946785984234896E-002  0.20578883813549065        0.0000000000000000     
   5.1392808718690758E-002  0.21408830635763795        0.0000000000000000     
   5.1777565639017267E-002  0.22245850626169872        0.0000000000000000     
   5.2101056745214404E-002  0.23089943784767297        0.0000000000000000     
   8.1275604556547407E-002  0.23137846765847500        0.0000000000000000     
   8.1812869975297270E-002  0.23984394531943018        0.0000000000000000     
   8.2255477454126286E-002  0.24842595512565147        0.0000000000000000     
   8.2603426993034440E-002  0.25712449707713891        0.0000000000000000     
   8.2856718592021719E-002  0.26593957117389239        0.0000000000000000     
   7.3696804430900806E-002  0.23123496330776983        0.0000000000000000     
   7.4149129198336688E-002  0.23971975938190754        0.0000000000000000     
   7.4520864472162926E-002  0.24830848639603725        0.0000000000000000     
   7.4812010252379560E-002  0.25700114435015897        0.0000000000000000     
   7.5022566538986563E-002  0.26579773324427269        0.0000000000000000     
   6.6308113087129777E-002  0.23110729022240109        0.0000000000000000     
   6.6687641258494496E-002  0.23960488350699863        0.0000000000000000     
   6.6999548723612981E-002  0.24819189419575849        0.0000000000000000     
   6.7243835482485192E-002  0.25686832228868073        0.0000000000000000     
   6.7420501535111158E-002  0.26563416778576521        0.0000000000000000     
   5.9109530525234315E-002  0.23099544840236880        0.0000000000000000     
   5.9428406155770719E-002  0.23949931769470348        0.0000000000000000     
   5.9691530208476382E-002  0.24807617852481523        0.0000000000000000     
   5.9898902683351324E-002  0.25672603089270402        0.0000000000000000     
   6.0050523580395525E-002  0.26544887479836993        0.0000000000000000     
   5.2101056745214404E-002  0.23089943784767297        0.0000000000000000     
   5.2371423890165331E-002  0.23940306194502209        0.0000000000000000     
   5.2596808926753183E-002  0.24796133938320739        0.0000000000000000     
   5.2777211854977954E-002  0.25657427016222895        0.0000000000000000     
   5.2912632674839644E-002  0.26524185428208669        0.0000000000000000     
   8.2856718592021719E-002  0.26593957117389239        0.0000000000000000     
   8.3054388026113354E-002  0.27489767865209397        0.0000000000000000     
   8.3235471070334563E-002  0.28402532074792564        0.0000000000000000     
   8.3399967724685317E-002  0.29332249746138750        0.0000000000000000     
   8.3547877989165645E-002  0.30278920879247928        0.0000000000000000     
   7.5022566538986563E-002  0.26579773324427269        0.0000000000000000     
   7.5193609314851181E-002  0.27469188873586464        0.0000000000000000     
   7.5366214562840733E-002  0.28367724648242099        0.0000000000000000     
   7.5540382282955176E-002  0.29275380648394167        0.0000000000000000     
   7.5716112475194539E-002  0.30192156874042680        0.0000000000000000     
   6.7420501535111158E-002  0.26563416778576521        0.0000000000000000     
   6.7569980876919511E-002  0.27445951202179047        0.0000000000000000     
   6.7732707503338846E-002  0.28331443633153497        0.0000000000000000     
   6.7908681414369204E-002  0.29219894071499869        0.0000000000000000     
   6.8097902610010558E-002  0.30111302517218169        0.0000000000000000     
   6.0050523580395525E-002  0.26544887479836993        0.0000000000000000     
   6.0183502712318281E-002  0.27420054850987147        0.0000000000000000     
   6.0334949891828901E-002  0.28293689029526781        0.0000000000000000     
   6.0504865118927366E-002  0.29165790015455856        0.0000000000000000     
   6.0693248393613695E-002  0.30036357808774394        0.0000000000000000     
   5.2912632674839644E-002  0.26524185428208669        0.0000000000000000     
   5.3034174821047532E-002  0.27391499820010778        0.0000000000000000     
   5.3172941728310878E-002  0.28254460837361928        0.0000000000000000     
   5.3328933396629689E-002  0.29113068480262128        0.0000000000000000     
   5.3502149826003965E-002  0.29967322748711356        0.0000000000000000     
   2.9967751589314248E-002   5.7904500800421255E-002   0.0000000000000000     
   3.1035267470074832E-002   6.2920794316093043E-002   0.0000000000000000     
   3.2209932410203014E-002   6.8318522524660891E-002   0.0000000000000000     
   3.3491746409698792E-002   7.4097685426124812E-002   0.0000000000000000     
   3.4880709468562157E-002   8.0258283020484822E-002   0.0000000000000000     
   2.6297354623764146E-002   5.7159466458586515E-002   0.0000000000000000     
   2.7228207820374814E-002   6.2319346376441327E-002   0.0000000000000000     
   2.8240745019942948E-002   6.7825106584870509E-002   0.0000000000000000     
   2.9334966222468555E-002   7.3676747083874061E-002   0.0000000000000000     
   3.0510871427951624E-002   7.9874267873452004E-002   0.0000000000000000     
   2.2572024395064647E-002   5.6635256202537773E-002   0.0000000000000000     
   2.3364388089483462E-002   6.1872237407431634E-002   0.0000000000000000     
   2.4219951240743904E-002   6.7436850583871735E-002   0.0000000000000000     
   2.5138713848845959E-002   7.3329095731858071E-002   0.0000000000000000     
   2.6120675913789637E-002   7.9548972851390662E-002   0.0000000000000000     
   1.8791760903215764E-002   5.6331870032275043E-002   0.0000000000000000     
   1.9443808277400790E-002   6.1579467409063948E-002   0.0000000000000000     
   2.0147551072605869E-002   6.7153754521664527E-002   0.0000000000000000     
   2.0902989288831005E-002   7.3054731370076856E-002   0.0000000000000000     
   2.1710122926076190E-002   7.9282397954300837E-002   0.0000000000000000     
   1.4956564148217491E-002   5.6249307947798310E-002   0.0000000000000000     
   1.5466468384126787E-002   6.1441036381338285E-002   0.0000000000000000     
   1.6023544515528849E-002   6.6975818398248968E-002   0.0000000000000000     
   1.6627792542423681E-002   7.2853653998530374E-002   0.0000000000000000     
   1.7279212464811285E-002   7.9074543182182475E-002   0.0000000000000000     
   3.4880709468562157E-002   8.0258283020484822E-002   0.0000000000000000     
   3.6289227778163666E-002   8.6670624850791439E-002   0.0000000000000000     
   3.7629707529873831E-002   9.3205020460095184E-002   0.0000000000000000     
   3.8902148723692666E-002   9.9861469848396056E-002   0.0000000000000000     
   4.0106551359620171E-002  0.10663997301569407        0.0000000000000000     
   3.0510871427951624E-002   7.9874267873452004E-002   0.0000000000000000     
   3.1701288226782399E-002   8.6305323085413610E-002   0.0000000000000000     
   3.2839044209351104E-002   9.2857566851568152E-002   0.0000000000000000     
   3.3924139375657740E-002   9.9530999171915643E-002   0.0000000000000000     
   3.4956573725702308E-002  0.10632562004645610        0.0000000000000000     
   2.6120675913789637E-002   7.9548972851390662E-002   0.0000000000000000     
   2.7113735523956295E-002   8.5993160185325865E-002   0.0000000000000000     
   2.8065790767727295E-002   9.2558335976520009E-002   0.0000000000000000     
   2.8976841645102631E-002   9.9244500224973081E-002   0.0000000000000000     
   2.9846888156082298E-002  0.10605165293068512        0.0000000000000000     
   2.1710122926076190E-002   7.9282397954300837E-002   0.0000000000000000     
   2.2526569669685352E-002   8.5734136150528231E-002   0.0000000000000000     
   2.3309947205002398E-002   9.2307327834950742E-002   0.0000000000000000     
   2.4060255532027328E-002   9.9001973007568383E-002   0.0000000000000000     
   2.4777494650760158E-002  0.10581807166838117        0.0000000000000000     
   1.7279212464811285E-002   7.9074543182182475E-002   0.0000000000000000     
   1.7939790663969564E-002   8.5528250981020668E-002   0.0000000000000000     
   1.8571513521176416E-002   9.2104542426860364E-002   0.0000000000000000     
   1.9174381036431851E-002   9.8803417519701536E-002   0.0000000000000000     
   1.9748393209735864E-002  0.10562487625954418        0.0000000000000000     
   4.0106551359620171E-002  0.10663997301569407        0.0000000000000000     
   4.1250743779085733E-002  0.11354461355233278        0.0000000000000000     
   4.2342554323518723E-002  0.12057947504865574        0.0000000000000000     
   4.3381982992919163E-002  0.12774455750466293        0.0000000000000000     
   4.4369029787287038E-002  0.13503986092035436        0.0000000000000000     
   3.4956573725702308E-002  0.10632562004645610        0.0000000000000000     
   3.5940833891967353E-002  0.11324616314836264        0.0000000000000000     
   3.6881406506935402E-002  0.12029736215080844        0.0000000000000000     
   3.7778291570606477E-002  0.12747921705379353        0.0000000000000000     
   3.8631489082980544E-002  0.13479172785731780        0.0000000000000000     
   2.9846888156082298E-002  0.10605165293068512        0.0000000000000000     
   3.0678481100060887E-002  0.11298491851339519        0.0000000000000000     
   3.1474171276432927E-002  0.12004942139284244        0.0000000000000000     
   3.2233958685198454E-002  0.12724516156902679        0.0000000000000000     
   3.2957843326357442E-002  0.13457213904194834        0.0000000000000000     
   2.4777494650760158E-002  0.10581807166838117        0.0000000000000000     
   2.5463685403366330E-002  0.11276087964743044        0.0000000000000000     
   2.6120848632011313E-002  0.11983565277475766        0.0000000000000000     
   2.6748984336695116E-002  0.12704239105036283        0.0000000000000000     
   2.7348092517417728E-002  0.13438109447424593        0.0000000000000000     
   1.9748393209735864E-002  0.10562487625954418        0.0000000000000000     
   2.0296446801883684E-002  0.11257404655046838        0.0000000000000000     
   2.0821438573670553E-002  0.11965605629655418        0.0000000000000000     
   2.1323368525096455E-002  0.12687090549780158        0.0000000000000000     
   2.1802236656161399E-002  0.13421859415421059        0.0000000000000000     
   4.4369029787287038E-002  0.13503986092035436        0.0000000000000000     
   4.5305807194012164E-002  0.14246186906286129        0.0000000000000000     
   4.6194427700484375E-002  0.15000706569931488        0.0000000000000000     
   4.7034891306703665E-002  0.15767545082971515        0.0000000000000000     
   4.7827198012670040E-002  0.16546702445406211        0.0000000000000000     
   3.8631489082980544E-002  0.13479172785731780        0.0000000000000000     
   3.9441239393698237E-002  0.14223061077185428        0.0000000000000000     
   4.0207782852400162E-002  0.14979158200787585        0.0000000000000000     
   4.0931119459086319E-002  0.15747464156538243        0.0000000000000000     
   4.1611249213756696E-002  0.16527978944437410        0.0000000000000000     
   3.2957843326357442E-002  0.13457213904194834        0.0000000000000000     
   3.3644815727596970E-002  0.14202568589700842        0.0000000000000000     
   3.4293866416604105E-002  0.14960113421960852        0.0000000000000000     
   3.4904995393378865E-002  0.15729848400974858        0.0000000000000000     
   3.5478202657921225E-002  0.16511773526742862        0.0000000000000000     
   2.7348092517417728E-002  0.13438109447424593        0.0000000000000000     
   2.7916536195708361E-002  0.14184709443832369        0.0000000000000000     
   2.8452678393096214E-002  0.14943572233451291        0.0000000000000000     
   2.8956519109581302E-002  0.15714697816281356        0.0000000000000000     
   2.9428058345163606E-002  0.16498086192322564        0.0000000000000000     
   2.1802236656161399E-002  0.13421859415421059        0.0000000000000000     
   2.2256400798032407E-002  0.14169483639580011        0.0000000000000000     
   2.2684218781876479E-002  0.14929534635258904        0.0000000000000000     
   2.3085690607693637E-002  0.15702012402457743        0.0000000000000000     
   2.3460816275483864E-002  0.16486916941176522        0.0000000000000000     
   4.7827198012670040E-002  0.16546702445406211        0.0000000000000000     
   4.8566637918486200E-002  0.17336271767887704        0.0000000000000000     
   4.9248501124254863E-002  0.18134346161068113        0.0000000000000000     
   4.9872787629976018E-002  0.18940925624947438        0.0000000000000000     
   5.0439497435649669E-002  0.19756010159525686        0.0000000000000000     
   4.1611249213756696E-002  0.16527978944437410        0.0000000000000000     
   4.2244504235022053E-002  0.17318900676715629        0.0000000000000000     
   4.2827216641493131E-002  0.18118427465603426        0.0000000000000000     
   4.3359386433169937E-002  0.18926559311100816        0.0000000000000000     
   4.3841013610052465E-002  0.19743296213207789        0.0000000000000000     
   3.5478202657921225E-002  0.16511773526742862        0.0000000000000000     
   3.6010631969881350E-002  0.17304094607596604        0.0000000000000000     
   3.6499427088909409E-002  0.18105017451867819        0.0000000000000000     
   3.6944588015005400E-002  0.18914542059556508        0.0000000000000000     
   3.7346114748169318E-002  0.19732668430662673        0.0000000000000000     
   2.9428058345163606E-002  0.16498086192322564        0.0000000000000000     
   2.9865021123064085E-002  0.17291853560530637        0.0000000000000000     
   3.0265132466503690E-002  0.18094116119861289        0.0000000000000000     
   3.0628392375482403E-002  0.18904873870314517        0.0000000000000000     
   3.0954800850000241E-002  0.19724126811890333        0.0000000000000000     
   2.3460816275483864E-002  0.16486916941176522        0.0000000000000000     
   2.3807671694570272E-002  0.17282177535517726        0.0000000000000000     
   2.4124332774275968E-002  0.18085723469583836        0.0000000000000000     
   2.4410799514600953E-002  0.18897554743374848        0.0000000000000000     
   2.4667071915545222E-002  0.19717671356890770        0.0000000000000000     
   5.0439497435649669E-002  0.19756010159525686        0.0000000000000000     
   5.0946785984234896E-002  0.20578883813549065        0.0000000000000000     
   5.1392808718690758E-002  0.21408830635763795        0.0000000000000000     
   5.1777565639017267E-002  0.22245850626169872        0.0000000000000000     
   5.2101056745214404E-002  0.23089943784767297        0.0000000000000000     
   4.3841013610052465E-002  0.19743296213207789        0.0000000000000000     
   4.4271210438724971E-002  0.20567717684359751        0.0000000000000000     
   4.4649089185771727E-002  0.21398903236992106        0.0000000000000000     
   4.4974649851192726E-002  0.22236852871104845        0.0000000000000000     
   4.5247892434987953E-002  0.23081566586697977        0.0000000000000000     
   3.7346114748169318E-002  0.19732668430662673        0.0000000000000000     
   3.7703967196586703E-002  0.20558325466913402        0.0000000000000000     
   3.8018105268443091E-002  0.21390442070035789        0.0000000000000000     
   3.8288528963738473E-002  0.22229018240029844        0.0000000000000000     
   3.8515238282472844E-002  0.23074053976895559        0.0000000000000000     
   3.0954800850000241E-002  0.19724126811890333        0.0000000000000000     
   3.1245056257820085E-002  0.20550707161210008        0.0000000000000000     
   3.1499856966704848E-002  0.21383447134894853        0.0000000000000000     
   3.1719202976654509E-002  0.22222346732944859        0.0000000000000000     
   3.1903094287669083E-002  0.23067405955360015        0.0000000000000000     
   2.4667071915545222E-002  0.19717671356890770        0.0000000000000000     
   2.4894477622425120E-002  0.20544862767249589        0.0000000000000000     
   2.5094344280556992E-002  0.21377918431569295        0.0000000000000000     
   2.5266671889940837E-002  0.22216838349849893        0.0000000000000000     
   2.5411460450576649E-002  0.23061622522091374        0.0000000000000000     
   5.2101056745214404E-002  0.23089943784767297        0.0000000000000000     
   5.2371423890165331E-002  0.23940306194502209        0.0000000000000000     
   5.2596808926753183E-002  0.24796133938320739        0.0000000000000000     
   5.2777211854977954E-002  0.25657427016222895        0.0000000000000000     
   5.2912632674839644E-002  0.26524185428208669        0.0000000000000000     
   4.5247892434987953E-002  0.23081566586697977        0.0000000000000000     
   4.5477195869417564E-002  0.23931505875871475        0.0000000000000000     
   4.5670939086741663E-002  0.24785132230725301        0.0000000000000000     
   4.5829122086960265E-002  0.25642445651259455        0.0000000000000000     
   4.5951744870073349E-002  0.26503446137473952        0.0000000000000000     
   3.8515238282472844E-002  0.23074053976895559        0.0000000000000000     
   3.8706223501266609E-002  0.23923425063654191        0.0000000000000000     
   3.8869474896740128E-002  0.24775007283327011        0.0000000000000000     
   3.9004992468893405E-002  0.25628800635914012        0.0000000000000000     
   3.9112776217726450E-002  0.26484805121415195        0.0000000000000000     
   3.1903094287669083E-002  0.23067405955360015        0.0000000000000000     
   3.2058506785712461E-002  0.23916063757850353        0.0000000000000000     
   3.2192416356748570E-002  0.24765759096125861        0.0000000000000000     
   3.2304823000777395E-002  0.25616491970186545        0.0000000000000000     
   3.2395726717798931E-002  0.26468262380032409        0.0000000000000000     
   2.5411460450576649E-002  0.23061622522091374        0.0000000000000000     
   2.5534045722755139E-002  0.23909421958459962        0.0000000000000000     
   2.5639763466766999E-002  0.24757387669121858        0.0000000000000000     
   2.5728613682612225E-002  0.25605519654077064        0.0000000000000000     
   2.5800596370290828E-002  0.26453817913325584        0.0000000000000000     
   5.2912632674839644E-002  0.26524185428208669        0.0000000000000000     
   5.3034174821047532E-002  0.27391499820010778        0.0000000000000000     
   5.3172941728310878E-002  0.28254460837361928        0.0000000000000000     
   5.3328933396629689E-002  0.29113068480262128        0.0000000000000000     
   5.3502149826003965E-002  0.29967322748711356        0.0000000000000000     
   4.5951744870073349E-002  0.26503446137473952        0.0000000000000000     
   4.6063230104785413E-002  0.27363168155600831        0.0000000000000000     
   4.6188000459800913E-002  0.28216646171872151        0.0000000000000000     
   4.6326055935119854E-002  0.29063880186287927        0.0000000000000000     
   4.6477396530742246E-002  0.29904870198848144        0.0000000000000000     
   3.9112776217726450E-002  0.26484805121415195        0.0000000000000000     
   3.9211901465210079E-002  0.27337941904108187        0.0000000000000000     
   3.9321443533315112E-002  0.28183132148270640        0.0000000000000000     
   3.9441402422041562E-002  0.29020375853902519        0.0000000000000000     
   3.9571778131389429E-002  0.29849673021003853        0.0000000000000000     
   3.2395726717798931E-002  0.26468262380032409        0.0000000000000000     
   3.2480188902321523E-002  0.27315821065532869        0.0000000000000000     
   3.2573270948853483E-002  0.28153918766557368        0.0000000000000000     
   3.2674972857394818E-002  0.28982555483105915        0.0000000000000000     
   3.2785294627945508E-002  0.29801731215178495        0.0000000000000000     
   2.5800596370290828E-002  0.26453817913325584        0.0000000000000000     
   2.5868092416119766E-002  0.27296805639874860        0.0000000000000000     
   2.5943482706416023E-002  0.28129006026732373        0.0000000000000000     
   2.6026767241179596E-002  0.28950419073898104        0.0000000000000000     
   2.6117946020410489E-002  0.29761044781372059        0.0000000000000000     
   1.4956564148217491E-002   5.6249307947798310E-002   0.0000000000000000     
   1.5466468384126787E-002   6.1441036381338285E-002   0.0000000000000000     
   1.6023544515528849E-002   6.6975818398248968E-002   0.0000000000000000     
   1.6627792542423681E-002   7.2853653998530374E-002   0.0000000000000000     
   1.7279212464811285E-002   7.9074543182182475E-002   0.0000000000000000     
   1.1124781349674706E-002   5.6273676661437913E-002   0.0000000000000000     
   1.1495524160317946E-002   6.1387432531807611E-002   0.0000000000000000     
   1.1909715670199857E-002   6.6866131763584385E-002   0.0000000000000000     
   1.2367355879320438E-002   7.2709774356768245E-002   0.0000000000000000     
   1.2868444787679687E-002   7.8918360311359181E-002   0.0000000000000000     
   7.3547597271922845E-003   5.6291082885524181E-002   0.0000000000000000     
   7.5941313566307549E-003   6.1349144068024893E-002   0.0000000000000000     
   7.8678486373058923E-003   6.6787784167630204E-002   0.0000000000000000     
   8.1759115692176948E-003   7.2607003184340088E-002   0.0000000000000000     
   8.5183201523661642E-003   7.8806801118154551E-002   0.0000000000000000     
   3.6464992807702266E-003   5.6301526620057100E-002   0.0000000000000000     
   3.7622899730652129E-003   6.1326170989990138E-002   0.0000000000000000     
   3.8979434168469555E-003   6.6740775610386410E-002   0.0000000000000000     
   4.0534596121154544E-003   7.2545340481245904E-002   0.0000000000000000     
   4.2288385588707105E-003   7.8739865602568584E-002   0.0000000000000000     
   1.0408532976485807E-011   5.6305007865036699E-002   0.0000000000000000     
   9.6213202335770909E-012   6.1318513297703367E-002   0.0000000000000000     
   8.8230487369292399E-012   6.6725106091853004E-002   0.0000000000000000     
   8.0137189473281772E-012   7.2524786247485623E-002   0.0000000000000000     
   7.1933294824161331E-012   7.8717553764601239E-002   0.0000000000000000     
   1.7279212464811285E-002   7.9074543182182475E-002   0.0000000000000000     
   1.7939790663969564E-002   8.5528250981020668E-002   0.0000000000000000     
   1.8571513521176416E-002   9.2104542426860364E-002   0.0000000000000000     
   1.9174381036431851E-002   9.8803417519701536E-002   0.0000000000000000     
   1.9748393209735864E-002  0.10562487625954418        0.0000000000000000     
   1.2868444787679687E-002   7.8918360311359181E-002   0.0000000000000000     
   1.3378614561793860E-002   8.5371349711354017E-002   0.0000000000000000     
   1.3863497368179205E-002   9.1948202640749516E-002   0.0000000000000000     
   1.4323093206835726E-002   9.8648919099545679E-002   0.0000000000000000     
   1.4757402077763420E-002  0.10547349908774255        0.0000000000000000     
   8.5183201523661642E-003   7.8806801118154551E-002   0.0000000000000000     
   8.8682574181431790E-003   8.5259277376079010E-002   0.0000000000000000     
   9.1989063979406229E-003   9.1836531365118823E-002   0.0000000000000000     
   9.5102670917585012E-003   9.8538563085274006E-002   0.0000000000000000     
   9.8023394995968068E-003  0.10536537253654456        0.0000000000000000     
   4.2288385588707105E-003   7.8739865602568584E-002   0.0000000000000000     
   4.4087192330175178E-003   8.5192033975195647E-002   0.0000000000000000     
   4.5777406104606736E-003   9.1769528599968272E-002   0.0000000000000000     
   4.7359026912001754E-003   9.8472349476886462E-002   0.0000000000000000     
   4.8832054752360275E-003  0.10530049660595021        0.0000000000000000     
   7.1933294824161331E-012   7.8717553764601239E-002   0.0000000000000000     
   6.4168752776649907E-012   8.5169619508703970E-002   0.0000000000000000     
   5.7393482869906587E-012   9.1747194345297906E-002   0.0000000000000000     
   5.1607506381399007E-012   9.8450278274383074E-002   0.0000000000000000     
   4.6810801762608989E-012  0.10527887129595948        0.0000000000000000     
   1.9748393209735864E-002  0.10562487625954418        0.0000000000000000     
   2.0296446801883684E-002  0.11257404655046838        0.0000000000000000     
   2.0821438573670553E-002  0.11965605629655418        0.0000000000000000     
   2.1323368525096455E-002  0.12687090549780158        0.0000000000000000     
   2.1802236656161399E-002  0.13421859415421059        0.0000000000000000     
   1.4757402077763420E-002  0.10547349908774255        0.0000000000000000     
   1.5170323836625527E-002  0.11242684511458960        0.0000000000000000     
   1.5565758339085295E-002  0.11951385968933637        0.0000000000000000     
   1.5943705585142721E-002  0.12673454281198285        0.0000000000000000     
   1.6304165574797806E-002  0.13408889448252898        0.0000000000000000     
   9.8023394995968068E-003  0.10536537253654456        0.0000000000000000     
   1.0078875048604415E-002  0.11232170123187470        0.0000000000000000     
   1.0343625165930195E-002  0.11941229068420862        0.0000000000000000     
   1.0596589851574155E-002  0.12663714089354630        0.0000000000000000     
   1.0837769105536287E-002  0.13399625185988778        0.0000000000000000     
   4.8832054752360275E-003  0.10530049660595021        0.0000000000000000     
   5.0221004378203466E-003  0.11225861490232364        0.0000000000000000     
   5.1550390542052559E-003  0.11935134928117092        0.0000000000000000     
   5.2820213243907552E-003  0.12657869974249203        0.0000000000000000     
   5.4030472483768445E-003  0.13394066628628698        0.0000000000000000     
   4.6810801762608989E-012  0.10527887129595948        0.0000000000000000     
   4.2733256169769085E-012  0.11223758612593644        0.0000000000000000     
   3.9104732906664053E-012  0.11933103548022329        0.0000000000000000     
   3.5925256367842773E-012  0.12655921935882000        0.0000000000000000     
   3.3194805411362882E-012  0.13392213776172660        0.0000000000000000     
   2.1802236656161399E-002  0.13421859415421059        0.0000000000000000     
   2.2256400798032407E-002  0.14169483639580011        0.0000000000000000     
   2.2684218781876479E-002  0.14929534635258904        0.0000000000000000     
   2.3085690607693637E-002  0.15702012402457743        0.0000000000000000     
   2.3460816275483864E-002  0.16486916941176522        0.0000000000000000     
   1.6304165574797806E-002  0.13408889448252898        0.0000000000000000     
   1.6645828250420332E-002  0.14157313147815248        0.0000000000000000     
   1.6967383554380083E-002  0.14918347057603093        0.0000000000000000     
   1.7268831486677058E-002  0.15691991177616432        0.0000000000000000     
   1.7550172047311258E-002  0.16478245507855269        0.0000000000000000     
   1.0837769105536287E-002  0.13399625185988778        0.0000000000000000     
   1.1066237268723376E-002  0.14148619939409565        0.0000000000000000     
   1.1281068682042204E-002  0.14910355930703256        0.0000000000000000     
   1.1482263345492771E-002  0.15684833159869851        0.0000000000000000     
   1.1669821259075073E-002  0.16472051626909348        0.0000000000000000     
   5.4030472483768445E-003  0.13394066628628698        0.0000000000000000     
   5.5176278529415358E-003  0.14143404014362967        0.0000000000000000     
   5.6252741648628451E-003  0.14905561254559402        0.0000000000000000     
   5.7259861841407632E-003  0.15680538349217996        0.0000000000000000     
   5.8197639107753002E-003  0.16468335298338757        0.0000000000000000     
   3.3194805411362882E-012  0.13392213776172660        0.0000000000000000     
   3.0748138410419124E-012  0.14141665372675455        0.0000000000000000     
   2.8420028917036655E-012  0.14903963029171521        0.0000000000000000     
   2.6210462294486148E-012  0.15679106745660873        0.0000000000000000     
   2.4119434748059998E-012  0.16467096522143498        0.0000000000000000     
   2.3460816275483864E-002  0.16486916941176522        0.0000000000000000     
   2.3807671694570272E-002  0.17282177535517726        0.0000000000000000     
   2.4124332774275968E-002  0.18085723469583836        0.0000000000000000     
   2.4410799514600953E-002  0.18897554743374848        0.0000000000000000     
   2.4667071915545222E-002  0.19717671356890770        0.0000000000000000     
   1.7550172047311258E-002  0.16478245507855269        0.0000000000000000     
   1.7809778174299358E-002  0.17274833210779045        0.0000000000000000     
   1.8046022805658028E-002  0.18079477448847203        0.0000000000000000     
   1.8258905941387273E-002  0.18892178222059750        0.0000000000000000     
   1.8448427581487088E-002  0.19712935530416681        0.0000000000000000     
   1.1669821259075073E-002  0.16472051626909348        0.0000000000000000     
   1.1842535052150801E-002  0.17269587264535771        0.0000000000000000     
   1.1999197354081637E-002  0.18075016005463143        0.0000000000000000     
   1.2139808164867587E-002  0.18888337849691467        0.0000000000000000     
   1.2264367484508647E-002  0.19709552797220750        0.0000000000000000     
   5.8197639107753002E-003  0.16468335298338757        0.0000000000000000     
   5.9059423281245943E-003  0.17266439696787900        0.0000000000000000     
   5.9838564195467949E-003  0.18072339139431653        0.0000000000000000     
   6.0535061850418995E-003  0.18886033626270013        0.0000000000000000     
   6.1148916246099123E-003  0.19707523157302975        0.0000000000000000     
   2.4119434748059998E-012  0.16467096522143498        0.0000000000000000     
   2.2207448553690501E-012  0.17265390507535433        0.0000000000000000     
   2.0535004903107779E-012  0.18071446850752729        0.0000000000000000     
   1.9102104609463461E-012  0.18885265551795372        0.0000000000000000     
   1.7908730054472244E-012  0.19706846610663364        0.0000000000000000     
   2.4667071915545222E-002  0.19717671356890770        0.0000000000000000     
   2.4894477622425120E-002  0.20544862767249589        0.0000000000000000     
   2.5094344280556992E-002  0.21377918431569295        0.0000000000000000     
   2.5266671889940837E-002  0.22216838349849893        0.0000000000000000     
   2.5411460450576649E-002  0.23061622522091374        0.0000000000000000     
   1.8448427581487088E-002  0.19712935530416681        0.0000000000000000     
   1.8616263408347329E-002  0.20540525008921748        0.0000000000000000     
   1.8764089104357864E-002  0.21373722292578712        0.0000000000000000     
   1.8891904669518688E-002  0.22212527381387562        0.0000000000000000     
   1.8999710103829802E-002  0.23056940275348314        0.0000000000000000     
   1.2264367484508647E-002  0.19709552797220750        0.0000000000000000     
   1.2374445733532243E-002  0.20537426610116113        0.0000000000000000     
   1.2471613332465796E-002  0.21370725050442696        0.0000000000000000     
   1.2555870281309301E-002  0.22209448118200495        0.0000000000000000     
   1.2627216580062771E-002  0.23053595813389519        0.0000000000000000     
   6.1148916246099123E-003  0.19707523157302975        0.0000000000000000     
   6.1690245979798605E-003  0.20535567570832680        0.0000000000000000     
   6.2169169648807841E-003  0.21368926705161254        0.0000000000000000     
   6.2585687253126823E-003  0.22207600560288693        0.0000000000000000     
   6.2939798792755533E-003  0.23051589136215000        0.0000000000000000     
   1.7908730054472244E-012  0.19706846610663364        0.0000000000000000     
   1.6901840170502336E-012  0.20534947891071456        0.0000000000000000     
   1.6028322332578560E-012  0.21368327256734382        0.0000000000000000     
   1.5288238882325833E-012  0.22206984707652150        0.0000000000000000     
   1.4681545909556171E-012  0.23050920243824752        0.0000000000000000     
   2.5411460450576649E-002  0.23061622522091374        0.0000000000000000     
   2.5534045722755139E-002  0.23909421958459962        0.0000000000000000     
   2.5639763466766999E-002  0.24757387669121858        0.0000000000000000     
   2.5728613682612225E-002  0.25605519654077064        0.0000000000000000     
   2.5800596370290828E-002  0.26453817913325584        0.0000000000000000     
   1.8999710103829802E-002  0.23056940275348314        0.0000000000000000     
   1.9091042937677324E-002  0.23903925168049603        0.0000000000000000     
   1.9169440701447375E-002  0.24750446253080077        0.0000000000000000     
   1.9234903395139950E-002  0.25596503530439735        0.0000000000000000     
   1.9287431018755054E-002  0.26442097000128589        0.0000000000000000     
   1.2627216580062771E-002  0.23053595813389519        0.0000000000000000     
   1.2687701055761717E-002  0.23899998889185856        0.0000000000000000     
   1.2739372535441667E-002  0.24745488098765592        0.0000000000000000     
   1.2782231019102627E-002  0.25590063442128741        0.0000000000000000     
   1.2816276506744590E-002  0.26433724919275298        0.0000000000000000     
   6.2939798792755533E-003  0.23051589136215000        0.0000000000000000     
   6.3240200770083126E-003  0.23897643121868728        0.0000000000000000     
   6.3495589687498780E-003  0.24742513206178418        0.0000000000000000     
   6.3705965545002479E-003  0.25586199389144076        0.0000000000000000     
   6.3871328342594222E-003  0.26428701670765697        0.0000000000000000     
   1.4681545909556171E-012  0.23050920243824752        0.0000000000000000     
   1.4171181589306414E-012  0.23896857866098209        0.0000000000000000     
   1.3720064580974300E-012  0.24741521575318537        0.0000000000000000     
   1.3328187837245709E-012  0.25584911371485730        0.0000000000000000     
   1.2995563826445622E-012  0.26427027254599800        0.0000000000000000     
   2.5800596370290828E-002  0.26453817913325584        0.0000000000000000     
   2.5868092416119766E-002  0.27296805639874860        0.0000000000000000     
   2.5943482706416023E-002  0.28129006026732373        0.0000000000000000     
   2.6026767241179596E-002  0.28950419073898104        0.0000000000000000     
   2.6117946020410489E-002  0.29761044781372059        0.0000000000000000     
   1.9287431018755054E-002  0.26442097000128589        0.0000000000000000     
   1.9337120304297788E-002  0.27281525760576353        0.0000000000000000     
   1.9394067983773241E-002  0.28109088910212748        0.0000000000000000     
   1.9458274057181413E-002  0.28924786449037782        0.0000000000000000     
   1.9529738524522305E-002  0.29728618377051452        0.0000000000000000     
   1.2816276506744590E-002  0.26433724919275298        0.0000000000000000     
   1.2848780864548586E-002  0.27270611561079500        0.0000000000000000     
   1.2887015958695631E-002  0.28094862398415621        0.0000000000000000     
   1.2930981789185734E-002  0.28906477431283645        0.0000000000000000     
   1.2980678356018894E-002  0.29705456659683582        0.0000000000000000     
   6.3871328342594222E-003  0.26428701670765697        0.0000000000000000     
   6.4030740968721578E-003  0.27264063041384334        0.0000000000000000     
   6.4223266311832054E-003  0.28086326491340990        0.0000000000000000     
   6.4448904371925695E-003  0.28895492020635705        0.0000000000000000     
   6.4707655149002456E-003  0.29691559629268455        0.0000000000000000     
   1.2995563826445622E-012  0.26427027254599800        0.0000000000000000     
   1.2685070008289223E-012  0.27261880201490807        0.0000000000000000     
   1.2359609863343834E-012  0.28083481188988857        0.0000000000000000     
   1.2019135686713867E-012  0.28891830217093956        0.0000000000000000     
   1.1663690846486219E-012  0.29686927285806064        0.0000000000000000     
   1.0408532976485807E-011   5.6305007865036699E-002   0.0000000000000000     
   9.6213202335770909E-012   6.1318513297703367E-002   0.0000000000000000     
   8.8230487369292399E-012   6.6725106091853004E-002   0.0000000000000000     
   8.0137189473281772E-012   7.2524786247485623E-002   0.0000000000000000     
   7.1933294824161331E-012   7.8717553764601239E-002   0.0000000000000000     
  -3.6464992606543038E-003   5.6301526620975581E-002   0.0000000000000000     
  -3.7622899545168638E-003   6.1326170991496259E-002   0.0000000000000000     
  -3.8979433998757363E-003   6.6740775612223358E-002   0.0000000000000000     
  -4.0534595967309213E-003   7.2545340483156862E-002   0.0000000000000000     
  -4.2288385450824197E-003   7.8739865604296785E-002   0.0000000000000000     
  -7.3547597091797902E-003   5.6291082888386350E-002   0.0000000000000000     
  -7.5941313401652784E-003   6.1349144071700536E-002   0.0000000000000000     
  -7.8678486223593049E-003   6.6787784171690776E-002   0.0000000000000000     
  -8.1759115557618698E-003   7.2607003188357069E-002   0.0000000000000000     
  -8.5183201403729748E-003   7.8806801121699396E-002   0.0000000000000000     
  -1.1124781335167930E-002   5.6273676667269013E-002   0.0000000000000000     
  -1.1495524147323927E-002   6.1387432538316189E-002   0.0000000000000000     
  -1.1909715658627661E-002   6.6866131770255272E-002   0.0000000000000000     
  -1.2367355869079133E-002   7.2709774363086246E-002   0.0000000000000000     
  -1.2868444778678340E-002   7.8918360316809114E-002   0.0000000000000000     
  -1.4956564138618716E-002   5.6249307957623576E-002   0.0000000000000000     
  -1.5466468375992809E-002   6.1441036391343240E-002   0.0000000000000000     
  -1.6023544508680803E-002   6.6975818407916846E-002   0.0000000000000000     
  -1.6627792536682704E-002   7.2853654007344407E-002   0.0000000000000000     
  -1.7279212459998514E-002   7.9074543189625895E-002   0.0000000000000000     
   7.1933294824161331E-012   7.8717553764601239E-002   0.0000000000000000     
   6.4168752776649907E-012   8.5169619508703970E-002   0.0000000000000000     
   5.7393482869906587E-012   9.1747194345297906E-002   0.0000000000000000     
   5.1607506381399007E-012   9.8450278274383074E-002   0.0000000000000000     
   4.6810801762608989E-012  0.10527887129595948        0.0000000000000000     
  -4.2288385450824197E-003   7.8739865604296785E-002   0.0000000000000000     
  -4.4087192207322295E-003   8.5192033976619619E-002   0.0000000000000000     
  -4.5777405994823590E-003   9.1769528601101782E-002   0.0000000000000000     
  -4.7359026813327994E-003   9.8472349477743304E-002   0.0000000000000000     
  -4.8832054662835585E-003  0.10530049660654420        0.0000000000000000     
  -8.5183201403729748E-003   7.8806801121699396E-002   0.0000000000000000     
  -8.8682574075032820E-003   8.5259277378958220E-002   0.0000000000000000     
  -9.1989063884634573E-003   9.1836531367373964E-002   0.0000000000000000     
  -9.5102670832535006E-003   9.8538563086946571E-002   0.0000000000000000     
  -9.8023394918734085E-003  0.10536537253767611        0.0000000000000000     
  -1.2868444778678340E-002   7.8918360316809114E-002   0.0000000000000000     
  -1.3378614553896282E-002   8.5371349715719844E-002   0.0000000000000000     
  -1.3863497361203949E-002   9.1948202644114449E-002   0.0000000000000000     
  -1.4323093200601347E-002   9.8648919101992902E-002   0.0000000000000000     
  -1.4757402072088472E-002  0.10547349908935522        0.0000000000000000     
  -1.7279212459998514E-002   7.9074543189625895E-002   0.0000000000000000     
  -1.7939790659911227E-002   8.5528250986904475E-002   0.0000000000000000     
  -1.8571513517703832E-002   9.2104542431323280E-002   0.0000000000000000     
  -1.9174381033376344E-002   9.8803417522882284E-002   0.0000000000000000     
  -1.9748393206928751E-002  0.10562487626158153        0.0000000000000000     
   4.6810801762608989E-012  0.10527887129595948        0.0000000000000000     
   4.2733256169769085E-012  0.11223758612593644        0.0000000000000000     
   3.9104732906664053E-012  0.11933103548022329        0.0000000000000000     
   3.5925256367842773E-012  0.12655921935882000        0.0000000000000000     
   3.3194805411362882E-012  0.13392213776172660        0.0000000000000000     
  -4.8832054662835585E-003  0.10530049660654420        0.0000000000000000     
  -5.0221004296407716E-003  0.11225861490268126        0.0000000000000000     
  -5.1550390467105809E-003  0.11935134928133123        0.0000000000000000     
  -5.2820213174929881E-003  0.12657869974249417        0.0000000000000000     
  -5.4030472419879924E-003  0.13394066628617007        0.0000000000000000     
  -9.8023394918734085E-003  0.10536537253767611        0.0000000000000000     
  -1.0078875041526061E-002  0.11232170123252613        0.0000000000000000     
  -1.0343625159414336E-002  0.11941229068446026        0.0000000000000000     
  -1.0596589845538237E-002  0.12663714089347852        0.0000000000000000     
  -1.0837769099897757E-002  0.13399625185958086        0.0000000000000000     
  -1.4757402072088472E-002  0.10547349908935522        0.0000000000000000     
  -1.5170323831382549E-002  0.11242684511547113        0.0000000000000000     
  -1.5565758334200800E-002  0.11951385968961040        0.0000000000000000     
  -1.5943705580543220E-002  0.12673454281177302        0.0000000000000000     
  -1.6304165570409809E-002  0.13408889448195899        0.0000000000000000     
  -1.9748393206928751E-002  0.10562487626158153        0.0000000000000000     
  -2.0296446799210232E-002  0.11257404655151622        0.0000000000000000     
  -2.0821438571069960E-002  0.11965605629678161        0.0000000000000000     
  -2.1323368522507938E-002  0.12687090549737765        0.0000000000000000     
  -2.1802236653524161E-002  0.13421859415330442        0.0000000000000000     
   3.3194805411362882E-012  0.13392213776172660        0.0000000000000000     
   3.0748138410419124E-012  0.14141665372675455        0.0000000000000000     
   2.8420028917036655E-012  0.14903963029171521        0.0000000000000000     
   2.6210462294486148E-012  0.15679106745660873        0.0000000000000000     
   2.4119434748059998E-012  0.16467096522143498        0.0000000000000000     
  -5.4030472419879924E-003  0.13394066628617007        0.0000000000000000     
  -5.5176278470072714E-003  0.14143404014343416        0.0000000000000000     
  -5.6252741593625080E-003  0.14905561254536170        0.0000000000000000     
  -5.7259861790537004E-003  0.15680538349195267        0.0000000000000000     
  -5.8197639060808479E-003  0.16468335298320708        0.0000000000000000     
  -1.0837769099897757E-002  0.13399625185958086        0.0000000000000000     
  -1.1066237263435204E-002  0.14148619939363255        0.0000000000000000     
  -1.1281068677092882E-002  0.14910355930649885        0.0000000000000000     
  -1.1482263340870786E-002  0.15684833159817976        0.0000000000000000     
  -1.1669821254768923E-002  0.16472051626867526        0.0000000000000000     
  -1.6304165570409809E-002  0.13408889448195899        0.0000000000000000     
  -1.6645828246208975E-002  0.14157313147734973        0.0000000000000000     
  -1.6967383550349106E-002  0.14918347057512676        0.0000000000000000     
  -1.7268831482830208E-002  0.15691991177528999        0.0000000000000000     
  -1.7550172043652282E-002  0.16478245507783948        0.0000000000000000     
  -2.1802236653524161E-002  0.13421859415330442        0.0000000000000000     
  -2.2256400795328594E-002  0.14169483639458569        0.0000000000000000     
  -2.2684218779131200E-002  0.14929534635124533        0.0000000000000000     
  -2.3085690604931978E-002  0.15702012402328336        0.0000000000000000     
  -2.3460816272730927E-002  0.16486916941069976        0.0000000000000000     
   2.4119434748059998E-012  0.16467096522143498        0.0000000000000000     
   2.2207448553690501E-012  0.17265390507535433        0.0000000000000000     
   2.0535004903107779E-012  0.18071446850752729        0.0000000000000000     
   1.9102104609463461E-012  0.18885265551795372        0.0000000000000000     
   1.7908730054472244E-012  0.19706846610663364        0.0000000000000000     
  -5.8197639060808479E-003  0.16468335298320708        0.0000000000000000     
  -5.9059423237903868E-003  0.17266439696775904        0.0000000000000000     
  -5.9838564155287538E-003  0.18072339139424271        0.0000000000000000     
  -6.0535061812959498E-003  0.18886033626265811        0.0000000000000000     
  -6.1148916210919720E-003  0.19707523157300516        0.0000000000000000     
  -1.1669821254768923E-002  0.16472051626867526        0.0000000000000000     
  -1.1842535048138435E-002  0.17269587264506828        0.0000000000000000     
  -1.1999197350330476E-002  0.18075016005444178        0.0000000000000000     
  -1.2139808161345038E-002  0.18888337849679582        0.0000000000000000     
  -1.2264367481182127E-002  0.19709552797213037        0.0000000000000000     
  -1.7550172043652282E-002  0.16478245507783948        0.0000000000000000     
  -1.7809778170823402E-002  0.17274833210728199        0.0000000000000000     
  -1.8046022802351673E-002  0.18079477448812450        0.0000000000000000     
  -1.8258905938237067E-002  0.18892178222036693        0.0000000000000000     
  -1.8448427578479594E-002  0.19712935530400921        0.0000000000000000     
  -2.3460816272730927E-002  0.16486916941069976        0.0000000000000000     
  -2.3807671691845299E-002  0.17282177535440030        0.0000000000000000     
  -2.4124332771592330E-002  0.18085723469529080        0.0000000000000000     
  -2.4410799511972021E-002  0.18897554743337128        0.0000000000000000     
  -2.4667071912984371E-002  0.19717671356864172        0.0000000000000000     
   1.7908730054472244E-012  0.19706846610663364        0.0000000000000000     
   1.6901840170502336E-012  0.20534947891071456        0.0000000000000000     
   1.6028322332578560E-012  0.21368327256734382        0.0000000000000000     
   1.5288238882325833E-012  0.22206984707652150        0.0000000000000000     
   1.4681545909556171E-012  0.23050920243824752        0.0000000000000000     
  -6.1148916210919720E-003  0.19707523157300516        0.0000000000000000     
  -6.1690245946552378E-003  0.20535567570831345        0.0000000000000000     
  -6.2169169617241676E-003  0.21368926705161245        0.0000000000000000     
  -6.2585687222987555E-003  0.22207600560290205        0.0000000000000000     
  -6.2939798763790040E-003  0.23051589136218242        0.0000000000000000     
  -1.2264367481182127E-002  0.19709552797213037        0.0000000000000000     
  -1.2374445730374850E-002  0.20537426610111259        0.0000000000000000     
  -1.2471613329456325E-002  0.21370725050440983        0.0000000000000000     
  -1.2555870278426539E-002  0.22209448118202205        0.0000000000000000     
  -1.2627216577285504E-002  0.23053595813394917        0.0000000000000000     
  -1.8448427578479594E-002  0.19712935530400921        0.0000000000000000     
  -1.8616263405468653E-002  0.20540525008911209        0.0000000000000000     
  -1.8764089101593634E-002  0.21373722292573616        0.0000000000000000     
  -1.8891904666854527E-002  0.22212527381388147        0.0000000000000000     
  -1.8999710101251344E-002  0.23056940275354795        0.0000000000000000     
  -2.4667071912984371E-002  0.19717671356864172        0.0000000000000000     
  -2.4894477619936645E-002  0.20544862767231181        0.0000000000000000     
  -2.5094344278136102E-002  0.21377918431559131        0.0000000000000000     
  -2.5266671887582717E-002  0.22216838349848028        0.0000000000000000     
  -2.5411460448276520E-002  0.23061622522097863        0.0000000000000000     
   1.4681545909556171E-012  0.23050920243824752        0.0000000000000000     
   1.4171181589306414E-012  0.23896857866098209        0.0000000000000000     
   1.3720064580974300E-012  0.24741521575318537        0.0000000000000000     
   1.3328187837245709E-012  0.25584911371485730        0.0000000000000000     
   1.2995563826445622E-012  0.26427027254599800        0.0000000000000000     
  -6.2939798763790040E-003  0.23051589136218242        0.0000000000000000     
  -6.3240200742108524E-003  0.23897643121873854        0.0000000000000000     
  -6.3495589660402356E-003  0.24742513206185565        0.0000000000000000     
  -6.3705965518671501E-003  0.25586199389153375        0.0000000000000000     
  -6.3871328316916004E-003  0.26428701670777272        0.0000000000000000     
  -1.2627216577285504E-002  0.23053595813394917        0.0000000000000000     
  -1.2687701053074579E-002  0.23899998889195201        0.0000000000000000     
  -1.2739372532835129E-002  0.24745488098779106        0.0000000000000000     
  -1.2782231016567148E-002  0.25590063442146643        0.0000000000000000     
  -1.2816276504270644E-002  0.26433724919297813        0.0000000000000000     
  -1.8999710101251344E-002  0.23056940275354795        0.0000000000000000     
  -1.9091042935174062E-002  0.23903925168062246        0.0000000000000000     
  -1.9169440699012677E-002  0.24750446253099162        0.0000000000000000     
  -1.9234903392767178E-002  0.25596503530465547        0.0000000000000000     
  -1.9287431016437574E-002  0.26442097000161413        0.0000000000000000     
  -2.5411460448276520E-002  0.23061622522097863        0.0000000000000000     
  -2.5534045720509303E-002  0.23909421958474983        0.0000000000000000     
  -2.5639763464572880E-002  0.24757387669145725        0.0000000000000000     
  -2.5728613680467236E-002  0.25605519654110087        0.0000000000000000     
  -2.5800596368192388E-002  0.26453817913368077        0.0000000000000000     
   1.2995563826445622E-012  0.26427027254599800        0.0000000000000000     
   1.2685070008289223E-012  0.27261880201490807        0.0000000000000000     
   1.2359609863343834E-012  0.28083481188988857        0.0000000000000000     
   1.2019135686713867E-012  0.28891830217093956        0.0000000000000000     
   1.1663690846486219E-012  0.29686927285806064        0.0000000000000000     
  -6.3871328316916004E-003  0.26428701670777272        0.0000000000000000     
  -6.4030740943655153E-003  0.27264063041398651        0.0000000000000000     
  -6.4223266287408197E-003  0.28086326491358865        0.0000000000000000     
  -6.4448904348175127E-003  0.28895492020657926        0.0000000000000000     
  -6.4707655125955969E-003  0.29691559629295833        0.0000000000000000     
  -1.2816276504270644E-002  0.26433724919297813        0.0000000000000000     
  -1.2848780862133060E-002  0.27270611561107505        0.0000000000000000     
  -1.2887015956341841E-002  0.28094862398450637        0.0000000000000000     
  -1.2930981786896991E-002  0.28906477431327188        0.0000000000000000     
  -1.2980678353798505E-002  0.29705456659737167        0.0000000000000000     
  -1.9287431016437574E-002  0.26442097000161413        0.0000000000000000     
  -1.9337120302034130E-002  0.27281525760617409        0.0000000000000000     
  -1.9394067981567110E-002  0.28109088910264179        0.0000000000000000     
  -1.9458274055036522E-002  0.28924786449101730        0.0000000000000000     
  -1.9529738522442358E-002  0.29728618377130078        0.0000000000000000     
  -2.5800596368192388E-002  0.26453817913368077        0.0000000000000000     
  -2.5868092414068716E-002  0.27296805639928329        0.0000000000000000     
  -2.5943482704416619E-002  0.28129006026799491        0.0000000000000000     
  -2.6026767239236102E-002  0.28950419073981565        0.0000000000000000     
  -2.6117946018527155E-002  0.29761044781474555        0.0000000000000000     
  -1.4956564138618716E-002   5.6249307957623576E-002   0.0000000000000000     
  -1.5466468375992809E-002   6.1441036391343240E-002   0.0000000000000000     
  -1.6023544508680803E-002   6.6975818407916846E-002   0.0000000000000000     
  -1.6627792536682704E-002   7.2853654007344407E-002   0.0000000000000000     
  -1.7279212459998514E-002   7.9074543189625895E-002   0.0000000000000000     
  -1.8791760898763603E-002   5.6331870046776464E-002   0.0000000000000000     
  -1.9443808274349269E-002   6.1579467422992445E-002   0.0000000000000000     
  -2.0147551070689253E-002   6.7153754534562141E-002   0.0000000000000000     
  -2.0902989287783558E-002   7.3054731381485605E-002   0.0000000000000000     
  -2.1710122925632184E-002   7.9282397963762810E-002   0.0000000000000000     
  -2.2572024394834033E-002   5.6635256222054127E-002   0.0000000000000000     
  -2.3364388090570662E-002   6.1872237425474548E-002   0.0000000000000000     
  -2.4219951242823532E-002   6.7436850600077827E-002   0.0000000000000000     
  -2.5138713851592668E-002   7.3329095745863951E-002   0.0000000000000000     
  -2.6120675916878045E-002   7.9548972862832912E-002   0.0000000000000000     
  -2.6297354626830013E-002   5.7159466483456559E-002   0.0000000000000000     
  -2.7228207824656986E-002   6.2319346398789589E-002   0.0000000000000000     
  -2.8240745025083652E-002   6.7825106604463864E-002   0.0000000000000000     
  -2.9334966228110024E-002   7.3676747100479362E-002   0.0000000000000000     
  -3.0510871433736087E-002   7.9874267886836173E-002   0.0000000000000000     
  -2.9967751594751537E-002   5.7904500830983752E-002   0.0000000000000000     
  -3.1035267476608241E-002   6.2920794342937528E-002   0.0000000000000000     
  -3.2209932417469604E-002   6.8318522547720265E-002   0.0000000000000000     
  -3.3491746417335627E-002   7.4097685445331948E-002   0.0000000000000000     
  -3.4880709476206320E-002   8.0258283035772593E-002   0.0000000000000000     
  -1.7279212459998514E-002   7.9074543189625895E-002   0.0000000000000000     
  -1.7939790659911227E-002   8.5528250986904475E-002   0.0000000000000000     
  -1.8571513517703832E-002   9.2104542431323280E-002   0.0000000000000000     
  -1.9174381033376344E-002   9.8803417522882284E-002   0.0000000000000000     
  -1.9748393206928751E-002  0.10562487626158153        0.0000000000000000     
  -2.1710122925632184E-002   7.9282397963762810E-002   0.0000000000000000     
  -2.2526569669634348E-002   8.5734136157916876E-002   0.0000000000000000     
  -2.3309947205189249E-002   9.2307327840470937E-002   0.0000000000000000     
  -2.4060255532296907E-002   9.9001973011425021E-002   0.0000000000000000     
  -2.4777494650957306E-002  0.10581807167077906        0.0000000000000000     
  -2.6120675916878045E-002   7.9548972862832912E-002   0.0000000000000000     
  -2.7113735527151871E-002   8.5993160194161866E-002   0.0000000000000000     
  -2.8065790770886338E-002   9.2558335983028026E-002   0.0000000000000000     
  -2.8976841648081446E-002   9.9244500229431362E-002   0.0000000000000000     
  -2.9846888158737199E-002  0.10605165293337188        0.0000000000000000     
  -3.0510871433736087E-002   7.9874267886836173E-002   0.0000000000000000     
  -3.1701288232463799E-002   8.6305323095639458E-002   0.0000000000000000     
  -3.2839044214795082E-002   9.2857566858994489E-002   0.0000000000000000     
  -3.3924139380729967E-002   9.9530999176901322E-002   0.0000000000000000     
  -3.4956573730268427E-002  0.10632562004935990        0.0000000000000000     
  -3.4880709476206320E-002   8.0258283035772593E-002   0.0000000000000000     
  -3.6289227785570123E-002   8.6670624862349596E-002   0.0000000000000000     
  -3.7629707536915510E-002   9.3205020468370370E-002   0.0000000000000000     
  -3.8902148730242461E-002   9.9861469853834886E-002   0.0000000000000000     
  -4.0106551365550989E-002  0.10663997301874317        0.0000000000000000     
  -1.9748393206928751E-002  0.10562487626158153        0.0000000000000000     
  -2.0296446799210232E-002  0.11257404655151622        0.0000000000000000     
  -2.0821438571069960E-002  0.11965605629678161        0.0000000000000000     
  -2.1323368522507938E-002  0.12687090549737765        0.0000000000000000     
  -2.1802236653524161E-002  0.13421859415330442        0.0000000000000000     
  -2.4777494650957306E-002  0.10581807167077906        0.0000000000000000     
  -2.5463685403389943E-002  0.11276087964858010        0.0000000000000000     
  -2.6120848631814304E-002  0.11983565277487501        0.0000000000000000     
  -2.6748984336230387E-002  0.12704239104966383        0.0000000000000000     
  -2.7348092516638195E-002  0.13438109447294658        0.0000000000000000     
  -2.9846888158737199E-002  0.10605165293337188        0.0000000000000000     
  -3.0678481102302507E-002  0.11298491851458137        0.0000000000000000     
  -3.1474171278226298E-002  0.12004942139279172        0.0000000000000000     
  -3.2233958686508565E-002  0.12724516156800289        0.0000000000000000     
  -3.2957843327149308E-002  0.13457213904021487        0.0000000000000000     
  -3.4956573730268427E-002  0.10632562004935990        0.0000000000000000     
  -3.5940833895947932E-002  0.11324616314952010        0.0000000000000000     
  -3.6881406510305956E-002  0.12029736215053170        0.0000000000000000     
  -3.7778291573342476E-002  0.12747921705239476        0.0000000000000000     
  -3.8631489085057515E-002  0.13479172785510929        0.0000000000000000     
  -4.0106551365550989E-002  0.10663997301874317        0.0000000000000000     
  -4.1250743784326215E-002  0.11354461355339623        0.0000000000000000     
  -4.2342554328053256E-002  0.12057947504809502        0.0000000000000000     
  -4.3381982996732127E-002  0.12774455750283956        0.0000000000000000     
  -4.4369029790362807E-002  0.13503986091762982        0.0000000000000000     
  -2.1802236653524161E-002  0.13421859415330442        0.0000000000000000     
  -2.2256400795328594E-002  0.14169483639458569        0.0000000000000000     
  -2.2684218779131200E-002  0.14929534635124533        0.0000000000000000     
  -2.3085690604931978E-002  0.15702012402328336        0.0000000000000000     
  -2.3460816272730927E-002  0.16486916941069976        0.0000000000000000     
  -2.7348092516638195E-002  0.13438109447294658        0.0000000000000000     
  -2.7916536194613754E-002  0.14184709443664476        0.0000000000000000     
  -2.8452678391733092E-002  0.14943572233267999        0.0000000000000000     
  -2.8956519107996206E-002  0.15714697816105219        0.0000000000000000     
  -2.9428058343403101E-002  0.16498086192176148        0.0000000000000000     
  -3.2957843327149308E-002  0.13457213904021487        0.0000000000000000     
  -3.3644815727884157E-002  0.14202568589483136        0.0000000000000000     
  -3.4293866416448729E-002  0.14960113421725602        0.0000000000000000     
  -3.4904995392843037E-002  0.15729848400748889        0.0000000000000000     
  -3.5478202657067040E-002  0.16511773526552992        0.0000000000000000     
  -3.8631489085057515E-002  0.13479172785510929        0.0000000000000000     
  -3.9441239395139806E-002  0.14223061076914545        0.0000000000000000     
  -4.0207782853278126E-002  0.14979158200497347        0.0000000000000000     
  -4.0931119459472427E-002  0.15747464156259341        0.0000000000000000     
  -4.1611249213722758E-002  0.16527978944200514        0.0000000000000000     
  -4.4369029790362807E-002  0.13503986091762982        0.0000000000000000     
  -4.5305807196380721E-002  0.14246186905958702        0.0000000000000000     
  -4.6194427702221250E-002  0.15000706569583230        0.0000000000000000     
  -4.7034891307884429E-002  0.15767545082636564        0.0000000000000000     
  -4.7827198013370237E-002  0.16546702445118711        0.0000000000000000     
  -2.3460816272730927E-002  0.16486916941069976        0.0000000000000000     
  -2.3807671691845299E-002  0.17282177535440030        0.0000000000000000     
  -2.4124332771592330E-002  0.18085723469529080        0.0000000000000000     
  -2.4410799511972021E-002  0.18897554743337128        0.0000000000000000     
  -2.4667071912984371E-002  0.19717671356864172        0.0000000000000000     
  -2.9428058343403101E-002  0.16498086192176148        0.0000000000000000     
  -2.9865021121171582E-002  0.17291853560421583        0.0000000000000000     
  -3.0265132464519451E-002  0.18094116119782336        0.0000000000000000     
  -3.0628392373446715E-002  0.18904873870258410        0.0000000000000000     
  -3.0954800847953368E-002  0.19724126811849801        0.0000000000000000     
  -3.5478202657067040E-002  0.16511773526552992        0.0000000000000000     
  -3.6010631968769725E-002  0.17304094607452117        0.0000000000000000     
  -3.6499427087600025E-002  0.18105017451760463        0.0000000000000000     
  -3.6944588013557954E-002  0.18914542059478037        0.0000000000000000     
  -3.7346114746643490E-002  0.19732668430604827        0.0000000000000000     
  -4.1611249213722758E-002  0.16527978944200514        0.0000000000000000     
  -4.2244504234639754E-002  0.17318900676531634        0.0000000000000000     
  -4.2827216640834082E-002  0.18118427465463469        0.0000000000000000     
  -4.3359386432305726E-002  0.18926559310996008        0.0000000000000000     
  -4.3841013609054715E-002  0.19743296213129255        0.0000000000000000     
  -4.7827198013370237E-002  0.16546702445118711        0.0000000000000000     
  -4.8566637918781630E-002  0.17336271767660141        0.0000000000000000     
  -4.9248501124221571E-002  0.18134346160891346        0.0000000000000000     
  -4.9872787629690045E-002  0.18940925624812324        0.0000000000000000     
  -5.0439497435187074E-002  0.19756010159423076        0.0000000000000000     
  -2.4667071912984371E-002  0.19717671356864172        0.0000000000000000     
  -2.4894477619936645E-002  0.20544862767231181        0.0000000000000000     
  -2.5094344278136102E-002  0.21377918431559131        0.0000000000000000     
  -2.5266671887582717E-002  0.22216838349848028        0.0000000000000000     
  -2.5411460448276520E-002  0.23061622522097863        0.0000000000000000     
  -3.0954800847953368E-002  0.19724126811849801        0.0000000000000000     
  -3.1245056255784900E-002  0.20550707161181306        0.0000000000000000     
  -3.1499856964686809E-002  0.21383447134877717        0.0000000000000000     
  -3.1719202974659085E-002  0.22222346732939038        0.0000000000000000     
  -3.1903094285701719E-002  0.23067405955365258        0.0000000000000000     
  -3.7346114746643490E-002  0.19732668430604827        0.0000000000000000     
  -3.7703967195019499E-002  0.20558325466871719        0.0000000000000000     
  -3.8018105266848873E-002  0.21390442070009560        0.0000000000000000     
  -3.8288528962131571E-002  0.22229018240018358        0.0000000000000000     
  -3.8515238280867628E-002  0.23074053976898118        0.0000000000000000     
  -4.3841013609054715E-002  0.19743296213129255        0.0000000000000000     
  -4.4271210437640429E-002  0.20567717684302403        0.0000000000000000     
  -4.4649089184622265E-002  0.21398903236954653        0.0000000000000000     
  -4.4974649850000201E-002  0.22236852871085994        0.0000000000000000     
  -4.5247892433774251E-002  0.23081566586696436        0.0000000000000000     
  -5.0439497435187074E-002  0.19756010159423076        0.0000000000000000     
  -5.0946785983647706E-002  0.20578883813473373        0.0000000000000000     
  -5.1392808718006992E-002  0.21408830635712997        0.0000000000000000     
  -5.1777565638264945E-002  0.22245850626141941        0.0000000000000000     
  -5.2101056744421573E-002  0.23089943784760214        0.0000000000000000     
  -2.5411460448276520E-002  0.23061622522097863        0.0000000000000000     
  -2.5534045720509303E-002  0.23909421958474983        0.0000000000000000     
  -2.5639763464572880E-002  0.24757387669145725        0.0000000000000000     
  -2.5728613680467236E-002  0.25605519654110087        0.0000000000000000     
  -2.5800596368192388E-002  0.26453817913368077        0.0000000000000000     
  -3.1903094285701719E-002  0.23067405955365258        0.0000000000000000     
  -3.2058506783776745E-002  0.23916063757866668        0.0000000000000000     
  -3.2192416354846182E-002  0.24765759096153539        0.0000000000000000     
  -3.2304822998910035E-002  0.25616491970225869        0.0000000000000000     
  -3.2395726715968284E-002  0.26468262380083657        0.0000000000000000     
  -3.8515238280867628E-002  0.23074053976898118        0.0000000000000000     
  -3.8706223499672857E-002  0.23923425063670539        0.0000000000000000     
  -3.8869474895163070E-002  0.24775007283357331        0.0000000000000000     
  -3.9004992467338268E-002  0.25628800635958493        0.0000000000000000     
  -3.9112776216198471E-002  0.26484805121474025        0.0000000000000000     
  -4.5247892433774251E-002  0.23081566586696436        0.0000000000000000     
  -4.5477195868197623E-002  0.23931505875886602        0.0000000000000000     
  -4.5670939085523526E-002  0.24785132230757112        0.0000000000000000     
  -4.5829122085751968E-002  0.25642445651307966        0.0000000000000000     
  -4.5951744868882941E-002  0.26503446137539172        0.0000000000000000     
  -5.2101056744421573E-002  0.23089943784760214        0.0000000000000000     
  -5.2371423889351051E-002  0.23940306194514846        0.0000000000000000     
  -5.2596808925927566E-002  0.24796133938352871        0.0000000000000000     
  -5.2777211854151108E-002  0.25657427016274287        0.0000000000000000     
  -5.2912632674021701E-002  0.26524185428279101        0.0000000000000000     
  -2.5800596368192388E-002  0.26453817913368077        0.0000000000000000     
  -2.5868092414068716E-002  0.27296805639928329        0.0000000000000000     
  -2.5943482704416619E-002  0.28129006026799491        0.0000000000000000     
  -2.6026767239236102E-002  0.28950419073981565        0.0000000000000000     
  -2.6117946018527155E-002  0.29761044781474555        0.0000000000000000     
  -3.2395726715968284E-002  0.26468262380083657        0.0000000000000000     
  -3.2480188900530851E-002  0.27315821065597751        0.0000000000000000     
  -3.2573270947107630E-002  0.28153918766639002        0.0000000000000000     
  -3.2674972855698627E-002  0.28982555483207401        0.0000000000000000     
  -3.2785294626303835E-002  0.29801731215302951        0.0000000000000000     
  -3.9112776216198471E-002  0.26484805121474025        0.0000000000000000     
  -3.9211901463714546E-002  0.27337941904183161        0.0000000000000000     
  -3.9321443531857382E-002  0.28183132148365136        0.0000000000000000     
  -3.9441402420626985E-002  0.29020375854019953        0.0000000000000000     
  -3.9571778130023355E-002  0.29849673021147610        0.0000000000000000     
  -4.5951744868882941E-002  0.26503446137539172        0.0000000000000000     
  -4.6063230103619804E-002  0.27363168155684542        0.0000000000000000     
  -4.6188000458665883E-002  0.28216646171977888        0.0000000000000000     
  -4.6326055934021185E-002  0.29063880186419228        0.0000000000000000     
  -4.6477396529685716E-002  0.29904870199008537        0.0000000000000000     
  -5.2912632674021701E-002  0.26524185428279101        0.0000000000000000     
  -5.3034174820246617E-002  0.27391499820101894        0.0000000000000000     
  -5.3172941727533118E-002  0.28254460837477269        0.0000000000000000     
  -5.3328933395881212E-002  0.29113068480405213        0.0000000000000000     
  -5.3502149825290904E-002  0.29967322748885739        0.0000000000000000     
  -2.9967751594751537E-002   5.7904500830983752E-002   0.0000000000000000     
  -3.1035267476608241E-002   6.2920794342937528E-002   0.0000000000000000     
  -3.2209932417469604E-002   6.8318522547720265E-002   0.0000000000000000     
  -3.3491746417335627E-002   7.4097685445331948E-002   0.0000000000000000     
  -3.4880709476206320E-002   8.0258283035772593E-002   0.0000000000000000     
  -3.3647654127981583E-002   5.8650512519161910E-002   0.0000000000000000     
  -3.4876856543029432E-002   6.3564410534364083E-002   0.0000000000000000     
  -3.6235260059780061E-002   6.8880961786018755E-002   0.0000000000000000     
  -3.7722864678233485E-002   7.4600166274125926E-002   0.0000000000000000     
  -3.9339670398389703E-002   8.0722023998685583E-002   0.0000000000000000     
  -3.7401501055903140E-002   5.9177654802517188E-002   0.0000000000000000     
  -3.8844264520525557E-002   6.4138024249514924E-002   0.0000000000000000     
  -4.0424474591813711E-002   6.9476287675531059E-002   0.0000000000000000     
  -4.2142131269767583E-002   7.5192445080565593E-002   0.0000000000000000     
  -4.3997234554387206E-002   8.1286496464618524E-002   0.0000000000000000     
  -4.1229292378516191E-002   5.9485927681049593E-002   0.0000000000000000     
  -4.2937491409096619E-002   6.4641635488390067E-002   0.0000000000000000     
  -4.4777576013570533E-002   7.0104500216257193E-002   0.0000000000000000     
  -4.6749546191937920E-002   7.5874521864650948E-002   0.0000000000000000     
  -4.8853401944198807E-002   8.1951700433571362E-002   0.0000000000000000     
  -4.5131028095820744E-002   5.9575331154759117E-002   0.0000000000000000     
  -4.7156537208742619E-002   6.5075244250989484E-002   0.0000000000000000     
  -4.9294564325050541E-002   7.0765599408197127E-002   0.0000000000000000     
  -5.1545109444744518E-002   7.6646396626382007E-002   0.0000000000000000     
  -5.3908172567824542E-002   8.2717635905544151E-002   0.0000000000000000     
  -3.4880709476206320E-002   8.0258283035772593E-002   0.0000000000000000     
  -3.6289227785570123E-002   8.6670624862349596E-002   0.0000000000000000     
  -3.7629707536915510E-002   9.3205020468370370E-002   0.0000000000000000     
  -3.8902148730242461E-002   9.9861469853834886E-002   0.0000000000000000     
  -4.0106551365550989E-002  0.10663997301874317        0.0000000000000000     
  -3.9339670398389703E-002   8.0722023998685583E-002   0.0000000000000000     
  -4.0977626166248490E-002   8.7106925266483018E-002   0.0000000000000000     
  -4.2528680927809655E-002   9.3615260384303428E-002   0.0000000000000000     
  -4.3992834683073190E-002  0.10024702935214688        0.0000000000000000     
  -4.5370087432039082E-002  0.10700223217001335        0.0000000000000000     
  -4.3997234554387206E-002   8.1286496464618524E-002   0.0000000000000000     
  -4.5866555354276535E-002   8.7632084080230321E-002   0.0000000000000000     
  -4.7626864578039607E-002   9.4102850179941494E-002   0.0000000000000000     
  -4.9278162225676388E-002  0.10069879476375207        0.0000000000000000     
  -5.0820448297186890E-002  0.10741991783166202        0.0000000000000000     
  -4.8853401944198807E-002   8.1951700433571362E-002   0.0000000000000000     
  -5.0956015349654257E-002   8.8246101303591534E-002   0.0000000000000000     
  -5.2924258487605333E-002   9.4667789855284568E-002   0.0000000000000000     
  -5.4758131358052069E-002  0.10121676608865045        0.0000000000000000     
  -5.6457633960994437E-002  0.10789303000368922        0.0000000000000000     
  -5.3908172567824542E-002   8.2717635905544151E-002   0.0000000000000000     
  -5.6246006152381643E-002   8.8948976936566670E-002   0.0000000000000000     
  -5.8420862656506874E-002   9.5310079410332607E-002   0.0000000000000000     
  -6.0432742080200233E-002  0.10180094332684204        0.0000000000000000     
  -6.2281644423461693E-002  0.10842156868609493        0.0000000000000000     
  -4.0106551365550989E-002  0.10663997301874317        0.0000000000000000     
  -4.1250743784326215E-002  0.11354461355339623        0.0000000000000000     
  -4.2342554328053256E-002  0.12057947504809502        0.0000000000000000     
  -4.3381982996732127E-002  0.12774455750283956        0.0000000000000000     
  -4.4369029790362807E-002  0.13503986091762982        0.0000000000000000     
  -4.5370087432039082E-002  0.10700223217001335        0.0000000000000000     
  -4.6673585127420071E-002  0.11388487079934252        0.0000000000000000     
  -4.7916473721928872E-002  0.12089894720157413        0.0000000000000000     
  -4.9098753215565477E-002  0.12804446137670816        0.0000000000000000     
  -5.0220423608329900E-002  0.13532141332474457        0.0000000000000000     
  -5.0820448297186890E-002  0.10741991783166202        0.0000000000000000     
  -5.2274732285212226E-002  0.11427153596049172        0.0000000000000000     
  -5.3662023682393437E-002  0.12125896572706153        0.0000000000000000     
  -5.4982322488730563E-002  0.12838220713137150        0.0000000000000000     
  -5.6235628704223564E-002  0.13564126017342151        0.0000000000000000     
  -5.6457633960994437E-002  0.10789303000368922        0.0000000000000000     
  -5.8054185257702659E-002  0.11470460903684386        0.0000000000000000     
  -5.9579204209446970E-002  0.12165953062455730        0.0000000000000000     
  -6.1032690816227329E-002  0.12875779476682961        0.0000000000000000     
  -6.2414645078043771E-002  0.13599940146366074        0.0000000000000000     
  -6.2281644423461693E-002  0.10842156868609493        0.0000000000000000     
  -6.4011944044891397E-002  0.11518409002839886        0.0000000000000000     
  -6.5668015303089439E-002  0.12210064189406133        0.0000000000000000     
  -6.7249858198055831E-002  0.12917122428308248        0.0000000000000000     
  -6.8757472729790547E-002  0.13639583719546222        0.0000000000000000     
  -4.4369029790362807E-002  0.13503986091762982        0.0000000000000000     
  -4.5305807196380721E-002  0.14246186905958702        0.0000000000000000     
  -4.6194427702221250E-002  0.15000706569583230        0.0000000000000000     
  -4.7034891307884429E-002  0.15767545082636564        0.0000000000000000     
  -4.7827198013370237E-002  0.16546702445118711        0.0000000000000000     
  -5.0220423608329900E-002  0.13532141332474457        0.0000000000000000     
  -5.1285495557810645E-002  0.14272623632205050        0.0000000000000000     
  -5.2297979721596173E-002  0.15025536364499298        0.0000000000000000     
  -5.3257876099686532E-002  0.15790879529357207        0.0000000000000000     
  -5.4165184692081675E-002  0.16568653126778771        0.0000000000000000     
  -5.6235628704223564E-002  0.13564126017342151        0.0000000000000000     
  -5.7427280905633392E-002  0.14303048811243019        0.0000000000000000     
  -5.8562617669720936E-002  0.15054425420761594        0.0000000000000000     
  -5.9641638996486224E-002  0.15818255845897888        0.0000000000000000     
  -6.0664344885929235E-002  0.16594540086651888        0.0000000000000000     
  -6.2414645078043771E-002  0.13599940146366074        0.0000000000000000     
  -6.3731163239848967E-002  0.14337462443072618        0.0000000000000000     
  -6.4988341546595538E-002  0.15087373738370130        0.0000000000000000     
  -6.6186179998283523E-002  0.15849674032258612        0.0000000000000000     
  -6.7324678594912923E-002  0.16624363324738062        0.0000000000000000     
  -6.8757472729790547E-002  0.13639583719546222        0.0000000000000000     
  -7.0197142560457351E-002  0.14375864527693841        0.0000000000000000     
  -7.1575151352219993E-002  0.15124381317324889        0.0000000000000000     
  -7.2891499105078444E-002  0.15885134088439379        0.0000000000000000     
  -7.4146185819032734E-002  0.16658122841037296        0.0000000000000000     
  -4.7827198013370237E-002  0.16546702445118711        0.0000000000000000     
  -4.8566637918781630E-002  0.17336271767660141        0.0000000000000000     
  -4.9248501124221571E-002  0.18134346160891346        0.0000000000000000     
  -4.9872787629690045E-002  0.18940925624812324        0.0000000000000000     
  -5.0439497435187074E-002  0.19756010159423076        0.0000000000000000     
  -5.4165184692081675E-002  0.16568653126778771        0.0000000000000000     
  -5.5013847979025601E-002  0.17356813319434966        0.0000000000000000     
  -5.5797808440762299E-002  0.18153316269996769        0.0000000000000000     
  -5.6517066077291761E-002  0.18958161978464175        0.0000000000000000     
  -5.7171620888613987E-002  0.19771350444837191        0.0000000000000000     
  -6.0664344885929235E-002  0.16594540086651888        0.0000000000000000     
  -6.1622949373201868E-002  0.17381130770453446        0.0000000000000000     
  -6.2509666493456018E-002  0.18175880524732399        0.0000000000000000     
  -6.3324496246691689E-002  0.18978789349488751        0.0000000000000000     
  -6.4067438632908910E-002  0.19789857244722503        0.0000000000000000     
  -6.7324678594912923E-002  0.16624363324738062        0.0000000000000000     
  -6.8393942101310418E-002  0.17409224120715577        0.0000000000000000     
  -6.9384075282302726E-002  0.18202038925098238        0.0000000000000000     
  -7.0295078137889877E-002  0.19002807737886049        0.0000000000000000     
  -7.1126950668071828E-002  0.19811530559079008        0.0000000000000000     
  -7.4146185819032734E-002  0.16658122841037296        0.0000000000000000     
  -7.5326826163351263E-002  0.17441093370221361        0.0000000000000000     
  -7.6421034807302446E-002  0.18231791471094286        0.0000000000000000     
  -7.7428811750886284E-002  0.19030217143656070        0.0000000000000000     
  -7.8350156994102735E-002  0.19836370387906710        0.0000000000000000     
  -5.0439497435187074E-002  0.19756010159423076        0.0000000000000000     
  -5.0946785983647706E-002  0.20578883813473373        0.0000000000000000     
  -5.1392808718006992E-002  0.21408830635712997        0.0000000000000000     
  -5.1777565638264945E-002  0.22245850626141941        0.0000000000000000     
  -5.2101056744421573E-002  0.23089943784760214        0.0000000000000000     
  -5.7171620888613987E-002  0.19771350444837191        0.0000000000000000     
  -5.7759392789919269E-002  0.20592382478543217        0.0000000000000000     
  -5.8278301696397881E-002  0.21420758889009661        0.0000000000000000     
  -5.8728347608049826E-002  0.22256479676236521        0.0000000000000000     
  -5.9109530524875095E-002  0.23099544840223796        0.0000000000000000     
  -6.4067438632908910E-002  0.19789857244722503        0.0000000000000000     
  -6.4737729813333089E-002  0.20608772303670533        0.0000000000000000     
  -6.5334605949189731E-002  0.21435222619569702        0.0000000000000000     
  -6.5858067040478821E-002  0.22269208192420042        0.0000000000000000     
  -6.6308113087200360E-002  0.23110729022221527        0.0000000000000000     
  -7.1126950668071828E-002  0.19811530559079008        0.0000000000000000     
  -7.1881797053889182E-002  0.20628053288855308        0.0000000000000000     
  -7.2561721476382554E-002  0.21452221827393145        0.0000000000000000     
  -7.3166723935551931E-002  0.22284036174692504        0.0000000000000000     
  -7.3696804431397311E-002  0.23123496330753401        0.0000000000000000     
  -7.8350156994102735E-002  0.19836370387906710        0.0000000000000000     
  -7.9191594511587526E-002  0.20650225434097563        0.0000000000000000     
  -7.9959648277976345E-002  0.21471756512479961        0.0000000000000000     
  -8.0654318293269162E-002  0.22300963623053918        0.0000000000000000     
  -8.1275604557465977E-002  0.23137846765819420        0.0000000000000000     
  -5.2101056744421573E-002  0.23089943784760214        0.0000000000000000     
  -5.2371423889351051E-002  0.23940306194514846        0.0000000000000000     
  -5.2596808925927566E-002  0.24796133938352871        0.0000000000000000     
  -5.2777211854151108E-002  0.25657427016274287        0.0000000000000000     
  -5.2912632674021701E-002  0.26524185428279101        0.0000000000000000     
  -5.9109530524875095E-002  0.23099544840223796        0.0000000000000000     
  -5.9428406155377422E-002  0.23949931769479893        0.0000000000000000     
  -5.9691530208060485E-002  0.24807617852513220        0.0000000000000000     
  -5.9898902682924304E-002  0.25672603089323781        0.0000000000000000     
  -6.0050523579968866E-002  0.26544887479911561        0.0000000000000000     
  -6.6308113087200360E-002  0.23110729022221527        0.0000000000000000     
  -6.6687641258521058E-002  0.23960488350706366        0.0000000000000000     
  -6.6999548723607666E-002  0.24819189419606782        0.0000000000000000     
  -6.7243835482460157E-002  0.25686832228922757        0.0000000000000000     
  -6.7420501535078559E-002  0.26563416778654303        0.0000000000000000     
  -7.3696804431397311E-002  0.23123496330753401        0.0000000000000000     
  -7.4149129198781957E-002  0.23971975938194262        0.0000000000000000     
  -7.4520864472569059E-002  0.24830848639633543        0.0000000000000000     
  -7.4812010252758687E-002  0.25700114435071231        0.0000000000000000     
  -7.5022566539350799E-002  0.26579773324507333        0.0000000000000000     
  -8.1275604557465977E-002  0.23137846765819420        0.0000000000000000     
  -8.1812869976160080E-002  0.23984394531943584        0.0000000000000000     
  -8.2255477454944700E-002  0.24842595512593510        0.0000000000000000     
  -8.2603426993819867E-002  0.25712449707769197        0.0000000000000000     
  -8.2856718592785539E-002  0.26593957117470646        0.0000000000000000     
  -5.2912632674021701E-002  0.26524185428279101        0.0000000000000000     
  -5.3034174820246617E-002  0.27391499820101894        0.0000000000000000     
  -5.3172941727533118E-002  0.28254460837477269        0.0000000000000000     
  -5.3328933395881212E-002  0.29113068480405213        0.0000000000000000     
  -5.3502149825290904E-002  0.29967322748885739        0.0000000000000000     
  -6.0050523579968866E-002  0.26544887479911561        0.0000000000000000     
  -6.0183502711900948E-002  0.27420054851084402        0.0000000000000000     
  -6.0334949891427320E-002  0.28293689029650110        0.0000000000000000     
  -6.0504865118547968E-002  0.29165790015608695        0.0000000000000000     
  -6.0693248393262920E-002  0.30036357808960157        0.0000000000000000     
  -6.7420501535078559E-002  0.26563416778654303        0.0000000000000000     
  -6.7569980876888786E-002  0.27445951202281205        0.0000000000000000     
  -6.7732707503316711E-002  0.28331443633283243        0.0000000000000000     
  -6.7908681414362362E-002  0.29219894071660413        0.0000000000000000     
  -6.8097902610025740E-002  0.30111302517412730        0.0000000000000000     
  -7.5022566539350799E-002  0.26579773324507333        0.0000000000000000     
  -7.5193609315210103E-002  0.27469188873692324        0.0000000000000000     
  -7.5366214563201292E-002  0.28367724648376674        0.0000000000000000     
  -7.5540382283324395E-002  0.29275380648560395        0.0000000000000000     
  -7.5716112475579384E-002  0.30192156874243470        0.0000000000000000     
  -8.2856718592785539E-002  0.26593957117470646        0.0000000000000000     
  -8.3054388026864906E-002  0.27489767865317749        0.0000000000000000     
  -8.3235471071081063E-002  0.28402532074930403        0.0000000000000000     
  -8.3399967725434038E-002  0.29332249746308608        0.0000000000000000     
  -8.3547877989923830E-002  0.30278920879452376        0.0000000000000000     
  -4.5131028095820744E-002   5.9575331154759117E-002   0.0000000000000000     
  -4.7156537208742619E-002   6.5075244250989484E-002   0.0000000000000000     
  -4.9294564325050541E-002   7.0765599408197127E-002   0.0000000000000000     
  -5.1545109444744518E-002   7.6646396626382007E-002   0.0000000000000000     
  -5.3908172567824542E-002   8.2717635905544151E-002   0.0000000000000000     
  -4.9980648448157125E-002   5.9408027454764797E-002   0.0000000000000000     
  -5.2153707154465226E-002   6.5378601655667376E-002   0.0000000000000000     
  -5.4444767343086869E-002   7.1387747371237972E-002   0.0000000000000000     
  -5.6853829014022049E-002   7.7435464601476586E-002   0.0000000000000000     
  -5.9380892167270743E-002   8.3521753346383232E-002   0.0000000000000000     
  -5.6652093675865670E-002   5.8946178812185654E-002   0.0000000000000000     
  -5.8581306481266152E-002   6.5491458820777837E-002   0.0000000000000000     
  -6.0697512884512667E-002   7.1899106225266782E-002   0.0000000000000000     
  -6.3000712885605215E-002   7.8169121025652474E-002   0.0000000000000000     
  -6.5490906484543795E-002   8.4301503221934929E-002   0.0000000000000000     
  -6.5145363778946336E-002   5.8189785227021673E-002   0.0000000000000000     
  -6.6439335189145368E-002   6.5413815746320936E-002   0.0000000000000000     
  -6.8052800949327932E-002   7.2299675970283597E-002   0.0000000000000000     
  -6.9985761059494028E-002   7.8847365898909713E-002   0.0000000000000000     
  -7.2238215519643670E-002   8.5056885532199270E-002   0.0000000000000000     
  -7.5460458757399193E-002   5.7138846699272862E-002   0.0000000000000000     
  -7.5727793278102876E-002   6.5145672432296575E-002   0.0000000000000000     
  -7.6510631537532639E-002   7.2589456606288377E-002   0.0000000000000000     
  -7.7808973535688483E-002   7.9470199221248275E-002   0.0000000000000000     
  -7.9622819272570394E-002   8.5787900277176241E-002   0.0000000000000000     
  -5.3908172567824542E-002   8.2717635905544151E-002   0.0000000000000000     
  -5.6246006152381643E-002   8.8948976936566670E-002   0.0000000000000000     
  -5.8420862656506874E-002   9.5310079410332607E-002   0.0000000000000000     
  -6.0432742080200233E-002  0.10180094332684204        0.0000000000000000     
  -6.2281644423461693E-002  0.10842156868609493        0.0000000000000000     
  -5.9380892167270743E-002   8.3521753346383232E-002   0.0000000000000000     
  -6.1880524869591433E-002   8.9692944029448440E-002   0.0000000000000000     
  -6.4207295187742569E-002   9.5995367074162716E-002   0.0000000000000000     
  -6.6361203121724124E-002  0.10242902248052609        0.0000000000000000     
  -6.8342248671536168E-002  0.10899391024853852        0.0000000000000000     
  -6.5490906484543795E-002   8.4301503221934929E-002   0.0000000000000000     
  -6.8003568608416332E-002   9.0430235632529568E-002   0.0000000000000000     
  -7.0374174184310745E-002   9.6689301075851872E-002   0.0000000000000000     
  -7.2602723212227077E-002  0.10307869955190183        0.0000000000000000     
  -7.4689215692165314E-002  0.10959843106067940        0.0000000000000000     
  -7.2238215519643670E-002   8.5056885532199270E-002   0.0000000000000000     
  -7.4615137368856319E-002   9.1160851745810109E-002   0.0000000000000000     
  -7.6921499646211450E-002   9.7391881415400117E-002   0.0000000000000000     
  -7.9157302351709063E-002  0.10374997454096926        0.0000000000000000     
  -8.1322545485349146E-002  0.11023513112251754        0.0000000000000000     
  -7.9622819272570394E-002   8.5787900277176241E-002   0.0000000000000000     
  -8.1715231150911449E-002   9.1884792369290036E-002   0.0000000000000000     
  -8.3849271573444670E-002   9.8103108092807437E-002   0.0000000000000000     
  -8.6024940540170083E-002  0.10444284744772842        0.0000000000000000     
  -8.8242238051087662E-002  0.11090401043405299        0.0000000000000000     
  -6.2281644423461693E-002  0.10842156868609493        0.0000000000000000     
  -6.4011944044891397E-002  0.11518409002839886        0.0000000000000000     
  -6.5668015303089439E-002  0.12210064189406133        0.0000000000000000     
  -6.7249858198055831E-002  0.12917122428308248        0.0000000000000000     
  -6.8757472729790547E-002  0.13639583719546222        0.0000000000000000     
  -6.8342248671536168E-002  0.10899391024853852        0.0000000000000000     
  -7.0199012000003641E-002  0.11570675831861631        0.0000000000000000     
  -7.1980073269951581E-002  0.12258429463117559        0.0000000000000000     
  -7.3685432481380000E-002  0.12962651918621645        0.0000000000000000     
  -7.5315089634288859E-002  0.13683343198373890        0.0000000000000000     
  -7.4689215692165314E-002  0.10959843106067940        0.0000000000000000     
  -7.6666392476264597E-002  0.11626939329095573        0.0000000000000000     
  -7.8566994416664079E-002  0.12311248393150191        0.0000000000000000     
  -8.0391021513363817E-002  0.13012770298231793        0.0000000000000000     
  -8.2138473766363754E-002  0.13731505044340384        0.0000000000000000     
  -8.1322545485349146E-002  0.11023513112251754        0.0000000000000000     
  -8.3414085473674265E-002  0.11687199494541717        0.0000000000000000     
  -8.5428778743226991E-002  0.12368520979504027        0.0000000000000000     
  -8.7366625294007280E-002  0.13067477567138688        0.0000000000000000     
  -8.9227625126015203E-002  0.13784069257445702        0.0000000000000000     
  -8.8242238051087662E-002  0.11090401043405299        0.0000000000000000     
  -9.0442090992232646E-002  0.11751456328200061        0.0000000000000000     
  -9.2565426249640217E-002  0.12430247222179069        0.0000000000000000     
  -9.4612243823310432E-002  0.13126773725342333        0.0000000000000000     
  -9.6582543713243207E-002  0.13841035837689841        0.0000000000000000     
  -6.8757472729790547E-002  0.13639583719546222        0.0000000000000000     
  -7.0197142560457351E-002  0.14375864527693841        0.0000000000000000     
  -7.1575151352219993E-002  0.15124381317324889        0.0000000000000000     
  -7.2891499105078444E-002  0.15885134088439379        0.0000000000000000     
  -7.4146185819032734E-002  0.16658122841037296        0.0000000000000000     
  -7.5315089634288859E-002  0.13683343198373890        0.0000000000000000     
  -7.6874009786213449E-002  0.14418291717663173        0.0000000000000000     
  -7.8367157994689032E-002  0.15165285891778391        0.0000000000000000     
  -7.9794534259715610E-002  0.15924325720719540        0.0000000000000000     
  -8.1156138581293141E-002  0.16695411204486621        0.0000000000000000     
  -8.2138473766363754E-002  0.13731505044340384        0.0000000000000000     
  -8.3810555835872200E-002  0.14464780665537111        0.0000000000000000     
  -8.5408472382097478E-002  0.15209925195883137        0.0000000000000000     
  -8.6932223405039602E-002  0.15966938635378453        0.0000000000000000     
  -8.8381808904698517E-002  0.16735820984023073        0.0000000000000000     
  -8.9227625126015203E-002  0.13784069257445702        0.0000000000000000     
  -9.1006780709433591E-002  0.14515331371315648        0.0000000000000000     
  -9.2699094514445343E-002  0.15258299229639122        0.0000000000000000     
  -9.4304566541050461E-002  0.16012972832416122        0.0000000000000000     
  -9.5823196789248943E-002  0.16779352179646650        0.0000000000000000     
  -9.6582543713243207E-002  0.13841035837689841        0.0000000000000000     
  -9.8462684406897594E-002  0.14569943834998789        0.0000000000000000     
 -0.10023902439173259       0.15310407993046360        0.0000000000000000     
 -0.10191156366774816       0.16062428311832547        0.0000000000000000     
 -0.10348030223494434       0.16826004791357355        0.0000000000000000     
  -7.4146185819032734E-002  0.16658122841037296        0.0000000000000000     
  -7.5326826163351263E-002  0.17441093370221361        0.0000000000000000     
  -7.6421034807302446E-002  0.18231791471094286        0.0000000000000000     
  -7.7428811750886284E-002  0.19030217143656070        0.0000000000000000     
  -7.8350156994102735E-002  0.19836370387906710        0.0000000000000000     
  -8.1156138581293141E-002  0.16695411204486621        0.0000000000000000     
  -8.2439353454197659E-002  0.17476284932548761        0.0000000000000000     
  -8.3631561373205182E-002  0.18264689494375094        0.0000000000000000     
  -8.4732762338315698E-002  0.19060624889965619        0.0000000000000000     
  -8.5742956349529192E-002  0.19864091119320332        0.0000000000000000     
  -8.8381808904698517E-002  0.16735820984023073        0.0000000000000000     
  -8.9749275868722805E-002  0.17514345221275743        0.0000000000000000     
  -9.1026671284760927E-002  0.18300284326595215        0.0000000000000000     
  -9.2213995152812908E-002  0.19093638299981505        0.0000000000000000     
  -9.3311247472878736E-002  0.19894407141434600        0.0000000000000000     
  -9.5823196789248943E-002  0.16779352179646650        0.0000000000000000     
  -9.7256593406926703E-002  0.17555274236402296        0.0000000000000000     
  -9.8606364541969693E-002  0.18338575967754656        0.0000000000000000     
  -9.9872510194377900E-002  0.19129257373703723        0.0000000000000000     
 -0.10105503036415135       0.19927318454249510        0.0000000000000000     
 -0.10348030223494434       0.16826004791357355        0.0000000000000000     
 -0.10496130606880938       0.17599071977928427        0.0000000000000000     
 -0.10637064114483150       0.18379564417853403        0.0000000000000000     
 -0.10770830746301072       0.19167482111132281        0.0000000000000000     
 -0.10897430502334704       0.19962825057765066        0.0000000000000000     
  -7.8350156994102735E-002  0.19836370387906710        0.0000000000000000     
  -7.9191594511587526E-002  0.20650225434097563        0.0000000000000000     
  -7.9959648277976345E-002  0.21471756512479961        0.0000000000000000     
  -8.0654318293269162E-002  0.22300963623053918        0.0000000000000000     
  -8.1275604557465977E-002  0.23137846765819420        0.0000000000000000     
  -8.5742956349529192E-002  0.19864091119320332        0.0000000000000000     
  -8.6672170100530563E-002  0.20675186237960488        0.0000000000000000     
  -8.7530430285004721E-002  0.21494008301407339        0.0000000000000000     
  -8.8317736902951638E-002  0.22320557309660879        0.0000000000000000     
  -8.9034089954371301E-002  0.23154833262721114        0.0000000000000000     
  -9.3311247472878736E-002  0.19894407141434600        0.0000000000000000     
  -9.4328571734820760E-002  0.20702833199007309        0.0000000000000000     
  -9.5276111428501356E-002  0.21519158820752449        0.0000000000000000     
  -9.6153866553920456E-002  0.22343384006670014        0.0000000000000000     
  -9.6961837111078156E-002  0.23175508756760008        0.0000000000000000     
 -0.10105503036415135       0.19927318454249510        0.0000000000000000     
 -0.10216079941445810       0.20733166317238025        0.0000000000000000     
 -0.10319669170846620       0.21547208070515297        0.0000000000000000     
 -0.10416270724617570       0.22369443714081316        0.0000000000000000     
 -0.10505884602758657       0.23199873247936090        0.0000000000000000     
 -0.10897430502334704       0.19962825057765066        0.0000000000000000     
 -0.11016885313944252       0.20766185592652636        0.0000000000000000     
 -0.11129217112489928       0.21578156050695876        0.0000000000000000     
 -0.11234425897971727       0.22398736431894789        0.0000000000000000     
 -0.11332511670389651       0.23227926736249371        0.0000000000000000     
  -8.1275604557465977E-002  0.23137846765819420        0.0000000000000000     
  -8.1812869976160080E-002  0.23984394531943584        0.0000000000000000     
  -8.2255477454944700E-002  0.24842595512593510        0.0000000000000000     
  -8.2603426993819867E-002  0.25712449707769197        0.0000000000000000     
  -8.2856718592785539E-002  0.26593957117470646        0.0000000000000000     
  -8.9034089954371301E-002  0.23154833262721114        0.0000000000000000     
  -8.9664501093779478E-002  0.23999228250439147        0.0000000000000000     
  -9.0193981975691936E-002  0.24856134362666074        0.0000000000000000     
  -9.0622532600108621E-002  0.25725551599401908        0.0000000000000000     
  -9.0950152967029615E-002  0.26607479960646635        0.0000000000000000     
  -9.6961837111078156E-002  0.23175508756760008        0.0000000000000000     
  -9.7689660054764094E-002  0.24017961212165764        0.0000000000000000     
  -9.8326972339768004E-002  0.24873169514030630        0.0000000000000000     
  -9.8873773966089915E-002  0.25741133662354609        0.0000000000000000     
  -9.9330064933729756E-002  0.26621853657137701        0.0000000000000000     
 -0.10505884602758657       0.23199873247936090        0.0000000000000000     
 -0.10588834685911395       0.24040593417123432        0.0000000000000000     
 -0.10665444854717299       0.24893700966687174        0.0000000000000000     
 -0.10735715109176368       0.25759195896627313        0.0000000000000000     
 -0.10799645449288597       0.26637078206943843        0.0000000000000000     
 -0.11332511670389651       0.23227926736249371        0.0000000000000000     
 -0.11426056150682903       0.24067124865312164        0.0000000000000000     
 -0.11517641059790683       0.24917728720635707        0.0000000000000000     
 -0.11607266397712991       0.25779738302220007        0.0000000000000000     
 -0.11694932164449828       0.26653153610065050        0.0000000000000000     
  -8.2856718592785539E-002  0.26593957117470646        0.0000000000000000     
  -8.3054388026864906E-002  0.27489767865317749        0.0000000000000000     
  -8.3235471071081063E-002  0.28402532074930403        0.0000000000000000     
  -8.3399967725434038E-002  0.29332249746308608        0.0000000000000000     
  -8.3547877989923830E-002  0.30278920879452376        0.0000000000000000     
  -9.0950152967029615E-002  0.26607479960646635        0.0000000000000000     
  -9.1207210721931484E-002  0.27508251312175480        0.0000000000000000     
  -9.1424073510290915E-002  0.28434197519763665        0.0000000000000000     
  -9.1600741332107868E-002  0.29385318583411174        0.0000000000000000     
  -9.1737214187382357E-002  0.30361614503118017        0.0000000000000000     
  -9.9330064933729756E-002  0.26621853657137701        0.0000000000000000     
  -9.9706971110488180E-002  0.27525202349283517        0.0000000000000000     
 -0.10001561836416571       0.28461052589695662        0.0000000000000000     
 -0.10025600669476241       0.29429404378374158        0.0000000000000000     
 -0.10042813610227823       0.30430257715318981        0.0000000000000000     
 -0.10799645449288597       0.26637078206943843        0.0000000000000000     
 -0.10855366919253492       0.27540620976641850        0.0000000000000000     
 -0.10901010563270551       0.28483097284726427        0.0000000000000000     
 -0.10936576381339769       0.29464507131197559        0.0000000000000000     
 -0.10962064373461146       0.30484850516055273        0.0000000000000000     
 -0.11694932164449828       0.26653153610065050        0.0000000000000000     
 -0.11774730496807179       0.27554507194250488        0.0000000000000000     
 -0.11840753531591024       0.28500331604855933        0.0000000000000000     
 -0.11893001268801365       0.29490626841881401        0.0000000000000000     
 -0.11931473708438201       0.30525392905326881        0.0000000000000000     
 </DataArray>
 <DataArray  type="Float64" Name="stress" NumberOfComponents="3" format="ascii">
   778646401.59197342        2534159036.7299318       -2169349589.6002789     
   1337890643.7368462        1099082584.9584062       -1682487009.5366364     
   2047172156.9835472        164130370.19297355       -1363819166.8583922     
   2906490941.3320937       -270697607.56631768       -1213346061.5655432     
   3915846996.7824564       -205401348.31953287       -1231067693.6580987     
   2965079318.5618038        2624562623.8127832       -1485095535.7406266     
   3176622157.0938492        1284941580.2655597       -1121204695.2825060     
   3522799917.5934587        394103609.94355237       -878609906.73138666     
   4003612600.0606480       -47951287.153197289       -757311170.08726037     
   4619060204.4953985       -41223111.024739981       -757308485.35013282     
   4258712630.8595953        2447126329.4940257       -715023766.94694960     
   4256550310.0028281        1243159567.4383194       -492074073.41767156     
   4373620561.9793634        436634714.82695234       -343521746.31697750     
   4609923386.7892094        27551771.659932137       -269366785.64488000     
   4965458784.4323483        15910737.937245607       -269609191.40137738     
   4659546338.4853458        2001850153.7736564        140865716.78074315     
   4577675102.4637861        973736546.47666550        204904856.05788556     
   4599634090.1412535        291723684.84313273        241445314.38483116     
   4725423301.5177689       -44188431.126938581        250487091.76159516     
   4955042736.5933132       -33999801.433559418        232030188.18816584     
   4167580441.4390659        1288734096.6516743        1082572915.4424684     
   4139996534.4767122        476672517.38060641        969732093.14415097     
   4200840502.0791326       -40629480.007893085        876291275.37404704     
   4350112344.2463226       -263171895.51381516        802250462.13216162     
   4587812060.9782848       -190954729.13716245        747609653.41848719     
   3915846996.7824564       -205401348.31953287       -1231067693.6580987     
   4002557085.9033852       -182790400.60750604       -876370991.93062592     
   4093587142.4042807       -145779561.62893534       -619545319.86827755     
   4188937166.2851453       -94368831.383800745       -460590677.47105110     
   4288607157.5459623       -28558209.872146606       -399507064.73895931     
   4619060204.4953985       -41223111.024739981       -757308485.35013282     
   4480264197.6135397       -52295207.346750975       -508307688.92498857     
   4344287869.3868732       -53968374.818118334       -327129080.36746240     
   4211131219.8154058       -46242613.438827991       -213772659.67756173     
   4080794248.8991308       -29117923.208895206       -168238426.85528749     
   4965458784.4323483        15910737.937245607       -269609191.40137738     
   4687010515.2548637       -3088252.3066504002       -128054637.12413538     
   4409881636.0078058       -17689276.115792274       -24273428.917005841     
   4134072146.6911716       -27892333.490190268        41734433.220010452     
   3859582047.3049517       -33697424.429861307        69968949.286903739     
   4955042736.5933132       -33999801.433559418        232030188.18816584     
   4622796038.8273668       -35169535.487173557        264388163.47194102     
   4290368442.2670722       -36942265.521962643        289021634.48310459     
   3957759946.9124308       -39317991.537904739        305930601.22166663     
   3624970552.7634373       -42296713.535021305        315115063.68761933     
   4587812060.9782848       -190954729.13716245        747609653.41848719     
   4287620768.3310413       -148539056.88836837        669020712.86323392     
   3985748288.1646757       -111727343.03663135        612756109.83287692     
   3682194620.4791884       -80519587.581981182        578815844.32741570     
   3376959765.2745833       -54915790.524389982        567199916.34685206     
   4288607157.5459623       -28558209.872146606       -399507064.73895931     
   4141352639.3448009       -29693428.552993774       -346287423.05635726     
   3994480250.0138369       -29554884.333191872       -293532635.61717659     
   3847989989.5530601       -28142577.212767839       -241242702.42139995     
   3701881857.9624949       -25456507.191626310       -189417623.46903566     
   4080794248.8991308       -29117923.208895206       -168238426.85528749     
   3937774690.8479276       -14030783.644945145       -120228865.13631515     
   3793100657.7510910       -4458560.8997685909       -72240408.653534219     
   3646772149.6086340       -401254.97332739830       -24273057.406949468     
   3498789166.4205551       -1858865.8656377792        23673188.603445806     
   3859582047.3049517       -33697424.429861307        69968949.286903739     
   3722065303.7100482       -2007570.3292033672        110392393.14045349     
   3580857481.1537008        17378687.233289003        151238480.76503378     
   3435958579.6358986        24461348.257600784        192507212.16063979     
   3287368599.1566429        19240412.743742347        234198587.32727247     
   3624970552.7634373       -42296713.535021305        315115063.68761933     
   3494224477.9311862        6376211.3942561150        345576351.77395123     
   3357750720.2216606        35956860.065941334        376904032.63852823     
   3215549279.6348600        46445232.480047584        409098106.28136045     
   3067620156.1707768        37841328.636558056        442158572.70244008     
   3376959765.2745833       -54915790.524389982        567199916.34685206     
   3254252213.5113211        11120561.525403261        585323010.76417029     
   3123780374.9549642        51275957.598204136        604756246.96695805     
   2985544249.6055021        65550397.693985462        625499624.95521772     
   2839543837.4629374        53943881.812758446        647553144.72894621     
   3701881857.9624949       -25456507.191626310       -189417623.46903566     
   3498852523.2403774       -37896421.045943022       -176405414.93856895     
   3296727022.5474362       -47323554.803017855       -149288393.13372129     
   3095505355.8836555       -53737908.462875247       -108066558.05450414     
   2895187523.2490439       -57139482.025523067       -52739909.700885497     
   3498789166.4205551       -1858865.8656377792        23673188.603445806     
   3329385366.9325233       -10750816.436182976        33293963.340506561     
   3160971364.6077785       -16343443.129104376        53856960.379291892     
   2993547159.4463220       -18636745.944404244        85362179.719816536     
   2827112751.4481430       -17630724.882111669        127809621.36208495     
   3287368599.1566429        19240412.743742347        234198587.32727247     
   3142554360.6951485        11185633.194731116        240528218.59405237     
   2998815882.5310569        6716721.3037160635        254637481.18992186     
   2856153164.6643558        5833677.0706832409        276526375.11488241     
   2714566207.0950661        8536500.4956737757        306194900.36893350     
   3067620156.1707768        37841328.636558056        442158572.70244008     
   2938359504.5282617        27912927.846786737        445297350.82207453     
   2810260576.3172579        21856938.495400071        453053169.29815251     
   2683323371.5377679        19673360.582394361        465426028.13068396     
   2557547890.1897922        21362194.107759953        482415927.31965560     
   2839543837.4629374        53943881.812758446        647553144.72894621     
   2716800798.4318490        39431067.519987702        647601360.02457023     
   2595305445.9663863        29077208.445973277        649104024.70399117     
   2475057780.0665469        22882304.590709805        652061138.76722467     
   2356057800.7323427        20846355.954213500        656472702.21425712     
   2895187523.2490439       -57139482.025523067       -52739909.700885497     
   2762844428.4401760       -39603082.041932821       -26298159.841981344     
   2629957204.3483758       -23880446.334796667       -10720696.436276983     
   2496525850.9736505       -9971574.9040689468       -6007519.4837826677     
   2362550368.3160048        2123532.2502546310       -12158628.984483020     
   2827112751.4481430       -17630724.882111669        127809621.36208495     
   2667942838.7314239       -12994012.236478567        140384374.27412730     
   2508740058.3012266       -8466858.6357902288        146164250.78825074     
   2349504410.1575422       -4049264.0800428391        145149250.90443864     
   2190235894.3003774        258771.43076753616        137339374.62271276     
   2714566207.0950661        8536500.4956737757        306194900.36893350     
   2540196362.3427124        3761591.5649877787        305499128.16513777     
   2366304911.4463229        581328.82086348534        302077889.61869127     
   2192891854.4059081       -1004287.7366876602        295931184.72959584     
   2019957191.2214556       -995258.10769438744        287059013.49785984     
   2557547890.1897922        21362194.107759953        482415927.31965560     
   2379604999.2740350        10663729.362477541        469046101.83103472     
   2202651763.7836833        3264116.0352094173        457020220.05505270     
   2026688183.7187517       -836645.87398254871        446338281.99169308     
   1851714259.0792241       -1638556.3651626110        437000287.64096338     
   2356057800.7323427        20846355.954213500        656472702.21425712     
   2186168749.5253949        7712401.1559653282        631025295.27183604     
   2017780615.3133011       -418496.99276399612        610991242.09732604     
   1850893398.0960758       -3546338.4919390678        596370542.69071853     
   1685507097.8737061       -1671123.3415968418        587163197.05201316     
   2362550368.3160048        2123532.2502546310       -12158628.984483020     
   2227719009.5621266        8558505.9073854685       -14261009.002472300     
   2089869118.1120927        4931703.9106841087       -14898305.328235285     
   1949000693.9659219       -8756873.7398171425       -14070517.961764293     
   1805113737.1235626       -32507227.044280052       -11777646.903077254     
   2190235894.3003774        258771.43076753616        137339374.62271276     
   2058835161.5843430        9467569.3993587494        132411602.93370959     
   1925186259.7787623        11182470.402795196        128017577.35586774     
   1789289188.8836744        5403474.4412183762        124157297.88917439     
   1651143948.8990407       -7869418.4855329990        120830764.53364491     
   2019957191.2214556       -995258.10769438744        287059013.49785984     
   1889326120.0259063        10189074.817103028        280204607.67890990     
   1757217243.3474448        16447389.465536833        272952610.39004666     
   1623630561.1860905        17779685.837652862        265303021.63126692     
   1488566073.5418234        14185963.933398664        257255841.40257907     
   1851714259.0792241       -1638556.3651626110        437000287.64096338     
   1719191884.8868151        10723022.160640836        429118005.23312151     
   1585962068.8181434        20726461.098896503        419906793.77430624     
   1452024810.8731766        28371760.449515045        409366653.26451075     
   1317380111.0519288        33658920.212530553        397497583.70373029     
   1685507097.8737061       -1671123.3415968418        587163197.05201316     
   1548432456.1670945        11069411.430026412        579151795.59636819     
   1411420736.1908267        24019685.302806735        568880127.50865519     
   1274471937.9449131        37179698.276751101        556348192.78889430     
   1137586061.4293420        50549450.351848125        541555991.43708324     
   1805113737.1235626       -32507227.044280052       -11777646.903077254     
   1772737556.4244673       -15015273.359161496       -7361462.7264321307     
   1748515561.7049601        29657300.257917285       -41455597.176418215     
   1732447752.9650507        101510493.80698925       -114060050.25303806     
   1724534130.2047448        200544307.28807241       -225174821.95628914     
   1651143948.8990407       -7869418.4855329990        120830764.53364491     
   1527678129.5351927       -13667631.392458797        135646425.43069959     
   1408485218.0522044       -5222818.0298523903        124278105.96426801     
   1293565214.4501293        17465021.602464736        86725806.134368122     
   1182918118.7289217        54395887.504318058        22989525.940976851     
   1488566073.5418234        14185963.933398664        257255841.40257907     
   1309228724.8365018       -4336982.7686144114        277942821.23821914     
   1130283005.9133444       -21554496.863413453        284772158.97351789     
   951728916.77236295       -37466578.350953281        277743854.60848498     
   773566457.41353893       -52073227.231324345        256857908.14312616     
   1317380111.0519288        33658920.212530553        397497583.70373029     
   1117389342.3284149        12976672.512427807        419527724.69610757     
   913908925.28834832       -19337736.242861986        440026561.85130262     
   706938859.93174613       -63284306.053259701        458994095.16932422     
   496479146.25858825       -118863036.91885367        476430324.65015334     
   1137586061.4293420        50549450.351848125        541555991.43708324     
   952159982.01092517        38273334.450649261        560401135.80438066     
   759362976.17723393        1427463.8318739533        590041314.59764075     
   559195043.92829919       -59988161.504373521        630476527.81686747     
   351656185.26408726       -145973541.55822819        681706775.46205938     
   1724534130.2047448        200544307.28807241       -225174821.95628914     
   1455289946.4155712        184682739.42262995       -96896971.065154940     
   1153828139.4789565        61429094.399050593        60330349.010306872     
   820148709.39491367       -169216627.78262252        246507138.27006686     
   454251656.16343266       -507254427.12242329        461633396.71415186     
   1182918118.7289217        54395887.504318058        22989525.940976851     
   976601253.57937682        11653864.389927149        155024093.65278912     
   732403596.02954912       -157357466.72538373        312718003.88359928     
   450325146.07942992       -452638105.84165549        496071256.63338429     
   130365903.72905326       -874188052.95882988        705083851.90219784     
   773566457.41353893       -52073227.231324345        256857908.14312616     
   620776549.00271273       -124515814.16491660        386042161.88060218     
   424442678.93876934       -342104939.94225478        537595631.47176754     
   184564847.22171679       -704840604.56329036        711518316.91661918     
  -98856946.148501337       -1212722808.0281887        907810218.21512747     
   496479146.25858825       -118863036.91885367        476430324.65015334     
   387815832.68559694       -223826296.24188247        596157233.61830735     
   229945388.20663446       -492813325.25149322        734963231.77484465     
   22867812.821703136       -925824123.94768882        892848319.11974382     
  -233416893.46923679       -1522858692.3305020        1069812495.6530074     
   351656185.26408726       -145973541.55822819        681706775.46205938     
   277719104.62802219       -286277581.84099269        785369308.86591983     
   148911723.83314469       -609482622.65312648        904820804.79281080     
  -34765957.120582700       -1115588663.9947460        1040061263.2427827     
  -273313938.23311460       -1804595705.8657582        1191090684.2157915     
   4167580441.4390659        1288734096.6516743        1082572915.4424684     
   4139996534.4767122        476672517.38060641        969732093.14415097     
   4200840502.0791326       -40629480.007893085        876291275.37404704     
   4350112344.2463226       -263171895.51381516        802250462.13216162     
   4587812060.9782848       -190954729.13716245        747609653.41848719     
   3339122196.5023613        619967367.44635820        839900922.62601519     
   3446629593.1348953        134257681.73176014        851556870.32649553     
   3613462432.0300627       -153700529.77407718        872417225.44332755     
   3839620713.1878600       -243907267.07113266        902481987.97652173     
   4125104436.6082916       -136362530.15941167        941751157.92607188     
   2634678619.3906231       -11594961.411464810        724137849.60555673     
   2848147042.1555977       -179691836.80833602        826337729.61899877     
   3091838474.8810596       -247045345.67023635        927546419.93694139     
   3365752917.5670133       -213655487.99716163        1027763920.5593840     
   3669890370.2134633       -79522263.789108515        1126990231.4863279     
   2054249710.1038508       -605952889.92180145        735283696.38108933     
   2344548881.5388083       -465176038.23967600        894074671.02166164     
   2635968630.6321211       -320663927.69637680        1041678858.8548828     
   2928508957.3837848       -172416558.29190385        1178096259.8807502     
   3222169861.7938023       -20433930.026254773        1303326874.0992551     
   1597835468.6420395       -1163106418.0846460        873338462.95261681     
   1935835111.2845342       -722194922.56226146        1054767694.5344940     
   2245852899.2832465       -374556275.85249984        1214814542.1971614     
   2527888832.6381674       -120190477.95537138        1353479005.9406147     
   2781942911.3493066        40902471.129144788        1470761085.7648542     
   4587812060.9782848       -190954729.13716245        747609653.41848719     
   4287620768.3310413       -148539056.88836837        669020712.86323392     
   3985748288.1646757       -111727343.03663135        612756109.83287692     
   3682194620.4791884       -80519587.581981182        578815844.32741570     
   3376959765.2745833       -54915790.524389982        567199916.34685206     
   4125104436.6082916       -136362530.15941167        941751157.92607188     
   3877755098.9323196       -100890610.91205454        862758878.86823344     
   3628955330.4209132       -70253461.116168499        803692324.49450529     
   3378705131.0740576       -44451080.771769762        764551494.80488420     
   3127004500.8917542       -23483469.878860950        745336389.79937148     
   3669890370.2134633       -79522263.789108515        1126990231.4863279     
   3468529807.9636645       -53050051.406707048        1047863830.0568612     
   3265949571.5620971       -30643419.530201912        986264540.47070861     
   3062149661.0087571       -12302368.159606099        942192362.72788334     
   2857130076.3036451        1973102.7050840855        915647296.82837439     
   3222169861.7938023       -20433930.026254773        1303326874.0992551     
   3059944895.4250631       -5017378.3723421097        1224335566.4291117     
   2896731011.5882249        7102781.7212361097        1160472757.7614982     
   2732528210.2832932        15926550.254507661        1111738448.0964158     
   2567336491.5102639        21453927.227447152        1078132637.4338648     
   2781942911.3493066        40902471.129144788        1470761085.7648542     
   2652000361.3165121        43207408.191021562        1392174087.9849887     
   2521299650.4992971        42985142.638163447        1326316976.3668628     
   2389840778.8976603        40235674.470564723        1273189750.9104853     
   2257623746.5116005        34959003.688222528        1232792411.6158440     
   3376959765.2745833       -54915790.524389982        567199916.34685206     
   3254252213.5113211        11120561.525403261        585323010.76417029     
   3123780374.9549642        51275957.598204136        604756246.96695805     
   2985544249.6055021        65550397.693985462        625499624.95521772     
   2839543837.4629374        53943881.812758446        647553144.72894621     
   3127004500.8917542       -23483469.878860950        745336389.79937148     
   3004276777.9477162        25231128.022013307        749275888.29446995     
   2875783078.0389948        54725802.707276464        755887056.59171641     
   2741523401.1655941        65000554.176950097        765169894.69110632     
   2601497747.3275161        56055382.431017399        777124402.59263062     
   2857130076.3036451        1973102.7050840855        915647296.82837439     
   2738272262.2264590        34532970.471313119        907734560.86775196     
   2615646781.0130153        54533947.783352494        903855022.72594523     
   2489253632.6633158        61976034.641199946        904008682.40295279     
   2359092817.1773562        56859231.044853330        908195539.89877903     
   2567336491.5102639        21453927.227447152        1078132637.4338648     
   2456238666.3475628        39026088.873315334        1060699028.4840140     
   2343371483.8770337        50700392.826427698        1048660145.3696449     
   2228734944.0986614        56476839.086730599        1042015988.0907700     
   2112329047.0124629        56355427.654269814        1040766556.6473764     
   2257623746.5116005        34959003.688222528        1232792411.6158440     
   2158175990.3110290        38710483.228052855        1208169291.1432495     
   2058957186.6310418        43225137.836495638        1190302424.5228209     
   1959967335.4716411        48502967.513570309        1179191811.7545471     
   1861206436.8328278        54543972.259257197        1174837452.8384347     
   2839543837.4629374        53943881.812758446        647553144.72894621     
   2716800798.4318490        39431067.519987702        647601360.02457023     
   2595305445.9663863        29077208.445973277        649104024.70399117     
   2475057780.0665469        22882304.590709805        652061138.76722467     
   2356057800.7323427        20846355.954213500        656472702.21425712     
   2601497747.3275161        56055382.431017399        777124402.59263062     
   2484658623.3227649        46366708.427631497        777036651.96840334     
   2368508908.4535885        38976064.876168132        778922661.91384411     
   2253048602.7199941        33883451.776636958        782782432.42896390     
   2138277706.1219747        31088869.129026651        788615963.51375747     
   2359092817.1773562        56859231.044853330        908195539.89877903     
   2249641354.4442811        52439821.204440713        907320499.68630254     
   2140321023.4167414        48457517.049144506        908938531.22937429     
   2031131824.0947242        44912318.578938961        913049634.52798593     
   1922073756.4782422        41804225.793833613        919653809.58214867     
   2112329047.0124629        56355427.654269814        1040766556.6473764     
   2011748991.7964063        57650405.850449920        1038452903.1782731     
   1910741790.8558321        57521564.964892507        1039151632.6505806     
   1809307444.1907442        55968904.997632682        1042862745.0643086     
   1707445951.8011341        52992425.948626459        1049586240.4194393     
   1861206436.8328278        54543972.259257197        1174837452.8384347     
   1770981535.3791323        61998462.365619302        1170433862.4443090     
   1679771210.7708802        66168208.623450994        1169561966.1774659     
   1587575463.0080554        67053211.032714069        1172221764.0379045     
   1494394292.0906603        64653469.593409359        1178413256.0256283     
   2356057800.7323427        20846355.954213500        656472702.21425712     
   2186168749.5253949        7712401.1559653282        631025295.27183604     
   2017780615.3133011       -418496.99276399612        610991242.09732604     
   1850893398.0960758       -3546338.4919390678        596370542.69071853     
   1685507097.8737061       -1671123.3415968418        587163197.05201316     
   2138277706.1219747        31088869.129026651        788615963.51375747     
   1982778607.6995773        19192623.980324626        765370786.17859685     
   1828645131.8204288        11848453.975795150        747495824.22144973     
   1675877278.4845233        9056359.1154011488        734991077.64230764     
   1524475047.6918743        10816339.399200678        727856546.44116557     
   1922073756.4782422        41804225.793833613        919653809.58214867     
   1780841358.2978189        31108714.531921744        898453018.32737935     
   1640839288.2090325        24514296.908796966        882579304.06071019     
   1502067546.2118783        22020972.924453855        872032666.78214240     
   1364526132.3063602        23628742.578896940        866813106.49168110     
   1707445951.8011341        52992425.948626459        1049586240.4194393     
   1580357001.3201098        43460672.810720146        1030271991.7181730     
   1454363084.4791064        37579031.806233406        1016241681.6151123     
   1329464201.2781274        35347502.935154617        1007495310.1102393     
   1205660351.7171755        36766086.197496951        1004032877.2035712     
   1494394292.0906603        64653469.593409359        1178413256.0256283     
   1381325536.7664540        56248498.816744566        1160827706.3509898     
   1269216520.6306558        51042658.668110609        1148482956.8846431     
   1158067243.6832738        49035949.147530913        1141379007.6265948     
   1047877705.9243013        50228370.254983306        1139515858.5768485     
   1685507097.8737061       -1671123.3415968418        587163197.05201316     
   1548432456.1670945        11069411.430026412        579151795.59636819     
   1411420736.1908267        24019685.302806735        568880127.50865519     
   1274471937.9449131        37179698.276751101        556348192.78889430     
   1137586061.4293420        50549450.351848125        541555991.43708324     
   1524475047.6918743        10816339.399200678        727856546.44116557     
   1382412044.5412629        16773561.005484283        721125409.81008947     
   1239903510.9550190        21245681.159650266        714382718.66154563     
   1096949446.9331479        24232699.861737609        707628472.99550343     
   953549852.47565258        25734617.111728370        700862672.81199026     
   1364526132.3063602        23628742.578896940        866813106.49168110     
   1223899659.4676681        24730118.546601534        860769040.49155509     
   1082319204.0273716        22651552.508960843        856962132.08851528     
   939784765.98546588        17393044.465955615        855392381.28256869     
   796296345.34195554        8954594.4176096320        856059788.07371700     
   1205660351.7171755        36766086.197496951        1004032877.2035712     
   1072895300.9463158        34939084.053400576        998082687.64075506     
   938667815.40787077        28237299.350679338        996618367.78959668     
   802977895.10185313        16660732.089391112        999639917.65009391     
   665825540.02825379        209382.26948785782        1007147337.2222654     
   1047877705.9243013        50228370.254983306        1139515858.5768485     
   929398968.97719848        47400457.525860250        1133066351.2576962     
   808949345.09654117        38002921.684897482        1133351425.7647746     
   686528834.28232157        22035762.732056379        1140371082.0980842     
   562137436.53454685       -501019.33263549209        1154125320.2576323     
   1137586061.4293420        50549450.351848125        541555991.43708324     
   952159982.01092517        38273334.450649261        560401135.80438066     
   759362976.17723393        1427463.8318739533        590041314.59764075     
   559195043.92829919       -59988161.504373521        630476527.81686747     
   351656185.26408726       -145973541.55822819        681706775.46205938     
   953549852.47565258        25734617.111728370        700862672.81199026     
   793678942.45204461        8604342.8013307452        719370229.46387482     
   625226663.81538141       -37130493.552597910        747860764.70330429     
   448193016.56562668       -111469891.95014551        786334278.53028452     
   262578000.70281523       -214413852.39124054        834790770.94481885     
   796296345.34195554        8954594.4176096320        856059788.07371700     
   659660445.17483795       -13725886.163438886        872817574.44608009     
   513232734.19683284       -69045736.114098549        898746283.56756866     
   357013212.40794921       -157004955.43436581        933845915.43819404     
   191001879.80817404       -277603544.12426031        978116470.05794561     
   665825540.02825379        209382.26948785782        1007147337.2222654     
   550104490.17928016       -28717352.443713933        1020743170.7509898     
   423381187.32160532       -94318263.852586240        1042697871.1904286     
   285655631.45523310       -196593351.95711094        1073011438.5405753     
   136927822.58017540       -335542616.75727570        1111683872.8014410     
   562137436.53454685       -501019.33263549209        1154125320.2576323     
   465011077.46536332       -36370056.039543241        1163147018.3786092     
   355672023.18968672       -112948076.76809460        1179715527.5718844     
   234120273.70749068       -230235081.51837730        1203830847.8374479     
   100355829.01879278       -388231070.29033291        1235492979.1753020     
   351656185.26408726       -145973541.55822819        681706775.46205938     
   277719104.62802219       -286277581.84099269        785369308.86591983     
   148911723.83314469       -609482622.65312648        904820804.79281080     
  -34765957.120582700       -1115588663.9947460        1040061263.2427827     
  -273313938.23311460       -1804595705.8657582        1191090684.2157915     
   262578000.70281523       -214413852.39124054        834790770.94481885     
   223857267.44240761       -353482784.85866499        884346863.61393249     
   140843227.97725722       -640196071.34190130        944918466.86080062     
   13535882.307355821       -1074553711.8409801        1016505580.6854470     
  -158064769.56729490       -1656555706.3558872        1099108205.0878389     
   191001879.80817404       -277603544.12426031        978116470.05794561     
   173859059.79403755       -419528899.01514721        985905948.27207875     
   122999927.52922395       -673841961.40829253        999937485.11867487     
   38424483.013744235       -1040542731.3036659        1020211080.5977511     
  -79867273.752414048       -1519631208.7012842        1046726734.7092947     
   136927822.58017540       -335542616.75727570        1111683872.8014410     
   127724481.68289730       -484415924.31047553        1090046562.8403397     
   95381822.489021301       -710420292.85233486        1069877859.5664260     
   39899844.998560667       -1013555722.3828231        1051177762.9796909     
  -38721450.788505197       -1393822212.9019799        1033946273.0801324     
   100355829.01879278       -388231070.29033291        1235492979.1753020     
   85453533.108991951       -548143860.74463332        1196768707.3187277     
   57988912.856661439       -749931065.67403781        1154739590.2040484     
   17961968.261829197       -993592685.07844841        1109405627.8312743     
  -34627300.675537705       -1279128718.9579580        1060766820.2003796     
   1597835468.6420395       -1163106418.0846460        873338462.95261681     
   1935835111.2845342       -722194922.56226146        1054767694.5344940     
   2245852899.2832465       -374556275.85249984        1214814542.1971614     
   2527888832.6381674       -120190477.95537138        1353479005.9406147     
   2781942911.3493066        40902471.129144788        1470761085.7648542     
   1476130824.6844747       -775635566.56279325        951933175.71162105     
   1718319110.5902944       -491118899.13786614        1105757813.7941980     
   1943479722.0469351       -263361146.54351866        1243354906.3287265     
   2151612659.0544033       -92362308.779759049        1364724453.3152008     
   2342717921.6126976        21877614.153422356        1469866454.7536216     
   1343207740.5917211       -391530247.08149683        975041249.60974741     
   1504312779.3927453       -258989974.86445689        1114041171.0867424     
   1659344323.9392037       -146694683.49596429        1241968385.3868437     
   1808302374.2311037       -54644372.976010442        1358822892.5100546     
   1951186930.2684388        17160956.695401669        1464604692.4563742     
   1199066216.3637655       -10790459.640759528        942662684.64699805     
   1293816117.6918857       -25808149.742044151        1079617766.4121192     
   1393446704.9600527       -24556886.709835351        1210654979.3715112     
   1497957978.1682737       -7036670.5441177487        1335774323.5251732     
   1607349937.3165438        26752498.755096674        1454975798.8731034     
   1043706252.0006148        366583795.75941592        854797480.82337201     
   1086829125.4877200        208426576.22938007        1002487599.7703375     
   1145786865.1094801        103052243.81486547        1149414688.2827294     
   1220579470.8659089        50460798.515906572        1295578746.3605576     
   1311206942.7569990        50652240.332486808        1440979774.0038147     
   2781942911.3493066        40902471.129144788        1470761085.7648542     
   2652000361.3165121        43207408.191021562        1392174087.9849887     
   2521299650.4992971        42985142.638163447        1326316976.3668628     
   2389840778.8976603        40235674.470564723        1273189750.9104853     
   2257623746.5116005        34959003.688222528        1232792411.6158440     
   2342717921.6126976        21877614.153422356        1469866454.7536216     
   2241687963.1751800        22140310.105602026        1405959405.7509341     
   2140320847.9677773        21279150.158165693        1352034212.0697267     
   2038616575.9904847        19294134.311087728        1308090873.7099931     
   1936575147.2433026        16185262.564387798        1274129390.6717427     
   1951186930.2684388        17160956.695401669        1464604692.4563742     
   1871218046.7397351        13025956.531956911        1415868763.5811505     
   1791333010.4556768        9170447.1839908361        1374366659.1871443     
   1711531821.4162619        5594428.6515069008        1340098379.2743504     
   1631814479.6214905        2297900.9345003366        1313063923.8427711     
   1607349937.3165438        26752498.755096674        1454975798.8731034     
   1540590612.0101819        15864347.470075190        1421902161.4756355     
   1474336137.9629946        6659033.7156397104        1393314317.7191212     
   1408586515.1749897       -863442.50819391012        1369212267.6035533     
   1343341743.6461594       -6703081.2014387250        1349596011.1289403     
   1311206942.7569990        50652240.332486808        1440979774.0038147     
   1249805658.9865134        30655482.919960618        1424059599.4343894     
   1189330230.4897330        13744909.753118753        1408877187.6656544     
   1129780657.2666690       -79479.168003261089        1395432538.6976042     
   1071156939.3173093       -10817683.843443453        1383725652.5302386     
   2257623746.5116005        34959003.688222528        1232792411.6158440     
   2158175990.3110290        38710483.228052855        1208169291.1432495     
   2058957186.6310418        43225137.836495638        1190302424.5228209     
   1959967335.4716411        48502967.513570309        1179191811.7545471     
   1861206436.8328278        54543972.259257197        1174837452.8384347     
   1936575147.2433026        16185262.564387798        1274129390.6717427     
   1853458570.0766385        18730333.642898560        1255192403.1978421     
   1770663646.8344145        22347584.469541073        1242340009.2350979     
   1688190377.5166276        27037015.044307649        1235572208.7835042     
   1606038762.1232712        32798625.367176592        1234889001.8430583     
   1631814479.6214905        2297900.9345003366        1313063923.8427711     
   1563110051.9429977        3060854.6879859567        1299921221.0053945     
   1494819979.5927958        5204992.8690960407        1292191451.3381593     
   1426944262.5708754        8730315.4778170586        1289874614.8410652     
   1359482900.8772414        13636822.514157295        1292970711.5141115     
   1343341743.6461594       -6703081.2014387250        1349596011.1289403     
   1287130435.9101028       -8297953.6367031336        1342355744.5659058     
   1231426184.9061809       -8202636.9648498297        1339856750.8320007     
   1176228990.6343908       -6417131.1858900785        1342099029.9272311     
   1121538853.0947363       -2941436.2998127937        1349082581.8515978     
   1071156939.3173093       -10817683.843443453        1383725652.5302386     
   1025519721.9779450       -15346091.331184149        1382495973.8793697     
   980482262.77456892       -17875305.032295465        1385335907.7166247     
   936044561.70717406       -18405324.946804643        1392245454.0420051     
   892206618.77575874       -16936151.074714780        1403224612.8555074     
   1861206436.8328278        54543972.259257197        1174837452.8384347     
   1770981535.3791323        61998462.365619302        1170433862.4443090     
   1679771210.7708802        66168208.623450994        1169561966.1774659     
   1587575463.0080554        67053211.032714069        1172221764.0379045     
   1494394292.0906603        64653469.593409359        1178413256.0256283     
   1606038762.1232712        32798625.367176592        1234889001.8430583     
   1524858535.0299029        38721721.290224612        1232810837.2219663     
   1443270985.2935417        43287075.069960594        1234511818.9469156     
   1361276112.9141753        46494686.706340611        1239991947.0179021     
   1278873917.8918068        48344556.199392617        1249251221.4349349     
   1359482900.8772414        13636822.514157295        1292970711.5141115     
   1288054354.4835100        18240626.155684292        1293892423.2628784     
   1216796585.9583478        23413689.359113395        1298840733.5764472     
   1145709595.3017492        29156012.124420106        1307815642.4548104     
   1074793382.5137129        35467594.451603591        1320817149.8979740     
   1121538853.0947363       -2941436.2998127937        1349082581.8515978     
   1060568993.7399471        555176.96199119091        1353678620.5670519     
   1000348012.7652957        6548051.4909089804        1362548710.0660570     
   940875910.17077279        15037187.286922693        1375692850.3486245     
   882152685.95637870        26022584.350042522        1393111041.4147475     
   892206618.77575874       -16936151.074714780        1403224612.8555074     
   842402452.79922211       -14334626.290853798        1412169429.1344748     
   793925265.71438968       -7309838.5346425176        1425635748.4157538     
   746775057.52124810        4138212.1938715279        1443623570.6993530     
   700951828.21980453        20009525.894709468        1466132895.9852564     
   1494394292.0906603        64653469.593409359        1178413256.0256283     
   1381325536.7664540        56248498.816744566        1160827706.3509898     
   1269216520.6306558        51042658.668110609        1148482956.8846431     
   1158067243.6832738        49035949.147530913        1141379007.6265948     
   1047877705.9243013        50228370.254983306        1139515858.5768485     
   1278873917.8918068        48344556.199392617        1249251221.4349349     
   1180943416.4710057        45382286.146757483        1236361574.0511868     
   1083318931.5660770        43440071.147029340        1228619929.2946787     
   986000463.17699909        42517911.200140893        1226026287.1654124     
   888988011.30380797        42615806.306201041        1228580647.6633751     
   1074793382.5137129        35467594.451603591        1320817149.8979740     
   991735999.05043197        37868484.339237809        1311860728.3538249     
   908330909.43047380        39110353.704621583        1307959511.8558509     
   824578113.65383017        39193202.547716171        1309113500.4040499     
   740477611.72051072        38117030.868561000        1315322693.9984307     
   882152685.95637870        26022584.350042522        1393111041.4147475     
   813703284.50472701        33707093.394179642        1387325169.2588863     
   744252454.22385335        38053506.340901554        1386501704.5681405     
   673800195.11375189        39061823.190205157        1390640647.3425145     
   602346507.17442358        36732043.942078978        1399741997.5819981     
   700951828.21980453        20009525.894709468        1466132895.9852564     
   646845272.83389354        32898113.311572909        1462754896.7663841     
   591083565.94622457        40269529.055909008        1464246507.4315631     
   533666707.55676681        42123773.127617985        1470607727.9807959     
   474594697.66554803        38460845.526787102        1481838558.4140837     
   1047877705.9243013        50228370.254983306        1139515858.5768485     
   929398968.97719848        47400457.525860250        1133066351.2576962     
   808949345.09654117        38002921.684897482        1133351425.7647746     
   686528834.28232157        22035762.732056379        1140371082.0980842     
   562137436.53454685       -501019.33263549209        1154125320.2576323     
   888988011.30380797        42615806.306201041        1228580647.6633751     
   787411554.26348329        38863338.576641023        1223354381.6104445     
   683893150.18943405        28637714.067990780        1224608646.3519826     
   578432799.08164752        11938932.780217290        1232343441.8879995     
   471030500.94012684       -11233005.286664248        1246558768.2184618     
   740477611.72051072        38117030.868561000        1315322693.9984307     
   655077574.49622893        33222250.111375034        1311353432.4281771     
   567764530.13803601        21950778.907809198        1313610650.6206322     
   478538478.64593315        4302617.2578792274        1322094348.5757926     
   387399420.01991028       -19722234.838445321        1336804526.2936611     
   602346507.17442358        36732043.942078978        1399741997.5819981     
   532397029.67542988        30477192.130031466        1397063503.7108829     
   460563484.94234449        17942116.204336777        1400357438.5707126     
   386845872.97516745       -873183.83499410748        1409623802.1614869     
   311244193.77389967       -25968707.987957925        1424862594.4832046     
   474594697.66554803        38460845.526787102        1481838558.4140837     
   419369919.80109113        30628164.632639349        1480484595.4585669     
   362290014.60235757        16611725.957569048        1484849010.2022281     
   303354982.06936824       -3588470.4983508438        1494931802.6450789     
   242564822.20210183       -29972424.735200033        1510732972.7871039     
   562137436.53454685       -501019.33263549209        1154125320.2576323     
   465011077.46536332       -36370056.039543241        1163147018.3786092     
   355672023.18968672       -112948076.76809460        1179715527.5718844     
   234120273.70749068       -230235081.51837730        1203830847.8374479     
   100355829.01879278       -388231070.29033291        1235492979.1753020     
   471030500.94012684       -11233005.286664248        1246558768.2184618     
   392864976.74864638       -44199363.116372451        1244476080.5074947     
   304400442.26268619       -111495755.26100755        1248761990.3508124     
   205636897.48223007       -213122181.72062773        1259416497.7484066     
   96574342.407285988       -349078642.49521053        1276439602.7002771     
   387399420.01991028       -19722234.838445321        1336804526.2936611     
   324828406.36895597       -50795811.092100367        1325850085.1480999     
   253872067.33553502       -109820471.95397907        1320086028.0388010     
   174530402.91963759       -196796217.42410433        1319512354.9657769     
   86803413.121278048       -311723047.50245184        1324129065.9290173     
   311244193.77389967       -25968707.987957925        1424862594.4832046     
   260901366.32629690       -56159399.966715559        1407269032.3003955     
   204086898.40823308       -107922226.84699580        1393687640.6358597     
   140800790.01972461       -181257188.62876374        1384118419.4895728     
   71043041.160763025       -276164285.31204528        1378561368.8615382     
   242564822.20210183       -29972424.735200033        1510732972.7871039     
   201083856.62066630       -60290129.740222186        1488732921.9644163     
   155044935.48078975       -105801019.94004494        1469566828.1419792     
   104448058.78249070       -166505095.33461359        1453234691.3197842     
   49293226.525750235       -242402355.92398131        1439736511.4978321     
   100355829.01879278       -388231070.29033291        1235492979.1753020     
   85453533.108991951       -548143860.74463332        1196768707.3187277     
   57988912.856661439       -749931065.67403781        1154739590.2040484     
   17961968.261829197       -993592685.07844841        1109405627.8312743     
  -34627300.675537705       -1279128718.9579580        1060766820.2003796     
   96574342.407285988       -349078642.49521053        1276439602.7002771     
   79734690.482418656       -490235585.52013969        1222053041.7764573     
   51523266.525424153       -669298435.31882620        1165152779.7693098     
   11940070.536301911       -886267191.89125919        1105738816.6788218     
  -39014897.484935045       -1141141855.2374275        1043811152.5049621     
   86803413.121278048       -311723047.50245184        1324129065.9290173     
   70286817.109233260       -433446019.51962984        1255469193.6334226     
   43589001.375458837       -589106390.60923290        1185086764.4292490     
   6709965.9199492633       -778704160.77129781        1112981778.3164964     
  -40350289.257296741       -1002239330.0058131        1039154235.2951708     
   71043041.160763025       -276164285.31204528        1378561368.8615382     
   57109912.989439547       -377775162.74308240        1297017162.8896224     
   34186117.406769246       -509354931.54528373        1214541544.1838889     
   2271654.4127647281       -670903591.71858931        1131134512.7443376     
  -38633475.992589355       -862421143.26307142        1046796068.5709652     
   49293226.525750235       -242402355.92398131        1439736511.4978321     
   40203978.123021975       -323223015.19056880        1346696949.5450497     
   23314614.619368076       -430044058.12690282        1253517119.0332210     
  -1374863.9852546453       -562865484.73313999        1160197019.9623163     
  -33864457.690826684       -721687295.00919974        1066736652.3323691     
   1043706252.0006148        366583795.75941592        854797480.82337201     
   1086829125.4877200        208426576.22938007        1002487599.7703375     
   1145786865.1094801        103052243.81486547        1149414688.2827294     
   1220579470.8659089        50460798.515906572        1295578746.3605576     
   1311206942.7569990        50652240.332486808        1440979774.0038147     
   749611678.27576768        264987443.69956270        834743615.37493277     
   798980177.43943834        151477432.45097822        1004351289.1017026     
   860224826.18042374        77554586.460107237        1169223118.7954512     
   933345624.49872184        43218905.726946503        1329359104.4561765     
   1018342572.3943338        48470390.251497209        1484759246.0838788     
   477629111.44724488        170024693.70860171        833450355.32026303     
   521892340.29190660        97756621.942813084        1020357081.1765983     
   574073002.15653157        51879993.576899111        1198555149.4014618     
   634171097.04111910        32394808.610863060        1368044559.9948454     
   702186624.94567275        39301067.044712126        1528825312.9567554     
   227758551.51505008        81695545.786540821        850917700.65936744     
   255565614.04511866        47264144.704863578        1050504975.9950298     
   287331393.03780502        26028465.165243573        1237410780.1007588     
   323055888.49310023        17988507.167654112        1411635112.9765627     
   362739100.41101384        23144270.712124392        1573177974.6224349     
  -1.5208176293393567       -6.6620289870780725E-002   887145651.39224219     
  -1.3009216414739331       0.73714166638837109        1094794973.5569870     
  -1.1757592610140355        1.2251284007427219        1285790010.8933501     
  -1.1453350401790707        1.3973181471783724        1460130763.4013300     
  -1.2096412699341637        1.2537411127592786        1617817231.0809271     
   1311206942.7569990        50652240.332486808        1440979774.0038147     
   1249805658.9865134        30655482.919960618        1424059599.4343894     
   1189330230.4897330        13744909.753118753        1408877187.6656544     
   1129780657.2666690       -79479.168003261089        1395432538.6976042     
   1071156939.3173093       -10817683.843443453        1383725652.5302386     
   1018342572.3943338        48470390.251497209        1484759246.0838788     
   964600086.87509382        31165365.318518996        1461529507.7774546     
   911551992.81167543        16174978.571614981        1441832220.9067919     
   859198290.20408142        3499230.0107913613        1425667385.4718854     
   807538979.05230963       -6861880.3639553189        1413035001.4727421     
   702186624.94567275        39301067.044712126        1528825312.9567554     
   661230619.49217355        26226079.135631293        1499015969.7924631     
   620737541.67660809        14694183.352997750        1474533766.6990037     
   580707391.49898434        4705379.6968364418        1455378703.6763802     
   541140168.95929813       -3740331.8328675330        1441550780.7245862     
   362739100.41101384        23144270.712124392        1573177974.6224349     
   339697256.83775216        15837624.371291220        1536518985.4794087     
   316886877.08453786        9302524.0972865224        1506981825.0422904     
   294307961.15137905        3538969.8901307285        1484566493.3110778     
   271960509.03827155       -1453038.2501859367        1469272990.2857733     
  -1.2096412699341637        1.2537411127592786        1617817231.0809271     
  -1.0881705792852558        1.0255040406602889        1574038554.8383014     
 -0.96453952883321104       0.80446816790509057        1539176395.9366522     
 -0.83873678378045913       0.59067145062459547        1513230754.3759873     
 -0.71076889795041875       0.38409152232370108        1496201630.1563015     
   1071156939.3173093       -10817683.843443453        1383725652.5302386     
   1025519721.9779450       -15346091.331184149        1382495973.8793697     
   980482262.77456892       -17875305.032295465        1385335907.7166247     
   936044561.70717406       -18405324.946804643        1392245454.0420051     
   892206618.77575874       -16936151.074714780        1403224612.8555074     
   807538979.05230963       -6861880.3639553189        1413035001.4727421     
   772908306.71870232       -10379013.834330678        1411491267.0699811     
   738727452.99008822       -12396751.954724103        1414111122.3333647     
   704996417.86647522       -12915094.725117445        1420894567.2628865     
   671715201.34785771       -11934042.145523220        1431841601.8585534     
   541140168.95929813       -3740331.8328675330        1441550780.7245862     
   517784547.85434574       -6165639.4190296829        1439518061.1171200     
   494728805.82340908       -7591350.0918051600        1441742908.3538132     
   471972942.86648488       -8017463.8512076139        1448225322.4346645     
   449516958.98357111       -7443980.6972389817        1458965303.3596752     
   271960509.03827155       -1453038.2501859367        1469272990.2857733     
   260148445.38488898       -2705968.0852378905        1466576356.0207825     
   248486321.27452683       -3459099.4435540289        1468231265.7779710     
   236974136.70719805       -3712432.3250917792        1474237719.5573359     
   225611891.68289822       -3465966.7298681587        1484595717.3588748     
 -0.71076889795041875       0.38409152232370108        1496201630.1563015     
 -0.68968406992768083       0.16699235858588213        1492666151.7809744     
 -0.65655516737602881       -9.9578083873857193E-003   1493576194.6058412     
 -0.61138086351794718      -0.14675733156194498        1498931758.6309009     
 -0.55416568769736874      -0.24342130875090529        1508732843.8561556     
   892206618.77575874       -16936151.074714780        1403224612.8555074     
   842402452.79922211       -14334626.290853798        1412169429.1344748     
   793925265.71438968       -7309838.5346425176        1425635748.4157538     
   746775057.52124810        4138212.1938715279        1443623570.6993530     
   700951828.21980453        20009525.894709468        1466132895.9852564     
   671715201.34785771       -11934042.145523220        1431841601.8585534     
   633628355.94297886       -10203014.853358537        1441629254.4712286     
   596536744.71010900       -5154540.3211641014        1456109611.6347988     
   560440367.64924037        3211381.4510356784        1475282673.3492565     
   525339224.76037073        14894750.463229805        1499148439.6145999     
   449516958.98357111       -7443980.6972389817        1458965303.3596752     
   423636581.43199700       -6436706.7122765183        1469208756.7997518     
   398419693.33273333       -3217801.2196104228        1484316116.3392975     
   373866294.68578094        2212735.7807578146        1504287381.9783094     
   349976385.49113715        9854904.2888235152        1529122553.7167869     
   225611891.68289822       -3465966.7298681587        1484595717.3588748     
   212427129.26627257       -3035701.8676181287        1494907936.1200478     
   199574111.58226311       -1499621.2299836650        1510255262.5292611     
   187052838.63087243        1142275.1830484718        1530637696.5865192     
   174863310.41209668        4889987.3714618459        1556055238.2918184     
 -0.55416568769736874      -0.24342130875090529        1508732843.8561556     
 -0.55419711859920606      -0.31939663825840814        1518726792.4321094     
 -0.54130166466375707      -0.35228026997345230        1533927050.2046838     
 -0.51548229970269488      -0.34208350438039553        1554333617.1738765     
 -0.47674163152010213      -0.28881919749585538        1579946493.3396900     
   700951828.21980453        20009525.894709468        1466132895.9852564     
   646845272.83389354        32898113.311572909        1462754896.7663841     
   591083565.94622457        40269529.055909008        1464246507.4315631     
   533666707.55676681        42123773.127617985        1470607727.9807959     
   474594697.66554803        38460845.526787102        1481838558.4140837     
   525339224.76037073        14894750.463229805        1499148439.6145999     
   483249173.17017955        24108150.524268225        1494344406.4614990     
   439917757.95253378        29183671.827124849        1494762348.0416222     
   395344979.10742468        30121314.371769741        1500402264.3549714     
   349530836.63486272        26921078.158239543        1511264155.4015491     
   349976385.49113715        9854904.2888235152        1529122553.7167869     
   320909594.40857667        15695144.007578626        1523375239.1494896     
   291015227.57288265        18776797.882552549        1523202264.1645918     
   260293284.98404351        19099865.913709782        1528603628.7620969     
   228743766.64206731        16664348.101078957        1539579332.9419932     
   174863310.41209668        4889987.3714618459        1556055238.2918184     
   159826536.54909509        7659093.7615312338        1549847394.8303640     
   144375974.80726689        9048907.2221775576        1549566255.8004820     
   128511625.18662360        9059427.7534415461        1555211821.2021701     
   112233487.68714961        7690655.3552683517        1566784091.0354364     
 -0.47674163152010213      -0.28881919749585538        1579946493.3396900     
 -0.40826728444851362      -0.21387374472169696        1573760873.5041115     
 -0.34429963459014079      -0.15395269765976199        1573854322.9492807     
 -0.28483879632235576      -0.10905192728691984        1580226841.6751933     
 -0.22988058343334170       -7.9162683734209205E-002   1592878429.6818526     
   474594697.66554803        38460845.526787102        1481838558.4140837     
   419369919.80109113        30628164.632639349        1480484595.4585669     
   362290014.60235757        16611725.957569048        1484849010.2022281     
   303354982.06936824       -3588470.4983508438        1494931802.6450789     
   242564822.20210183       -29972424.735200033        1510732972.7871039     
   349530836.63486272        26921078.158239543        1511264155.4015491     
   309471351.00169063        21454296.819141641        1509354732.0839710     
   268020519.86802322        11349697.145065024        1512846563.6554952     
   225178343.23385823       -3392720.8640043437        1521739650.1161208     
   180944821.09919587       -22772957.208066404        1536033991.4658461     
   228743766.64206731        16664348.101078957        1539579332.9419932     
   202943508.06851798        13291646.765525669        1537655528.0684309     
   176215685.82824427        6827066.5408876389        1540815855.2738860     
   148560299.92126018       -2729392.5727842748        1549060314.5583649     
   119977350.34755626       -15377730.575522900        1562388905.9218678     
   112233487.68714961        7690655.3552683517        1566784091.0354364     
   99786391.001565427        6140214.4717557244        1565386983.4119503     
   86875512.483039707        3043834.1451059096        1568756885.0574095     
   73500852.131565809       -1598485.6247064099        1576893795.9718122     
   59662409.947161488       -7786744.8376176171        1589797716.1551549     
 -0.22988058343334170       -7.9162683734209205E-002   1592878429.6818526     
 -0.19915287367939963       -6.2117298484419228E-002   1592549098.1145253     
 -0.16759917629551599       -4.2314457798481614E-002   1596669653.0060647     
 -0.13520777903879364       -1.9722753650033505E-002   1605240094.3564572     
 -0.10197868190923251        5.6640589654386106E-003   1618260422.1657200     
   242564822.20210183       -29972424.735200033        1510732972.7871039     
   201083856.62066630       -60290129.740222186        1488732921.9644163     
   155044935.48078975       -105801019.94004494        1469566828.1419792     
   104448058.78249070       -166505095.33461359        1453234691.3197842     
   49293226.525750235       -242402355.92398131        1439736511.4978321     
   180944821.09919587       -22772957.208066404        1536033991.4658461     
   149233993.63015211       -45691266.942391619        1509679425.3504817     
   114104699.49240454       -80004465.572392017        1486298840.3357754     
   75556938.685944766       -125712553.09810255        1465892236.4217405     
   33590711.210772760       -182815529.51951909        1448459613.6083660     
   119977350.34755626       -15377730.575522900        1562388905.9218678     
   98436729.849256709       -30776624.381622143        1533009228.2184892     
   74617131.571968600       -53772110.784352645        1506743555.7162018     
   48518555.515702963       -84364189.783673212        1483591888.4150014     
   20141001.680446155       -122552861.37963167        1463554226.3148882     
   59662409.947161488       -7786744.8376176171        1589797716.1551549     
   48692065.277957737       -15546202.057983715        1558722330.5684497     
   36582231.719482414       -27103955.575915851        1530900974.2832568     
   23332909.271755680       -42460005.391355723        1506333647.2995744     
   8944097.9347615801       -61614351.504353285        1485020349.6173961     
 -0.10197868190923251        5.6640589654386106E-003   1618260422.1657200     
  -8.3752601923322970E-002   2.8497991512398169E-002   1586818732.4003694     
  -6.5062973323999879E-002   5.2879861661631118E-002   1558771096.0369449     
  -4.5902887717991898E-002   7.8829227943756700E-002   1534117513.0754485     
  -2.6287214163664516E-002  0.10629583294149951        1512857983.5158882     
   49293226.525750235       -242402355.92398131        1439736511.4978321     
   40203978.123021975       -323223015.19056880        1346696949.5450497     
   23314614.619368076       -430044058.12690282        1253517119.0332210     
  -1374863.9852546453       -562865484.73313999        1160197019.9623163     
  -33864457.690826684       -721687295.00919974        1066736652.3323691     
   33590711.210772760       -182815529.51951909        1448459613.6083660     
   29596197.238262519       -242584297.26397091        1347916633.5767670     
   19751596.940704212       -321853352.75858575        1246574819.7762113     
   4056910.3181095719       -420622696.00332177        1144434172.2067075     
  -17487862.629531711       -538892326.99821043        1041494690.8682225     
   20141001.680446155       -122552861.37963167        1463554226.3148882     
   19359607.252706014       -161834222.06764880        1357782861.7763629     
   14678155.275835261       -214115774.58610272        1250554098.2589793     
   6096645.7498352677       -279397518.93498492        1141867935.7627339     
  -6384921.3253060281       -357679455.11434174        1031724374.2876356     
   8944097.9347615801       -61614351.504353285        1485020349.6173961     
   9494208.1663646773       -80972789.601557106        1376295634.1438334     
   8094289.6247479469       -106831323.60949227        1265454954.4815214     
   4744342.3099088296       -139189953.52816883        1152498310.6304464     
  -555633.77815586329       -178048679.35759577        1037425702.5906115     
  -2.6287214163664516E-002  0.10629583294149951        1512857983.5158882     
  -2.0757113976361985E-002  0.13432043938648849        1403454950.6791897     
  -1.2556485155664071E-002  0.17124472627462428        1291277388.4438262     
  -1.6444263533283848E-003  0.21720711310155263        1176325296.8098140     
   1.1924527299655249E-002  0.27202928554425942        1058598675.7771405     
  -1.5208176293393567       -6.6620289870780725E-002   887145651.39224219     
  -1.3009216414739331       0.73714166638837109        1094794973.5569870     
  -1.1757592610140355        1.2251284007427219        1285790010.8933501     
  -1.1453350401790707        1.3973181471783724        1460130763.4013300     
  -1.2096412699341637        1.2537411127592786        1617817231.0809271     
  -227758553.90654570       -81695543.756305769        850917700.15259504     
  -255565616.19932890       -47264141.822515078        1050504975.3087385     
  -287331395.09035289       -26028461.882858217        1237410779.2535067     
  -323055890.57961082       -17988503.937316507        1411635111.9868963     
  -362739102.66710621       -23144267.985899255        1573177973.5089109     
  -477629113.18618679       -170024689.51415849        833450354.00812995     
  -521892341.94306886       -97756617.635781586        1020357079.5682540     
  -574073003.80168736       -51879989.429862916        1198555147.5340068     
  -634171098.76204419       -32394804.896404833        1368044557.9053867     
  -702186626.82414031       -39301064.035410404        1528825310.6823955     
  -749611679.35974705       -264987437.34019026        834743612.95884705     
  -798980178.53213525       -151477426.70264107        1004351286.3355318     
  -860224827.30976379       -77554581.415885627        1169223115.7348514     
  -933345625.69263494       -43218901.479942143        1329359101.1568015     
  -1018342573.6807437       -48470386.894792259        1484759242.6013882     
  -1043706252.4272226       -366583787.23439664        854797477.00473940     
  -1086829125.9665332       -208426569.02310008        1002487595.6105688     
  -1145786865.6145873       -103052237.84094834        1149414683.8560352     
  -1220579471.3713784       -50460793.687918425        1295578741.7411401     
  -1311206943.2369158       -50652236.564044833        1440979769.2658856     
  -1.2096412699341637        1.2537411127592786        1617817231.0809271     
  -1.0881705792852558        1.0255040406602889        1574038554.8383014     
 -0.96453952883321104       0.80446816790509057        1539176395.9366522     
 -0.83873678378045913       0.59067145062459547        1513230754.3759873     
 -0.71076889795041875       0.38409152232370108        1496201630.1563015     
  -362739102.66710621       -23144267.985899255        1573177973.5089109     
  -339697258.89089191       -15837622.223167911        1536518984.4497840     
  -316886878.92158705       -9302522.4834682792        1506981824.0938709     
  -294307962.75919062       -3538968.7667957395        1484566492.4411726     
  -271960510.40370524        1453038.9268385619        1469272989.4916871     
  -702186626.82414031       -39301064.035410404        1528825310.6823955     
  -661230621.21537161       -26226076.828364044        1499015967.6961837     
  -620737543.22258925       -14694181.674604386        1474533764.7754192     
  -580707392.84578824       -4705378.5741160810        1455378701.9200997     
  -541140170.08497310        3740332.4730861485        1441550779.1302326     
  -1018342573.6807437       -48470386.894792259        1484759242.6013882     
  -964600088.06161308       -31165362.790095329        1461529504.5775023     
  -911551993.86754036       -16174976.768921912        1441832217.9812963     
  -859198291.09852540       -3499228.8312749267        1425667382.8127699     
  -807538979.75456846        6861881.0228404701        1413034999.0719266     
  -1311206943.2369158       -50652236.564044833        1440979769.2658856     
  -1249805659.4296110       -30655480.108343542        1424059595.0937374     
  -1189330230.8564396       -13744907.766419709        1408877183.7115026     
  -1129780657.5174024        79480.461725413799        1395432535.1191845     
  -1071156939.4125005        10817684.576083779        1383725649.3167770     
 -0.71076889795041875       0.38409152232370108        1496201630.1563015     
 -0.68968406992768083       0.16699235858588213        1492666151.7809744     
 -0.65655516737602881       -9.9578083873857193E-003   1493576194.6058412     
 -0.61138086351794718      -0.14675733156194498        1498931758.6309009     
 -0.55416568769736874      -0.24342130875090529        1508732843.8561556     
  -271960510.40370524        1453038.9268385619        1469272989.4916871     
  -260148446.71660846        2705968.3111142814        1466576355.3185189     
  -248486322.54711831        3459099.3033672869        1468231265.1648457     
  -236974137.89523697        3712431.9035914987        1474237719.0306733     
  -225611892.76096135        3465966.1117974222        1484595716.9159980     
  -541140170.08497310        3740332.4730861485        1441550779.1302326     
  -517784548.96242374        6165639.5895639062        1439518059.7079594     
  -494728806.88713181        7591349.8818514347        1441742907.1244907     
  -471972943.85909814        8017463.3499423265        1448225321.3798237     
  -449516959.87832022        7443979.9938504994        1458965302.4739623     
  -807538979.75456846        6861881.0228404701        1413034999.0719266     
  -772908307.42712700        10379014.002348006        1411491264.9492972     
  -738727453.67658877        12396751.725512087        1414111120.4847729     
  -704996418.50296474        12915094.192296445        1420894565.6783588     
  -671715201.90624416        11934041.402732432        1431841600.5300508     
  -1071156939.4125005        10817684.576083779        1383725649.3167770     
  -1025519722.1107213        15346091.549464762        1382495971.0425286     
  -980482262.91550171        17875304.834313571        1385335905.2456923     
  -936044561.82683969        18405324.430635750        1392245451.9262667     
  -892206618.84473348        16936150.338441372        1403224611.0842550     
 -0.55416568769736874      -0.24342130875090529        1508732843.8561556     
 -0.55419711859920606      -0.31939663825840814        1518726792.4321094     
 -0.54130166466375707      -0.35228026997345230        1533927050.2046838     
 -0.51548229970269488      -0.34208350438039553        1554333617.1738765     
 -0.47674163152010213      -0.28881919749585538        1579946493.3396900     
  -225611892.76096135        3465966.1117974222        1484595716.9159980     
  -212427130.35017470        3035701.0978672951        1494907935.7593613     
  -199574112.64493054        1499620.3987989277        1510255262.2462573     
  -187052839.64521599       -1142275.9853688404        1530637696.3766911     
  -174863311.35104105       -4889988.0546706319        1556055238.1506643     
  -449516959.87832022        7443979.9938504994        1458965302.4739623     
  -423636582.35124242        6436705.8535842001        1469208756.0798621     
  -398419694.24815869        3217800.3000024855        1484316115.7762141     
  -373866295.56906736       -2212736.6668859273        1504287381.5630229     
  -349976386.31397295       -9854905.0470951647        1529122553.4402900     
  -671715201.90624416        11934041.402732432        1431841600.5300508     
  -633628356.55739105        10203013.947776824        1441629253.3936172     
  -596536745.35099030        5154539.3513196111        1456109610.7945552     
  -560440368.28704274       -3211382.3866519928        1475282672.7328708     
  -525339225.36554229       -14894751.266112596        1499148439.2085600     
  -892206618.84473348        16936150.338441372        1403224611.0842550     
  -842402452.96861982        14334625.380458713        1412169427.7006204     
  -793925265.95341861        7309837.5527668595        1425635747.3012812     
  -746775057.79913008       -4138213.1446310282        1443623569.8862321     
  -700951828.50574994       -20009526.711728185        1466132895.4554827     
 -0.47674163152010213      -0.28881919749585538        1579946493.3396900     
 -0.40826728444851362      -0.21387374472169696        1573760873.5041115     
 -0.34429963459014079      -0.15395269765976199        1573854322.9492807     
 -0.28483879632235576      -0.10905192728691984        1580226841.6751933     
 -0.22988058343334170       -7.9162683734209205E-002   1592878429.6818526     
  -174863311.35104105       -4889988.0546706319        1556055238.1506643     
  -159826537.35427484       -7659094.2809503898        1549847394.7113130     
  -144375975.48787192       -9048907.6084417403        1549566255.6978745     
  -128511625.75183125       -9059428.0371396206        1555211821.1103530     
  -112233488.14614087       -7690655.5670064948        1566784090.9487453     
  -349976386.31397295       -9854905.0470951647        1529122553.4402900     
  -320909595.11700439       -15695144.593043625        1523375238.9170012     
  -291015228.17625225       -18776798.326379865        1523202263.9647932     
  -260293285.49170923       -19099866.247079656        1528603628.5836737     
  -228743767.06337911       -16664348.355153695        1539579332.7736433     
  -525339225.36554229       -14894751.266112596        1499148439.2085600     
  -483249173.69645494       -24108151.150153175        1494344406.1211729     
  -439917758.40943348       -29183672.307744965        1494762347.7500374     
  -395344979.50447965       -30121314.738894090        1500402264.0951571     
  -349530836.98158765       -26921078.443586975        1511264155.1565411     
  -700951828.50574994       -20009526.711728185        1466132895.4554827     
  -646845273.09262729       -32898113.952279240        1462754896.3238292     
  -591083566.18742406       -40269529.552566171        1464246507.0536041     
  -533666707.79013890       -42123773.512576848        1470607727.6448100     
  -474594697.90076864       -38460845.832305342        1481838558.0974395     
 -0.22988058343334170       -7.9162683734209205E-002   1592878429.6818526     
 -0.19915287367939963       -6.2117298484419228E-002   1592549098.1145253     
 -0.16759917629551599       -4.2314457798481614E-002   1596669653.0060647     
 -0.13520777903879364       -1.9722753650033505E-002   1605240094.3564572     
 -0.10197868190923251        5.6640589654386106E-003   1618260422.1657200     
  -112233488.14614087       -7690655.5670064948        1566784090.9487453     
  -99786391.398088992       -6140214.6372722164        1565386983.3386590     
  -86875512.816225410       -3043834.2614968084        1568756884.9954898     
  -73500852.400530070        1598485.5603827946        1576893795.9192412     
  -59662410.151026331        7786744.8282916993        1589797716.1099145     
  -228743767.06337911       -16664348.355153695        1539579332.7736433     
  -202943508.43211293       -13291646.962953486        1537655527.9259372     
  -176215686.13404590       -6827066.6814166084        1540815855.1532135     
  -148560300.16917586        2729392.4894648567        1549060314.4554698     
  -119977350.53750482        15377730.549680099        1562388905.8327072     
  -349530836.98158765       -26921078.443586975        1511264155.1565411     
  -309471351.30122352       -21454297.039160728        1509354731.8763661     
  -268020520.12106889       -11349697.302100897        1512846563.4792325     
  -225178343.44113830        3392720.7675451487        1521739649.9651470     
  -180944821.26141101        22772957.169848502        1536033991.3341005     
  -474594697.90076864       -38460845.832305342        1481838558.0974395     
  -419369920.00541985       -30628164.865890384        1480484595.1899486     
  -362290014.77729988       -16611726.123565927        1484849009.9735584     
  -303354982.21640891        3588470.3946584016        1494931802.4482679     
  -242564822.32274890        29972424.688780755        1510732972.6140809     
 -0.10197868190923251        5.6640589654386106E-003   1618260422.1657200     
  -8.3752601923322970E-002   2.8497991512398169E-002   1586818732.4003694     
  -6.5062973323999879E-002   5.2879861661631118E-002   1558771096.0369449     
  -4.5902887717991898E-002   7.8829227943756700E-002   1534117513.0754485     
  -2.6287214163664516E-002  0.10629583294149951        1512857983.5158882     
  -59662410.151026331        7786744.8282916993        1589797716.1099145     
  -48692065.445558310        15546202.097405124        1558722330.5285776     
  -36582231.850119196        27103955.666423570        1530900974.2478921     
  -23332909.364707060        42460005.535353445        1506333647.2678623     
  -8944097.9893280528        61614351.704168752        1485020349.5884814     
  -119977350.53750482        15377730.549680099        1562388905.8327072     
  -98436730.005591258        30776624.406824097        1533009228.1398149     
  -74617131.694195479        53772110.862239614        1506743555.6462910     
  -48518555.603320211        84364189.915921211        1483591888.3521426     
  -20141001.732968308        122552861.56785852        1463554226.2573764     
  -180944821.26141101        22772957.169848502        1536033991.3341005     
  -149233993.76384103        45691266.956788018        1509679425.2340677     
  -114104699.59728318        80004465.640356377        1486298840.2321286     
  -75556938.761736333        125712553.22055501        1465892236.3282907     
  -33590711.257201016        182815529.69737887        1448459613.5225532     
  -242564822.32274890        29972424.688780755        1510732972.6140809     
  -201083856.72031459        60290129.747281462        1488732921.8113413     
  -155044935.55938050        105801020.00078359        1469566828.0054219     
  -104448058.83995447        166505095.44925812        1453234691.1963253     
  -49293226.562036514        242402356.09270510        1439736511.3840437     
  -2.6287214163664516E-002  0.10629583294149951        1512857983.5158882     
  -2.0757113976361985E-002  0.13432043938648849        1403454950.6791897     
  -1.2556485155664071E-002  0.17124472627462428        1291277388.4438262     
  -1.6444263533283848E-003  0.21720711310155263        1176325296.8098140     
   1.1924527299655249E-002  0.27202928554425942        1058598675.7771405     
  -8944097.9893280528        61614351.704168752        1485020349.5884814     
  -9494208.2100639082        80972789.857280627        1376295634.1222095     
  -8094289.6527547166        106831323.93720928        1265454954.4670730     
  -4744342.3174138889        139189953.94390661        1152498310.6230576     
   555633.79595705867        178048679.87737793        1037425702.5901728     
  -20141001.732968308        122552861.56785852        1463554226.2573764     
  -19359607.294859685        161834222.31163073        1357782861.7327857     
  -14678155.303369820        214115774.90000966        1250554098.2291064     
  -6096645.7584858984        279397519.33303553        1141867935.7463436     
   6384921.3397794813        357679455.61066353        1031724374.2844689     
  -33590711.257201016        182815529.69737887        1448459613.5225532     
  -29596197.275167778        242584297.49729550        1347916633.5108902     
  -19751596.964382231        321853353.05971706        1246574819.7299168     
  -4056910.3248682022        420622696.38456118        1144434172.1796253     
   17487862.643387437        538892327.47189152        1041494690.8600624     
  -49293226.562036514        242402356.09270510        1439736511.3840437     
  -40203978.150966272        323223015.41433984        1346696949.4565408     
  -23314614.635804802        430044058.41627812        1253517118.9695220     
   1374863.9834460318        562865485.09851336        1160197019.9229765     
   33864457.706784427        721687295.46104288        1066736652.3168943     
  -1043706252.4272226       -366583787.23439664        854797477.00473940     
  -1086829125.9665332       -208426569.02310008        1002487595.6105688     
  -1145786865.6145873       -103052237.84094834        1149414683.8560352     
  -1220579471.3713784       -50460793.687918425        1295578741.7411401     
  -1311206943.2369158       -50652236.564044833        1440979769.2658856     
  -1199066216.5322306        10790468.893659711        942662680.93399048     
  -1293816117.8228650        25808157.419201195        1079617762.4152014     
  -1393446705.0050085        24556892.973035753        1210654975.1447768     
  -1497957978.0786662        7036675.5551595092        1335774319.1227183     
  -1607349937.0438378       -26752494.834425628        1454975794.3490233     
  -1343207740.4339125        391530257.08271384        975041245.87997806     
  -1504312779.1652145        258989983.01569378        1114041167.1566725     
  -1659344323.5708075        146694690.03439426        1241968381.2904580     
  -1808302373.6506805        54644378.138817668        1358822888.2813315     
  -1951186929.4048362       -17160952.671032786        1464604688.1293004     
  -1476130824.1322417        775635577.33277476        951933171.84269845     
  -1718319109.9935815        491118907.76638258        1105757809.8349757     
  -1943479721.3119712        263361153.34314942        1243354902.2930727     
  -2151612658.0874157        92362314.063066959        1364724449.2169847     
  -2342717920.3199167       -21877610.073866129        1469866450.6067142     
  -1597835467.6272452        1163106429.6438317        873338458.82215416     
  -1935835110.3079674        722194931.67126262        1054767690.4501164     
  -2245852898.2285089        374556282.89928901        1214814538.1526225     
  -2527888831.3888803        120190483.32788682        1353479001.9296744     
  -2781942909.7890716       -40902467.042915225        1470761081.7812662     
  -1311206943.2369158       -50652236.564044833        1440979769.2658856     
  -1249805659.4296110       -30655480.108343542        1424059595.0937374     
  -1189330230.8564396       -13744907.766419709        1408877183.7115026     
  -1129780657.5174024        79480.461725413799        1395432535.1191845     
  -1071156939.4125005        10817684.576083779        1383725649.3167770     
  -1607349937.0438378       -26752494.834425628        1454975794.3490233     
  -1540590611.7413762       -15864344.555311441        1421902157.3418424     
  -1474336137.6539452       -6659031.6596214175        1393314313.9663866     
  -1408586514.7815418        863443.85263621807        1369212264.2226562     
  -1343341743.1241682        6703081.9814648628        1349596008.1106505     
  -1951186929.4048362       -17160952.671032786        1464604688.1293004     
  -1871218045.9163327       -13025953.561238289        1415868759.6427083     
  -1791333009.6237476       -9170445.1045157909        1374366655.6296523     
  -1711531820.5270875       -5594427.3008748293        1340098376.0901346     
  -1631814478.6263547       -2297900.1503130198        1313063921.0241532     
  -2342717920.3199167       -21877610.073866129        1469866450.6067142     
  -2241687961.9544759       -22140307.126123548        1405959401.9963341     
  -2140320846.7658534       -21279148.101104498        1352034208.7013030     
  -2038616574.7540483       -19294132.998817205        1308090870.7216198     
  -1936575145.9190629       -16185261.819250822        1274129388.0572858     
  -2781942909.7890716       -40902467.042915225        1470761081.7812662     
  -2652000359.8558054       -43207405.249956608        1392174084.4027209     
  -2521299649.0802526       -42985140.649371147        1326316973.1813359     
  -2389840777.4624124       -40235673.241165400        1273189748.1171103     
  -2257623745.0022864       -34959003.025336385        1232792409.2100453     
  -1071156939.4125005        10817684.576083779        1383725649.3167770     
  -1025519722.1107213        15346091.549464762        1382495971.0425286     
  -980482262.91550171        17875304.834313571        1385335905.2456923     
  -936044561.82683969        18405324.430635750        1392245451.9262667     
  -892206618.84473348        16936150.338441372        1403224611.0842550     
  -1343341743.1241682        6703081.9814648628        1349596008.1106505     
  -1287130435.4504995        8297953.9073928595        1342355741.9090433     
  -1231426184.4790282        8202636.8259930611        1339856748.5270455     
  -1176228990.2097549        6417130.7372696996        1342099027.9646506     
  -1121538852.6426775        2941435.6412307024        1349082580.2218707     
  -1631814478.6263547       -2297900.1503130198        1313063921.0241532     
  -1563110051.0316670       -3060854.4070975780        1299921218.5336111     
  -1494819978.7348194       -5204992.9900104403        1292191449.2048688     
  -1426944261.7358057       -8730315.8990371823        1289874613.0379322     
  -1359482900.0346274       -13636823.134186685        1292970710.0327921     
  -1936575145.9190629       -16185261.819250822        1274129388.0572858     
  -1853458568.8542266       -18730333.394003153        1255192400.9162269     
  -1770663645.6828701       -22347584.613686800        1242340007.2791617     
  -1688190376.4049909       -27037015.478290975        1235572207.1460974     
  -1606038761.0205815       -32798625.987806141        1234889000.5170310     
  -2257623745.0022864       -34959003.025336385        1232792409.2100453     
  -2158175988.9181786       -38710483.053331494        1208169289.0568902     
  -2058957185.3231859       -43225138.045050859        1190302422.7499282     
  -1959967334.2173057       -48502968.000475645        1179191810.2891581     
  -1861206435.6005440       -54543972.919624686        1174837451.6745796     
  -892206618.84473348        16936150.338441372        1403224611.0842550     
  -842402452.96861982        14334625.380458713        1412169427.7006204     
  -793925265.95341861        7309837.5527668595        1425635747.3012812     
  -746775057.79913008       -4138213.1446310282        1443623569.8862321     
  -700951828.50574994       -20009526.711728185        1466132895.4554827     
  -1121538852.6426775        2941435.6412307024        1349082580.2218707     
  -1060568993.4289525       -555177.79283857346        1353678619.2656646     
  -1000348012.5671140       -6548052.3998648524        1362548709.0793531     
  -940875910.05716300       -15037188.179851174        1375692849.6629291     
  -882152685.89909351       -26022585.132770449        1393111041.0163932     
  -1359482900.0346274       -13636823.134186685        1292970710.0327921     
  -1288054353.8101642       -18240626.942406237        1293892422.0978854     
  -1216796585.4285560       -23413690.226820171        1298840732.7184618     
  -1145709594.8898153       -29156012.987450421        1307815641.8945239     
  -1074793382.1939278       -35467595.224263191        1320817149.6260664     
  -1606038761.0205815       -32798625.987806141        1234889000.5170310     
  -1524858534.1122482       -38721722.068235695        1232810836.1972826     
  -1443270984.5377450       -43287075.928103030        1234511818.2186096     
  -1361276112.2970812       -46494687.567433715        1239991946.5810184     
  -1278873917.3902493       -48344556.986203849        1249251221.2845058     
  -1861206435.6005440       -54543972.919624686        1174837451.6745796     
  -1770981534.3352094       -61998463.170321584        1170433861.5638492     
  -1679771209.8946805       -66168209.503705800        1169561965.5797946     
  -1587575462.2789683       -67053211.919810712        1172221763.7224112     
  -1494394291.4880581       -64653470.418590665        1178413255.9917095     
  -700951828.50574994       -20009526.711728185        1466132895.4554827     
  -646845273.09262729       -32898113.952279240        1462754896.3238292     
  -591083566.18742406       -40269529.552566171        1464246507.0536041     
  -533666707.79013890       -42123773.512576848        1470607727.6448100     
  -474594697.90076864       -38460845.832305342        1481838558.0974395     
  -882152685.89909351       -26022585.132770449        1393111041.0163932     
  -813703284.48009658       -33707094.028003424        1387325168.9122939     
  -744252454.23928881       -38053506.850533664        1386501704.2562087     
  -673800195.17665541       -39061823.600306273        1390640647.0481465     
  -602346507.29218888       -36732044.277313679        1399741997.2880931     
  -1074793382.1939278       -35467595.224263191        1320817149.6260664     
  -991735998.80737615       -37868484.985683978        1311860728.1008785     
  -908330909.26926625       -39110354.241914958        1307959511.6102996     
  -824578113.57959497       -39193202.992936015        1309113500.1543279     
  -740477611.73836446       -38117031.238765299        1315322693.7329578     
  -1278873917.3902493       -48344556.986203849        1249251221.2845058     
  -1180943416.0744510       -45382286.825289905        1236361573.8895969     
  -1083318931.2773633       -43440071.726735532        1228619929.1158755     
  -986000462.99897778       -42517911.690525353        1226026286.9633546     
  -888988011.23928726       -42615806.716632754        1228580647.4320281     
  -1494394291.4880581       -64653470.418590665        1178413255.9917095     
  -1381325536.2813394       -56248499.546863139        1160827706.2784324     
  -1269216520.2635820       -51042659.305004239        1148482956.7729375     
  -1158067243.4347899       -49035949.693029761        1141379007.4752319     
  -1047877705.7949581       -50228370.710924625        1139515858.3853118     
  -474594697.90076864       -38460845.832305342        1481838558.0974395     
  -419369920.00541985       -30628164.865890384        1480484595.1899486     
  -362290014.77729988       -16611726.123565927        1484849009.9735584     
  -303354982.21640891        3588470.3946584016        1494931802.4482679     
  -242564822.32274890        29972424.688780755        1510732972.6140809     
  -602346507.29218888       -36732044.277313679        1399741997.2880931     
  -532397029.77951461       -30477192.384708971        1397063503.4571009     
  -460563485.03514338       -17942116.386447638        1400357438.3499787     
  -386845873.05907655        873183.71746245027        1409623801.9667346     
  -311244193.85130781        25968707.927052289        1424862594.3073611     
  -740477611.73836446       -38117031.238765299        1315322693.7329578     
  -655077574.51473033       -33222250.391892165        1311353432.1938756     
  -567764530.16046560       -21950779.109587103        1313610650.4114456     
  -478538478.67557770       -4302617.3918771148        1322094348.3856606     
  -387399420.06006289        19722234.761264980        1336804526.1165259     
  -888988011.23928726       -42615806.716632754        1228580647.4320281     
  -787411554.21105516       -38863338.887393922        1223354381.4002805     
  -683893150.15326726       -28637714.292980015        1224608646.1579475     
  -578432799.06592441       -11938932.933380187        1232343441.7050388     
  -471030500.94902557        11233005.191412061        1246558768.0415564     
  -1047877705.7949581       -50228370.710924625        1139515858.3853118     
  -929398968.86848462       -47400457.871220410        1133066351.0763104     
  -808949345.01353025       -38002921.936574638        1133351425.5894969     
  -686528834.23010242       -22035762.907018542        1140371081.9248824     
  -562137436.51818275        501019.21750745177        1154125320.0824594     
  -242564822.32274890        29972424.688780755        1510732972.6140809     
  -201083856.72031459        60290129.747281462        1488732921.8113413     
  -155044935.55938050        105801020.00078359        1469566828.0054219     
  -104448058.83995447        166505095.44925812        1453234691.1963253     
  -49293226.562036514        242402356.09270510        1439736511.3840437     
  -311244193.85130781        25968707.927052289        1424862594.3073611     
  -260901366.39063564        56159399.960167065        1407269032.1424820     
  -204086898.45990977        107922226.89347321        1393687640.4929729     
  -140800790.05913287        181257188.72694075        1384118419.3588355     
  -71043041.188291818        276164285.46062779        1378561368.7400713     
  -387399420.06006289        19722234.761264980        1336804526.1165259     
  -324828406.40243888        50795811.070609644        1325850084.9863191     
  -253872067.36320156        109820471.98534070        1320086027.8900418     
  -174530402.94234979        196796217.50544512        1319512354.8276813     
  -86803413.139878139        311723047.63095117        1324129065.7992480     
  -471030500.94902557        11233005.191412061        1246558768.0415564     
  -392864976.75572938        44199363.078605235        1244476080.3428509     
  -304400442.26926208        111495755.27637757        1248761990.1966264     
  -205636897.48961774        213122181.78473753        1259416497.6028693     
  -96574342.416797265        349078642.60368145        1276439602.5615923     
  -562137436.51818275        501019.21750745177        1154125320.0824594     
  -465011077.45050526        36370055.984148562        1163147018.2120757     
  -355672023.17809600        112948076.76656248        1179715527.4127245     
  -234120273.70094517        230235081.56477875        1203830847.6843960     
  -100355829.01905116        388231070.37881124        1235492979.0270872     
  -49293226.562036514        242402356.09270510        1439736511.3840437     
  -40203978.150966272        323223015.41433984        1346696949.4565408     
  -23314614.635804802        430044058.41627812        1253517118.9695220     
   1374863.9834460318        562865485.09851336        1160197019.9229765     
   33864457.706784427        721687295.46104288        1066736652.3168943     
  -71043041.188291818        276164285.46062779        1378561368.7400713     
  -57109913.010832876        377775162.94312930        1297017162.7966595     
  -34186117.419791698        509354931.80424333        1214541544.1190178     
  -2271654.4151750505        670903592.04394460        1131134512.7071605     
   38633476.003025144        862421143.66225207        1046796068.5610725     
  -86803413.139878139        311723047.63095117        1324129065.7992480     
  -70286817.123758167        433446019.69598782        1255469193.5343370     
  -43589001.384557456        589106390.83795989        1185086764.3604951     
  -6709965.9222909808        778704161.05682015        1112981778.2777300     
   40350289.263056397        1002239330.3526117        1039154235.2860345     
  -96574342.416797265        349078642.60368145        1276439602.5615923     
  -79734690.489734173        490235585.67293775        1222053041.6695838     
  -51523266.530091405        669298435.51745355        1165152779.6939454     
  -11940070.537890077        886267192.13716757        1105738816.6346824     
   39014897.486873209        1141141855.5320938        1043811152.4917867     
  -100355829.01905116        388231070.37881124        1235492979.0270872     
  -85453533.108762801        548143860.87397194        1196768707.2023952     
  -57988912.856398284        749931065.84272528        1154739590.1193726     
  -17961968.261992037        993592685.28494000        1109405627.7780297     
   34627300.674480677        1279128719.2007265        1060766820.1783357     
  -1597835467.6272452        1163106429.6438317        873338458.82215416     
  -1935835110.3079674        722194931.67126262        1054767690.4501164     
  -2245852898.2285089        374556282.89928901        1214814538.1526225     
  -2527888831.3888803        120190483.32788682        1353479001.9296744     
  -2781942909.7890716       -40902467.042915225        1470761081.7812662     
  -2054249709.2918177        605952899.88454330        735283692.11086667     
  -2344548880.6947789        465176046.10586202        894074666.93152225     
  -2635968629.6553679        320663933.80175841        1041678854.9234725     
  -2928508956.1735907        172416562.97221303        1178096256.0867236     
  -3222169860.2494383        20433933.617242455        1303326870.4212718     
  -2634678618.7387805        11594969.790541291        724137845.33261132     
  -2848147041.4446888        179691843.43153369        826337725.64185619     
  -3091838474.0260258        247045350.82108796        927546416.21914935     
  -3365752916.4827976        213655491.95919013        1027763917.0644937     
  -3669890368.8150058        79522266.845846415        1126990228.1778913     
  -3339122195.9681306       -619967360.63817835        839900918.48739684     
  -3446629592.5576830       -134257676.35171902        851556866.58112240     
  -3613462431.3404770        153700533.95727801        872417222.03965104     
  -3839620712.3165016        243907270.28882170        902481984.86298442     
  -4125104435.4857759        136362532.64288282        941751155.05112445     
  -4167580440.9798760       -1288734091.4016171        1082572911.5752170     
  -4139996534.0337763       -476672513.24390149        969732089.74931657     
  -4200840501.5987215        40629483.210332394        876291272.38497710     
  -4350112343.6747093        263171897.96109271        802250459.48219526     
  -4587812060.2617397        190954731.00837088        747609651.04097486     
  -2781942909.7890716       -40902467.042915225        1470761081.7812662     
  -2652000359.8558054       -43207405.249956608        1392174084.4027209     
  -2521299649.0802526       -42985140.649371147        1326316973.1813359     
  -2389840777.4624124       -40235673.241165400        1273189748.1171103     
  -2257623745.0022864       -34959003.025336385        1232792409.2100453     
  -3222169860.2494383        20433933.617242455        1303326870.4212718     
  -3059944893.9489136        5017380.9808121920        1224335563.1673005     
  -2896731010.1310043       -7102779.9310070276        1160472754.9069986     
  -2732528208.7957144       -15926549.118218422        1111738445.6403637     
  -2567336489.9430413       -21453926.580824971        1078132635.3673973     
  -3669890368.8150058        79522266.845846415        1126990228.1778913     
  -3468529806.6143403        53050053.639884233        1047863827.1694404     
  -3265949570.2211990        30643421.075520754        986264537.99116564     
  -3062149659.6355791        12302369.152753115        942192360.64306819     
  -2857130074.8574762       -1973102.1284092665        915647295.12514484     
  -4125104435.4857759        136362532.64288282        941751155.05112445     
  -3877755097.8520908        100890612.72726178        862758876.40914214     
  -3628955329.3508353        70253462.370216131        803692322.43384182     
  -3378705129.9820013        44451081.571764231        764551493.12522554     
  -3127004499.7455907        23483470.331898570        745336388.48329425     
  -4587812060.2617397        190954731.00837088        747609651.04097486     
  -4287620767.6621637        148539058.24293542        669020710.88640368     
  -3985748287.5199108        111727343.95308423        612756108.23502433     
  -3682194619.8349905        80519588.138793468        578815843.08683634     
  -3376959764.6073909        54915790.800100565        567199915.44184136     
  -2257623745.0022864       -34959003.025336385        1232792409.2100453     
  -2158175988.9181786       -38710483.053331494        1208169289.0568902     
  -2058957185.3231859       -43225138.045050859        1190302422.7499282     
  -1959967334.2173057       -48502968.000475645        1179191810.2891581     
  -1861206435.6005440       -54543972.919624686        1174837451.6745796     
  -2567336489.9430413       -21453926.580824971        1078132635.3673973     
  -2456238664.8908672       -39026088.655575991        1060699026.7106857     
  -2343371482.5024562       -50700392.942867994        1048660143.8863106     
  -2228734942.7777991       -56476839.442675948        1042015986.8942798     
  -2112329045.7169104       -56355428.155031800        1040766555.7345864     
  -2857130074.8574762       -1973102.1284092665        915647295.12514484     
  -2738272260.8768158       -34532970.261790514        907734559.42778909     
  -2615646779.7345591       -54533947.856527209        903855021.54892218     
  -2489253631.4307041       -61976034.912606239        904008681.48854363     
  -2359092815.9652596       -56859231.430038691        908195539.24665070     
  -3127004499.7455907        23483470.331898570        745336388.48329425     
  -3004276776.8760166       -25231127.871976614        749275887.20820868     
  -2875783077.0194941       -54725802.786036611        755887055.73775852     
  -2741523400.1760211       -65000554.410253406        765169894.07194591     
  -2601497746.3456011       -56055382.744650722        777124402.21077132     
  -3376959764.6073909        54915790.800100565        567199915.44184136     
  -3254252212.8884821       -11120561.486160040        585323010.05193877     
  -3123780374.3572669       -51275957.731404066        604756246.45282125     
  -2985544249.0137477       -65550397.935631990        625499624.64449024     
  -2839543836.8579216       -53943882.098836303        647553144.62694442     
  -1861206435.6005440       -54543972.919624686        1174837451.6745796     
  -1770981534.3352094       -61998463.170321584        1170433861.5638492     
  -1679771209.8946805       -66168209.503705800        1169561965.5797946     
  -1587575462.2789683       -67053211.919810712        1172221763.7224112     
  -1494394291.4880581       -64653470.418590665        1178413255.9917095     
  -2112329045.7169104       -56355428.155031800        1040766555.7345864     
  -2011748990.6777887       -57650406.473888278        1038452902.5215051     
  -1910741789.8979621       -57521565.657051921        1039151632.2542316     
  -1809307443.3774276       -55968905.704532385        1042862744.9327707     
  -1707445951.1161885       -52992426.616322517        1049586240.5571214     
  -2359092815.9652596       -56859231.430038691        908195539.24665070     
  -2249641353.3833919       -52439821.686365366        907320499.25764608     
  -2140321022.4953077       -48457517.588624239        908938531.03359044     
  -2031131823.3009958       -44912319.136806846        913049634.57448399     
  -1922073755.8004694       -41804226.330922842        919653809.88032174     
  -2601497746.3456011       -56055382.744650722        777124402.21077132     
  -2484658622.4520235       -46366708.807756186        777036651.77227771     
  -2368508907.6867080       -38976065.298396349        778922661.91787255     
  -2253048602.0496626       -33883452.216607332        782782432.64755249     
  -2138277705.5408788       -31088869.562346697        788615963.96131599     
  -2839543836.8579216       -53943882.098836303        647553144.62694442     
  -2716800797.8836732       -39431067.838035703        647601360.06540036     
  -2595305445.4721813       -29077208.786415219        649104024.90707672     
  -2475057779.6234293       -22882304.943937659        652061139.15197814     
  -2356057800.3374276       -20846356.310625911        656472702.80010128     
  -1494394291.4880581       -64653470.418590665        1178413255.9917095     
  -1381325536.2813394       -56248499.546863139        1160827706.2784324     
  -1269216520.2635820       -51042659.305004239        1148482956.7729375     
  -1158067243.4347899       -49035949.693029761        1141379007.4752319     
  -1047877705.7949581       -50228370.710924625        1139515858.3853118     
  -1707445951.1161885       -52992426.616322517        1049586240.5571214     
  -1580357000.7568088       -43460673.411344171        1030271991.7882184     
  -1454363084.0365787       -37579032.336888433        1016241681.6212881     
  -1329464200.9555066       -35347503.392950892        1007495310.0563327     
  -1205660351.5136042       -36766086.579572618        1004032877.0933599     
  -1922073755.8004694       -41804226.330922842        919653809.88032174     
  -1780841357.7335877       -31108715.026226521        898453018.53056455     
  -1640839287.7560558       -24514297.352711082        882579304.17697453     
  -1502067545.8678873       -22020973.310394645        872032666.81954432     
  -1364526132.0690727       -23628742.899267435        866813106.45828664     
  -2138277705.5408788       -31088869.562346697        788615963.96131599     
  -1982778607.2116718       -19192624.391489506        765370786.50547552     
  -1828645131.4220173       -11848454.352488518        747495824.43998718     
  -1675877278.1719193       -9056359.4453420639        734991077.76485503     
  -1524475047.4613769       -10816339.670022905        727856546.48007834     
  -2356057800.3374276       -20846356.310625911        656472702.80010128     
  -2186168749.1910663       -7712401.5071588755        631025295.71294606     
  -2017780615.0344574        418496.66379868984        610991242.41033590     
  -1850893397.8676012        3546338.2022510767        596370542.89226758     
  -1685507097.6904933        1671123.1081979275        587163197.15874314     
  -1047877705.7949581       -50228370.710924625        1139515858.3853118     
  -929398968.86848462       -47400457.871220410        1133066351.0763104     
  -808949345.01353025       -38002921.936574638        1133351425.5894969     
  -686528834.23010242       -22035762.907018542        1140371081.9248824     
  -562137436.51818275        501019.21750745177        1154125320.0824594     
  -1205660351.5136042       -36766086.579572618        1004032877.0933599     
  -1072895300.7744137       -34939084.339603961        998082687.52219832     
  -938667815.27252746       -28237299.557306528        996618367.66164172     
  -802977895.00792563       -16660732.232636869        999639917.51168823     
  -665825539.98062205       -209382.36561167240        1007147337.0723398     
  -1364526132.0690727       -23628742.899267435        866813106.45828664     
  -1223899659.2645731       -24730118.783266604        860769040.43156338     
  -1082319203.8631458       -22651552.677506447        856962132.00385380     
  -939784765.86478555       -17393044.581966579        855392381.17515993     
  -796296345.26949143       -8954594.4966530800        856059787.94547474     
  -1524475047.4613769       -10816339.670022905        727856546.48007834     
  -1382412044.3389609       -16773561.202192724        721125409.80438900     
  -1239903510.7853980       -21245681.297205687        714382718.61612809     
  -1096949446.8006723       -24232699.955010772        707628472.91528583     
  -953549852.38478887       -25734617.175619602        700862672.70186710     
  -1685507097.6904933        1671123.1081979275        587163197.15874314     
  -1548432455.9975719       -11069411.596382499        579151795.64068925     
  -1411420736.0392776       -24019685.416389763        568880127.49846840     
  -1274471937.8155918       -37179698.351754069        556348192.73207569     
  -1137586061.3265283       -50549450.402532101        541555991.34151351     
  -562137436.51818275        501019.21750745177        1154125320.0824594     
  -465011077.45050526        36370055.984148562        1163147018.2120757     
  -355672023.17809600        112948076.76656248        1179715527.4127245     
  -234120273.70094517        230235081.56477875        1203830847.6843960     
  -100355829.01905116        388231070.37881124        1235492979.0270872     
  -665825539.98062205       -209382.36561167240        1007147337.0723398     
  -550104490.13889003        28717352.396944731        1020743170.6058769     
  -423381187.28982610        94318263.850607544        1042697871.0493716     
  -285655631.43345761        196593351.99529368        1073011438.4028292     
  -136927822.56976601        335542616.83104038        1111683872.6662469     
  -796296345.26949143       -8954594.4966530800        856059787.94547474     
  -659660445.11388302        13725886.123788357        872817574.31927574     
  -513232734.14837343        69045736.110567480        898746283.44196463     
  -357013212.37296510        157004955.46367013        933845915.31355143     
  -191001879.78765106        277603544.18312502        978116469.93403637     
  -953549852.38478887       -25734617.175619602        700862672.70186710     
  -793678942.37549639       -8604342.8353556991        719370229.35227299     
  -625226663.75371659        37130493.546515346        747860764.59050345     
  -448193016.51946235        111469891.96997634        786334278.41656637     
  -262578000.67272061        214413852.43505111        834790770.83046448     
  -1137586061.3265283       -50549450.402532101        541555991.34151351     
  -952159981.92373013       -38273334.480509281        560401135.70486796     
  -759362976.10586822       -1427463.8415960073        590041314.49498570     
  -559195043.87295473        59988161.514153123        630476527.71186876     
  -351656185.22496253        145973541.58682543        681706775.35551643     
  -100355829.01905116        388231070.37881124        1235492979.0270872     
  -85453533.108762801        548143860.87397194        1196768707.2023952     
  -57988912.856398284        749931065.84272528        1154739590.1193726     
  -17961968.261992037        993592685.28494000        1109405627.7780297     
   34627300.674480677        1279128719.2007265        1060766820.1783357     
  -136927822.56976601        335542616.83104038        1111683872.6662469     
  -127724481.67439854        484415924.41904527        1090046562.7359815     
  -95381822.483456612        710420292.99229002        1069877859.4926879     
  -39899844.996921241        1013555722.5508435        1051177762.9363661     
   38721450.785186410        1393822213.0946629        1033946273.0669999     
  -191001879.78765106        277603544.18312502        978116469.93403637     
  -173859059.77779111        419528899.10275155        985905948.17730653     
  -122999927.51882166        673841961.51940441        999937485.05285478     
  -38424483.010749996        1040542731.4330740        1020211080.5606605     
   79867273.746435344        1519631208.8437753        1046726734.7007322     
  -262578000.67272061        214413852.43505111        834790770.83046448     
  -223857267.41893384        353482784.92515957        884346863.52638614     
  -140843227.96251681        640196071.42401886        944918466.79987538     
  -13535882.303470373        1074553711.9316454        1016505580.6509316     
   158064769.55819470        1656555706.4480345        1099108205.0795519     
  -351656185.22496253        145973541.58682543        681706775.35551643     
  -277719104.59783131        286277581.88620102        785369308.78320146     
  -148911723.81454474        609482622.70610023        904820804.73375416     
   34765957.124901831        1115588664.0465324        1040061263.2071657     
   273313938.22049761        1804595705.9074566        1191090684.2034526     
  -4167580440.9798760       -1288734091.4016171        1082572911.5752170     
  -4139996534.0337763       -476672513.24390149        969732089.74931657     
  -4200840501.5987215        40629483.210332394        876291272.38497710     
  -4350112343.6747093        263171897.96109271        802250459.48219526     
  -4587812060.2617397        190954731.00837088        747609651.04097486     
  -4659546338.1887255       -2001850150.3271494        140865713.38788792     
  -4577675102.2346287       -973736543.67357612        204904853.15063325     
  -4599634089.9543657       -291723682.59943652        241445311.88200244     
  -4725423301.3479309        44188432.895273447        250487089.58199233     
  -4955042736.4153242        33999802.810552359        232030186.25060996     
  -4258712630.7986450       -2447126327.8729978       -715023769.66212606     
  -4256550310.1020970       -1243159566.0032265       -492074075.66731912     
  -4373620562.2421522       -436634713.58884621       -343521748.19682860     
  -4609923387.2188244       -27551770.629836559       -269366787.25064582     
  -4965458785.0321198       -15910737.126237869       -269609192.82878172     
  -2965079318.8096552       -2624562624.0391746       -1485095537.5748258     
  -3176622157.6361670       -1284941580.2328627       -1121204696.7045426     
  -3522799918.4620810       -394103609.75789940       -878609907.85150707     
  -4003612601.2873988        47951287.385735035       -757311171.01572502     
  -4619060206.1121187        41223111.198014736       -757308486.19718766     
  -778646402.22173560       -2534159038.8256755       -2169349590.3502097     
  -1337890644.8368552       -1099082586.3624897       -1682487009.9610355     
  -2047172158.6141558       -164130371.10659653       -1363819167.0820417     
  -2906490943.5536447        270697606.94201195       -1213346061.7132339     
  -3915846999.6553264        205401347.78331137       -1231067693.8546197     
  -4587812060.2617397        190954731.00837088        747609651.04097486     
  -4287620767.6621637        148539058.24293542        669020710.88640368     
  -3985748287.5199108        111727343.95308423        612756108.23502433     
  -3682194619.8349905        80519588.138793468        578815843.08683634     
  -3376959764.6073909        54915790.800100565        567199915.44184136     
  -4955042736.4153242        33999802.810552359        232030186.25060996     
  -4622796038.6984892        35169536.514860868        264388161.87500626     
  -4290368442.1734691        36942266.246442318        289021633.20877492     
  -3957759946.8402648        39317992.005298853        305930600.25191987     
  -3624970552.6988792        42296713.791432381        315115063.00444287     
  -4965458785.0321198       -15910737.126237869       -269609192.82878172     
  -4687010515.8946419        3088252.9388241768       -128054638.28232063     
  -4409881636.6834688        17689276.582874775       -24273429.820305713     
  -4134072147.3986096        27892333.805876017        41734432.557265677     
  -3859582048.0400639        33697424.607845545        69968948.850396499     
  -4619060206.1121187        41223111.198014736       -757308486.19718766     
  -4480264199.2506180        52295207.514856100       -508307689.58557999     
  -4344287871.0499201        53968374.962364912       -327129080.85222369     
  -4211131221.5100241        46242613.540525913       -213772659.99713182     
  -4080794250.6309233        29117923.249371052       -168238427.02029476     
  -3915846999.6553264        205401347.78331137       -1231067693.8546197     
  -4002557088.7664242        182790400.24293208       -876370992.03475928     
  -4093587145.2728148        145779561.38492393       -619545319.88697767     
  -4188937169.1744900        94368831.209280729       -460590677.41126835     
  -4288607160.4714708        28558209.715976954       -399507064.60763359     
  -3376959764.6073909        54915790.800100565        567199915.44184136     
  -3254252212.8884821       -11120561.486160040        585323010.05193877     
  -3123780374.3572669       -51275957.731404066        604756246.45282125     
  -2985544249.0137477       -65550397.935631990        625499624.64449024     
  -2839543836.8579216       -53943882.098836303        647553144.62694442     
  -3624970552.6988792        42296713.791432381        315115063.00444287     
  -3494224477.8707905       -6376211.3066241741        345576351.23589635     
  -3357750720.1521072       -35956860.102702856        376904032.25558114     
  -3215549279.5428343       -46445232.596800327        409098106.06349355     
  -3067620156.0429583       -37841328.788925052        442158572.65963572     
  -3859582048.0400639        33697424.607845545        69968948.850396499     
  -3722065304.3957996        2007570.4101059437        110392392.79454237     
  -3580857481.7826667       -17378687.224714279        151238480.52436507     
  -3435958580.2006426       -24461348.296581984        192507212.03985468     
  -3287368599.6497521       -19240412.805547476        234198587.34102559     
  -4080794250.6309233        29117923.249371052       -168238427.02029476     
  -3937774692.4635153        14030783.664013863       -120228865.27212046     
  -3793100659.2489395        4458560.9025490284       -72240408.740830362     
  -3646772150.9871955        401254.96497511864       -24273057.426416669     
  -3498789167.6782742        1858865.8513350487        23673188.671116512     
  -4288607160.4714708        28558209.715976954       -399507064.60763359     
  -4141352642.0739264        29693428.455132961       -346287422.96409518     
  -3994480252.5509243        29554884.279113293       -293532635.53999668     
  -3847989991.9024615        28142577.187989950       -241242702.33533913     
  -3701881860.1285534        25456507.181663513       -189417623.35010257     
  -2839543836.8579216       -53943882.098836303        647553144.62694442     
  -2716800797.8836732       -39431067.838035703        647601360.06540036     
  -2595305445.4721813       -29077208.786415219        649104024.90707672     
  -2475057779.6234293       -22882304.943937659        652061139.15197814     
  -2356057800.3374276       -20846356.310625911        656472702.80010128     
  -3067620156.0429583       -37841328.788925052        442158572.65963572     
  -2938359504.3907051       -27912928.021796584        445297350.87883073     
  -2810260576.1695652       -21856938.691719294        453053169.48411375     
  -2683323371.3795433       -19673360.798709154        465426028.47549951     
  -2557547890.0206375       -21362194.342744946        482415927.85297322     
  -3287368599.6497521       -19240412.805547476        234198587.34102559     
  -3142554361.0827093       -11185633.261054397        240528218.66119418     
  -2998815882.8151412       -6716721.3814888000        254637481.35032815     
  -2856153164.8470697       -5833677.1669081450        276526375.40843409     
  -2714566207.1784811       -8536500.6172642708        306194900.83549935     
  -3498789167.6782742        1858865.8513350487        23673188.671116512     
  -3329385367.9596744        10750816.444201946        33293963.412495449     
  -3160971365.4089136        16343443.144259810        53856960.505717769     
  -2993547160.0260119        18636745.951463342        85362179.950777099     
  -2827112751.8109550        17630724.865845680        127809621.74767332     
  -3701881860.1285534        25456507.181663513       -189417623.35010257     
  -3498852525.0216165        37896421.093958855       -176405414.86726958     
  -3296727023.9508667        47323554.885597706       -149288393.04972565     
  -3095505356.9163642        53737908.556422830       -108066557.89746310     
  -2895187523.9180794        57139482.106533766       -52739909.410497271     
  -2356057800.3374276       -20846356.310625911        656472702.80010128     
  -2186168749.1910663       -7712401.5071588755        631025295.71294606     
  -2017780615.0344574        418496.66379868984        610991242.41033590     
  -1850893397.8676012        3546338.2022510767        596370542.89226758     
  -1685507097.6904933        1671123.1081979275        587163197.15874314     
  -2557547890.0206375       -21362194.342744946        482415927.85297322     
  -2379604999.1197243       -10663729.613893032        469046102.22026503     
  -2202651763.6380548       -3264116.2824780941        457020220.32372707     
  -2026688183.5756145        836645.65149021149        446338282.16335386     
  -1851714258.9324093        1638556.1879972219        437000287.73915535     
  -2714566207.1784811       -8536500.6172642708        306194900.83549935     
  -2540196362.3755231       -3761591.7187424898        305499128.48949951     
  -2366304911.4212804       -581328.98261785507        302077889.83130616     
  -2192891854.3157711        1004287.5910797119        295931184.86089629     
  -2019957191.0589719        995258.00240266323        287059013.57828653     
  -2827112751.8109550        17630724.865845680        127809621.74767332     
  -2667942838.9584560        12994012.178254485        140384374.52066520     
  -2508740058.3841672        8466858.5633081198        146164250.93306288     
  -2349504410.0880666        4049264.0210508108        145149250.98489270     
  -2190235894.0701842       -258771.44858038425        137339374.67613652     
  -2895187523.9180794        57139482.106533766       -52739909.410497271     
  -2762844428.8685327        39603082.077108264       -26298159.686264880     
  -2629957204.5266752        23880446.355394125       -10720696.370973453     
  -2496525850.8925133        9971574.9413630962       -6007519.4646577416     
  -2362550367.9660339       -2123532.1649543047       -12158628.967294207     
  -1685507097.6904933        1671123.1081979275        587163197.15874314     
  -1548432455.9975719       -11069411.596382499        579151795.64068925     
  -1411420736.0392776       -24019685.416389763        568880127.49846840     
  -1274471937.8155918       -37179698.351754069        556348192.73207569     
  -1137586061.3265283       -50549450.402532101        541555991.34151351     
  -1851714258.9324093        1638556.1879972219        437000287.73915535     
  -1719191884.7433207       -10723022.289368391        429118005.28129262     
  -1585962068.6807024       -20726461.188306391        419906793.77682823     
  -1452024810.7445507       -28371760.508800685        409366653.22576803     
  -1317380110.9348683       -33658920.250863552        397497583.62810230     
  -2019957191.0589719        995258.00240266323        287059013.57828653     
  -1889326119.8663707       -10189074.895539641        280204607.72345054     
  -1757217243.1920919       -16447389.521227360        272952610.39959091     
  -1623630561.0361309       -17779685.874653995        265303021.60669893     
  -1488566073.3984892       -14185963.955792725        257255841.34477979     
  -2190235894.0701842       -258771.44858038425        137339374.67613652     
  -2058835161.3667405       -9467569.4149359465        132411602.96717434     
  -1925186259.5734437       -11182470.415129542        128017577.36675023     
  -1789289188.6903317       -5403474.4492733479        124157297.87487622     
  -1651143948.7173958        7869418.4826757908        120830764.49153885     
  -2362550367.9660339       -2123532.1649543047       -12158628.967294207     
  -2227719009.2443943       -8558505.8474773169       -14261008.987541934     
  -2089869117.8247578       -4931703.8700337410       -14898305.321677070     
  -1949000693.7071605        8756873.7672955990       -14070517.969699131     
  -1805113736.8915634        32507227.064612627       -11777646.931618527     
  -1137586061.3265283       -50549450.402532101        541555991.34151351     
  -952159981.92373013       -38273334.480509281        560401135.70486796     
  -759362976.10586822       -1427463.8415960073        590041314.49498570     
  -559195043.87295473        59988161.514153123        630476527.71186876     
  -351656185.22496253        145973541.58682543        681706775.35551643     
  -1317380110.9348683       -33658920.250863552        397497583.62810230     
  -1117389342.2284932       -12976672.535638809        419527724.61991692     
  -913908925.20559442        19337736.234657884        440026561.77389663     
  -706938859.86614299        63284306.060118318        458994095.09005898     
  -496479146.21017164        118863036.94067618        476430324.56838447     
  -1488566073.3984892       -14185963.955792725        257255841.34477979     
  -1309228724.7159460        4336982.7543831468        277942821.18343025     
  -1130283005.8153868        21554496.857940257        284772158.91966289     
  -951728916.69682908        37466578.354828060        277743854.55348474     
  -773566457.36026812        52073227.245060682        256857908.08487660     
  -1651143948.7173958        7869418.4826757908        120830764.49153885     
  -1527678129.3860750        13667631.389622986        135646425.39541402     
  -1408485217.9352827        5222818.0281275511        124278105.93227871     
  -1293565214.3650007       -17465021.601724863        86725806.102140218     
  -1182918118.6752357       -54395887.499976099        22989525.904984165     
  -1805113736.8915634        32507227.064612627       -11777646.931618527     
  -1772737556.2388794        15015273.370073676       -7361462.7441359172     
  -1748515561.5652461       -29657300.254645586       -41455597.188252337     
  -1732447752.8706489       -101510493.80947900       -114060050.26396075     
  -1724534130.1551244       -200544307.29455596       -225174821.97127202     
  -351656185.22496253        145973541.58682543        681706775.35551643     
  -277719104.59783131        286277581.88620102        785369308.78320146     
  -148911723.81454474        609482622.70610023        904820804.73375416     
   34765957.124901831        1115588664.0465324        1040061263.2071657     
   273313938.22049761        1804595705.9074566        1191090684.2034526     
  -496479146.21017164        118863036.94067618        476430324.56838447     
  -387815832.64774066        223826296.27702364        596157233.55580735     
  -229945388.18171951        492813325.29200208        734963231.73129189     
  -22867812.812117338        925824123.98557830        892848319.09484386     
   233416893.46108249        1522858692.3578055        1069812495.6464639     
  -773566457.36026812        52073227.245060682        256857908.08487660     
  -620776548.96196127        124515814.18855950        386042161.83737653     
  -424442678.91264319        342104939.96875262        537595631.44314229     
  -184564847.21230280        704840604.58570087        711518316.90218043     
   98856946.139055371        1212722808.0393572        907810218.21446645     
  -1182918118.6752357       -54395887.499976099        22989525.904984165     
  -976601253.54050100       -11653864.379216969        155024093.62790295     
  -732403596.00732076        157357466.73635045        312718003.86928976     
  -450325146.07565153        452638105.84684122        496071256.62913620     
  -130365903.74556357        874188052.95215142        705083851.90745521     
  -1724534130.1551244       -200544307.29455596       -225174821.97127202     
  -1455289946.3833420       -184682739.42624390       -96896971.072601557     
  -1153828139.4657252       -61429094.405139863        60330349.009730406     
  -820148709.40218925        169216627.76904565        246507138.27573922     
  -454251656.19276595        507254427.09614396        461633396.72540957     
 </DataArray>
 <DataArray  type="Float64" Name="VM" NumberOfComponents="1" format="ascii">
   4378729422.1996937     
   3165401903.0489769     
   3076013272.8005013     
   3704642078.0379395     
   4552686093.7428780     
   3809791887.5406570     
   3381054451.7003541     
   3673275766.2274957     
   4236006631.2219701     
   4821657077.7301702     
   3903489425.8749681     
   3885679566.1409888     
   4214683107.6722174     
   4619828630.0782909     
   4979467574.5791435     
   4055932940.1428585     
   4191870782.9087653     
   4480491243.7473955     
   4767454078.1736794     
   4988345317.0159092     
   4144219063.2332296     
   4267845641.7366314     
   4485872138.3516674     
   4697699604.8555212     
   4861821490.6069422     
   4552686093.7428780     
   4369162724.8419971     
   4304297610.7917967     
   4311361325.7373819     
   4358240419.1025267     
   4821657077.7301702     
   4591832807.7329149     
   4408088490.4118595     
   4250599309.8640337     
   4105784494.3059530     
   4979467574.5791435     
   4693798648.0796108     
   4418952835.9148455     
   4148718441.1637149     
   3878434482.1402793     
   4988345317.0159092     
   4663021017.0139790     
   4337939896.6747122     
   4012705006.8795457     
   3686925192.0142894     
   4861821490.6069422     
   4515019489.7018909     
   4179760714.7361526     
   3855724674.3305206     
   3543651880.5778632     
   4358240419.1025267     
   4199333194.6771688     
   4041446100.7436476     
   3884675719.3055940     
   3729135478.1573696     
   4105784494.3059530     
   3950301429.4529362     
   3797393879.8610134     
   3647215115.8899302     
   3499959160.5863967     
   3878434482.1402793     
   3727976113.7482781     
   3581791583.9848604     
   3439991078.3777537     
   3302795650.1172361     
   3686925192.0142894     
   3541981717.7720051     
   3403118947.6139545     
   3270267753.1397471     
   3143589536.8955517     
   3543651880.5778632     
   3403219226.6826630     
   3270726001.8940411     
   3145761759.9800916     
   3028319394.6203179     
   3729135478.1573696     
   3531197490.6214142     
   3330693995.9907961     
   3128325797.8478556     
   2925602455.0259829     
   3499959160.5863967     
   3335272339.1813774     
   3170547263.2146268     
   3006546525.0335455     
   2844596157.0898266     
   3302795650.1172361     
   3164519401.0719714     
   3027758303.0390186     
   2893161517.2654719     
   2761708822.4153218     
   3143589536.8955517     
   3024497757.3974504     
   2907299444.9530110     
   2792433621.7884398     
   2680494003.0293441     
   3028319394.6203179     
   2921232205.1219058     
   2815137600.3920693     
   2710230760.3965139     
   2606759854.2334104     
   2925602455.0259829     
   2783230079.2553930     
   2642043626.4941883     
   2501548185.0805411     
   2361583218.3295350     
   2844596157.0898266     
   2685494076.4421740     
   2525704155.2552142     
   2364932567.4990487     
   2202987262.9304090     
   2761708822.4153218     
   2592883661.0132027     
   2423174947.2177324     
   2252488354.3311138     
   2080732336.3106618     
   2680494003.0293441     
   2509436379.1339097     
   2339037874.9879661     
   2169519509.0669680     
   2001197210.3030758     
   2606759854.2334104     
   2440719451.7110662     
   2278643042.5918674     
   2121168620.0540841     
   1969272840.3668633     
   2361583218.3295350     
   2223589309.2965264     
   2087567128.3444822     
   1953545873.3647268     
   1821699125.7492132     
   2202987262.9304090     
   2066881271.4925456     
   1932383073.9404655     
   1799489295.4528449     
   1668272169.4676549     
   2080732336.3106618     
   1945751882.0138392     
   1811819721.4726286     
   1678922796.0247860     
   1547079557.1165504     
   2001197210.3030758     
   1868081254.8790975     
   1735453553.1581874     
   1603348894.8124800     
   1471833779.6804729     
   1969272840.3668633     
   1840346645.1404314     
   1711624186.6546328     
   1583302404.2539823     
   1455679092.2247341     
   1821699125.7492132     
   1780338342.7865684     
   1735363268.4759798     
   1695537394.2793117     
   1679434900.2623708     
   1668272169.4676549     
   1552439007.2931085     
   1427427508.5473027     
   1293672270.3024068     
   1157365051.3949039     
   1547079557.1165504     
   1396972942.2612023     
   1243242735.3001442     
   1083639537.7898874     
   916147772.94497168     
   1471833779.6804729     
   1327493079.5226123     
   1197558569.3050511     
   1086523045.5209050     
   1000295229.4423664     
   1455679092.2247341     
   1346766290.4392536     
   1272790816.6129723     
   1241911718.1451759     
   1261140447.9184835     
   1679434900.2623708     
   1382525470.8053112     
   1129218111.9814456     
   1011117341.9433751     
   1154724626.6814654     
   1157365051.3949039     
   1007274566.0019358     
   984785877.31640673     
   1161795329.7199626     
   1544860528.0037043     
   916147772.94497168     
   961899091.08532619     
   1144298258.2165699     
   1476390261.7843232     
   1957789929.6080449     
   1000295229.4423664     
   1163405799.3715091     
   1424630781.1759729     
   1808418972.7449398     
   2334869894.7420888     
   1261140447.9184835     
   1445338148.1749072     
   1714790058.0404718     
   2110010550.9797721     
   2663481943.8565412     
   4144219063.2332296     
   4267845641.7366314     
   4485872138.3516674     
   4697699604.8555212     
   4861821490.6069422     
   3402976706.0046039     
   3689172195.5766168     
   3989919941.1038179     
   4264048614.4837618     
   4500919546.1671944     
   2923241649.8164735     
   3271776525.6258025     
   3600742693.6354675     
   3906654448.6239891     
   4192442969.8587079     
   2730169530.8563356     
   3033485572.1987867     
   3339416201.3053741     
   3643425312.9499512     
   3942666683.7922297     
   2837694068.4080768     
   3000779572.1853666     
   3233058778.1338940     
   3493452751.4690547     
   3757193839.6544533     
   4861821490.6069422     
   4515019489.7018909     
   4179760714.7361526     
   3855724674.3305206     
   3543651880.5778632     
   4500919546.1671944     
   4203742529.3138900     
   3920071819.3090982     
   3649853191.6555843     
   3393924062.1793637     
   4192442969.8587079     
   3938473668.8632536     
   3699405184.2698579     
   3475307602.5463095     
   3266923426.0291677     
   3942666683.7922297     
   3725001151.1585307     
   3522870593.6273623     
   3336365006.7193747     
   3166023915.4303279     
   3757193839.6544533     
   3568589750.6132393     
   3395257190.6089897     
   3237257701.7958550     
   3094914251.8467059     
   3543651880.5778632     
   3403219226.6826630     
   3270726001.8940411     
   3145761759.9800916     
   3028319394.6203179     
   3393924062.1793637     
   3261097567.7948699     
   3135257471.8878145     
   3016360388.6210008     
   2904629373.1635733     
   3266923426.0291677     
   3142723807.7718205     
   3025359845.6761942     
   2915072160.4805007     
   2812271876.0355959     
   3166023915.4303279     
   3051888156.5790453     
   2945202011.4026208     
   2846395815.3962369     
   2756021372.6665220     
   3094914251.8467059     
   2992440004.3067470     
   2898729719.4122372     
   2814292139.8995342     
   2739758378.9330974     
   3028319394.6203179     
   2921232205.1219058     
   2815137600.3920693     
   2710230760.3965139     
   2606759854.2334104     
   2904629373.1635733     
   2805678310.0846715     
   2709095783.8198371     
   2615201720.7856741     
   2524374545.1578755     
   2812271876.0355959     
   2723115281.3506970     
   2637823976.7686610     
   2556808492.8257728     
   2480534962.8185573     
   2756021372.6665220     
   2677616986.3892846     
   2604581043.2056470     
   2537350804.4029803     
   2476407074.8972869     
   2739758378.9330974     
   2672109195.9324999     
   2611223406.4973931     
   2557489304.6806688     
   2511324352.0840020     
   2606759854.2334104     
   2440719451.7110662     
   2278643042.5918674     
   2121168620.0540841     
   1969272840.3668633     
   2524374545.1578755     
   2377204652.6791596     
   2235769846.8302245     
   2100977147.9850094     
   1974076336.2401857     
   2480534962.8185573     
   2353426754.4426908     
   2233734358.1682549     
   2122483866.5278955     
   2020975687.9432383     
   2476407074.8972869     
   2369623352.7505884     
   2271601213.8738956     
   2183316666.9929857     
   2105917204.4261312     
   2511324352.0840020     
   2424064672.3671012     
   2346437949.3970642     
   2279248879.7589245     
   2223381785.0744696     
   1969272840.3668633     
   1840346645.1404314     
   1711624186.6546328     
   1583302404.2539823     
   1455679092.2247341     
   1974076336.2401857     
   1856938881.7349477     
   1744275639.6139982     
   1636923160.5485768     
   1535905534.1222391     
   2020975687.9432383     
   1921209201.1925404     
   1830454596.3932316     
   1749925879.5788262     
   1680938019.6270857     
   2105917204.4261312     
   2025671800.0188217     
   1958349734.2684946     
   1905128020.7142043     
   1867142618.5896714     
   2223381785.0744696     
   2161826399.0462427     
   2116260189.3975847     
   2087586607.3760707     
   2076606885.0113764     
   1455679092.2247341     
   1346766290.4392536     
   1272790816.6129723     
   1241911718.1451759     
   1261140447.9184835     
   1535905534.1222391     
   1475009082.6257672     
   1446854933.7976887     
   1455413115.5153794     
   1503944068.4407635     
   1680938019.6270857     
   1652218593.8434558     
   1651316544.9836431     
   1680585140.5716333     
   1742614051.2361307     
   1867142618.5896714     
   1856067628.8531308     
   1868083695.9208207     
   1905378368.1006179     
   1970991196.1479499     
   2076606885.0113764     
   2072004710.7034740     
   2086772269.5798833     
   2123522857.4799657     
   2186111756.5305429     
   1261140447.9184835     
   1445338148.1749072     
   1714790058.0404718     
   2110010550.9797721     
   2663481943.8565412     
   1503944068.4407635     
   1612575570.7054508     
   1788426077.0013697     
   2066215070.8509150     
   2476173403.2802138     
   1742614051.2361307     
   1787512793.3067584     
   1884595289.7061267     
   2060747408.1000593     
   2341196181.7825217     
   1970991196.1479499     
   1969123823.2468648     
   2003864209.4699121     
   2093860545.5892510     
   2257743028.0158582     
   2186111756.5305429     
   2156703698.7953377     
   2146978706.9384298     
   2167426694.8644228     
   2229070500.3151207     
   2837694068.4080768     
   3000779572.1853666     
   3233058778.1338940     
   3493452751.4690547     
   3757193839.6544533     
   2577604047.4221473     
   2775935582.3166437     
   2999350569.8190498     
   3228639689.3902125     
   3452401337.6079197     
   2309875698.5263262     
   2538286403.6347017     
   2765106926.8416243     
   2985122441.9053321     
   3195174708.2696114     
   2028953797.3882263     
   2281390096.3567262     
   2524593414.8590951     
   2758142017.0178027     
   2981971263.4268208     
   1741590313.4572959     
   2003262158.3794777     
   2273506933.0771365     
   2542900309.9212780     
   2807967566.4542422     
   3757193839.6544533     
   3568589750.6132393     
   3395257190.6089897     
   3237257701.7958550     
   3094914251.8467059     
   3452401337.6079197     
   3302451968.2759843     
   3165418054.1576843     
   3041430858.5180969     
   2930777780.5441909     
   3195174708.2696114     
   3080796214.6341071     
   2976437781.7021685     
   2882254053.5306616     
   2798478985.5429559     
   2981971263.4268208     
   2900801254.3060832     
   2826281673.9076242     
   2758543030.4796138     
   2697748075.7243214     
   2807967566.4542422     
   2758346928.1544585     
   2711669757.3248472     
   2667993636.4327469     
   2627388759.2928290     
   3094914251.8467059     
   2992440004.3067470     
   2898729719.4122372     
   2814292139.8995342     
   2739758378.9330974     
   2930777780.5441909     
   2850871359.0961642     
   2779641200.7625341     
   2717533840.0178404     
   2665072781.7834949     
   2798478985.5429559     
   2740059030.9419980     
   2689983192.6501822     
   2648606811.0130911     
   2616325758.8028889     
   2697748075.7243214     
   2659550901.6880131     
   2629111449.2010078     
   2606682422.5658650     
   2592533205.9799781     
   2627388759.2928290     
   2607978005.1561537     
   2595507300.1820898     
   2590132929.9309654     
   2592016198.3013163     
   2739758378.9330974     
   2672109195.9324999     
   2611223406.4973931     
   2557489304.6806688     
   2511324352.0840020     
   2665072781.7834949     
   2612874941.0311522     
   2567973563.2849636     
   2530747397.7265334     
   2501582488.0968103     
   2616325758.8028889     
   2580386527.5437708     
   2552178322.2895398     
   2532042948.0769634     
   2520315904.7895184     
   2592533205.9799781     
   2573238333.0296178     
   2561992516.6232266     
   2559085368.5579071     
   2564798191.8060217     
   2592016198.3013163     
   2589322380.0999336     
   2594896161.3642368     
   2608974288.7432141     
   2631795041.2073989     
   2511324352.0840020     
   2424064672.3671012     
   2346437949.3970642     
   2279248879.7589245     
   2223381785.0744696     
   2501582488.0968103     
   2434925628.8691211     
   2378429794.5890174     
   2332703019.3497071     
   2298360736.2051859     
   2520315904.7895184     
   2471913122.7777996     
   2433792055.9504695     
   2406341992.8261318     
   2389928149.8739634     
   2564798191.8060217     
   2531765195.7735944     
   2508824286.3516974     
   2496168442.8345051     
   2493968347.5882425     
   2631795041.2073989     
   2610970464.7522111     
   2599856200.5705891     
   2598491058.3822718     
   2606914381.0152898     
   2223381785.0744696     
   2161826399.0462427     
   2116260189.3975847     
   2087586607.3760707     
   2076606885.0113764     
   2298360736.2051859     
   2254043855.3978662     
   2224397409.0110316     
   2209939421.6033015     
   2211111324.4696441     
   2389928149.8739634     
   2359536113.2458944     
   2342454769.8891969     
   2338965373.7820487     
   2349307703.1488137     
   2493968347.5882425     
   2474572445.9161139     
   2467221114.3127804     
   2472065142.8130822     
   2489242891.1228848     
   2606914381.0152898     
   2596048650.4161363     
   2596120469.2725139     
   2607218630.3318529     
   2629438845.1321292     
   2076606885.0113764     
   2072004710.7034740     
   2086772269.5798833     
   2123522857.4799657     
   2186111756.5305429     
   2211111324.4696441     
   2195409529.0593314     
   2194823413.2926440     
   2211317057.0010395     
   2247840901.9835067     
   2349307703.1488137     
   2323408912.6190500     
   2309171556.4578366     
   2308002404.8032980     
   2322007335.2725768     
   2489242891.1228848     
   2455014023.0055728     
   2429489637.9032917     
   2413617944.8633552     
   2408781376.5512285     
   2629438845.1321292     
   2589434325.8256202     
   2555487563.5140224     
   2528180705.9438686     
   2508318398.0905600     
   2186111756.5305429     
   2156703698.7953377     
   2146978706.9384298     
   2167426694.8644228     
   2229070500.3151207     
   2247840901.9835067     
   2183121215.9650669     
   2134910416.1051137     
   2112858060.9267783     
   2127869951.3325133     
   2322007335.2725768     
   2225284233.1003761     
   2141942300.2135854     
   2080345064.7955804     
   2050657394.0516119     
   2408781376.5512285     
   2283486563.3306866     
   2168722548.4257159     
   2071240379.2567031     
   1999822610.8351672     
   2508318398.0905600     
   2357936036.0661197     
   2215721841.2512259     
   2086676054.4127748     
   1977706009.6719007     
   1741590313.4572959     
   2003262158.3794777     
   2273506933.0771365     
   2542900309.9212780     
   2807967566.4542422     
   1588675247.2924881     
   1888505177.7493486     
   2186443502.4437022     
   2476741940.0956688     
   2757452006.4876704     
   1503245723.6070478     
   1831473521.2680387     
   2147573463.3172116     
   2448941874.9791822     
   2734764059.1302423     
   1487321102.0833044     
   1834707253.5050597     
   2160859627.8791556     
   2465160943.4029932     
   2747432765.2933459     
   1536581341.9251509     
   1896240518.0717273     
   2227053626.7318230     
   2529020667.9054346     
   2802141641.5925651     
   2807967566.4542422     
   2758346928.1544585     
   2711669757.3248472     
   2667993636.4327469     
   2627388759.2928290     
   2757452006.4876704     
   2703621275.2184362     
   2655764445.7510014     
   2613964402.2160492     
   2578315587.7657180     
   2734764059.1302423     
   2676138801.6890388     
   2626625072.3744912     
   2586289287.7081842     
   2555205799.2589388     
   2747432765.2933459     
   2681965107.3999977     
   2628790338.7368412     
   2587933765.0870967     
   2559423598.9317164     
   2802141641.5925651     
   2726314750.0522285     
   2665931719.5730324     
   2620992550.1549902     
   2591497241.7980928     
   2627388759.2928290     
   2607978005.1561537     
   2595507300.1820898     
   2590132929.9309654     
   2592016198.3013163     
   2578315587.7657180     
   2565626588.4916902     
   2560109479.9203215     
   2561857911.4044347     
   2570966963.8182836     
   2555205799.2589388     
   2547149008.3566308     
   2546455913.7826662     
   2553169896.0617170     
   2567334488.1511602     
   2559423598.9317164     
   2553610603.3237877     
   2555332875.6835399     
   2564601496.4052515     
   2581427518.6232677     
   2591497241.7980928     
   2585373613.6229649     
   2586949854.0326977     
   2596225963.0272894     
   2613201940.6067433     
   2592016198.3013163     
   2589322380.0999336     
   2594896161.3642368     
   2608974288.7432141     
   2631795041.2073989     
   2570966963.8182836     
   2577389888.3436527     
   2592242876.9435658     
   2615660687.0376263     
   2647775762.7862873     
   2567334488.1511602     
   2580302176.4745259     
   2601848120.3423243     
   2632032525.9980564     
   2670913506.3894644     
   2581427518.6232677     
   2598081711.2999520     
   2623498472.3541102     
   2657692923.9571733     
   2700679492.9741931     
   2613201940.6067433     
   2630511967.3085256     
   2656839586.0587683     
   2692184796.8574672     
   2736547599.7046256     
   2631795041.2073989     
   2610970464.7522111     
   2599856200.5705891     
   2598491058.3822718     
   2606914381.0152898     
   2647775762.7862873     
   2630904091.3442960     
   2623830089.0783682     
   2626579048.9396114     
   2639175031.2248673     
   2670913506.3894644     
   2657105368.7786894     
   2653302378.0522180     
   2659517436.2726455     
   2675762155.4966908     
   2700679492.9741931     
   2688951449.7031951     
   2687580064.5504308     
   2696569022.9764900     
   2715921485.7264028     
   2736547599.7046256     
   2725833791.8730984     
   2725995651.0600700     
   2737033177.2655349     
   2758946370.4894977     
   2606914381.0152898     
   2596048650.4161363     
   2596120469.2725139     
   2607218630.3318529     
   2629438845.1321292     
   2639175031.2248673     
   2631358667.2124786     
   2633445658.9151721     
   2645478303.1214256     
   2667504742.8910093     
   2675762155.4966908     
   2670546545.3566818     
   2674366474.5406466     
   2687237739.0351429     
   2709179451.1634107     
   2715921485.7264028     
   2713059442.7191343     
   2718508171.4405980     
   2732270951.3880701     
   2754352037.6660218     
   2758946370.4894977     
   2758375951.4823508     
   2765512961.9098735     
   2780357401.7720428     
   2802909271.0688877     
   2629438845.1321292     
   2589434325.8256202     
   2555487563.5140224     
   2528180705.9438686     
   2508318398.0905600     
   2667504742.8910093     
   2620796266.2040563     
   2579884146.7806993     
   2545099428.1287165     
   2516902166.1823835     
   2709179451.1634107     
   2657822120.0939713     
   2612144694.4923325     
   2572294553.4065714     
   2538477126.4008923     
   2754352037.6660218     
   2700410244.7115531     
   2652176047.4095807     
   2609686027.6912446     
   2572991202.1471295     
   2802909271.0688877     
   2748450666.9194822     
   2699870735.7058144     
   2657169477.4278884     
   2620346892.0857177     
   2508318398.0905600     
   2357936036.0661197     
   2215721841.2512259     
   2086676054.4127748     
   1977706009.6719007     
   2516902166.1823835     
   2348944529.3785725     
   2184532711.5567837     
   2026779480.6079013     
   1880271327.1680567     
   2538477126.4008923     
   2358054506.5806532     
   2177351716.1387305     
   1997846510.2559543     
   1821827971.6121056     
   2572991202.1471295     
   2385368844.1947470     
   2194646189.7919817     
   2001203084.3347368     
   1805646415.0758708     
   2620346892.0857177     
   2430855280.7104292     
   2236558043.4495602     
   2037455180.3031375     
   1833546691.2711403     
   1536581341.9251509     
   1896240518.0717273     
   2227053626.7318230     
   2529020667.9054346     
   2802141641.5925651     
   1487321101.5579786     
   1834707252.7250221     
   2160859626.8628855     
   2465160942.1567583     
   2747432763.8259063     
   1503245722.0706921     
   1831473519.3901131     
   2147573461.0645404     
   2448941872.3435707     
   2734764056.1278267     
   1588675244.3446753     
   1888505174.5093908     
   2186443498.7713003     
   2476741935.9486003     
   2757452001.8867874     
   1741590308.8053758     
   2003262153.5743937     
   2273506927.8408165     
   2542900304.1611629     
   2807967560.1917262     
   2802141641.5925651     
   2726314750.0522285     
   2665931719.5730324     
   2620992550.1549902     
   2591497241.7980928     
   2747432763.8259063     
   2681965106.0077004     
   2628790337.4155207     
   2587933763.8341193     
   2559423597.7459579     
   2734764056.1278267     
   2676138798.8461642     
   2626625069.6848717     
   2586289285.1684346     
   2555205796.8684645     
   2757452001.8867874     
   2703621270.8673139     
   2655764441.6437774     
   2613964398.3508430     
   2578315584.1442685     
   2807967560.1917262     
   2758346922.2356052     
   2711669751.7470980     
   2667993631.1980524     
   2627388754.4070439     
   2591497241.7980928     
   2585373613.6229649     
   2586949854.0326977     
   2596225963.0272894     
   2613201940.6067433     
   2559423597.7459579     
   2553610602.2619457     
   2555332874.7442851     
   2564601495.5875630     
   2581427517.9262691     
   2555205796.8684645     
   2547149006.2118120     
   2546455911.8818526     
   2553169894.4038620     
   2567334486.7355027     
   2578315584.1442685     
   2565626585.2324157     
   2560109477.0226116     
   2561857908.8686938     
   2570966961.6453485     
   2627388754.4070439     
   2607978000.7415056     
   2595507296.2405210     
   2590132926.4659519     
   2592016195.3170781     
   2613201940.6067433     
   2630511967.3085256     
   2656839586.0587683     
   2692184796.8574672     
   2736547599.7046256     
   2581427517.9262691     
   2598081710.7342353     
   2623498471.9144168     
   2657692923.6379199     
   2700679492.7692699     
   2567334486.7355027     
   2580302175.3242598     
   2601848119.4478297     
   2632032525.3489141     
   2670913505.9739919     
   2570966961.6453485     
   2577389886.5727735     
   2592242875.5622244     
   2615660686.0318470     
   2647775762.1398344     
   2592016195.3170781     
   2589322377.6563869     
   2594896159.4478612     
   2608974287.3381991     
   2631795040.2944932     
   2736547599.7046256     
   2725833791.8730984     
   2725995651.0600700     
   2737033177.2655349     
   2758946370.4894977     
   2700679492.7692699     
   2688951449.5300956     
   2687580064.3992925     
   2696569022.8378072     
   2715921485.5909114     
   2670913505.9739919     
   2657105368.4303885     
   2653302377.7509623     
   2659517435.9989338     
   2675762155.2315226     
   2647775762.1398344     
   2630904090.8068938     
   2623830088.6191506     
   2626579048.5284319     
   2639175030.8321395     
   2631795040.2944932     
   2610970463.9995847     
   2599856199.9361906     
   2598491057.8245683     
   2606914380.4931078     
   2758946370.4894977     
   2758375951.4823508     
   2765512961.9098735     
   2780357401.7720428     
   2802909271.0688877     
   2715921485.5909114     
   2713059442.6037374     
   2718508171.3421345     
   2732270951.3034592     
   2754352037.5922604     
   2675762155.2315226     
   2670546545.1307526     
   2674366474.3475609     
   2687237738.8686452     
   2709179451.0173850     
   2639175030.8321395     
   2631358666.8780932     
   2633445658.6292915     
   2645478302.8744426     
   2667504742.6734934     
   2606914380.4931078     
   2596048649.9722843     
   2596120468.8934851     
   2607218630.0043440     
   2629438844.8430476     
   2802909271.0688877     
   2748450666.9194822     
   2699870735.7058144     
   2657169477.4278884     
   2620346892.0857177     
   2754352037.5922604     
   2700410244.6465955     
   2652176047.3523593     
   2609686027.6409049     
   2572991202.1030397     
   2709179451.0173850     
   2657822119.9652886     
   2612144694.3788195     
   2572294553.3064823     
   2538477126.3129358     
   2667504742.6734934     
   2620796266.0123177     
   2579884146.6114388     
   2545099427.9792318     
   2516902166.0506406     
   2629438844.8430476     
   2589434325.5709362     
   2555487563.2891874     
   2528180705.7451558     
   2508318397.9150510     
   2620346892.0857177     
   2430855280.7104292     
   2236558043.4495602     
   2037455180.3031375     
   1833546691.2711403     
   2572991202.1030397     
   2385368844.1674228     
   2194646189.7843304     
   2001203084.3516586     
   1805646415.1254165     
   2538477126.3129358     
   2358054506.5249157     
   2177351716.1207252     
   1997846510.2847564     
   1821827971.7019286     
   2516902166.0506406     
   2348944529.2931013     
   2184532711.5252180     
   2026779480.6422408     
   1880271327.2861960     
   2508318397.9150510     
   2357936035.9494419     
   2215721841.2025695     
   2086676054.4458349     
   1977706009.8052361     
   1741590308.8053758     
   2003262153.5743937     
   2273506927.8408165     
   2542900304.1611629     
   2807967560.1917262     
   2028953795.0963221     
   2281390093.0211596     
   2524593410.5928111     
   2758142011.9462090     
   2981971257.6803169     
   2309875698.3010912     
   2538286401.5606937     
   2765106923.3997478     
   2985122437.4319410     
   3195174703.0013824     
   2577604049.0610065     
   2775935581.3602839     
   2999350567.0917301     
   3228639685.4466782     
   3452401332.7963977     
   2837694071.8072786     
   3000779572.2613201     
   3233058776.0448618     
   3493452748.0102935     
   3757193835.2978497     
   2807967560.1917262     
   2758346922.2356052     
   2711669751.7470980     
   2667993631.1980524     
   2627388754.4070439     
   2981971257.6803169     
   2900801248.8432655     
   2826281668.7280660     
   2758543025.5879626     
   2697748071.1300344     
   3195174703.0013824     
   3080796209.5952740     
   2976437776.8941069     
   2882254048.9604249     
   2798478981.2235427     
   3452401332.7963977     
   3302451963.6473613     
   3165418049.7144246     
   3041430854.2689152     
   2930777776.5050597     
   3757193835.2978497     
   3568589746.4012442     
   3395257186.5442872     
   3237257697.8878984     
   3094914248.1136360     
   2627388754.4070439     
   2607978000.7415056     
   2595507296.2405210     
   2590132926.4659519     
   2592016195.3170781     
   2697748071.1300344     
   2659550897.5082140     
   2629111445.4433413     
   2606682419.2399969     
   2592533203.0967650     
   2798478981.2235427     
   2740059026.9844861     
   2689983189.0665574     
   2648606807.8181095     
   2616325756.0132184     
   2930777776.5050597     
   2850871355.3710423     
   2779641197.3662901     
   2717533836.9688926     
   2665072779.1031213     
   3094914248.1136360     
   2992440000.8449211     
   2898729716.2380614     
   2814292137.0336261     
   2739758376.3998556     
   2592016195.3170781     
   2589322377.6563869     
   2594896159.4478612     
   2608974287.3381991     
   2631795040.2944932     
   2592533203.0967650     
   2573238330.6766100     
   2561992514.7966866     
   2559085367.2517381     
   2564798191.0108252     
   2616325756.0132184     
   2580386525.2667432     
   2552178320.5305710     
   2532042946.8394508     
   2520315904.0740237     
   2665072779.1031213     
   2612874938.8365188     
   2567973561.5895066     
   2530747396.5423207     
   2501582487.4339681     
   2739758376.3998556     
   2672109193.8477674     
   2611223404.8809342     
   2557489303.5517468     
   2511324351.4611521     
   2631795040.2944932     
   2610970463.9995847     
   2599856199.9361906     
   2598491057.8245683     
   2606914380.4931078     
   2564798191.0108252     
   2531765195.1026616     
   2508824285.7711301     
   2496168442.3100739     
   2493968347.0854092     
   2520315904.0740237     
   2471913122.1596513     
   2433792055.4040804     
   2406341992.3247023     
   2389928149.3895888     
   2501582487.4339681     
   2434925628.2824416     
   2378429794.0616264     
   2332703018.8627882     
   2298360735.7380648     
   2511324351.4611521     
   2424064671.8009715     
   2346437948.8800793     
   2279248879.2811050     
   2223381784.6233335     
   2606914380.4931078     
   2596048649.9722843     
   2596120468.8934851     
   2607218630.0043440     
   2629438844.8430476     
   2493968347.0854092     
   2474572445.4837756     
   2467221113.9382372     
   2472065142.4838347     
   2489242890.8265615     
   2389928149.3895888     
   2359536112.8252592     
   2342454769.5200400     
   2338965373.4522104     
   2349307702.8462114     
   2298360735.7380648     
   2254043854.9888911     
   2224397408.6479859     
   2209939421.2739348     
   2211111324.1617308     
   2223381784.6233335     
   2161826398.6488256     
   2116260189.0414088     
   2087586607.0484099     
   2076606884.6992645     
   2629438844.8430476     
   2589434325.5709362     
   2555487563.2891874     
   2528180705.7451558     
   2508318397.9150510     
   2489242890.8265615     
   2455014022.7410893     
   2429489637.6668944     
   2413617944.6524515     
   2408781376.3642955     
   2349307702.8462114     
   2323408912.3451653     
   2309171556.2096281     
   2308002404.5791426     
   2322007335.0721698     
   2211111324.1617308     
   2195409528.7765441     
   2194823413.0323935     
   2211317056.7625775     
   2247840901.7675719     
   2076606884.6992645     
   2072004710.4123635     
   2086772269.3074467     
   2123522857.2261815     
   2186111756.2970281     
   2508318397.9150510     
   2357936035.9494419     
   2215721841.2025695     
   2086676054.4458349     
   1977706009.8052361     
   2408781376.3642955     
   2283486563.2101793     
   2168722548.3813229     
   2071240379.3017530     
   1999822610.9858742     
   2322007335.0721698     
   2225284232.9716787     
   2141942300.1661367     
   2080345064.8411422     
   2050657394.2025111     
   2247840901.7675719     
   2183121215.8237829     
   2134910416.0472317     
   2112858060.9616654     
   2127869951.4679632     
   2186111756.2970281     
   2156703698.6370730     
   2146978706.8629494     
   2167426694.8782167     
   2229070500.4213610     
   2837694071.8072786     
   3000779572.2613201     
   3233058776.0448618     
   3493452748.0102935     
   3757193835.2978497     
   2730169532.6643958     
   3033485572.1113100     
   3339416199.8043566     
   3643425310.3706603     
   3942666680.3645844     
   2923241649.8614450     
   3271776525.2205243     
   3600742692.5636821     
   3906654446.8253455     
   4192442967.3490748     
   3402976704.5645342     
   3689172194.7716422     
   3989919940.2887177     
   4264048613.3300424     
   4500919544.5300751     
   4144219060.8193903     
   4267845640.5619626     
   4485872137.6763935     
   4697699604.2227468     
   4861821489.7762966     
   3757193835.2978497     
   3568589746.4012442     
   3395257186.5442872     
   3237257697.8878984     
   3094914248.1136360     
   3942666680.3645844     
   3725001147.8035469     
   3522870590.3421106     
   3336365003.5092659     
   3166023912.3114700     
   4192442967.3490748     
   3938473666.3746142     
   3699405181.7923012     
   3475307600.0793586     
   3266923423.5845256     
   4500919544.5300751     
   4203742527.6711721     
   3920071817.6444016     
   3649853189.9624944     
   3393924060.4641480     
   4861821489.7762966     
   4515019488.8646736     
   4179760713.8714132     
   3855724673.4273911     
   3543651879.6379590     
   3094914248.1136360     
   2992440000.8449211     
   2898729716.2380614     
   2814292137.0336261     
   2739758376.3998556     
   3166023912.3114700     
   3051888153.6518221     
   2945202008.6919861     
   2846395812.9287696     
   2756021370.4710393     
   3266923423.5845256     
   3142723805.4445181     
   3025359843.4971428     
   2915072158.4802184     
   2812271874.2455087     
   3393924060.4641480     
   3261097566.1309209     
   3135257470.3091908     
   3016360387.1600666     
   2904629371.8527131     
   3543651879.6379590     
   3403219225.7392464     
   3270726000.9811707     
   3145761759.1296525     
   3028319393.8639450     
   2739758376.3998556     
   2672109193.8477674     
   2611223404.8809342     
   2557489303.5517468     
   2511324351.4611521     
   2756021370.4710393     
   2677616984.5759706     
   2604581041.8005271     
   2537350803.4333696     
   2476407074.3915234     
   2812271874.2455087     
   2723115279.8662219     
   2637823975.6181316     
   2556808492.0402331     
   2480534962.4316955     
   2904629371.8527131     
   2805678308.9957681     
   2709095782.9798617     
   2615201720.2249756     
   2524374544.9105015     
   3028319393.8639450     
   2921232204.4993443     
   2815137599.9260769     
   2710230760.1131167     
   2606759854.1624455     
   2511324351.4611521     
   2424064671.8009715     
   2346437948.8800793     
   2279248879.2811050     
   2223381784.6233335     
   2476407074.3915234     
   2369623352.2821698     
   2271601213.4414282     
   2183316666.5925522     
   2105917204.0510252     
   2480534962.4316955     
   2353426754.0716853     
   2233734357.8176374     
   2122483866.1997805     
   2020975687.6370351     
   2524374544.9105015     
   2377204652.4217525     
   2235769846.5725589     
   2100977147.7347741     
   1974076336.0027716     
   2606759854.1624455     
   2440719451.5980954     
   2278643042.4509974     
   2121168619.8976557     
   1969272840.2053602     
   2223381784.6233335     
   2161826398.6488256     
   2116260189.0414088     
   2087586607.0484099     
   2076606884.6992645     
   2105917204.0510252     
   2025671799.6831546     
   1958349733.9627061     
   1905128020.4282227     
   1867142618.3129482     
   2020975687.6370351     
   1921209200.9114947     
   1830454596.1304924     
   1749925879.3271077     
   1680938019.3787179     
   1974076336.0027716     
   1856938881.5071714     
   1744275639.3914394     
   1636923160.3268778     
   1535905533.8970723     
   1969272840.2053602     
   1840346644.9711676     
   1711624186.4753335     
   1583302404.0630829     
   1455679092.0214636     
   2076606884.6992645     
   2072004710.4123635     
   2086772269.3074467     
   2123522857.2261815     
   2186111756.2970281     
   1867142618.3129482     
   1856067628.5937788     
   1868083695.6762929     
   1905378367.8703172     
   1970991195.9327033     
   1680938019.3787179     
   1652218593.6096601     
   1651316544.7617881     
   1680585140.3606381     
   1742614051.0362017     
   1535905533.8970723     
   1475009082.4125588     
   1446854933.5938640     
   1455413115.3196476     
   1503944068.2530112     
   1455679092.0214636     
   1346766290.2449148     
   1272790816.4247787     
   1241911717.9616809     
   1261140447.7398319     
   2186111756.2970281     
   2156703698.6370730     
   2146978706.8629494     
   2167426694.8782167     
   2229070500.4213610     
   1970991195.9327033     
   1969123823.1021893     
   2003864209.4035013     
   2093860545.6065052     
   2257743028.1160846     
   1742614051.0362017     
   1787512793.1712773     
   1884595289.6421731     
   2060747408.1107094     
   2341196181.8628316     
   1503944068.2530112     
   1612575570.5747776     
   1788426076.9336290     
   2066215070.8463864     
   2476173403.3303471     
   1261140447.7398319     
   1445338148.0445712     
   1714790057.9631946     
   2110010550.9529862     
   2663481943.8690796     
   4144219060.8193903     
   4267845640.5619626     
   4485872137.6763935     
   4697699604.2227468     
   4861821489.7762966     
   4055932939.8004360     
   4191870783.1382036     
   4480491244.1625977     
   4767454078.5537577     
   4988345317.2614145     
   3903489427.1876755     
   3885679567.4154229     
   4214683108.9050927     
   4619828631.2943850     
   4979467575.8098984     
   3809791889.8610134     
   3381054453.5244646     
   3673275767.8868074     
   4236006632.9988565     
   4821657079.7694740     
   4378729424.2706175     
   3165401904.1904688     
   3076013273.8844218     
   3704642079.7166266     
   4552686096.1833134     
   4861821489.7762966     
   4515019488.8646736     
   4179760713.8714132     
   3855724673.4273911     
   3543651879.6379590     
   4988345317.2614145     
   4663021017.1312561     
   4337939896.6914616     
   4012705006.8212895     
   3686925191.9042687     
   4979467575.8098984     
   4693798649.1295118     
   4418952836.8402910     
   4148718442.0104408     
   3878434482.9414926     
   4821657079.7694740     
   4591832809.6428432     
   4408088492.2417860     
   4250599311.6518335     
   4105784496.0740318     
   4552686096.1833134     
   4369162727.4051132     
   4304297613.4522600     
   4311361328.4685411     
   4358240421.8769026     
   3543651879.6379590     
   3403219225.7392464     
   3270726000.9811707     
   3145761759.1296525     
   3028319393.8639450     
   3686925191.9042687     
   3541981717.5980577     
   3403118947.4007115     
   3270267752.9124103     
   3143589536.6810217     
   3878434482.9414926     
   3727976114.4428282     
   3581791584.5858941     
   3439991078.9003592     
   3302795650.5791330     
   4105784496.0740318     
   3950301431.0882416     
   3797393881.3644218     
   3647215117.2646122     
   3499959161.8382459     
   4358240421.8769026     
   4199333197.3064904     
   4041446103.2165904     
   3884675721.6128330     
   3729135480.2918549     
   3028319393.8639450     
   2921232204.4993443     
   2815137599.9260769     
   2710230760.1131167     
   2606759854.1624455     
   3143589536.6810217     
   3024497757.2061176     
   2907299444.8043327     
   2792433621.7069631     
   2680494003.0463395     
   3302795650.5791330     
   3164519401.4387698     
   3027758303.3222013     
   2893161517.4825335     
   2761708822.5929890     
   3499959161.8382459     
   3335272340.2145557     
   3170547264.0294828     
   3006546525.6357560     
   2844596157.4953237     
   3729135480.2918549     
   3531197492.4095130     
   3330693997.4206314     
   3128325798.9102144     
   2925602455.7205586     
   2606759854.1624455     
   2440719451.5980954     
   2278643042.4509974     
   2121168619.8976557     
   1969272840.2053602     
   2680494003.0463395     
   2509436379.0880313     
   2339037874.8923373     
   2169519508.9351668     
   2001197210.1493828     
   2761708822.5929890     
   2592883661.0848813     
   2423174947.1938553     
   2252488354.2241497     
   2080732336.1350136     
   2844596157.4953237     
   2685494076.6777320     
   2525704155.3266368     
   2364932567.4153762     
   2202987262.7027006     
   2925602455.7205586     
   2783230079.6972051     
   2642043626.6821213     
   2501548185.0180259     
   2361583218.0219035     
   1969272840.2053602     
   1840346644.9711676     
   1711624186.4753335     
   1583302404.0630829     
   1455679092.0214636     
   2001197210.1493828     
   1868081254.7221527     
   1735453552.9954510     
   1603348894.6416605     
   1471833779.4994822     
   2080732336.1350136     
   1945751881.8409204     
   1811819721.3004758     
   1678922795.8514130     
   1547079556.9398932     
   2202987262.7027006     
   2066881271.2750332     
   1932383073.7325957     
   1799489295.2539485     
   1668272169.2768698     
   2361583218.0219035     
   2223589309.0083070     
   2087567128.0772810     
   1953545873.1199894     
   1821699125.5282464     
   1455679092.0214636     
   1346766290.2449148     
   1272790816.4247787     
   1241911717.9616809     
   1261140447.7398319     
   1471833779.4994822     
   1327493079.3572164     
   1197558569.1526413     
   1086523045.3784859     
   1000295229.3066308     
   1547079556.9398932     
   1396972942.1086161     
   1243242735.1706476     
   1083639537.6817873     
   916147772.85606372     
   1668272169.2768698     
   1552439007.1350429     
   1427427508.4225061     
   1293672270.2117381     
   1157365051.3411641     
   1821699125.5282464     
   1780338342.6067348     
   1735363268.3388414     
   1695537394.1867621     
   1679434900.2178526     
   1261140447.7398319     
   1445338148.0445712     
   1714790057.9631946     
   2110010550.9529862     
   2663481943.8690796     
   1000295229.3066308     
   1163405799.2717865     
   1424630781.1175182     
   1808418972.7251213     
   2334869894.7513819     
   916147772.85606372     
   961899091.01503503     
   1144298258.1754653     
   1476390261.7721233     
   1957789929.6162102     
   1157365051.3411641     
   1007274565.9580466     
   984785877.29029763     
   1161795329.7153459     
   1544860528.0129063     
   1679434900.2178526     
   1382525470.7736847     
   1129218111.9654136     
   1011117341.9462556     
   1154724626.6962364     
 </DataArray>
 <DataArray  type="Float64" Name="strain" NumberOfComponents="3" format="ascii">
   3.0664484288323024E-004   3.8342751937538999E-002  -9.4005148882678746E-002
   1.6802764470822074E-002   1.1628589863955874E-002  -7.2907770413254247E-002
   3.3298884098760917E-002  -7.5003546150348432E-003  -5.9098830563863669E-002
   4.9795003726699816E-002  -1.9044081499432430E-002  -5.2578329334506874E-002
   6.6291123354638604E-002  -2.3002590789237831E-002  -5.3346266725184277E-002
   3.6295175523632817E-002   2.8917313804070699E-002  -6.4354139882093819E-002
   4.6518994716903017E-002   5.5325822189567497E-003  -4.8585536795575257E-002
   5.6742813910173218E-002  -1.1045606088908089E-002  -3.8073095958360087E-002
   6.6966633103443446E-002  -2.0817251119523192E-002  -3.2816817370447948E-002
   7.7190452296713674E-002  -2.3782352872889323E-002  -3.2816701031839091E-002
   5.8742912200189790E-002   1.9491875670602454E-002  -3.0984363234367818E-002
   6.4726707329522210E-002  -5.6342542604215229E-004  -2.1323209848099101E-002
   7.0710502458854629E-002  -1.4590857562780946E-002  -1.4885942340402358E-002
   7.6694297588187160E-002  -2.2590420739613842E-002  -1.1672560711278132E-002
   8.2678092717519580E-002  -2.4562114956540981E-002  -1.1683064960726353E-002
   6.7649854872554149E-002   1.0066437537134210E-002   6.1041810604988700E-003
   7.1425902308679790E-002  -6.6594330710411792E-003   8.8792104291750412E-003
   7.5201949744805222E-002  -1.8136109036654052E-002   1.0462630290009350E-002
   7.8977997180930848E-002  -2.4363590359704493E-002   1.0854440643002457E-002
   8.2754044617056349E-002  -2.5341877040192556E-002   1.0054641488153854E-002
   6.3016003540726062E-002   6.4099940366590946E-004   4.6911493002506965E-002
   6.6616579654375507E-002  -1.2755440716040123E-002   4.2021724036246544E-002
   7.0217155768025008E-002  -2.1681360510527214E-002   3.7972621932875372E-002
   7.3817731881674453E-002  -2.6136759979795199E-002   3.4764186692393673E-002
   7.7418307995323898E-002  -2.6121639123844131E-002   3.2396418314801112E-002
   6.6291123354638604E-002  -2.3002590789237831E-002  -5.3346266725184277E-002
   6.7623236768093953E-002  -2.3059292106308693E-002  -3.7976076316993790E-002
   6.8955350181549357E-002  -2.2897595072503663E-002  -2.6846963860958695E-002
   7.0287463595004762E-002  -2.2517499687822407E-002  -1.9958929357078881E-002
   7.1619577008460111E-002  -2.1919005952265591E-002  -1.7311972805354903E-002
   7.7190452296713674E-002  -2.3782352872889323E-002  -3.2816701031839091E-002
   7.4932545996959421E-002  -2.3272907777180218E-002  -2.2026666520082838E-002
   7.2674639697205140E-002  -2.2620912260569670E-002  -1.4175593482590038E-002
   7.0416733397450901E-002  -2.1826366323057497E-002  -9.2634819193610080E-003
   6.8158827097696661E-002  -2.0889269964643908E-002  -7.2903318303957909E-003
   8.2678092717519580E-002  -2.4562114956540981E-002  -1.1683064960726353E-002
   7.8132283182447651E-002  -2.3486523448051827E-002  -5.5490342753791999E-003
   7.3586473647375722E-002  -2.2344229448635566E-002  -1.0518485864035865E-003
   6.9040664112303821E-002  -2.1135232958292366E-002   1.8084921062004530E-003
   6.4494854577231836E-002  -1.9859533977022448E-002   3.0319878024324953E-003
   8.2754044617056349E-002  -2.5341877040192556E-002   1.0054641488153854E-002
   7.7222448324558657E-002  -2.3700139118923061E-002   1.1456820417117444E-002
   7.1690852032061020E-002  -2.2067546636701407E-002   1.2524270827601200E-002
   6.6159255739563369E-002  -2.0444099593527235E-002   1.3256992719605554E-002
   6.0627659447065732E-002  -1.8829797989400876E-002   1.3654986093130171E-002
   7.7418307995323898E-002  -2.6121639123844131E-002   3.2396418314801112E-002
   7.2203041423292535E-002  -2.3913754789794683E-002   2.8990897557406803E-002
   6.6987774851261089E-002  -2.1790863824767234E-002   2.6552764759424669E-002
   6.1772508279229713E-002  -1.9752966228762294E-002   2.5082019920854681E-002
   5.6557241707198336E-002  -1.7800062001779415E-002   2.4578663041696924E-002
   7.1619577008460111E-002  -2.1919005952265591E-002  -1.7311972805354903E-002
   6.9171011131844984E-002  -2.1201653672607235E-002  -1.5005788332442149E-002
   6.6722445255229912E-002  -2.0464982655622382E-002  -1.2719747543410986E-002
   6.4273879378614840E-002  -1.9708992901311430E-002  -1.0453850438260665E-002
   6.1825313501999712E-002  -1.8933684409672913E-002  -8.2080970169915446E-003
   6.8158827097696661E-002  -2.0889269964643908E-002  -7.2903318303957909E-003
   6.5699732099023522E-002  -1.9922719848322057E-002  -5.2099174892403233E-003
   6.3240637100350355E-002  -1.9039812637084930E-002  -3.1304177083198159E-003
   6.0781542101677202E-002  -1.8240548330931958E-002  -1.0518324876344770E-003
   5.8322447103004105E-002  -1.7524926929863405E-002   1.0258381728159849E-003
   6.4494854577231836E-002  -1.9859533977022448E-002   3.0319878024324953E-003
   6.2044459580146816E-002  -1.8643786024036962E-002   4.7836703694196514E-003
   5.9594064583061906E-002  -1.7614642618547019E-002   6.5536674998181305E-003
   5.7143669585976969E-002  -1.6772103760552815E-002   8.3419791936277243E-003
   5.4693274588892005E-002  -1.6116169450054174E-002   1.0148605450848475E-002
   6.0627659447065732E-002  -1.8829797989400876E-002   1.3654986093130171E-002
   5.8205193575215156E-002  -1.7364852199751660E-002   1.4974975243537886E-002
   5.5782727703364642E-002  -1.6189472600009282E-002   1.6332508081002891E-002
   5.3360261831514100E-002  -1.5303659190173508E-002   1.7727584605525620E-002
   5.0937795959663489E-002  -1.4707411970244583E-002   1.9160204817105737E-002
   5.6557241707198336E-002  -1.7800062001779415E-002   2.4578663041696924E-002
   5.4181934084228334E-002  -1.6085918375466551E-002   2.5363997133114047E-002
   5.1806626461258387E-002  -1.4764302581471420E-002   2.6206104035234851E-002
   4.9431318838288441E-002  -1.3835214619794419E-002   2.7104983748059433E-002
   4.7056011215318494E-002  -1.3298654490435380E-002   2.8060636271587669E-002
   6.1825313501999712E-002  -1.8933684409672913E-002  -8.2080970169915446E-003
   5.8503690825902677E-002  -1.8125869633634273E-002  -7.6442346473379885E-003
   5.5182068149805696E-002  -1.7272361026120814E-002  -6.4691637024612558E-003
   5.1860445473708633E-002  -1.6373158587132862E-002  -4.6828841823618461E-003
   4.8538822797611680E-002  -1.5428262316670605E-002  -2.2853960870383716E-003
   5.8322447103004105E-002  -1.7524926929863405E-002   1.0258381728159849E-003
   5.5543510197722967E-002  -1.6826107108598998E-002   1.4427384114219510E-003
   5.2764573292441830E-002  -1.6077247541857298E-002   2.3338016164359821E-003
   4.9985636387160720E-002  -1.5278348229638347E-002   3.6990277878587163E-003
   4.7206699481879610E-002  -1.4429409171942575E-002   5.5384169256903482E-003
   5.4693274588892005E-002  -1.6116169450054174E-002   1.0148605450848475E-002
   5.2319977845612153E-002  -1.5526344583563556E-002   1.0422889472408936E-002
   4.9946681102332371E-002  -1.4882134057593352E-002   1.1034290851563280E-002
   4.7573384359052513E-002  -1.4183537872143725E-002   1.1982809588311570E-002
   4.5200087615772738E-002  -1.3430556027214102E-002   1.3268445682653784E-002
   5.0937795959663489E-002  -1.4707411970244583E-002   1.9160204817105737E-002
   4.8833093769570429E-002  -1.4226582058528198E-002   1.9296218535623230E-002
   4.6728391579477294E-002  -1.3687020573329621E-002   1.9632304002919942E-002
   4.4623689389384165E-002  -1.3088727514648934E-002   2.0168461218996306E-002
   4.2518987199291071E-002  -1.2431702882486295E-002   2.0904690183851743E-002
   4.7056011215318494E-002  -1.3298654490435380E-002   2.8060636271587669E-002
   4.5082857969597545E-002  -1.2926819533492784E-002   2.8062725601064709E-002
   4.3109704723876568E-002  -1.2491907089065710E-002   2.8127841070506282E-002
   4.1136551478155564E-002  -1.1993917157154237E-002   2.8255982679913069E-002
   3.9163398232434643E-002  -1.1432849737758155E-002   2.8447150429284473E-002
   4.8538822797611680E-002  -1.5428262316670605E-002  -2.2853960870383716E-003
   4.6245422550879267E-002  -1.4474273509566427E-002  -1.1395869264858582E-003
   4.3952022304146909E-002  -1.3547793460655155E-002  -4.6456351223866932E-004
   4.1658622057414524E-002  -1.2648822169936069E-002  -2.6032584429724892E-004
   3.9365221810682138E-002  -1.1777359637409113E-002  -5.2687392266093092E-004
   4.7206699481879610E-002  -1.4429409171942575E-002   5.5384169256903482E-003
   4.4530684040039459E-002  -1.3556281064265097E-002   6.0833228852121835E-003
   4.1854668598199390E-002  -1.2684814602102634E-002   6.3337842008241996E-003
   3.9178653156359253E-002  -1.1815009785455091E-002   6.2898008725256749E-003
   3.6502637714519115E-002  -1.0946866614322426E-002   5.9513729003175531E-003
   4.5200087615772738E-002  -1.3430556027214102E-002   1.3268445682653784E-002
   4.2317798081220270E-002  -1.2638288618963767E-002   1.3238295553822638E-002
   3.9435508546667733E-002  -1.1821835743550557E-002   1.3090041883476622E-002
   3.6553219012115244E-002  -1.0981197400974335E-002   1.2823684671615820E-002
   3.3670929477562728E-002  -1.0116373591235517E-002   1.2439223918240594E-002
   4.2518987199291071E-002  -1.2431702882486295E-002   2.0904690183851743E-002
   3.9606764674421528E-002  -1.1720296173662215E-002   2.0325331079344838E-002
   3.6694542149552006E-002  -1.0958856884998258E-002   1.9804209535718952E-002
   3.3782319624682443E-002  -1.0147385016493468E-002   1.9341325552973368E-002
   3.0870097099812879E-002  -9.2858805681488299E-003   1.8936679131108414E-002
   3.9163398232434643E-002  -1.1432849737758155E-002   2.8447150429284473E-002
   3.6397583819643420E-002  -1.0802303728360885E-002   2.7344429461779562E-002
   3.3631769406852169E-002  -1.0095878026445904E-002   2.6476287157550793E-002
   3.0865954994060960E-002  -9.3135726320126982E-003   2.5842723516597804E-002
   2.8100140581269750E-002  -8.4553875450618099E-003   2.5443738538920568E-002
   3.9365221810682138E-002  -1.1777359637409113E-002  -5.2687392266093092E-004
   3.7085857629831853E-002  -1.0995953282687543E-002  -6.1797705677379966E-004
   3.4806493448981457E-002  -1.0367150525382396E-002  -6.4559323089019571E-004
   3.2527129268131116E-002  -9.8909513654932280E-003  -6.0972244500978601E-004
   3.0247765087280776E-002  -9.5673558030224815E-003  -5.1036469913334770E-004
   3.6502637714519115E-002  -1.0946866614322426E-002   5.9513729003175531E-003
   3.4266581512742256E-002  -1.0136382984599068E-002   5.7378361271274159E-003
   3.2030525310965396E-002  -9.4395567921805590E-003   5.5474283520876022E-003
   2.9794469109188482E-002  -8.8563880370647330E-003   5.3801495751975570E-003
   2.7558412907411678E-002  -8.3868767192540883E-003   5.2359997964579463E-003
   3.3670929477562728E-002  -1.0116373591235517E-002   1.2439223918240594E-002
   3.1437823293012923E-002  -9.2768126865111489E-003   1.2142199666086095E-002
   2.9204717108463063E-002  -8.5119630589782780E-003   1.1827946450235355E-002
   2.6971610923913245E-002  -7.8218247086362380E-003   1.1496464270688234E-002
   2.4738504739363398E-002  -7.2063976354858061E-003   1.1147753127445093E-002
   3.0870097099812879E-002  -9.2858805681488299E-003   1.8936679131108414E-002
   2.8599582970643717E-002  -8.4172423884233960E-003   1.8595113560101934E-002
   2.6329068841474575E-002  -7.5843693257757749E-003   1.8195961063553270E-002
   2.4058554712305367E-002  -6.7872613802072990E-003   1.7739221641462133E-002
   2.1788040583136159E-002  -6.0259185517174685E-003   1.7224895293828313E-002
   2.8100140581269750E-002  -8.4553875450618099E-003   2.5443738538920568E-002
   2.5751860545634775E-002  -7.5576720903350325E-003   2.5096577809175957E-002
   2.3403580509999744E-002  -6.6567755925740213E-003   2.4651472192041723E-002
   2.1055300474364796E-002  -5.7526980517787138E-003   2.4108421687518755E-002
   1.8707020438729793E-002  -4.8454394679492419E-003   2.3467426295606941E-002
   3.0247765087280776E-002  -9.5673558030224815E-003  -5.1036469913334770E-004
   2.9620702307203595E-002  -9.1139423381083606E-003  -3.1899671814539232E-004
   2.8993639527126414E-002  -8.2482894708928445E-003  -1.7964092109781227E-003
   2.8366576747049232E-002  -6.9703972013754334E-003  -4.9426021776316498E-003
   2.7739513966972051E-002  -5.2802655295558498E-003  -9.7575756181058626E-003
   2.7558412907411678E-002  -8.3868767192540883E-003   5.2359997964579463E-003
   2.5529640315882174E-002  -7.8661845042169443E-003   5.8780117686636491E-003
   2.3500867724352670E-002  -7.1294730574252285E-003   5.3853845917849474E-003
   2.1472095132823166E-002  -6.1767423788762349E-003   3.7581182658226187E-003
   1.9443322541293773E-002  -5.0079924685726418E-003   9.9621279077566349E-004
   2.4738504739363398E-002  -7.2063976354858061E-003   1.1147753127445093E-002
   2.1842163661118102E-002  -6.6184266703260830E-003   1.2044188920322829E-002
   1.8945822582872807E-002  -6.0106566439569464E-003   1.2340126888852443E-002
   1.6049481504627483E-002  -5.3830875563777025E-003   1.2035567033034350E-002
   1.3153140426382270E-002  -4.7357194075897668E-003   1.1130509352868800E-002
   2.1788040583136159E-002  -6.0259185517174685E-003   1.7224895293828313E-002
   1.8558272342911443E-002  -5.3706688364349442E-003   1.8179534736831329E-002
   1.5328504102686782E-002  -4.8918402304894415E-003   1.9067817680223115E-002
   1.2098735862462066E-002  -4.5894327338797253E-003   1.9889744124004051E-002
   8.8689676222374059E-003  -4.4634463466071694E-003   2.0645314068173312E-002
   1.8707020438729793E-002  -4.8454394679492419E-003   2.3467426295606941E-002
   1.5677966361262174E-002  -4.1229110025438054E-003   2.4284049218189829E-002
   1.2648912283794528E-002  -3.7730238170216035E-003   2.5568456965897768E-002
   9.6198582063268534E-003  -3.7957779113810541E-003   2.7320649538730923E-002
   6.5908041288592623E-003  -4.1911732856242390E-003   2.9540626936689240E-002
   2.7739513966972051E-002  -5.2802655295558498E-003  -9.7575756181058626E-003
   2.3331418743146370E-002  -4.1984040750340235E-003  -4.1988687461567142E-003
   1.8923323519320689E-002  -4.7453224574106057E-003   2.6143151237799644E-003
   1.4515228295495008E-002  -6.9210206766849441E-003   1.0681975991702897E-002
   1.0107133071669328E-002  -1.0725498732857552E-002   2.0004113857613248E-002
   1.9443322541293773E-002  -5.0079924685726418E-003   9.9621279077566349E-004
   1.6218418237706644E-002  -4.6887751947314316E-003   6.7177107249541956E-003
   1.2993513934119405E-002  -6.2846424255708078E-003   1.3551113501622636E-002
   9.7686096305321102E-003  -9.7955941610914088E-003   2.1496421120779985E-002
   6.5437053269450374E-003  -1.5221630401292430E-002   3.0553633582428574E-002
   1.3153140426382270E-002  -4.7357194075897668E-003   1.1130509352868800E-002
   1.0968854887536461E-002  -5.1791463144288397E-003   1.6728493681492762E-002
   8.7845693486907628E-003  -7.8239623937314262E-003   2.3295810697109925E-002
   6.6002838098450645E-003  -1.2670167645496756E-002   3.0832460399720166E-002
   4.4159982709992551E-003  -1.9717762069727307E-002   3.9338442789322192E-002
   8.8689676222374059E-003  -4.4634463466071694E-003   2.0645314068173312E-002
   7.5827286926360288E-003  -5.6695174341260257E-003   2.5833480123459984E-002
   6.2964897630347072E-003  -9.3632823618913924E-003   3.1848406710243270E-002
   5.0102508334334966E-003  -1.5544741129903328E-002   3.8690093828522232E-002
   3.7240119038318975E-003  -2.4213893738162184E-002   4.6358541478296988E-002
   6.5908041288592623E-003  -4.1911732856242390E-003   2.9540626936689240E-002
   6.0600396530053335E-003  -6.1598885538233228E-003   3.4032670050856528E-002
   5.5292751771513771E-003  -1.0902602330051164E-002   3.9208901541021801E-002
   4.9985107012973512E-003  -1.8419314614309519E-002   4.5069321407187252E-002
   4.4677462254435474E-003  -2.8710025406597062E-002   5.1613929649350965E-002
   6.3016003540726062E-002   6.4099940366590946E-004   4.6911493002506965E-002
   6.6616579654375507E-002  -1.2755440716040123E-002   4.2021724036246544E-002
   7.0217155768025008E-002  -2.1681360510527214E-002   3.7972621932875372E-002
   7.3817731881674453E-002  -2.6136759979795199E-002   3.4764186692393673E-002
   7.7418307995323898E-002  -2.6121639123844131E-002   3.2396418314801112E-002
   5.2552199771140895E-002  -6.3628215250725040E-003   3.6395706647127324E-002
   5.6772538143589457E-002  -1.4995519936811808E-002   3.6900797714148142E-002
   6.0992876516038103E-002  -2.0628987656384934E-002   3.7804746435877529E-002
   6.5213214888486665E-002  -2.3263224683791509E-002   3.9107552812315940E-002
   6.9433553260935255E-002  -2.2898231019031656E-002   4.0809216843463114E-002
   4.3969285130234376E-002  -1.3366642453810862E-002   3.1379306816240793E-002
   4.8367576553301636E-002  -1.7235599157583589E-002   3.5807968283489949E-002
   5.2765867976368841E-002  -1.9576614802242570E-002   4.0193678197267463E-002
   5.7164159399436032E-002  -2.0389689387787763E-002   4.4536436557573306E-002
   6.1562450822503265E-002  -1.9674822914219126E-002   4.8836243364407547E-002
   3.7267259618006518E-002  -2.0370463382549275E-002   3.1862293509847206E-002
   4.1401694883511850E-002  -1.9475678378355309E-002   3.8743235744272006E-002
   4.5536130149017237E-002  -1.8524241948100220E-002   4.5139417217044925E-002
   4.9670565414522597E-002  -1.7516154091783989E-002   5.1050837928165838E-002
   5.3805000680027984E-002  -1.6451414809406595E-002   5.6477497877634383E-002
   3.2446123234457225E-002  -2.7374284311287633E-002   3.7844666727946730E-002
   3.5874893134220209E-002  -2.1715757599127028E-002   4.5706600096494743E-002
   3.9303663033983277E-002  -1.7471869093957898E-002   5.2641963495210331E-002
   4.2732432933746317E-002  -1.4642618795780361E-002   5.8650756924093300E-002
   4.6161202833509385E-002  -1.3228006704594120E-002   6.3732980383143678E-002
   7.7418307995323898E-002  -2.6121639123844131E-002   3.2396418314801112E-002
   7.2203041423292535E-002  -2.3913754789794683E-002   2.8990897557406803E-002
   6.6987774851261089E-002  -2.1790863824767234E-002   2.6552764759424669E-002
   6.1772508279229713E-002  -1.9752966228762294E-002   2.5082019920854681E-002
   5.6557241707198336E-002  -1.7800062001779415E-002   2.4578663041696924E-002
   6.9433553260935255E-002  -2.2898231019031656E-002   4.0809216843463114E-002
   6.5133704703432271E-002  -2.1070285676529174E-002   3.7386218084290115E-002
   6.0833856145929399E-002  -1.9315667670707373E-002   3.4826667394761895E-002
   5.6534007588426471E-002  -1.7634377001566452E-002   3.3130564774878316E-002
   5.2234159030923544E-002  -1.6026413669106454E-002   3.2297910224639431E-002
   6.1562450822503265E-002  -1.9674822914219126E-002   4.8836243364407547E-002
   5.8074080389761279E-002  -1.8226816563263443E-002   4.5407432635797315E-002
   5.4585709957019300E-002  -1.6840471516647186E-002   4.2738130087064043E-002
   5.1097339524277322E-002  -1.5515787774370555E-002   4.0828335718208278E-002
   4.7608969091535336E-002  -1.4252765336433493E-002   3.9678049529229556E-002
   5.3805000680027984E-002  -1.6451414809406595E-002   5.6477497877634383E-002
   5.1024168482279426E-002  -1.5383347449997684E-002   5.3054541211928180E-002
   4.8243336284530904E-002  -1.4365275362587190E-002   5.0287152836331589E-002
   4.5462504086782353E-002  -1.3397198547174673E-002   4.8175332750844679E-002
   4.2681671889033823E-002  -1.2479117003760531E-002   4.6719080955467479E-002
   4.6161202833509385E-002  -1.3228006704594120E-002   6.3732980383143678E-002
   4.3983968980986762E-002  -1.2539878336732202E-002   6.0327543812682849E-002
   4.1806735128464140E-002  -1.1890079208527096E-002   5.7473735642564056E-002
   3.9629501275941517E-002  -1.1278609319978889E-002   5.5171555872787700E-002
   3.7452267423418895E-002  -1.0705468671087626E-002   5.3421004503353242E-002
   5.6557241707198336E-002  -1.7800062001779415E-002   2.4578663041696924E-002
   5.4181934084228334E-002  -1.6085918375466551E-002   2.5363997133114047E-002
   5.1806626461258387E-002  -1.4764302581471420E-002   2.6206104035234851E-002
   4.9431318838288441E-002  -1.3835214619794419E-002   2.7104983748059433E-002
   4.7056011215318494E-002  -1.3298654490435380E-002   2.8060636271587669E-002
   5.2234159030923544E-002  -1.6026413669106454E-002   3.2297910224639431E-002
   4.9945123992351875E-002  -1.4600865089371695E-002   3.2468621826093697E-002
   4.7656088953780193E-002  -1.3466818678407030E-002   3.2755105785641045E-002
   4.5367053915208490E-002  -1.2624274436212137E-002   3.3157362103281275E-002
   4.3078018876636842E-002  -1.2073232362787290E-002   3.3675390779013992E-002
   4.7608969091535336E-002  -1.4252765336433493E-002   3.9678049529229556E-002
   4.5465206184751084E-002  -1.3115811803277075E-002   3.9335164304269254E-002
   4.3321443277966831E-002  -1.2169334775342537E-002   3.9167050984790959E-002
   4.1177680371182593E-002  -1.1413334252629912E-002   3.9173709570794621E-002
   3.9033917464398341E-002  -1.0847810235139227E-002   3.9355140062280428E-002
   4.2681671889033823E-002  -1.2479117003760531E-002   4.6719080955467479E-002
   4.0742180661426139E-002  -1.1630758517182559E-002   4.5963624567640610E-002
   3.8802689433818427E-002  -1.0871850872278040E-002   4.5441939632684614E-002
   3.6863198206210708E-002  -1.0202394069047799E-002   4.5154026150600032E-002
   3.4923706978603031E-002  -9.6223881074911505E-003   4.5099884121386311E-002
   3.7452267423418895E-002  -1.0705468671087626E-002   5.3421004503353242E-002
   3.5776047422376889E-002  -1.0145705231087598E-002   5.2354002616207485E-002
   3.4099827421334883E-002  -9.5743669692136130E-003   5.1579771729322238E-002
   3.2423607420292835E-002  -8.9914538854653676E-003   5.1098311842697045E-002
   3.0747387419250843E-002  -8.3969659798431850E-003   5.0909622956332168E-002
   4.7056011215318494E-002  -1.3298654490435380E-002   2.8060636271587669E-002
   4.5082857969597545E-002  -1.2926819533492784E-002   2.8062725601064709E-002
   4.3109704723876568E-002  -1.2491907089065710E-002   2.8127841070506282E-002
   4.1136551478155564E-002  -1.1993917157154237E-002   2.8255982679913069E-002
   3.9163398232434643E-002  -1.1432849737758155E-002   2.8447150429284473E-002
   4.3078018876636842E-002  -1.2073232362787290E-002   3.3675390779013992E-002
   4.1179143513241256E-002  -1.1650514642819965E-002   3.3671588251964146E-002
   3.9280268149845629E-002  -1.1192943460998472E-002   3.3753315349599911E-002
   3.7381392786450050E-002  -1.0700518817322688E-002   3.3920572071921770E-002
   3.5482517423054444E-002  -1.0173240711792764E-002   3.4173358418929489E-002
   3.9033917464398341E-002  -1.0847810235139227E-002   3.9355140062280428E-002
   3.7231823468049152E-002  -1.0374209752147395E-002   3.9317221653073109E-002
   3.5429729471699964E-002  -9.8939798329312975E-003   3.9387336353272885E-002
   3.3627635475350713E-002  -9.4071204774913066E-003   3.9565484162879389E-002
   3.1825541479001532E-002  -8.9136316858273168E-003   3.9851665081893112E-002
   3.4923706978603031E-002  -9.6223881074911505E-003   4.5099884121386311E-002
   3.3240897834021191E-002  -9.0979048614745345E-003   4.4999625804391832E-002
   3.1558088689439406E-002  -8.5950162048642857E-003   4.5029904081525164E-002
   2.9875279544857573E-002  -8.1137221376598422E-003   4.5190718952786708E-002
   2.8192470400275772E-002  -7.6540226598618977E-003   4.5482070418175702E-002
   3.0747387419250843E-002  -8.3969659798431850E-003   5.0909622956332168E-002
   2.9206366611157442E-002  -7.8215999708020068E-003   5.0718800705920053E-002
   2.7665345803064081E-002  -7.2960525767968853E-003   5.0681018534356859E-002
   2.6124324994970687E-002  -6.8203237978283759E-003   5.0796276441642529E-002
   2.4583304186877292E-002  -6.3944136338964785E-003   5.1064574427777232E-002
   3.9163398232434643E-002  -1.1432849737758155E-002   2.8447150429284473E-002
   3.6397583819643420E-002  -1.0802303728360885E-002   2.7344429461779562E-002
   3.3631769406852169E-002  -1.0095878026445904E-002   2.6476287157550793E-002
   3.0865954994060960E-002  -9.3135726320126982E-003   2.5842723516597804E-002
   2.8100140581269750E-002  -8.4553875450618099E-003   2.5443738538920568E-002
   3.5482517423054444E-002  -1.0173240711792764E-002   3.4173358418929489E-002
   3.2950347008424669E-002  -9.5940159721591423E-003   3.3166067401072530E-002
   3.0418176593794838E-002  -8.9457514261722243E-003   3.2391485716262824E-002
   2.7886006179165049E-002  -8.2284470738325961E-003   3.1849613364499998E-002
   2.5353835764535232E-002  -7.4421029151393592E-003   3.1540450345783844E-002
   3.1825541479001532E-002  -8.9136316858273168E-003   3.9851665081893112E-002
   2.9525145732304039E-002  -8.3857282159570667E-003   3.8932964127519773E-002
   2.7224749985606554E-002  -7.7956248258985450E-003   3.8245103175964107E-002
   2.4924354238909038E-002  -7.1433215156518279E-003   3.7788082227226169E-002
   2.2623958492211521E-002  -6.4288182852168529E-003   3.7561901281306181E-002
   2.8192470400275772E-002  -7.6540226598618977E-003   4.5482070418175702E-002
   2.6121979991281564E-002  -7.1774404597552133E-003   4.4645119641120834E-002
   2.4051489582287276E-002  -6.6454982256249767E-003   4.4037139536654869E-002
   2.1980999173293016E-002  -6.0581959574713927E-003   4.3658130104777038E-002
   1.9910508764298777E-002  -5.4155336552942634E-003   4.3508091345488088E-002
   2.4583304186877292E-002  -6.3944136338964785E-003   5.1064574427777232E-002
   2.2740849785357176E-002  -5.9691527035531933E-003   5.0302533941876226E-002
   2.0898395383837046E-002  -5.4953716253514362E-003   4.9767594798334536E-002
   1.9055940982316909E-002  -4.9730703992908534E-003   4.9459756997152438E-002
   1.7213486580796772E-002  -4.4022490253717850E-003   4.9379020538330098E-002
   2.8100140581269750E-002  -8.4553875450618099E-003   2.5443738538920568E-002
   2.5751860545634775E-002  -7.5576720903350325E-003   2.5096577809175957E-002
   2.3403580509999744E-002  -6.6567755925740213E-003   2.4651472192041723E-002
   2.1055300474364796E-002  -5.7526980517787138E-003   2.4108421687518755E-002
   1.8707020438729793E-002  -4.8454394679492419E-003   2.3467426295606941E-002
   2.5353835764535232E-002  -7.4421029151393592E-003   3.1540450345783844E-002
   2.2956332937326962E-002  -6.6325008726149104E-003   3.1248767758437213E-002
   2.0558830110118734E-002  -5.8454228687809251E-003   3.0956584475333643E-002
   1.8161327282910443E-002  -5.0808689036367788E-003   3.0663900496471816E-002
   1.5763824455702236E-002  -4.3388389771827907E-003   3.0370715821852912E-002
   2.2623958492211521E-002  -6.4288182852168529E-003   3.7561901281306181E-002
   2.0274677065061461E-002  -5.7073296548949826E-003   3.7299991754634054E-002
   1.7925395637911387E-002  -5.0340701449875097E-003   3.7135025723835660E-002
   1.5576114210761320E-002  -4.4090397554947362E-003   3.7067003188911311E-002
   1.3226832783611212E-002  -3.8322384864162840E-003   3.7095924149861070E-002
   1.9910508764298777E-002  -5.4155336552942634E-003   4.3508091345488088E-002
   1.7706892928838258E-002  -4.7821584371749021E-003   4.3250249797766052E-002
   1.5503277093377784E-002  -4.2227174211946980E-003   4.3186795937549191E-002
   1.3299661257917263E-002  -3.7372106073527474E-003   4.3317729764837401E-002
   1.1096045422456791E-002  -3.3256379956498050E-003   4.3643051279631501E-002
   1.7213486580796772E-002  -4.4022490253717850E-003   4.9379020538330098E-002
   1.5252980528657339E-002  -3.8569872194549881E-003   4.9099541887833498E-002
   1.3292474476517865E-002  -3.4113646974010814E-003   4.9111895116473570E-002
   1.1331968424378412E-002  -3.0653814592106685E-003   4.9416080224250314E-002
   9.3714623722389589E-003  -2.8190375048833261E-003   5.0012097211164064E-002
   1.8707020438729793E-002  -4.8454394679492419E-003   2.3467426295606941E-002
   1.5677966361262174E-002  -4.1229110025438054E-003   2.4284049218189829E-002
   1.2648912283794528E-002  -3.7730238170216035E-003   2.5568456965897768E-002
   9.6198582063268534E-003  -3.7957779113810541E-003   2.7320649538730923E-002
   6.5908041288592623E-003  -4.1911732856242390E-003   2.9540626936689240E-002
   1.5763824455702236E-002  -4.3388389771827907E-003   3.0370715821852912E-002
   1.3184960660194089E-002  -3.8249889989047103E-003   3.1172709943434573E-002
   1.0606096864686013E-002  -3.7449748782868719E-003   3.2407299803809853E-002
   8.0272330691778387E-003  -4.0987966153305591E-003   3.4074485402978999E-002
   5.4483692736697897E-003  -4.8864542100347519E-003   3.6174266740942151E-002
   1.3226832783611212E-002  -3.8322384864162840E-003   3.7095924149861070E-002
   1.1062970183731161E-002  -3.5270669952648381E-003   3.7822094892663471E-002
   8.8991075838510403E-003  -3.7169259395524734E-003   3.8945672287927974E-002
   6.7352449839709824E-003  -4.4018153192791759E-003   4.0466656335655077E-002
   4.5713823840908691E-003  -5.5817351344452093E-003   4.2385047035844309E-002
   1.1096045422456791E-002  -3.3256379956498050E-003   4.3643051279631501E-002
   9.3119949318732388E-003  -3.2291449916249659E-003   4.4232204065876225E-002
   7.5279444412896870E-003  -3.6888770008177973E-003   4.5183574418251909E-002
   5.7438939507061058E-003  -4.7048340232280147E-003   4.6497162336758262E-002
   3.9598434601226355E-003  -6.2770160588554724E-003   4.8172967821395775E-002
   9.3714623722389589E-003  -2.8190375048833261E-003   5.0012097211164064E-002
   7.9320349046204386E-003  -2.9312229879858709E-003   5.0403037463073064E-002
   6.4926074370019182E-003  -3.6608280620833433E-003   5.1121006194781660E-002
   5.0531799693833979E-003  -5.0078527271770756E-003   5.2166003406289407E-002
   3.6137525017648775E-003  -6.9722969832661796E-003   5.3538029097596418E-002
   6.5908041288592623E-003  -4.1911732856242390E-003   2.9540626936689240E-002
   6.0600396530053335E-003  -6.1598885538233228E-003   3.4032670050856528E-002
   5.5292751771513771E-003  -1.0902602330051164E-002   3.9208901541021801E-002
   4.9985107012973512E-003  -1.8419314614309519E-002   4.5069321407187252E-002
   4.4677462254435474E-003  -2.8710025406597062E-002   5.1613929649350965E-002
   5.4483692736697897E-003  -4.8864542100347519E-003   3.6174266740942151E-002
   5.4983683816667850E-003  -7.0106660848564539E-003   3.8321697423270407E-002
   5.5483674896637941E-003  -1.1374150662251309E-002   4.0946466897301359E-002
   5.5983665976608310E-003  -1.7976907942219782E-002   4.4048575163036036E-002
   5.6483657056578540E-003  -2.6818937924761643E-002   4.7628022220473021E-002
   4.5713823840908691E-003  -5.5817351344452093E-003   4.2385047035844309E-002
   4.9952954916430287E-003  -7.8614436158893075E-003   4.2722591091790080E-002
   5.4192085991951952E-003  -1.1845698994450996E-002   4.3330624355142580E-002
   5.8431217067473999E-003  -1.7534501270129819E-002   4.4209146825902552E-002
   6.2670348142995214E-003  -2.4927850442926003E-002   4.5358158504069435E-002
   3.9598434601226355E-003  -6.2770160588554724E-003   4.8172967821395775E-002
   4.5508209829339986E-003  -8.7122211469224109E-003   4.7235351056414722E-002
   5.1417985057453635E-003  -1.2317247326650689E-002   4.6361373914545131E-002
   5.7327760285567934E-003  -1.7092094598039856E-002   4.5551036395786608E-002
   6.3237535513681470E-003  -2.3036762961090473E-002   4.4804338500139068E-002
   3.6137525017648775E-003  -6.9722969832661796E-003   5.3538029097596418E-002
   4.1649448555396984E-003  -9.5629986779555143E-003   5.1859977317144867E-002
   4.7161372093145471E-003  -1.2788795658850605E-002   5.0038715575508763E-002
   5.2673295630893957E-003  -1.6649687925949952E-002   4.8074243872688549E-002
   5.8185219168641611E-003  -2.1145675479254944E-002   4.5966562208683115E-002
   3.2446123234457225E-002  -2.7374284311287633E-002   3.7844666727946730E-002
   3.5874893134220209E-002  -2.1715757599127028E-002   4.5706600096494743E-002
   3.9303663033983277E-002  -1.7471869093957898E-002   5.2641963495210331E-002
   4.2732432933746317E-002  -1.4642618795780361E-002   5.8650756924093300E-002
   4.6161202833509385E-002  -1.3228006704594120E-002   6.3732980383143678E-002
   2.8480358244221876E-002  -2.0307913566135594E-002   4.1250437614170243E-002
   3.1094246338860904E-002  -1.6776910538582573E-002   4.7916171931081913E-002
   3.3708134433499848E-002  -1.4106751052626654E-002   5.3878712607578150E-002
   3.6322022528138855E-002  -1.2297435108268001E-002   5.9138059643658702E-002
   3.8935910622777847E-002  -1.1348962705506449E-002   6.3694213039323599E-002
   2.4344446911936171E-002  -1.3241542820983554E-002   4.2251787483089054E-002
   2.6366829530868038E-002  -1.1838063478038008E-002   4.8275117413758839E-002
   2.8389212149799885E-002  -1.0741633011295423E-002   5.3818630033429890E-002
   3.0411594768731783E-002  -9.9522514207556929E-003   5.8882325342102367E-002
   3.2433977387663640E-002  -9.4699187064188339E-003   6.3466203339776220E-002
   2.0038389237599891E-002  -6.1751720758314865E-003   4.0848716334703251E-002
   2.1692642710241648E-002  -6.8992164174934978E-003   4.6783436544525159E-002
   2.3346896182883388E-002  -7.3765149699641860E-003   5.2461715772765483E-002
   2.5001149655525152E-002  -7.6070677332433310E-003   5.7883554019424167E-002
   2.6655403128166912E-002  -7.5908747073311078E-003   6.3048951284501151E-002
   1.5562185221213165E-002   8.9119866932052538E-004   3.7041224169012787E-002
   1.7071685876981768E-002  -1.9603693569489322E-003   4.3441129323381289E-002
   1.8581186532750343E-002  -4.0113969286329765E-003   4.9807969825584941E-002
   2.0090687188518946E-002  -5.2618840457311009E-003   5.6141745675624161E-002
   2.1600187844287549E-002  -5.7118307082435482E-003   6.2442456873498642E-002
   4.6161202833509385E-002  -1.3228006704594120E-002   6.3732980383143678E-002
   4.3983968980986762E-002  -1.2539878336732202E-002   6.0327543812682849E-002
   4.1806735128464140E-002  -1.1890079208527096E-002   5.7473735642564056E-002
   3.9629501275941517E-002  -1.1278609319978889E-002   5.5171555872787700E-002
   3.7452267423418895E-002  -1.0705468671087626E-002   5.3421004503353242E-002
   3.8935910622777847E-002  -1.1348962705506449E-002   6.3694213039323599E-002
   3.7250764502391662E-002  -1.0839434647449200E-002   6.0924907582540475E-002
   3.5565618382005462E-002  -1.0346951737202792E-002   5.8588149189688160E-002
   3.3880472261619304E-002  -9.8715139747676262E-003   5.6683937860766365E-002
   3.2195326141233105E-002  -9.4131213601433839E-003   5.5212273595775518E-002
   3.2433977387663640E-002  -9.4699187064188339E-003   6.3466203339776220E-002
   3.1121837663002468E-002  -9.1389909581660600E-003   6.1354313088516521E-002
   2.9809697938341324E-002  -8.8038242658785362E-003   5.9555888564776248E-002
   2.8497558213680167E-002  -8.4644186295561950E-003   5.8070929768555185E-002
   2.7185418489019009E-002  -8.1207740491991143E-003   5.6899436699853409E-002
   2.6655403128166912E-002  -7.5908747073311078E-003   6.3048951284501151E-002
   2.5597188462819321E-002  -7.4385472688829890E-003   6.1615760330610878E-002
   2.4538973797471712E-002  -7.2606967945543117E-003   6.0376953767828583E-002
   2.3480759132124135E-002  -7.0573232843448479E-003   5.9332531596153974E-002
   2.2422544466776516E-002  -6.8284267382547753E-003   5.8482493815587414E-002
   2.1600187844287549E-002  -5.7118307082435482E-003   6.2442456873498642E-002
   2.0676816901842088E-002  -5.7381035795998903E-003   6.1709249308823544E-002
   1.9753445959396619E-002  -5.7175693232300179E-003   6.1051344798845025E-002
   1.8830075016951168E-002  -5.6502279391334002E-003   6.0468743343562850E-002
   1.7906704074505703E-002  -5.5360794273106029E-003   5.9961444942977005E-002
   3.7452267423418895E-002  -1.0705468671087626E-002   5.3421004503353242E-002
   3.5776047422376889E-002  -1.0145705231087598E-002   5.2354002616207485E-002
   3.4099827421334883E-002  -9.5743669692136130E-003   5.1579771729322238E-002
   3.2423607420292835E-002  -8.9914538854653676E-003   5.1098311842697045E-002
   3.0747387419250843E-002  -8.3969659798431850E-003   5.0909622956332168E-002
   3.2195326141233105E-002  -9.4131213601433839E-003   5.5212273595775518E-002
   3.0797324499729481E-002  -8.9551206230015501E-003   5.4391670805239822E-002
   2.9399322858225871E-002  -8.4808584930130548E-003   5.3834733733520906E-002
   2.8001321216722254E-002  -7.9903349701780091E-003   5.3541462380618521E-002
   2.6603319575218637E-002  -7.4835500544967459E-003   5.3511856746532527E-002
   2.7185418489019009E-002  -8.1207740491991143E-003   5.6899436699853409E-002
   2.6036529925610036E-002  -7.7645360149152243E-003   5.6329919576900422E-002
   2.4887641362201118E-002  -7.3873500168123787E-003   5.5994962891320242E-002
   2.3738752798792173E-002  -6.9892160548907598E-003   5.5894566643112820E-002
   2.2589864235383235E-002  -6.5701341291502513E-003   5.6028730832278162E-002
   2.2422544466776516E-002  -6.8284267382547753E-003   5.8482493815587414E-002
   2.1493663700018560E-002  -6.5739514068288984E-003   5.8168748931189257E-002
   2.0564782933260594E-002  -6.2938415406117339E-003   5.8060459202720037E-002
   1.9635902166502631E-002  -5.9880971396034559E-003   5.8157624630180017E-002
   1.8707021399744672E-002  -5.6567182038038955E-003   5.8460245213569240E-002
   1.7906704074505703E-002  -5.5360794273106029E-003   5.9961444942977005E-002
   1.7168725822955005E-002  -5.3833667987427947E-003   5.9908158868106021E-002
   1.6430747571404294E-002  -5.2003330644111029E-003   6.0031222667720402E-002
   1.5692769319853590E-002  -4.9869782243159473E-003   6.0330636341820218E-002
   1.4954791068302886E-002  -4.7433022784573731E-003   6.0806399890405316E-002
   3.0747387419250843E-002  -8.3969659798431850E-003   5.0909622956332168E-002
   2.9206366611157442E-002  -7.8215999708020068E-003   5.0718800705920053E-002
   2.7665345803064081E-002  -7.2960525767968853E-003   5.0681018534356859E-002
   2.6124324994970687E-002  -6.8203237978283759E-003   5.0796276441642529E-002
   2.4583304186877292E-002  -6.3944136338964785E-003   5.1064574427777232E-002
   2.6603319575218637E-002  -7.4835500544967459E-003   5.3511856746532527E-002
   2.5220700310713925E-002  -6.9789306536457707E-003   5.3421802946285207E-002
   2.3838081046209228E-002  -6.4949036753016998E-003   5.3495512154366348E-002
   2.2455461781704551E-002  -6.0314691194651993E-003   5.3732984370775755E-002
   2.1072842517199819E-002  -5.5886269861358251E-003   5.4134219595513844E-002
   2.2589864235383235E-002  -6.5701341291502513E-003   5.6028730832278162E-002
   2.1376369443946747E-002  -6.1362613364894791E-003   5.6068671674724735E-002
   2.0162874652510227E-002  -5.6937547738065142E-003   5.6283098454979377E-002
   1.8949379861073722E-002  -5.2426144411017450E-003   5.6672011173041784E-002
   1.7735885069637199E-002  -4.7828403383751716E-003   5.7235409828912204E-002
   1.8707021399744672E-002  -5.6567182038038955E-003   5.8460245213569240E-002
   1.7673374010855829E-002  -5.2935920193332153E-003   5.8659406891238913E-002
   1.6639726621967051E-002  -4.8926058723113286E-003   5.9043777436195807E-002
   1.5606079233078265E-002  -4.4537597627384851E-003   5.9613356848440394E-002
   1.4572431844189432E-002  -3.9770536906145182E-003   6.0368145127972388E-002
   1.4954791068302886E-002  -4.7433022784573731E-003   6.0806399890405316E-002
   1.4111714011441304E-002  -4.4509227021770070E-003   6.1194008595827243E-002
   1.3268636954579707E-002  -4.0914569708159904E-003   6.1777549098015999E-002
   1.2425559897718111E-002  -3.6649050843750482E-003   6.2557021396971960E-002
   1.1582482840856528E-002  -3.1712670428538647E-003   6.3532425492694444E-002
   2.4583304186877292E-002  -6.3944136338964785E-003   5.1064574427777232E-002
   2.2740849785357176E-002  -5.9691527035531933E-003   5.0302533941876226E-002
   2.0898395383837046E-002  -5.4953716253514362E-003   4.9767594798334536E-002
   1.9055940982316909E-002  -4.9730703992908534E-003   4.9459756997152438E-002
   1.7213486580796772E-002  -4.4022490253717850E-003   4.9379020538330098E-002
   2.1072842517199819E-002  -5.5886269861358251E-003   5.4134219595513844E-002
   1.9455478843782972E-002  -5.1483456465757360E-003   5.3575668208884764E-002
   1.7838115170366139E-002  -4.6925934720465634E-003   5.3240196936102741E-002
   1.6220751496949279E-002  -4.2213704625493134E-003   5.3127805777167872E-002
   1.4603387823532460E-002  -3.7346766180823554E-003   5.3238494732079589E-002
   1.7735885069637199E-002  -4.7828403383751716E-003   5.7235409828912204E-002
   1.6339590895811010E-002  -4.3275385895981955E-003   5.6847298228665744E-002
   1.4943296721984790E-002  -3.8898153187420098E-003   5.6678245513753542E-002
   1.3547002548158589E-002  -3.4696705258072148E-003   5.6728251684175494E-002
   1.2150708374332374E-002  -3.0671042107932034E-003   5.6997316739931997E-002
   1.4572431844189432E-002  -3.9770536906145182E-003   6.0368145127972388E-002
   1.3393185941441219E-002  -3.5067315326206411E-003   6.0117424001218410E-002
   1.2213940038693048E-002  -3.0870371654375742E-003   6.0081740531286093E-002
   1.1034694135944838E-002  -2.7179705890653400E-003   6.0261094718175631E-002
   9.8554482331966644E-003  -2.3995318035041346E-003   6.0655486561886580E-002
   1.1582482840856528E-002  -3.1712670428538647E-003   6.3532425492694444E-002
   1.0616263980673696E-002  -2.6859244756432532E-003   6.3386045526543311E-002
   9.6500451204908633E-003  -2.2842590121326389E-003   6.3450681988701074E-002
   8.6838262603080238E-003  -1.9662706523235346E-003   6.3726334879167817E-002
   7.7176074001251982E-003  -1.7319593962146218E-003   6.4213004197943624E-002
   1.7213486580796772E-002  -4.4022490253717850E-003   4.9379020538330098E-002
   1.5252980528657339E-002  -3.8569872194549881E-003   4.9099541887833498E-002
   1.3292474476517865E-002  -3.4113646974010814E-003   4.9111895116473570E-002
   1.1331968424378412E-002  -3.0653814592106685E-003   4.9416080224250314E-002
   9.3714623722389589E-003  -2.8190375048833261E-003   5.0012097211164064E-002
   1.4603387823532460E-002  -3.7346766180823554E-003   5.3238494732079589E-002
   1.2929209211508183E-002  -3.2893354617067327E-003   5.3012023203119263E-002
   1.1255030599483948E-002  -2.9421705164806577E-003   5.3066374675252576E-002
   9.5808519874597056E-003  -2.6931817824046161E-003   5.3401549148479985E-002
   7.9066733754354357E-003  -2.5423692594783720E-003   5.4017546622800006E-002
   1.2150708374332374E-002  -3.0671042107932034E-003   5.6997316739931997E-002
   1.0751848324380274E-002  -2.7216837039582276E-003   5.6825315405221011E-002
   9.3529882744282193E-003  -2.4729763355600259E-003   5.6923128193560726E-002
   7.9541282244761560E-003  -2.3209821055983453E-003   5.7290755104951012E-002
   6.5552681745240649E-003  -2.2657010140736400E-003   5.7928196139391985E-002
   9.8554482331966644E-003  -2.3995318035041346E-003   6.0655486561886580E-002
   8.7208978672736730E-003  -2.1540319462099583E-003   6.0539418494138256E-002
   7.5863475013507242E-003  -2.0037821546394427E-003   6.0682155671397550E-002
   6.4517971354277615E-003  -1.9487824287924057E-003   6.1083698093664436E-002
   5.3172467695047840E-003  -1.9890327686687970E-003   6.1744045760938865E-002
   7.7176074001251982E-003  -1.7319593962146218E-003   6.4213004197943624E-002
   6.8363578401883229E-003  -1.5863801884614670E-003   6.4154332469871234E-002
   5.9551082802514477E-003  -1.5345879737189705E-003   6.4343457108763213E-002
   5.0738587203145585E-003  -1.5765827519860220E-003   6.4780378114620091E-002
   4.1926091603776972E-003  -1.7123645232638429E-003   6.5465095487441172E-002
   9.3714623722389589E-003  -2.8190375048833261E-003   5.0012097211164064E-002
   7.9320349046204386E-003  -2.9312229879858709E-003   5.0403037463073064E-002
   6.4926074370019182E-003  -3.6608280620833433E-003   5.1121006194781660E-002
   5.0531799693833979E-003  -5.0078527271770756E-003   5.2166003406289407E-002
   3.6137525017648775E-003  -6.9722969832661796E-003   5.3538029097596418E-002
   7.9066733754354357E-003  -2.5423692594783720E-003   5.4017546622800006E-002
   6.7687464280593024E-003  -2.7009809356827730E-003   5.3927296821991433E-002
   5.6308194806831413E-003  -3.3802647989968904E-003   5.4113019581868538E-002
   4.4928925333069733E-003  -4.5802208494216123E-003   5.4574714902430960E-002
   3.3549655859308192E-003  -6.3008490869566058E-003   5.5312382783678671E-002
   6.5552681745240649E-003  -2.2657010140736400E-003   5.7928196139391985E-002
   5.6677858282764351E-003  -2.4707388833797861E-003   5.7453503689750995E-002
   4.7803034820288123E-003  -3.0997015359106594E-003   5.7203727881681377E-002
   3.8928211357811479E-003  -4.1525889716665931E-003   5.7178868715183670E-002
   3.0053387895335598E-003  -5.6294011906472541E-003   5.7378926190257418E-002
   5.3172467695047840E-003  -1.9890327686687970E-003   6.1744045760938865E-002
   4.6291531052718594E-003  -2.2404968310767437E-003   6.0981658066350475E-002
   3.9410594410388636E-003  -2.8191382728244285E-003   6.0393131094220592E-002
   3.2529657768058957E-003  -3.7249570939113519E-003   5.9978464844548149E-002
   2.5648721125729433E-003  -4.9579532943379023E-003   5.9737659317333325E-002
   4.1926091603776972E-003  -1.7123645232638429E-003   6.5465095487441172E-002
   3.6528482590455491E-003  -2.0102547787737013E-003   6.4511759951791370E-002
   3.1130873577133872E-003  -2.5385750097380311E-003   6.3681229219485769E-002
   2.5733264563812461E-003  -3.2973252161560135E-003   6.2973503290523980E-002
   2.0335655550490772E-003  -4.2865053980284396E-003   6.2388582164906059E-002
   3.6137525017648775E-003  -6.9722969832661796E-003   5.3538029097596418E-002
   4.1649448555396984E-003  -9.5629986779555143E-003   5.1859977317144867E-002
   4.7161372093145471E-003  -1.2788795658850605E-002   5.0038715575508763E-002
   5.2673295630893957E-003  -1.6649687925949952E-002   4.8074243872688549E-002
   5.8185219168641611E-003  -2.1145675479254944E-002   4.5966562208683115E-002
   3.3549655859308192E-003  -6.3008490869566058E-003   5.5312382783678671E-002
   3.7800894356410097E-003  -8.5692665444144223E-003   5.2955631810313153E-002
   4.2052132853512003E-003  -1.1412590254607557E-002   5.0489953790003428E-002
   4.6303371350613284E-003  -1.4830820217535831E-002   4.7915348722748941E-002
   5.0554609847715537E-003  -1.8823956433199118E-002   4.5231816608548359E-002
   3.0053387895335598E-003  -5.6294011906472541E-003   5.7378926190257418E-002
   3.3386770494187035E-003  -7.5755344108733302E-003   5.4403665057448314E-002
   3.6720153093038124E-003  -1.0036384850364510E-002   5.1353759791934128E-002
   4.0053535691889769E-003  -1.3011952509121377E-002   4.8229210393714847E-002
   4.3386918290741205E-003  -1.6502237387143737E-002   4.5030016862790734E-002
   2.5648721125729433E-003  -4.9579532943379023E-003   5.9737659317333325E-002
   2.8407076968727379E-003  -6.5818022773319051E-003   5.6204077058550309E-002
   3.1165432811725725E-003  -8.6601794461219073E-003   5.2630133581301849E-002
   3.3923788654723584E-003  -1.1193084800706979E-002   4.9015828885587961E-002
   3.6682144497722016E-003  -1.4180518341088244E-002   4.5361162971408492E-002
   2.0335655550490772E-003  -4.2865053980284396E-003   6.2388582164906059E-002
   2.2861813780032103E-003  -5.5880701437912572E-003   5.8356867813618818E-002
   2.5387972009573156E-003  -7.2839740418785548E-003   5.4319075158106245E-002
   2.7914130239114557E-003  -9.3742170922927262E-003   5.0275204198367035E-002
   3.0440288468655541E-003  -1.1858799295032529E-002   4.6225254934402660E-002
   1.5562185221213165E-002   8.9119866932052538E-004   3.7041224169012787E-002
   1.7071685876981768E-002  -1.9603693569489322E-003   4.3441129323381289E-002
   1.8581186532750343E-002  -4.0113969286329765E-003   4.9807969825584941E-002
   2.0090687188518946E-002  -5.2618840457311009E-003   5.6141745675624161E-002
   2.1600187844287549E-002  -5.7118307082435482E-003   6.2442456873498642E-002
   1.1168590752764981E-002   6.6839900361387317E-004   3.6172223332913755E-002
   1.2558949128402414E-002  -1.4702770130142206E-003   4.3521889194407110E-002
   1.3949307504039860E-002  -3.0085476899003316E-003   5.0666335147802888E-002
   1.5339665879677299E-002  -3.9464130270445014E-003   5.7605561193100979E-002
   1.6730024255314745E-002  -4.2838730244467160E-003   6.4339567330301412E-002
   7.1103617222444057E-003   4.4559933790713768E-004   3.6116182063878066E-002
   8.2094225618177114E-003  -9.8018466907931479E-004   4.4215473517652593E-002
   9.3084834013910309E-003  -2.0056984511676729E-003   5.1937389807396678E-002
   1.0407544240964337E-002  -2.6309420083578776E-003   5.9281930933109968E-002
   1.1506605080537653E-002  -2.8559153406498283E-003   6.6249096894792733E-002
   3.3874981296514641E-003   2.2279967220042995E-004   3.6873100361905921E-002
   4.0231061772276599E-003  -4.9009232514453382E-004   4.5521882293117960E-002
   4.6587142248038661E-003  -1.0028492124349656E-003   5.3621133804366214E-002
   5.2943222723800670E-003  -1.3154709896712660E-003   6.1170854895651057E-002
   5.9299303199562758E-003  -1.4279576568529961E-003   6.8171045566972177E-002
  -2.5013859039635378E-011   6.4937499821837719E-012   3.8442978226997160E-002
  -2.5367735689840742E-011   1.8790302647175849E-011   4.7441115520802768E-002
  -2.5721629687280867E-011   2.6297602984115542E-011   5.5717567138711843E-002
  -2.6075508072209708E-011   2.9015310987201559E-011   6.3272333080724302E-002
  -2.6429393396032452E-011   2.6943891562325462E-011   7.0105413346840173E-002
   2.1600187844287549E-002  -5.7118307082435482E-003   6.2442456873498642E-002
   2.0676816901842088E-002  -5.7381035795998903E-003   6.1709249308823544E-002
   1.9753445959396619E-002  -5.7175693232300179E-003   6.1051344798845025E-002
   1.8830075016951168E-002  -5.6502279391334002E-003   6.0468743343562850E-002
   1.7906704074505703E-002  -5.5360794273106029E-003   5.9961444942977005E-002
   1.6730024255314745E-002  -4.2838730244467160E-003   6.4339567330301412E-002
   1.5920841287992302E-002  -4.3035776790668195E-003   6.3332945337023036E-002
   1.5111658320669848E-002  -4.2881769878647946E-003   6.2479396239294313E-002
   1.4302475353347400E-002  -4.2376709508405511E-003   6.1778920037115041E-002
   1.3493292386024938E-002  -4.1520595679941374E-003   6.1231516730485491E-002
   1.1506605080537653E-002  -2.8559153406498283E-003   6.6249096894792733E-002
   1.0889379929191402E-002  -2.8690517785336794E-003   6.4957358691006731E-002
   1.0272154777845146E-002  -2.8587846524997448E-003   6.3896463223623495E-002
   9.6549296264988906E-003  -2.8251139625476481E-003   6.3066410492643138E-002
   9.0377044751526400E-003  -2.7680397086776165E-003   6.2467200498065409E-002
   5.9299303199562758E-003  -1.4279576568529961E-003   6.8171045566972177E-002
   5.5824328254394139E-003  -1.4345258780005740E-003   6.6582489370774378E-002
   5.2349353309225320E-003  -1.4293923171345806E-003   6.5302545751832586E-002
   4.8874378364056640E-003  -1.4125569742547165E-003   6.4331214710146703E-002
   4.5399403418887891E-003  -1.3840198493611233E-003   6.3668496245716841E-002
  -2.6429393396032452E-011   2.6943891562325462E-011   7.0105413346840173E-002
  -2.3263696524722377E-011   2.2532586907431096E-011   6.8208337376326394E-002
  -2.0097999653412302E-011   1.8230500442584230E-011   6.6697643823921599E-002
  -1.6932303649463964E-011   1.4038208095978888E-011   6.5573332689626118E-002
  -1.3766605910792151E-011   9.9553698618137787E-012   6.4835403973439731E-002
   1.7906704074505703E-002  -5.5360794273106029E-003   5.9961444942977005E-002
   1.7168725822955005E-002  -5.3833667987427947E-003   5.9908158868106021E-002
   1.6430747571404294E-002  -5.2003330644111029E-003   6.0031222667720402E-002
   1.5692769319853590E-002  -4.9869782243159473E-003   6.0330636341820218E-002
   1.4954791068302886E-002  -4.7433022784573731E-003   6.0806399890405316E-002
   1.3493292386024938E-002  -4.1520595679941374E-003   6.1231516730485491E-002
   1.2933700181150025E-002  -4.0375250974990229E-003   6.1164621573032513E-002
   1.2374107976275091E-002  -3.9002497975291761E-003   6.1278148634445806E-002
   1.1814515771400174E-002  -3.7402336680843334E-003   6.1572097914725080E-002
   1.1254923566525243E-002  -3.5574767091646753E-003   6.2046469413870653E-002
   9.0377044751526400E-003  -2.7680397086776165E-003   6.2467200498065409E-002
   8.6605706613342437E-003  -2.6916833962555564E-003   6.2379115981741867E-002
   8.2834368475158439E-003  -2.6001665306471314E-003   6.2475526028665233E-002
   7.9063030336974528E-003  -2.4934891118525513E-003   6.2756430638835459E-002
   7.5291692198790477E-003  -2.3716511398718387E-003   6.3221829812252592E-002
   4.5399403418887891E-003  -1.3840198493611233E-003   6.3668496245716841E-002
   4.3493372635076723E-003  -1.3458416950117430E-003   6.3551642094233904E-002
   4.1587341851265502E-003  -1.3000832637652011E-003   6.3623354850378747E-002
   3.9681311067454265E-003  -1.2467445556208533E-003   6.3883634514151216E-002
   3.7775280283643114E-003  -1.1858255705789605E-003   6.4332481085551244E-002
  -1.3766605910792151E-011   9.9553698618137787E-012   6.4835403973439731E-002
  -1.2329696291724090E-011   6.2316263260697724E-012   6.4682199910508886E-002
  -1.0892797080996885E-011   3.1168123637570488E-012   6.4721635099586450E-002
  -9.4558944008227286E-012   6.1094879155731974E-013   6.4953709540672366E-002
  -8.0189882512016197E-012  -1.2861933740282439E-012   6.5378423233766747E-002
   1.4954791068302886E-002  -4.7433022784573731E-003   6.0806399890405316E-002
   1.4111714011441304E-002  -4.4509227021770070E-003   6.1194008595827243E-002
   1.3268636954579707E-002  -4.0914569708159904E-003   6.1777549098015999E-002
   1.2425559897718111E-002  -3.6649050843750482E-003   6.2557021396971960E-002
   1.1582482840856528E-002  -3.1712670428538647E-003   6.3532425492694444E-002
   1.1254923566525243E-002  -3.5574767091646753E-003   6.2046469413870653E-002
   1.0611487673316440E-002  -3.3381920272708698E-003   6.2470601027086570E-002
   9.9680517801076368E-003  -3.0685927289032799E-003   6.3098083170841285E-002
   9.3246158868988266E-003  -2.7486788140622734E-003   6.3928915845134451E-002
   8.6811799936900302E-003  -2.3784502827480236E-003   6.4963099049966000E-002
   7.5291692198790477E-003  -2.3716511398718387E-003   6.3221829812252592E-002
   7.0927932240946664E-003  -2.2254613523645939E-003   6.3665712794655910E-002
   6.6564172283102747E-003  -2.0457284869905071E-003   6.4320365041369565E-002
   6.2200412325258934E-003  -1.8324525437496079E-003   6.5185786552393404E-002
   5.7836652367415017E-003  -1.5856335226419604E-003   6.6261977327727428E-002
   3.7775280283643114E-003  -1.1858255705789605E-003   6.4332481085551244E-002
   3.5556306637759671E-003  -1.1127306774583318E-003   6.4779343898535402E-002
   3.3337332991876367E-003  -1.0228642450777099E-003   6.5444394709601311E-002
   3.1118359345992984E-003  -9.1622627343688774E-004   6.6327633518749166E-002
   2.8899385700109689E-003  -7.9281676253611932E-004   6.7429060325978799E-002
  -8.0189882512016197E-012  -1.2861933740282439E-012   6.5378423233766747E-002
  -7.6396354520280596E-012  -2.5522917113107724E-012   6.5811494338724741E-002
  -7.2602930611953553E-012  -3.1648295095720869E-012   6.6470172175536302E-002
  -6.8809541398096030E-012  -3.1239802411597850E-012   6.7354456744201319E-002
  -6.5015978711890909E-012  -2.4299451339970801E-012   6.8464348044719903E-002
   1.1582482840856528E-002  -3.1712670428538647E-003   6.3532425492694444E-002
   1.0616263980673696E-002  -2.6859244756432532E-003   6.3386045526543311E-002
   9.6500451204908633E-003  -2.2842590121326389E-003   6.3450681988701074E-002
   8.6838262603080238E-003  -1.9662706523235346E-003   6.3726334879167817E-002
   7.7176074001251982E-003  -1.7319593962146218E-003   6.4213004197943624E-002
   8.6811799936900302E-003  -2.3784502827480236E-003   6.4963099049966000E-002
   7.9336121335483178E-003  -2.0144433571130937E-003   6.4754924279998294E-002
   7.1860442734066055E-003  -1.7131942593105881E-003   6.4773035081803626E-002
   6.4384764132648965E-003  -1.4747029893409612E-003   6.5017431455382094E-002
   5.6909085531231807E-003  -1.2989695472036544E-003   6.5488113400733794E-002
   5.7836652367415017E-003  -1.5856335226419604E-003   6.6261977327727428E-002
   5.2700175201050511E-003  -1.3429622385832396E-003   6.6012927029811222E-002
   4.7563698034686144E-003  -1.1421295064885373E-003   6.6005431447132307E-002
   4.2427220868321760E-003  -9.8313532635838780E-004   6.6239490579690863E-002
   3.7290743701957271E-003  -8.6597969819235399E-004   6.6715104427486377E-002
   2.8899385700109689E-003  -7.9281676253611932E-004   6.7429060325978799E-002
   2.6254801403439287E-003  -6.7148112005328831E-004   6.7160053775982442E-002
   2.3610217106768937E-003  -5.7106475366670850E-004   6.7147871084687560E-002
   2.0965632810098522E-003  -4.9156766337575888E-004   6.7392512252094042E-002
   1.8321048513428185E-003  -4.3298984918127559E-004   6.7893977278202247E-002
  -6.5015978711890909E-012  -2.4299451339970801E-012   6.8464348044719903E-002
  -5.7350860172000750E-012  -1.5232259897857148E-012   6.8196304518511497E-002
  -4.9685637548702033E-012  -8.4438012137866281E-013   6.8200353994468832E-002
  -4.2020536356046634E-012  -3.9333813983688515E-013   6.8476496472591714E-002
  -3.4355296385513157E-012  -1.6997514507011147E-013   6.9024731952880281E-002
   7.7176074001251982E-003  -1.7319593962146218E-003   6.4213004197943624E-002
   6.8363578401883229E-003  -1.5863801884614670E-003   6.4154332469871234E-002
   5.9551082802514477E-003  -1.5345879737189705E-003   6.4343457108763213E-002
   5.0738587203145585E-003  -1.5765827519860220E-003   6.4780378114620091E-002
   4.1926091603776972E-003  -1.7123645232638429E-003   6.5465095487441172E-002
   5.6909085531231807E-003  -1.2989695472036544E-003   6.5488113400733794E-002
   5.0505843659324687E-003  -1.1897851413560923E-003   6.5405371723638750E-002
   4.4102601787417289E-003  -1.1509409802556991E-003   6.5556684425071454E-002
   3.7699359915509927E-003  -1.1824370639026971E-003   6.5942051505031907E-002
   3.1296118043602633E-003  -1.2842733922970861E-003   6.6561472963519996E-002
   3.7290743701957271E-003  -8.6597969819235399E-004   6.6715104427486377E-002
   3.3159335673143379E-003  -7.9319009425049547E-004   6.6631739549632002E-002
   2.9027927644329661E-003  -7.6729398679309391E-004   6.6768687061868393E-002
   2.4896519615515908E-003  -7.8829137581937214E-004   6.7125946964195812E-002
   2.0765111586702190E-003  -8.5618226132982977E-004   6.7703519256614275E-002
   1.8321048513428185E-003  -4.3298984918127559E-004   6.7893977278202247E-002
   1.6324054443339784E-003  -3.9659504714523175E-004   6.7833435947851184E-002
   1.4327060373251323E-003  -3.8364699333010011E-004   6.7979465019154417E-002
   1.2330066303162957E-003  -3.9414568773626923E-004   6.8332064492111863E-002
   1.0333072233074461E-003  -4.2809113036276769E-004   6.8891234366723383E-002
  -3.4355296385513157E-012  -1.6997514507011147E-013   6.9024731952880281E-002
  -3.0086280689012312E-012  -3.9523939676655573E-014   6.9010460918296102E-002
  -2.5817473159328586E-012   1.3275491816955309E-013   6.9189018296929472E-002
  -2.1548492157297261E-012   3.4732633436007632E-013   6.9560404088779809E-002
  -1.7279649933144015E-012   6.0429439230347270E-013   7.0124618293847862E-002
   4.1926091603776972E-003  -1.7123645232638429E-003   6.5465095487441172E-002
   3.6528482590455491E-003  -2.0102547787737013E-003   6.4511759951791370E-002
   3.1130873577133872E-003  -2.5385750097380311E-003   6.3681229219485769E-002
   2.5733264563812461E-003  -3.2973252161560135E-003   6.2973503290523980E-002
   2.0335655550490772E-003  -4.2865053980284396E-003   6.2388582164906059E-002
   3.1296118043602633E-003  -1.2842733922970861E-003   6.6561472963519996E-002
   2.7156895618811600E-003  -1.5076910838572877E-003   6.5419441765187547E-002
   2.3017673194020358E-003  -1.9039312570018896E-003   6.4406283081216931E-002
   1.8878450769229255E-003  -2.4729939117314331E-003   6.3521996911608758E-002
   1.4739228344438082E-003  -3.2148790480458489E-003   6.2766583256362529E-002
   2.0765111586702190E-003  -8.5618226132982977E-004   6.7703519256614275E-002
   1.7944952860623892E-003  -1.0051273889399859E-003   6.6430399889467862E-002
   1.5124794134545733E-003  -1.2692875042657203E-003   6.5292220747702079E-002
   1.2304635408467487E-003  -1.6486626073064017E-003   6.4288981831316733E-002
   9.4844766823892757E-004  -2.1432526980627586E-003   6.3420683140311823E-002
   1.0333072233074461E-003  -4.2809113036276769E-004   6.8891234366723383E-002
   8.8926543158921421E-004  -5.0256369402285062E-004   6.7544634324632827E-002
   7.4522363987095282E-004  -6.3464375152934294E-004   6.6339042218941130E-002
   6.0118184815270660E-004  -8.2433130288137382E-004   6.5274458049648224E-002
   4.5714005643445951E-004  -1.0716263480796961E-003   6.4350881816753830E-002
  -1.7279649933144015E-012   6.0429439230347270E-013   7.0124618293847862E-002
  -1.5383666562840403E-012   8.9372953482325102E-013   6.8762145070682679E-002
  -1.3487821970414871E-012   1.2066458943138514E-012   6.7546747494934278E-002
  -1.1591942683519818E-012   1.5433349043192379E-012   6.6478425566602772E-002
  -9.6959940076857265E-013   1.9030332865099808E-012   6.5557179285688494E-002
   2.0335655550490772E-003  -4.2865053980284396E-003   6.2388582164906059E-002
   2.2861813780032103E-003  -5.5880701437912572E-003   5.8356867813618818E-002
   2.5387972009573156E-003  -7.2839740418785548E-003   5.4319075158106245E-002
   2.7914130239114557E-003  -9.3742170922927262E-003   5.0275204198367035E-002
   3.0440288468655541E-003  -1.1858799295032529E-002   4.6225254934402660E-002
   1.4739228344438082E-003  -3.2148790480458489E-003   6.2766583256362529E-002
   1.7061914402908968E-003  -4.1910526072574950E-003   5.8409720788326569E-002
   1.9384600461379992E-003  -5.4629805306799506E-003   5.4018242190302490E-002
   2.1707286519851016E-003  -7.0306628183125774E-003   4.9592147462290653E-002
   2.4029972578321901E-003  -8.8940994701558473E-003   4.5131436604289643E-002
   9.4844766823892757E-004  -2.1432526980627586E-003   6.3420683140311823E-002
   1.1318312312166776E-003  -2.7940350707243433E-003   5.8837257343642396E-002
   1.3152147941944345E-003  -3.6419870194808884E-003   5.4190677591222439E-002
   1.4985983571721793E-003  -4.6871085443322587E-003   4.9480943883051805E-002
   1.6819819201499414E-003  -5.9293996452791653E-003   4.4708056219130876E-002
   4.5714005643445951E-004  -1.0716263480796961E-003   6.4350881816753830E-002
   5.6310075078053017E-004  -1.3970175341911084E-003   5.9639477479566119E-002
   6.6906144512659388E-004  -1.8209935082819442E-003   5.4836381360865924E-002
   7.7502213947265803E-004  -2.3435542703523580E-003   4.9941593460652682E-002
   8.8098283381871437E-004  -2.9646998204024833E-003   4.4955113778926498E-002
  -9.6959940076857265E-013   1.9030332865099808E-012   6.5557179285688494E-002
  -1.0175540965384755E-012   2.3424595596566178E-012   6.0816381196098224E-002
  -1.0654983839675225E-012   2.9168611970220581E-012   5.5955353499232474E-002
  -1.1134426713965695E-012   3.6283406834591858E-012   5.0974096195091939E-002
  -1.1614043060603763E-012   4.4741987892393809E-012   4.5872609283676091E-002
  -2.5013859039635378E-011   6.4937499821837719E-012   3.8442978226997160E-002
  -2.5367735689840742E-011   1.8790302647175849E-011   4.7441115520802768E-002
  -2.5721629687280867E-011   2.6297602984115542E-011   5.5717567138711843E-002
  -2.6075508072209708E-011   2.9015310987201559E-011   6.3272333080724302E-002
  -2.6429393396032452E-011   2.6943891562325462E-011   7.0105413346840173E-002
  -3.3874981796608999E-003  -2.2279962640570083E-004   3.6873100339945786E-002
  -4.0231062275429066E-003   4.9009238395472665E-004   4.5521882263378666E-002
  -4.6587142754249238E-003   1.0028492774041275E-003   5.3621133767651957E-002
  -5.2943223233069322E-003   1.3154710539427794E-003   6.1170854852765508E-002
  -5.9299303711889406E-003   1.4279577135705435E-003   6.8171045518719470E-002
  -7.1103617721989879E-003  -4.4559925930504063E-004   3.6116182007018965E-002
  -8.2094226108722392E-003   9.8018474911898412E-004   4.4215473447957676E-002
  -9.3084834495454748E-003   2.0056985285107215E-003   5.1937389726473632E-002
  -1.0407544288218712E-002   2.6309420788701403E-003   5.9281930842566756E-002
  -1.1506605126891955E-002   2.8559154001971954E-003   6.6249096796237139E-002
  -1.1168590802628166E-002  -6.6839889220443593E-004   3.6172223228216706E-002
  -1.2558949175355716E-002   1.4702771142833249E-003   4.3521889074539716E-002
  -1.3949307548083302E-002   3.0085477796173918E-003   5.0666335015176894E-002
  -1.5339665920810871E-002   3.9464131037974717E-003   5.7605561050128061E-002
  -1.6730024293538433E-002   4.2838730868238473E-003   6.4339567179393486E-002
  -1.5562185270948395E-002  -8.9119852510383124E-004   3.7041224003538709E-002
  -1.7071685920993389E-002   1.9603694794476656E-003   4.3441129143124646E-002
  -1.8581186571038383E-002   4.0113970307237984E-003   4.9807969633761523E-002
  -2.0090687221083380E-002   5.2618841287249175E-003   5.6141745475449409E-002
  -2.1600187871128374E-002   5.7118307734504992E-003   6.2442456668188373E-002
  -2.6429393396032452E-011   2.6943891562325462E-011   7.0105413346840173E-002
  -2.3263696524722377E-011   2.2532586907431096E-011   6.8208337376326394E-002
  -2.0097999653412302E-011   1.8230500442584230E-011   6.6697643823921599E-002
  -1.6932303649463964E-011   1.4038208095978888E-011   6.5573332689626118E-002
  -1.3766605910792151E-011   9.9553698618137787E-012   6.4835403973439731E-002
  -5.9299303711889406E-003   1.4279577135705435E-003   6.8171045518719470E-002
  -5.5824328703990254E-003   1.4345259240683278E-003   6.6582489326157304E-002
  -5.2349353696091103E-003   1.4293923532167976E-003   6.5302545710734405E-002
  -4.8874378688191986E-003   1.4125570010160241E-003   6.4331214672450815E-002
  -4.5399403680292799E-003   1.3840198674658355E-003   6.3668496211306436E-002
  -1.1506605126891955E-002   2.8559154001971954E-003   6.6249096796237139E-002
  -1.0889379969447707E-002   2.8690518256041242E-003   6.4957358600167964E-002
  -1.0272154812003465E-002   2.8587846882028728E-003   6.3896463140268173E-002
  -9.6549296545592241E-003   2.8251139879936736E-003   6.3066410416537655E-002
  -9.0377044971149817E-003   2.7680397249763011E-003   6.2467200428976744E-002
  -1.6730024293538433E-002   4.2838730868238473E-003   6.4339567179393486E-002
  -1.5920841320409742E-002   4.3035777271398096E-003   6.3332945198358429E-002
  -1.5111658347281062E-002   4.2881770231890035E-003   6.2479396112522845E-002
  -1.4302475374152383E-002   4.2376709749713786E-003   6.1778919921886694E-002
  -1.3493292401023677E-002   4.1520595824868500E-003   6.1231516626450148E-002
  -2.1600187871128374E-002   5.7118307734504992E-003   6.2442456668188373E-002
  -2.0676816923285130E-002   5.7381036286756615E-003   6.1709249120728615E-002
  -1.9753445975441895E-002   5.7175693581752035E-003   6.1051344627498449E-002
  -1.8830075027598665E-002   5.6502279619491010E-003   6.0468743188498000E-002
  -1.7906704079755427E-002   5.5360794399972324E-003   5.9961444803727004E-002
  -1.3766605910792151E-011   9.9553698618137787E-012   6.4835403973439731E-002
  -1.2329696291724090E-011   6.2316263260697724E-012   6.4682199910508886E-002
  -1.0892797080996885E-011   3.1168123637570488E-012   6.4721635099586450E-002
  -9.4558944008227286E-012   6.1094879155731974E-013   6.4953709540672366E-002
  -8.0189882512016197E-012  -1.2861933740282439E-012   6.5378423233766747E-002
  -4.5399403680292799E-003   1.3840198674658355E-003   6.3668496211306436E-002
  -4.3493372868323790E-003   1.3458417054349470E-003   6.3551642063802483E-002
  -4.1587342056354747E-003   1.3000832677917129E-003   6.3623354823809986E-002
  -3.9681311244385738E-003   1.2467445545360431E-003   6.3883634491329180E-002
  -3.7775280432416763E-003   1.1858255656680972E-003   6.4332481066359914E-002
  -9.0377044971149817E-003   2.7680397249763011E-003   6.2467200428976744E-002
  -8.6605706806548825E-003   2.6916834046381843E-003   6.2379115920678241E-002
  -8.2834368641947868E-003   2.6001665324665163E-003   6.2475525975394602E-002
  -7.9063030477346807E-003   2.4934891084611964E-003   6.2756430593125689E-002
  -7.5291692312745902E-003   2.3716511326224432E-003   6.3221829773871696E-002
  -1.3493292401023677E-002   4.1520595824868500E-003   6.1231516626450148E-002
  -1.2933700193797191E-002   4.0375251038414356E-003   6.1164621481136210E-002
  -1.2374107986570708E-002   3.9002497971414793E-003   6.1278148554340162E-002
  -1.1814515779344227E-002   3.7402336623864312E-003   6.1572097846062213E-002
  -1.1254923572117732E-002   3.5574766995767615E-003   6.2046469356302196E-002
  -1.7906704079755427E-002   5.5360794399972324E-003   5.9961444803727004E-002
  -1.7168725826259348E-002   5.3833668030446868E-003   5.9908158745176243E-002
  -1.6430747572763263E-002   5.2003330618160676E-003   6.0031222560646663E-002
  -1.5692769319267174E-002   4.9869782163114613E-003   6.0330636250138223E-002
  -1.4954791065771099E-002   4.7433022665310243E-003   6.0806399813651046E-002
  -8.0189882512016197E-012  -1.2861933740282439E-012   6.5378423233766747E-002
  -7.6396354520280596E-012  -2.5522917113107724E-012   6.5811494338724741E-002
  -7.2602930611953553E-012  -3.1648295095720869E-012   6.6470172175536302E-002
  -6.8809541398096030E-012  -3.1239802411597850E-012   6.7354456744201319E-002
  -6.5015978711890909E-012  -2.4299451339970801E-012   6.8464348044719903E-002
  -3.7775280432416763E-003   1.1858255656680972E-003   6.4332481066359914E-002
  -3.5556306779922480E-003   1.1127306700486617E-003   6.4779343882905654E-002
  -3.3337333127428370E-003   1.0228642365379681E-003   6.5444394697337815E-002
  -3.1118359474934226E-003   9.1622626513659933E-004   6.6327633509656619E-002
  -2.8899385822439977E-003   7.9281675584402800E-004   6.7429060319862122E-002
  -7.5291692312745902E-003   2.3716511326224432E-003   6.3221829773871696E-002
  -7.0927932351219610E-003   2.2254613426492820E-003   6.3665712763460697E-002
  -6.6564172389693248E-003   2.0457284762408351E-003   6.4320365016969278E-002
  -6.2200412428166929E-003   1.8324525333972379E-003   6.5185786534397661E-002
  -5.7836652466640732E-003   1.5856335141182787E-003   6.6261977315745901E-002
  -1.1254923572117732E-002   3.5574766995767615E-003   6.2046469356302196E-002
  -1.0611487679028735E-002   3.3381920152499023E-003   6.2470600980390076E-002
  -9.9680517859397702E-003   3.0685927159436119E-003   6.3098083134430730E-002
  -9.3246158928507860E-003   2.7486788016576804E-003   6.3928915818424401E-002
  -8.6811799997618087E-003   2.3784502723925016E-003   6.4963099032370936E-002
  -1.4954791065771099E-002   4.7433022665310243E-003   6.0806399813651046E-002
  -1.4111714009712624E-002   4.4509226878507446E-003   6.1194008533693556E-002
  -1.3268636953654146E-002   4.0914569556465413E-003   6.1777549049722186E-002
  -1.2425559897595679E-002   3.6649050699184664E-003   6.2557021361736728E-002
  -1.1582482841537192E-002   3.1712670306666135E-003   6.3532425469737586E-002
  -6.5015978711890909E-012  -2.4299451339970801E-012   6.8464348044719903E-002
  -5.7350860172000750E-012  -1.5232259897857148E-012   6.8196304518511497E-002
  -4.9685637548702033E-012  -8.4438012137866281E-013   6.8200353994468832E-002
  -4.2020536356046634E-012  -3.9333813983688515E-013   6.8476496472591714E-002
  -3.4355296385513157E-012  -1.6997514507011147E-013   6.9024731952880281E-002
  -2.8899385822439977E-003   7.9281675584402800E-004   6.7429060319862122E-002
  -2.6254801511664955E-003   6.7148111542220112E-004   6.7160053770823569E-002
  -2.3610217200889898E-003   5.7106475063199713E-004   6.7147871080241228E-002
  -2.0965632890114893E-003   4.9156766147349581E-004   6.7392512248115294E-002
  -1.8321048579339819E-003   4.3298984794726270E-004   6.7893977274445627E-002
  -5.7836652466640732E-003   1.5856335141182787E-003   6.6261977315745901E-002
  -5.2700175289848552E-003   1.3429622323676282E-003   6.6012927019736725E-002
  -4.7563698113056380E-003   1.1421295021082634E-003   6.6005431438474371E-002
  -4.2427220936264217E-003   9.8313532334055181E-004   6.6239490571959200E-002
  -3.7290743759472167E-003   8.6597969606433400E-004   6.6715104420191212E-002
  -8.6811799997618087E-003   2.3784502723925016E-003   6.4963099032370936E-002
  -7.9336121391901503E-003   2.0144433493130554E-003   6.4754924265250827E-002
  -7.1860442786185006E-003   1.7131942535847516E-003   6.4773035069168289E-002
  -6.4384764180468569E-003   1.4747029852074968E-003   6.5017431444123475E-002
  -5.6909085574751925E-003   1.2989695441814886E-003   6.5488113390116787E-002
  -1.1582482841537192E-002   3.1712670306666135E-003   6.3532425469737586E-002
  -1.0616263981782392E-002   2.6859244662584825E-003   6.3386045507365929E-002
  -9.6500451220275715E-003   2.2842590050610179E-003   6.3450681972322842E-002
  -8.6838262622727647E-003   1.9662706470744140E-003   6.3726334864608436E-002
  -7.7176074025179509E-003   1.7319593922987542E-003   6.4213004184222378E-002
  -3.4355296385513157E-012  -1.6997514507011147E-013   6.9024731952880281E-002
  -3.0086280689012312E-012  -3.9523939676655573E-014   6.9010460918296102E-002
  -2.5817473159328586E-012   1.3275491816955309E-013   6.9189018296929472E-002
  -2.1548492157297261E-012   3.4732633436007632E-013   6.9560404088779809E-002
  -1.7279649933144015E-012   6.0429439230347270E-013   7.0124618293847862E-002
  -1.8321048579339819E-003   4.3298984794726270E-004   6.7893977274445627E-002
  -1.6324054501151222E-003   3.9659504636924137E-004   6.7833435944675224E-002
  -1.4327060422962730E-003   3.8364699305618033E-004   6.7979465016471230E-002
  -1.2330066344774151E-003   3.9414568800903022E-004   6.8332064489833783E-002
  -1.0333072266585641E-003   4.2809113122665998E-004   6.8891234364762965E-002
  -3.7290743759472167E-003   8.6597969606433400E-004   6.6715104420191212E-002
  -3.3159335723871152E-003   7.9319009277800667E-004   6.6631739543457275E-002
  -2.9027927688270155E-003   7.6729398597995269E-004   6.6768687056639256E-002
  -2.4896519652669218E-003   7.8829137567029348E-004   6.7125946959737032E-002
  -2.0765111617068142E-003   8.5618226184885904E-004   6.7703519252750644E-002
  -5.6909085574751925E-003   1.2989695441814886E-003   6.5488113390116787E-002
  -5.0505843698245879E-003   1.1897851391867720E-003   6.5405371714642530E-002
  -4.4102601821739765E-003   1.1509409789036626E-003   6.5556684417433411E-002
  -3.7699359945233641E-003   1.1824370633314440E-003   6.5942051498489709E-002
  -3.1296118068727596E-003   1.2842733924711969E-003   6.6561472957811021E-002
  -7.7176074025179509E-003   1.7319593922987542E-003   6.4213004184222378E-002
  -6.8363578424275456E-003   1.5863801855955928E-003   6.4154332458231100E-002
  -5.9551082823371682E-003   1.5345879718270672E-003   6.4343457098854195E-002
  -5.0738587222467733E-003   1.5765827509930178E-003   6.4780378106091607E-002
  -4.1926091621563855E-003   1.7123645230934237E-003   6.5465095479943503E-002
  -1.7279649933144015E-012   6.0429439230347270E-013   7.0124618293847862E-002
  -1.5383666562840403E-012   8.9372953482325102E-013   6.8762145070682679E-002
  -1.3487821970414871E-012   1.2066458943138514E-012   6.7546747494934278E-002
  -1.1591942683519818E-012   1.5433349043192379E-012   6.6478425566602772E-002
  -9.6959940076857265E-013   1.9030332865099808E-012   6.5557179285688494E-002
  -1.0333072266585641E-003   4.2809113122665998E-004   6.8891234364762965E-002
  -8.8926543457966412E-004   5.0256369551787694E-004   6.7544634322905028E-002
  -7.4522364250077106E-004   6.3464375369098880E-004   6.6339042217408661E-002
  -6.0118185042188493E-004   8.2433130574609270E-004   6.5274458048274031E-002
  -4.5714005834297800E-004   1.0716263516827862E-003   6.4350881815500860E-002
  -2.0765111617068142E-003   8.5618226184885904E-004   6.7703519252750644E-002
  -1.7944952887939750E-003   1.0051273901416913E-003   6.6430399886058644E-002
  -1.5124794158811227E-003   1.2692875061749709E-003   6.5292220744672613E-002
  -1.2304635429682765E-003   1.6486626099486215E-003   6.4288981828592842E-002
  -9.4844767005543111E-004   2.1432527014624836E-003   6.3420683137819650E-002
  -3.1296118068727596E-003   1.2842733924711969E-003   6.6561472957811021E-002
  -2.7156895641812905E-003   1.5076910847656722E-003   6.5419441760142930E-002
  -2.3017673214898353E-003   1.9039312586590224E-003   6.4406283076725579E-002
  -1.8878450787983803E-003   2.4729939141512648E-003   6.3521996907559261E-002
  -1.4739228361069115E-003   3.2148790512423198E-003   6.2766583252643976E-002
  -4.1926091621563855E-003   1.7123645230934237E-003   6.5465095479943503E-002
  -3.6528482607416507E-003   2.0102547793895975E-003   6.4511759945158120E-002
  -3.1130873593269263E-003   2.5385750111432959E-003   6.3681229213568280E-002
  -2.5733264579121985E-003   3.2973252183540747E-003   6.2973503285174093E-002
  -2.0335655564974672E-003   4.2865054010219339E-003   6.2388582159975225E-002
  -9.6959940076857265E-013   1.9030332865099808E-012   6.5557179285688494E-002
  -1.0175540965384755E-012   2.3424595596566178E-012   6.0816381196098224E-002
  -1.0654983839675225E-012   2.9168611970220581E-012   5.5955353499232474E-002
  -1.1134426713965695E-012   3.6283406834591858E-012   5.0974096195091939E-002
  -1.1614043060603763E-012   4.4741987892393809E-012   4.5872609283676091E-002
  -4.5714005834297800E-004   1.0716263516827862E-003   6.4350881815500860E-002
  -5.6310075278746818E-004   1.3970175386716632E-003   5.9639477478629077E-002
  -6.6906144723195837E-004   1.8209935138839284E-003   5.4836381360239828E-002
  -7.7502214167643121E-004   2.3435542773188461E-003   4.9941593460332501E-002
  -8.8098283612093875E-004   2.9646998289765136E-003   4.4955113778907485E-002
  -9.4844767005543111E-004   2.1432527014624836E-003   6.3420683137819650E-002
  -1.1318312331391484E-003   2.7940350750014775E-003   5.8837257341754046E-002
  -1.3152147962228787E-003   3.6419870248503433E-003   5.4190677589927946E-002
  -1.4985983593066091E-003   4.6871085510096881E-003   4.9480943882341553E-002
  -1.6819819223903264E-003   5.9293996534788285E-003   4.4708056218993653E-002
  -1.4739228361069115E-003   3.2148790512423198E-003   6.2766583252643976E-002
  -1.7061914420726074E-003   4.1910526113307645E-003   5.8409720785471908E-002
  -1.9384600480382892E-003   5.4629805358171954E-003   5.4018242188296400E-002
  -2.1707286540039433E-003   7.0306628247003618E-003   4.9592147461117099E-002
  -2.4029972599696669E-003   8.8940994779812543E-003   4.5131436603936037E-002
  -2.0335655564974672E-003   4.2865054010219339E-003   6.2388582159975225E-002
  -2.2861813795878039E-003   5.5880701476604955E-003   5.8356867809783441E-002
  -2.5387972026781370E-003   7.2839740467836589E-003   5.4319075155345953E-002
  -2.7914130257684668E-003   9.3742170983913270E-003   5.0275204196662315E-002
  -3.0440288488588069E-003   1.1858799302483458E-002   4.6225254933732085E-002
  -1.5562185270948395E-002  -8.9119852510383124E-004   3.7041224003538709E-002
  -1.7071685920993389E-002   1.9603694794476656E-003   4.3441129143124646E-002
  -1.8581186571038383E-002   4.0113970307237984E-003   4.9807969633761523E-002
  -2.0090687221083380E-002   5.2618841287249175E-003   5.6141745475449409E-002
  -2.1600187871128374E-002   5.7118307734504992E-003   6.2442456668188373E-002
  -2.0038389286672141E-002   6.1751722308888146E-003   4.0848716173806254E-002
  -2.1692642750810422E-002   6.8992165461010113E-003   4.6783436371325399E-002
  -2.3346896214948652E-002   7.3765150745756375E-003   5.2461715589606994E-002
  -2.5001149679086898E-002   7.6070678163126550E-003   5.7883553828651124E-002
  -2.6655403143225169E-002   7.5908747713120950E-003   6.3048951088457678E-002
  -2.4344446959312111E-002   1.3241542986881460E-002   4.2251787321465714E-002
  -2.6366829567832043E-002   1.1838063612754302E-002   4.8275117243455803E-002
  -2.8389212176352097E-002   1.0741633118427275E-002   5.3818629855919849E-002
  -3.0411594784872098E-002   9.9522515039003629E-003   5.8882325158857704E-002
  -3.2433977393392106E-002   9.4699187691736353E-003   6.3466203152269682E-002
  -2.8480358288867906E-002   2.0307913742874120E-002   4.1250437446516935E-002
  -3.1094246372058276E-002   1.6776910679407619E-002   4.7916171759515611E-002
  -3.3708134455248603E-002   1.4106751162279014E-002   5.3878712432699816E-002
  -3.6322022538438935E-002   1.2297435191488196E-002   5.9138059466069343E-002
  -3.8935910621629280E-002   1.1348962767035148E-002   6.3694212859624288E-002
  -3.2446123275339911E-002   2.7374284498866752E-002   3.7844666548960015E-002
  -3.5874893163489102E-002   2.1715757746060882E-002   4.5706599919505042E-002
  -3.9303663051638266E-002   1.7471869206130697E-002   5.2641963319946972E-002
  -4.2732432939787443E-002   1.4642618879075850E-002   5.8650756750285887E-002
  -4.6161202827936620E-002   1.3228006764896771E-002   6.3732980210521539E-002
  -2.1600187871128374E-002   5.7118307734504992E-003   6.2442456668188373E-002
  -2.0676816923285130E-002   5.7381036286756615E-003   6.1709249120728615E-002
  -1.9753445975441895E-002   5.7175693581752035E-003   6.1051344627498449E-002
  -1.8830075027598665E-002   5.6502279619491010E-003   6.0468743188498000E-002
  -1.7906704079755427E-002   5.5360794399972324E-003   5.9961444803727004E-002
  -2.6655403143225169E-002   7.5908747713120950E-003   6.3048951088457678E-002
  -2.5597188472913049E-002   7.4385473161183574E-003   6.1615760151479834E-002
  -2.4538973802600981E-002   7.2606968272760364E-003   6.0376953605210087E-002
  -2.3480759132288878E-002   7.0573233047849793E-003   5.9332531449648437E-002
  -2.2422544461976796E-002   6.8284267486452555E-003   5.8482493684794856E-002
  -3.2433977393392106E-002   9.4699187691736353E-003   6.3466203152269682E-002
  -3.1121837664132686E-002   9.1389910035610256E-003   6.1354312917850692E-002
  -2.9809697934873213E-002   8.8038242963768068E-003   5.9555888410618270E-002
  -2.8497558205613751E-002   8.4644186476208558E-003   5.8070929630572504E-002
  -2.7185418476354348E-002   8.1207740572932230E-003   5.6899436577713305E-002
  -3.8935910621629280E-002   1.1348962767035148E-002   6.3694212859624288E-002
  -3.7250764496943978E-002   1.0839434691003652E-002   6.0924907419841148E-002
  -3.5565618372258703E-002   1.0346951765477525E-002   5.8588149043723135E-002
  -3.3880472247573387E-002   9.8715139904566214E-003   5.6683937731270194E-002
  -3.2195326122888127E-002   9.4131213659411350E-003   5.5212273482482380E-002
  -4.6161202827936620E-002   1.3228006764896771E-002   6.3732980210521539E-002
  -4.3983968971346973E-002   1.2539878378446417E-002   6.0327543657451244E-002
  -4.1806735114757354E-002   1.1890079234578410E-002   5.7473735504524559E-002
  -3.9629501258167714E-002   1.1278609333292638E-002   5.5171555751741444E-002
  -3.7452267401578088E-002   1.0705468674589158E-002   5.3421004399101968E-002
  -1.7906704079755427E-002   5.5360794399972324E-003   5.9961444803727004E-002
  -1.7168725826259348E-002   5.3833668030446868E-003   5.9908158745176243E-002
  -1.6430747572763263E-002   5.2003330618160676E-003   6.0031222560646663E-002
  -1.5692769319267174E-002   4.9869782163114613E-003   6.0330636250138223E-002
  -1.4954791065771099E-002   4.7433022665310243E-003   6.0806399813651046E-002
  -2.2422544461976796E-002   6.8284267486452555E-003   5.8482493684794856E-002
  -2.1493663693711956E-002   6.5739514090423778E-003   5.8168748816058546E-002
  -2.0564782925447105E-002   6.2938415361616928E-003   5.8060459102838635E-002
  -1.9635902157182264E-002   5.9880971300032698E-003   5.8157624545134859E-002
  -1.8707021388917448E-002   5.6567181905672337E-003   5.8460245142947731E-002
  -2.7185418476354348E-002   8.1207740572932230E-003   5.6899436577713305E-002
  -2.6036529911825628E-002   7.7645360150400411E-003   5.6329919469789810E-002
  -2.4887641347296936E-002   7.3873500105072556E-003   5.5994962798877647E-002
  -2.3738752782768244E-002   6.9892160436950766E-003   5.5894566564977058E-002
  -2.2589864218239525E-002   6.5701341146033598E-003   5.6028730768087662E-002
  -3.2195326122888127E-002   9.4131213659411350E-003   5.5212273482482380E-002
  -3.0797324480600425E-002   8.9551206210377460E-003   5.4391670706369827E-002
  -2.9399322838312737E-002   8.4808584848529052E-003   5.3834733648763670E-002
  -2.8001321196025060E-002   7.9903349573867723E-003   5.3541462309664223E-002
  -2.6603319553737327E-002   7.4835500386394721E-003   5.3511856689071338E-002
  -3.7452267401578088E-002   1.0705468674589158E-002   5.3421004399101968E-002
  -3.5776047400036315E-002   1.0145705227035368E-002   5.2354002525798582E-002
  -3.4099827398494514E-002   9.5743669591984160E-003   5.1579771652496886E-002
  -3.2423607396952714E-002   8.9914538710786016E-003   5.1098311779196853E-002
  -3.0747387395410941E-002   8.3969659626756399E-003   5.0909622905898455E-002
  -1.4954791065771099E-002   4.7433022665310243E-003   6.0806399813651046E-002
  -1.4111714009712624E-002   4.4509226878507446E-003   6.1194008533693556E-002
  -1.3268636953654146E-002   4.0914569556465413E-003   6.1777549049722186E-002
  -1.2425559897595679E-002   3.6649050699184664E-003   6.2557021361736728E-002
  -1.1582482841537192E-002   3.1712670306666135E-003   6.3532425469737586E-002
  -1.8707021388917448E-002   5.6567181905672337E-003   5.8460245142947731E-002
  -1.7673374001518347E-002   5.2935920039307860E-003   5.8659406834845468E-002
  -1.6639726614119242E-002   4.8926058561711561E-003   5.9043777393438635E-002
  -1.5606079226720127E-002   4.4537597472882953E-003   5.9613356818726926E-002
  -1.4572431839321040E-002   3.9770536772826270E-003   6.0368145110710369E-002
  -2.2589864218239525E-002   6.5701341146033598E-003   5.6028730768087662E-002
  -2.1376369428790704E-002   6.1362613200107163E-003   5.6068671624241700E-002
  -2.0162874639341834E-002   5.6937547566957777E-003   5.6283098417800013E-002
  -1.8949379849893006E-002   5.2426144246582370E-003   5.6672011148762705E-002
  -1.7735885060444146E-002   4.7828403238985850E-003   5.7235409817129546E-002
  -2.6603319553737327E-002   7.4835500386394721E-003   5.3511856689071338E-002
  -2.5220700291529626E-002   6.9789306360906467E-003   5.3421802901882247E-002
  -2.3838081029321900E-002   6.4949036572203404E-003   5.3495512122806420E-002
  -2.2455461767114184E-002   6.0314691020281778E-003   5.3732984351844135E-002
  -2.1072842504906469E-002   5.5886269705145153E-003   5.4134219588995253E-002
  -3.0747387395410941E-002   8.3969659626756399E-003   5.0909622905898455E-002
  -2.9206366589735216E-002   7.8215999521706880E-003   5.0718800667766795E-002
  -2.7665345784059478E-002   7.2960525577449725E-003   5.0681018508457770E-002
  -2.6124324978383753E-002   6.8203237793979972E-003   5.0796276427971146E-002
  -2.4583304172708015E-002   6.3944136171304455E-003   5.1064574426307408E-002
  -1.1582482841537192E-002   3.1712670306666135E-003   6.3532425469737586E-002
  -1.0616263981782392E-002   2.6859244662584825E-003   6.3386045507365929E-002
  -9.6500451220275715E-003   2.2842590050610179E-003   6.3450681972322842E-002
  -8.6838262622727647E-003   1.9662706470744140E-003   6.3726334864608436E-002
  -7.7176074025179509E-003   1.7319593922987542E-003   6.4213004184222378E-002
  -1.4572431839321040E-002   3.9770536772826270E-003   6.0368145110710369E-002
  -1.3393185937861592E-002   3.5067315219337591E-003   6.0117423986199403E-002
  -1.2213940036402145E-002   3.0870371570208832E-003   6.0081740517769044E-002
  -1.1034694134942725E-002   2.7179705825448389E-003   6.0261094705419682E-002
  -9.8554482334832459E-003   2.3995317985057163E-003   6.0655486549150706E-002
  -1.7735885060444146E-002   4.7828403238985850E-003   5.7235409817129546E-002
  -1.6339590888527850E-002   4.3275385776088138E-003   5.6847298217704734E-002
  -1.4943296716611529E-002   3.8898153089810816E-003   5.6678245503112984E-002
  -1.3547002544695236E-002   3.4696705180157078E-003   5.6728251673354213E-002
  -1.2150708372778915E-002   3.0671042047124009E-003   5.6997316728428171E-002
  -2.1072842504906469E-002   5.5886269705145153E-003   5.4134219588995253E-002
  -1.9455478833781067E-002   5.1483456332840905E-003   5.3575668201882538E-002
  -1.7838115162655713E-002   4.6925934609412245E-003   5.3240196928354605E-002
  -1.6220751491530336E-002   4.2213704534861327E-003   5.3127805768412036E-002
  -1.4603387820404958E-002   3.7346766109192242E-003   5.3238494722054545E-002
  -2.4583304172708015E-002   6.3944136171304455E-003   5.1064574426307408E-002
  -2.2740849773621341E-002   5.9691526889589785E-003   5.0302533938732075E-002
  -2.0898395374534681E-002   5.4953716129011732E-003   4.9767594793493963E-002
  -1.9055940975448014E-002   4.9730703889567865E-003   4.9459756990593379E-002
  -1.7213486576361348E-002   4.4022490171260475E-003   4.9379020530030182E-002
  -7.7176074025179509E-003   1.7319593922987542E-003   6.4213004184222378E-002
  -6.8363578424275456E-003   1.5863801855955928E-003   6.4154332458231100E-002
  -5.9551082823371682E-003   1.5345879718270672E-003   6.4343457098854195E-002
  -5.0738587222467733E-003   1.5765827509930178E-003   6.4780378106091607E-002
  -4.1926091621563855E-003   1.7123645230934237E-003   6.5465095479943503E-002
  -9.8554482334832459E-003   2.3995317985057163E-003   6.0655486549150706E-002
  -8.7208978677350314E-003   2.1540319424857568E-003   6.0539418483141039E-002
  -7.5863475019868187E-003   2.0037821520682564E-003   6.0682155661832410E-002
  -6.4517971362385877E-003   1.9487824272530901E-003   6.1083698085225166E-002
  -5.3172467704903914E-003   1.9890327680407438E-003   6.1744045753318988E-002
  -1.2150708372778915E-002   3.0671042047124009E-003   5.6997316728428171E-002
  -1.0751848323286045E-002   2.7216836993754490E-003   5.6825315395067938E-002
  -9.3529882737931579E-003   2.4729763323092097E-003   5.6923128184495977E-002
  -7.9541282243002429E-003   2.3209821035132701E-003   5.7290755096711964E-002
  -6.5552681748073729E-003   2.2657010129880639E-003   5.7928196131716125E-002
  -1.4603387820404958E-002   3.7346766109192242E-003   5.3238494722054545E-002
  -1.2929209209080616E-002   3.2893354562653770E-003   5.3012023194012159E-002
  -1.1255030597756222E-002   2.9421705125500033E-003   5.3066374666844399E-002
  -9.5808519864318386E-003   2.6931817797732852E-003   5.3401549140551681E-002
  -7.9066733751074862E-003   2.5423692579353285E-003   5.4017546615134110E-002
  -1.7213486576361348E-002   4.4022490171260475E-003   4.9379020530030182E-002
  -1.5252980525118642E-002   3.8569872131554161E-003   4.9099541879973452E-002
  -1.3292474473875965E-002   3.4113646927914076E-003   4.9111895108878201E-002
  -1.1331968422633280E-002   3.0653814560335363E-003   4.9416080216744901E-002
  -9.3714623713905820E-003   2.8190375028827042E-003   5.0012097203573247E-002
  -4.1926091621563855E-003   1.7123645230934237E-003   6.5465095479943503E-002
  -3.6528482607416507E-003   2.0102547793895975E-003   6.4511759945158120E-002
  -3.1130873593269263E-003   2.5385750111432959E-003   6.3681229213568280E-002
  -2.5733264579121985E-003   3.2973252183540747E-003   6.2973503285174093E-002
  -2.0335655564974672E-003   4.2865054010219339E-003   6.2388582159975225E-002
  -5.3172467704903914E-003   1.9890327680407438E-003   6.1744045753318988E-002
  -4.6291531063114288E-003   2.2404968312892959E-003   6.0981658059507560E-002
  -3.9410594421325287E-003   2.8191382738574355E-003   6.0393131088028823E-002
  -3.2529657779535853E-003   3.7249570957446770E-003   5.9978464838882875E-002
  -2.5648721137746695E-003   4.9579532969519224E-003   5.9737659312069757E-002
  -6.5552681748073729E-003   2.2657010129880639E-003   5.7928196131716125E-002
  -5.6677858287270295E-003   2.4707388831890220E-003   5.7453503682740492E-002
  -4.7803034826467295E-003   3.0997015365716862E-003   5.7203727875235144E-002
  -3.8928211365663887E-003   4.1525889731358345E-003   5.7178868709199526E-002
  -3.0053387904860583E-003   5.6294011928819110E-003   5.7378926184634083E-002
  -7.9066733751074862E-003   2.5423692579353285E-003   5.4017546615134110E-002
  -6.7687464279885161E-003   2.7009809350887343E-003   5.3927296814856876E-002
  -5.6308194808695894E-003   3.3802647992859369E-003   5.4113019575187146E-002
  -4.4928925337506496E-003   4.5802208505270475E-003   5.4574714896124338E-002
  -3.3549655866316952E-003   6.3008490888120106E-003   5.5312382777669006E-002
  -9.3714623713905820E-003   2.8190375028827042E-003   5.0012097203573247E-002
  -7.9320349040958305E-003   2.9312229869883355E-003   5.0403037455856614E-002
  -6.4926074368010789E-003   3.6608280619998546E-003   5.1121006187884732E-002
  -5.0531799695063134E-003   5.0078527279177054E-003   5.2166003399657157E-002
  -3.6137525022115757E-003   6.9722969847421101E-003   5.3538029091173778E-002
  -2.0335655564974672E-003   4.2865054010219339E-003   6.2388582159975225E-002
  -2.2861813795878039E-003   5.5880701476604955E-003   5.8356867809783441E-002
  -2.5387972026781370E-003   7.2839740467836589E-003   5.4319075155345953E-002
  -2.7914130257684668E-003   9.3742170983913270E-003   5.0275204196662315E-002
  -3.0440288488588069E-003   1.1858799302483458E-002   4.6225254933732085E-002
  -2.5648721137746695E-003   4.9579532969519224E-003   5.9737659312069757E-002
  -2.8407076982295276E-003   6.5818022807729859E-003   5.6204077054521906E-002
  -3.1165432826844117E-003   8.6601794505030139E-003   5.2630133578490779E-002
  -3.3923788671393071E-003   1.1193084806141618E-002   4.9015828883976958E-002
  -3.6682144515941748E-003   1.4180518347689075E-002   4.5361162970979807E-002
  -3.0053387904860583E-003   5.6294011928819110E-003   5.7378926184634083E-002
  -3.3386770505425753E-003   7.5755344138852543E-003   5.4403665053154610E-002
  -3.6720153105990905E-003   1.0036384854222119E-002   5.1353759788954789E-002
  -4.0053535706556171E-003   1.3011952513891790E-002   4.8229210392034969E-002
  -4.3386918307121193E-003   1.6502237392894914E-002   4.5030016862394828E-002
  -3.3549655866316952E-003   6.3008490888120106E-003   5.5312382777669006E-002
  -3.7800894365269252E-003   8.5692665469976337E-003   5.2955631805681969E-002
  -4.2052132864221249E-003   1.1412590257941349E-002   5.0489953786737631E-002
  -4.6303371363173394E-003   1.4830820221642244E-002   4.7915348720836234E-002
  -5.0554609862125824E-003   1.8823956438100531E-002   4.5231816607977426E-002
  -3.6137525022115757E-003   6.9722969847421101E-003   5.3538029091173778E-002
  -4.1649448561825730E-003   9.5629986801100131E-003   5.1859977312103789E-002
  -4.7161372101535981E-003   1.2788795661660746E-002   5.0038715571839476E-002
  -5.2673295641245677E-003   1.6649687929392296E-002   4.8074243870381284E-002
  -5.8185219180956205E-003   2.1145675483306370E-002   4.5966562207727879E-002
  -3.2446123275339911E-002   2.7374284498866752E-002   3.7844666548960015E-002
  -3.5874893163489102E-002   2.1715757746060882E-002   4.5706599919505042E-002
  -3.9303663051638266E-002   1.7471869206130697E-002   5.2641963319946972E-002
  -4.2732432939787443E-002   1.4642618879075850E-002   5.8650756750285887E-002
  -4.6161202827936620E-002   1.3228006764896771E-002   6.3732980210521539E-002
  -3.7267259654286344E-002   2.0370463544534811E-002   3.1862293324804225E-002
  -4.1401694908775627E-002   1.9475678505238264E-002   3.8743235567032630E-002
  -4.5536130163264923E-002   1.8524242044972813E-002   4.5139417046683811E-002
  -4.9670565417754248E-002   1.7516154163738171E-002   5.1050837763758017E-002
  -5.3805000672243516E-002   1.6451414861534563E-002   5.6477497718255110E-002
  -4.3969285161265720E-002   1.3366642590202926E-002   3.1379306631079823E-002
  -4.8367576574569152E-002   1.7235599264415674E-002   3.5807968111147101E-002
  -5.2765867987872535E-002   1.9576614883814930E-002   4.0193678036163139E-002
  -5.7164159401175918E-002   2.0389689448400493E-002   4.4536436406128060E-002
  -6.1562450814479329E-002   1.9674822958172467E-002   4.8836243221041950E-002
  -5.2552199796277954E-002   6.3628216358710132E-003   3.6395706467787198E-002
  -5.6772538160869454E-002   1.4995520023593098E-002   3.6900797551848635E-002
  -6.0992876525461009E-002   2.0628987722657019E-002   3.7804746288384879E-002
  -6.5213214890052468E-002   2.3263224733062870E-002   3.9107552677395990E-002
  -6.9433553254644009E-002   2.2898231054810259E-002   4.0809216718882060E-002
  -6.3016003559323186E-002  -6.4099931846089975E-004   4.6911492834926072E-002
  -6.6616579667676756E-002   1.2755440782770522E-002   4.2021723889137053E-002
  -7.0217155776030354E-002   2.1681360561499149E-002   3.7972621803349010E-002
  -7.3817731884383953E-002   2.6136760017725091E-002   3.4764186577561793E-002
  -7.7418307992737523E-002   2.6121639151448217E-002   3.2396418211775579E-002
  -4.6161202827936620E-002   1.3228006764896771E-002   6.3732980210521539E-002
  -4.3983968971346973E-002   1.2539878378446417E-002   6.0327543657451244E-002
  -4.1806735114757354E-002   1.1890079234578410E-002   5.7473735504524559E-002
  -3.9629501258167714E-002   1.1278609333292638E-002   5.5171555751741444E-002
  -3.7452267401578088E-002   1.0705468674589158E-002   5.3421004399101968E-002
  -5.3805000672243516E-002   1.6451414861534563E-002   5.6477497718255110E-002
  -5.1024168470719285E-002   1.5383347486091437E-002   5.3054541070583022E-002
  -4.8243336269195039E-002   1.4365275385138238E-002   5.0287152712636604E-002
  -4.5462504067670814E-002   1.3397198558674932E-002   4.8175332644415765E-002
  -4.2681671866146562E-002   1.2479117006701457E-002   4.6719080865920554E-002
  -6.1562450814479329E-002   1.9674822958172467E-002   4.8836243221041950E-002
  -5.8074080378438427E-002   1.8226816593736442E-002   4.5407432510675749E-002
  -5.4585709942397587E-002   1.6840471535698009E-002   4.2738129979617179E-002
  -5.1097339506356754E-002   1.5515787784057114E-002   4.0828335627866287E-002
  -4.7608969070315893E-002   1.4252765338813894E-002   3.9678049455422942E-002
  -6.9433553254644009E-002   2.2898231054810259E-002   4.0809216718882060E-002
  -6.5133704694504482E-002   2.1070285701381482E-002   3.7386217977729494E-002
  -6.0833856134365004E-002   1.9315667686257781E-002   3.4826667305466477E-002
  -5.6534007574225505E-002   1.7634377009439407E-002   3.3130564702093107E-002
  -5.2234159014086005E-002   1.6026413670926262E-002   3.2297910167609419E-002
  -7.7418307992737523E-002   2.6121639151448217E-002   3.2396418211775579E-002
  -7.2203041418917410E-002   2.3913754809026411E-002   2.8990897471744159E-002
  -6.6987774845097270E-002   2.1790863836817623E-002   2.6552764690184388E-002
  -6.1772508271277143E-002   1.9752966234821510E-002   2.5082019867096239E-002
  -5.6557241697457017E-002   1.7800062003038630E-002   2.4578663002479795E-002
  -3.7452267401578088E-002   1.0705468674589158E-002   5.3421004399101968E-002
  -3.5776047400036315E-002   1.0145705227035368E-002   5.2354002525798582E-002
  -3.4099827398494514E-002   9.5743669591984160E-003   5.1579771652496886E-002
  -3.2423607396952714E-002   8.9914538710786016E-003   5.1098311779196853E-002
  -3.0747387395410941E-002   8.3969659626756399E-003   5.0909622905898455E-002
  -4.2681671866146562E-002   1.2479117006701457E-002   4.6719080865920554E-002
  -4.0742180638236578E-002   1.1630758513528072E-002   4.5963624490796384E-002
  -3.8802689410326600E-002   1.0871850863464483E-002   4.5441939568406794E-002
  -3.6863198182416609E-002   1.0202394056511063E-002   4.5154026098752124E-002
  -3.4923706954506681E-002   9.6223880926673555E-003   4.5099884081832076E-002
  -4.7608969070315893E-002   1.4252765338813894E-002   3.9678049455422942E-002
  -4.5465206163304642E-002   1.3115811800020902E-002   3.9335164241870862E-002
  -4.3321443256293349E-002   1.2169334767730675E-002   3.9167050933786626E-002
  -4.1177680349282042E-002   1.1413334241943417E-002   3.9173709531170227E-002
  -3.9033917442270805E-002   1.0847810222658988E-002   3.9355140034021532E-002
  -5.2234159014086005E-002   1.6026413670926262E-002   3.2297910167609419E-002
  -4.9945123975240396E-002   1.4600865086513808E-002   3.2468621779022377E-002
  -4.7656088936394718E-002   1.3466818671996859E-002   3.2755105748636201E-002
  -4.5367053897549081E-002   1.2624274427375881E-002   3.3157362076450987E-002
  -4.3078018858703437E-002   1.2073232352650495E-002   3.3675390762466756E-002
  -5.6557241697457017E-002   1.7800062003038630E-002   2.4578663002479795E-002
  -5.4181934074043897E-002   1.6085918373006408E-002   2.5363997102250679E-002
  -5.1806626450630763E-002   1.4764302576262933E-002   2.6206104012955589E-002
  -4.9431318827217637E-002   1.3835214612808205E-002   2.7104983734594579E-002
  -4.7056011203804510E-002   1.3298654482642336E-002   2.8060636267167594E-002
  -3.0747387395410941E-002   8.3969659626756399E-003   5.0909622905898455E-002
  -2.9206366589735216E-002   7.8215999521706880E-003   5.0718800667766795E-002
  -2.7665345784059478E-002   7.2960525577449725E-003   5.0681018508457770E-002
  -2.6124324978383753E-002   6.8203237793979972E-003   5.0796276427971146E-002
  -2.4583304172708015E-002   6.3944136171304455E-003   5.1064574426307408E-002
  -3.4923706954506681E-002   9.6223880926673555E-003   4.5099884081832076E-002
  -3.3240897812260368E-002   9.0979048454908062E-003   4.4999625775931890E-002
  -3.1558088670014112E-002   8.5950161885389453E-003   4.5029904064350035E-002
  -2.9875279527767799E-002   8.1137221218115993E-003   4.5190718947086733E-002
  -2.8192470385521529E-002   7.6540226453089000E-003   4.5482070424141929E-002
  -3.9033917442270805E-002   1.0847810222658988E-002   3.9355140034021532E-002
  -3.7231823447958036E-002   1.0374209738810869E-002   3.9317221634497995E-002
  -3.5429729453645337E-002   9.8939798193328002E-003   3.9387336344788922E-002
  -3.3627635459332568E-002   9.4071204642248666E-003   3.9565484164894305E-002
  -3.1825541465019876E-002   8.9136316734869658E-003   3.9851665094813943E-002
  -4.3078018858703437E-002   1.2073232352650495E-002   3.3675390762466756E-002
  -4.1179143496828274E-002   1.1650514632130848E-002   3.3671588243465368E-002
  -3.9280268134953153E-002   1.1192943450126936E-002   3.3753315349774479E-002
  -3.7381392773078004E-002   1.0700518806638189E-002   3.3920572081393943E-002
  -3.5482517411202910E-002   1.0173240701665281E-002   3.4173358438323691E-002
  -4.7056011203804510E-002   1.3298654482642336E-002   2.8060636267167594E-002
  -4.5082857958871042E-002   1.2926819525451105E-002   2.8062725602834016E-002
  -4.3109704713937616E-002   1.2491907080920656E-002   2.8127841079306659E-002
  -4.1136551469004141E-002   1.1993917149051521E-002   2.8255982696585719E-002
  -3.9163398224070667E-002   1.1432849729843375E-002   2.8447150454671055E-002
  -2.4583304172708015E-002   6.3944136171304455E-003   5.1064574426307408E-002
  -2.2740849773621341E-002   5.9691526889589785E-003   5.0302533938732075E-002
  -2.0898395374534681E-002   5.4953716129011732E-003   4.9767594793493963E-002
  -1.9055940975448014E-002   4.9730703889567865E-003   4.9459756990593379E-002
  -1.7213486576361348E-002   4.4022490171260475E-003   4.9379020530030182E-002
  -2.8192470385521529E-002   7.6540226453089000E-003   4.5482070424141929E-002
  -2.6121979978890091E-002   7.1774404469283071E-003   4.4645119644156128E-002
  -2.4051489572258535E-002   6.6454982145680852E-003   4.4037139536922482E-002
  -2.1980999165627024E-002   6.0581959482283523E-003   4.3658130102441087E-002
  -1.9910508758995540E-002   5.4155336479084770E-003   4.3508091340712263E-002
  -3.1825541465019876E-002   8.9136316734869658E-003   3.9851665094813943E-002
  -2.9525145720428664E-002   8.3857282048974968E-003   3.8932964136324466E-002
  -2.7224749975837379E-002   7.7956248162350944E-003   3.8245103181002230E-002
  -2.4924354231246150E-002   7.1433215074995261E-003   3.7788082228846921E-002
  -2.2623958486654876E-002   6.4288182786909065E-003   3.7561901279859089E-002
  -3.5482517411202910E-002   1.0173240701665281E-002   3.4173358438323691E-002
  -3.2950346998237082E-002   9.5940159628668670E-003   3.3166067415237276E-002
  -3.0418176585271180E-002   8.9457514179019440E-003   3.2391485725732777E-002
  -2.7886006172305283E-002   8.2284470667705629E-003   3.1849613369810383E-002
  -2.5353835759339499E-002   7.4421029094731694E-003   3.1540450347470064E-002
  -3.9163398224070667E-002   1.1432849729843375E-002   2.8447150454671055E-002
  -3.6397583812315309E-002   1.0802303720836015E-002   2.7344429480894328E-002
  -3.3631769400559952E-002   1.0095878019568932E-002   2.6476287171114554E-002
  -3.0865954988804609E-002   9.3135726260421894E-003   2.5842723525331596E-002
  -2.8100140577049210E-002   8.4553875402557654E-003   2.5443738543545535E-002
  -1.7213486576361348E-002   4.4022490171260475E-003   4.9379020530030182E-002
  -1.5252980525118642E-002   3.8569872131554161E-003   4.9099541879973452E-002
  -1.3292474473875965E-002   3.4113646927914076E-003   4.9111895108878201E-002
  -1.1331968422633280E-002   3.0653814560335363E-003   4.9416080216744901E-002
  -9.3714623713905820E-003   2.8190375028827042E-003   5.0012097203573247E-002
  -1.9910508758995540E-002   5.4155336479084770E-003   4.3508091340712263E-002
  -1.7706892924542209E-002   4.7821584315453358E-003   4.3250249792628592E-002
  -1.5503277090088925E-002   4.2227174170741955E-003   4.3186795932004474E-002
  -1.3299661255635576E-002   3.7372106044956804E-003   4.3317729758839824E-002
  -1.1096045421182310E-002   3.3256379938095826E-003   4.3643051273134725E-002
  -2.2623958486654876E-002   6.4288182786909065E-003   3.7561901279859089E-002
  -2.0274677060493219E-002   5.7073296499350890E-003   3.7299991752034412E-002
  -1.7925395634331567E-002   5.0340701413572886E-003   3.7135025720166998E-002
  -1.5576114208169926E-002   4.4090397529578176E-003   3.7067003184256930E-002
  -1.3226832782008258E-002   3.8322384847365720E-003   3.7095924144303905E-002
  -2.5353835759339499E-002   7.4421029094731694E-003   3.1540450347470064E-002
  -2.2956332932971717E-002   6.6325008683249254E-003   3.1248767758190188E-002
  -2.0558830106603941E-002   5.8454228656402291E-003   3.0956584473365550E-002
  -1.8161327280236148E-002   5.0808689014198473E-003   3.0663900492995718E-002
  -1.5763824453868383E-002   4.3388389756636170E-003   3.0370715817080909E-002
  -2.8100140577049210E-002   8.4553875402557654E-003   2.5443738543545535E-002
  -2.5751860541977617E-002   7.5576720867148173E-003   2.5096577811096532E-002
  -2.3403580506906010E-002   6.6567755899232250E-003   2.4651472191600299E-002
  -2.1055300471834425E-002   5.7526980498820574E-003   2.4108421685056614E-002
  -1.8707020436762811E-002   4.8454394665904399E-003   2.3467426291465587E-002
  -9.3714623713905820E-003   2.8190375028827042E-003   5.0012097203573247E-002
  -7.9320349040958305E-003   2.9312229869883355E-003   5.0403037455856614E-002
  -6.4926074368010789E-003   3.6608280619998546E-003   5.1121006187884732E-002
  -5.0531799695063134E-003   5.0078527279177054E-003   5.2166003399657157E-002
  -3.6137525022115757E-003   6.9722969847421101E-003   5.3538029091173778E-002
  -1.1096045421182310E-002   3.3256379938095826E-003   4.3643051273134725E-002
  -9.3119949309662248E-003   3.2291449906435288E-003   4.4232204059587998E-002
  -7.5279444407501395E-003   3.6888770006259231E-003   4.5183574412139438E-002
  -5.7438939505340958E-003   4.7048340237555164E-003   4.6497162330789266E-002
  -3.9598434603179689E-003   6.2770160600328362E-003   4.8172967815537371E-002
  -1.3226832782008258E-002   3.8322384847365720E-003   3.7095924144303905E-002
  -1.1062970182516993E-002   3.5270669942992217E-003   3.7822094887168617E-002
  -8.8991075830257282E-003   3.7169259392513254E-003   3.8945672282485133E-002
  -6.7352449835344358E-003   4.4018153195926613E-003   4.0466656330253897E-002
  -4.5713823840431433E-003   5.5817351353236733E-003   4.2385047030474909E-002
  -1.5763824453868383E-002   4.3388389756636170E-003   3.0370715817080909E-002
  -1.3184960658748161E-002   3.8249889979548868E-003   3.1172709938598497E-002
  -1.0606096863627852E-002   3.7449748778771719E-003   3.2407299798921818E-002
  -8.0272330685075867E-003   4.0987966154302502E-003   3.4074485398051212E-002
  -5.4483692733872657E-003   4.8864542106144548E-003   3.6174266735986796E-002
  -1.8707020436762811E-002   4.8454394665904399E-003   2.3467426291465587E-002
  -1.5677966359659623E-002   4.1229110016101633E-003   2.4284049213877612E-002
  -1.2648912282556490E-002   3.7730238165027408E-003   2.5568456961449382E-002
  -9.6198582054533438E-003   3.7957779112673257E-003   2.7320649534180980E-002
  -6.5908041283501695E-003   4.1911732859052364E-003   2.9540626932072378E-002
  -3.6137525022115757E-003   6.9722969847421101E-003   5.3538029091173778E-002
  -4.1649448561825730E-003   9.5629986801100131E-003   5.1859977312103789E-002
  -4.7161372101535981E-003   1.2788795661660746E-002   5.0038715571839476E-002
  -5.2673295641245677E-003   1.6649687929392296E-002   4.8074243870381284E-002
  -5.8185219180956205E-003   2.1145675483306370E-002   4.5966562207727879E-002
  -3.9598434603179689E-003   6.2770160600328362E-003   4.8172967815537371E-002
  -4.5508209833352020E-003   8.7122211486894141E-003   4.7235351051892527E-002
  -5.1417985063523935E-003   1.2317247328955450E-002   4.6361373911349812E-002
  -5.7327760293695712E-003   1.7092094600831997E-002   4.5551036393909200E-002
  -6.3237535523868738E-003   2.3036762964318447E-002   4.4804338499569996E-002
  -4.5713823840431433E-003   5.5817351353236733E-003   4.2385047030474909E-002
  -4.9952954918102768E-003   7.8614436172681490E-003   4.2722591087683282E-002
  -5.4192085995773825E-003   1.1845698996250847E-002   4.3330624352290376E-002
  -5.8431217073445368E-003   1.7534501272271651E-002   4.4209146824295290E-002
  -6.2670348151116217E-003   2.4927850445330746E-002   4.5358158503698398E-002
  -5.4483692733872657E-003   4.8864542106144548E-003   3.6174266735986796E-002
  -5.4983683816080282E-003   7.0106660858473280E-003   3.8321697419476733E-002
  -5.5483674898287073E-003   1.1374150663546231E-002   4.0946466894661269E-002
  -5.5983665980493987E-003   1.7976907943711439E-002   4.4048575161540371E-002
  -5.6483657062702600E-003   2.6818937926342934E-002   4.7628022220113919E-002
  -6.5908041283501695E-003   4.1911732859052364E-003   2.9540626932072378E-002
  -6.0600396527281941E-003   6.1598885544258408E-003   3.4032670047272062E-002
  -5.5292751771062465E-003   1.0902602330841060E-002   3.9208901538462682E-002
  -4.9985107014842989E-003   1.8419314615151033E-002   4.5069321405643847E-002
  -4.4677462258623235E-003   2.8710025407355122E-002   5.1613929648816281E-002
  -6.3016003559323186E-002  -6.4099931846089975E-004   4.6911492834926072E-002
  -6.6616579667676756E-002   1.2755440782770522E-002   4.2021723889137053E-002
  -7.0217155776030354E-002   2.1681360561499149E-002   3.7972621803349010E-002
  -7.3817731884383953E-002   2.6136760017725091E-002   3.4764186577561793E-002
  -7.7418307992737523E-002   2.6121639151448217E-002   3.2396418211775579E-002
  -6.7649854884843014E-002  -1.0066437481175528E-002   6.1041809134751435E-003
  -7.1425902318875939E-002   6.6594331166135445E-003   8.8792103031941072E-003
  -7.5201949752908920E-002   1.8136109073114554E-002   1.0462630181553439E-002
  -7.8977997186941887E-002   2.4363590388327548E-002   1.0854440548553002E-002
  -8.2754044620974840E-002   2.5341877062252494E-002   1.0054641404193099E-002
  -5.8742912207279091E-002  -1.9491875643890072E-002  -3.0984363352025465E-002
  -6.4726707338352146E-002   5.6342545045670600E-004  -2.1323209945583829E-002
  -7.0710502469424980E-002   1.4590857584729992E-002  -1.4885942421862572E-002
  -7.6694297600497882E-002   2.2590420758930176E-002  -1.1672560780861319E-002
  -8.2678092731570799E-002   2.4562114973056631E-002  -1.1683065022580541E-002
  -3.6295175526631716E-002  -2.8917313806604630E-002  -6.4354139961575782E-002
  -4.6518994726105135E-002  -5.5325822157002089E-003  -4.8585536857196847E-002
  -5.6742813925578520E-002   1.1045606096345414E-002  -3.8073096006898642E-002
  -6.6966633125051994E-002   2.0817251129532578E-002  -3.2816817410681418E-002
  -7.7190452324525385E-002   2.3782352883860838E-002  -3.2816701068544799E-002
  -3.0664484290054972E-004  -3.8342751969319244E-002  -9.4005148915175751E-002
  -1.6802764482135135E-002  -1.1628589881857221E-002  -7.2907770431644869E-002
  -3.3298884121369610E-002   7.5003546079608352E-003  -5.9098830573555139E-002
  -4.9795003760604140E-002   1.9044081500135090E-002  -5.2578329340906810E-002
  -6.6291123399838670E-002   2.3002590794665156E-002  -5.3346266733700187E-002
  -7.7418307992737523E-002   2.6121639151448217E-002   3.2396418211775579E-002
  -7.2203041418917410E-002   2.3913754809026411E-002   2.8990897471744159E-002
  -6.6987774845097270E-002   2.1790863836817623E-002   2.6552764690184388E-002
  -6.1772508271277143E-002   1.9752966234821510E-002   2.5082019867096239E-002
  -5.6557241697457017E-002   1.7800062003038630E-002   2.4578663002479795E-002
  -8.2754044620974840E-002   2.5341877062252494E-002   1.0054641404193099E-002
  -7.7222448327549126E-002   2.3700139135406792E-002   1.1456820347916938E-002
  -7.1690852034123370E-002   2.2067546648308053E-002   1.2524270772380247E-002
  -6.6159255740697573E-002   2.0444099600956302E-002   1.3256992677583193E-002
  -6.0627659447271817E-002   1.8829797993351605E-002   1.3654986063525859E-002
  -8.2678092731570799E-002   2.4562114973056631E-002  -1.1683065022580541E-002
  -7.8132283196271496E-002   2.3486523461786951E-002  -5.5490343255672273E-003
  -7.3586473660972179E-002   2.2344229459798588E-002  -1.0518486255465809E-003
  -6.9040664125672876E-002   2.1135232967090981E-002   1.8084920774815126E-003
  -6.4494854590373629E-002   1.9859533983664412E-002   3.0319877835171816E-003
  -7.7190452324525385E-002   2.3782352883860838E-002  -3.2816701068544799E-002
  -7.4932546025084590E-002   2.3272907788167360E-002  -2.2026666548708468E-002
  -7.2674639725643822E-002   2.2620912271289016E-002  -1.4175593503596361E-002
  -7.0416733426203026E-002   2.1826366333225551E-002  -9.2634819332090453E-003
  -6.8158827126762245E-002   2.0889269973977470E-002  -7.2903318375461060E-003
  -6.6291123399838670E-002   2.3002590794665156E-002  -5.3346266733700187E-002
  -6.7623236813988408E-002   2.3059292114547658E-002  -3.7976076321506236E-002
  -6.8955350228138201E-002   2.2897595082779471E-002  -2.6846963861769033E-002
  -7.0287463642287912E-002   2.2517499699360462E-002  -1.9958929354488297E-002
  -7.1619577056437733E-002   2.1919005964290306E-002  -1.7311972799664122E-002
  -5.6557241697457017E-002   1.7800062003038630E-002   2.4578663002479795E-002
  -5.4181934074043897E-002   1.6085918373006408E-002   2.5363997102250679E-002
  -5.1806626450630763E-002   1.4764302576262933E-002   2.6206104012955589E-002
  -4.9431318827217637E-002   1.3835214612808205E-002   2.7104983734594579E-002
  -4.7056011203804510E-002   1.3298654482642336E-002   2.8060636267167594E-002
  -6.0627659447271817E-002   1.8829797993351605E-002   1.3654986063525859E-002
  -5.8205193574646721E-002   1.7364852200910219E-002   1.4974975220222175E-002
  -5.5782727702021605E-002   1.6189472599048821E-002   1.6332508064408516E-002
  -5.3360261829396571E-002   1.5303659187767500E-002   1.7727584596084721E-002
  -5.0937795956771351E-002   1.4707411967066042E-002   1.9160204815250881E-002
  -6.4494854590373629E-002   1.9859533983664412E-002   3.0319877835171816E-003
  -6.2044459591980523E-002   1.8643786028814099E-002   4.7836703544301695E-003
  -5.9594064593587542E-002   1.7614642621834764E-002   6.5536674893891533E-003
  -5.7143669595194471E-002   1.6772103762726850E-002   8.3419791883937028E-003
  -5.4693274596801462E-002   1.6116169451489637E-002   1.0148605451444442E-002
  -6.8158827126762245E-002   2.0889269973977470E-002  -7.2903318375461060E-003
  -6.5699732126045324E-002   1.9922719856717806E-002  -5.2099174951252200E-003
  -6.3240637125328403E-002   1.9039812644620513E-002  -3.1304177121026493E-003
  -6.0781542124611468E-002   1.8240548337685562E-002  -1.0518324884780557E-003
  -5.8322447123894575E-002   1.7524926935913621E-002   1.0258381757483823E-003
  -7.1619577056437733E-002   2.1919005964290306E-002  -1.7311972799664122E-002
  -6.9171011176841102E-002   2.1201653684621846E-002  -1.5005788328444125E-002
  -6.6722445297244304E-002   2.0464982667406512E-002  -1.2719747540066523E-002
  -6.4273879417647645E-002   1.9708992912645475E-002  -1.0453850434531363E-002
  -6.1825313538050874E-002   1.8933684420337160E-002  -8.2080970118377783E-003
  -4.7056011203804510E-002   1.3298654482642336E-002   2.8060636267167594E-002
  -4.5082857958871042E-002   1.2926819525451105E-002   2.8062725602834016E-002
  -4.3109704713937616E-002   1.2491907080920656E-002   2.8127841079306659E-002
  -4.1136551469004141E-002   1.1993917149051521E-002   2.8255982696585719E-002
  -3.9163398224070667E-002   1.1432849729843375E-002   2.8447150454671055E-002
  -5.0937795956771351E-002   1.4707411967066042E-002   1.9160204815250881E-002
  -4.8833093766402769E-002   1.4226582054923581E-002   1.9296218538082666E-002
  -4.6728391576034152E-002   1.3687020569319169E-002   1.9632304010978263E-002
  -4.4623689385665508E-002   1.3088727510252564E-002   2.0168461233938312E-002
  -4.2518987195296898E-002   1.2431702877724105E-002   2.0904690206962173E-002
  -5.4693274596801462E-002   1.6116169451489637E-002   1.0148605451444442E-002
  -5.2319977851739884E-002   1.5526344584395974E-002   1.0422889475318414E-002
  -4.9946681106678242E-002   1.4882134057717558E-002   1.1034290858514220E-002
  -4.7573384361616622E-002   1.4183537871453548E-002   1.1982809601032145E-002
  -4.5200087616555029E-002   1.3430556025604667E-002   1.3268445702871640E-002
  -5.8322447123894575E-002   1.7524926935913621E-002   1.0258381757483823E-003
  -5.5543510214882255E-002   1.6826107113868408E-002   1.4427384145414696E-003
  -5.2764573305869859E-002   1.6077247546115565E-002   2.3338016219144365E-003
  -4.9985636396857519E-002   1.5278348232654450E-002   3.6990277978670074E-003
  -4.7206699487845144E-002   1.4429409173485536E-002   5.5384169423991769E-003
  -6.1825313538050874E-002   1.8933684420337160E-002  -8.2080970118377783E-003
  -5.8503690855830071E-002   1.8125869643340731E-002  -7.6442346442483489E-003
  -5.5182068173609100E-002   1.7272361034514294E-002  -6.4691636988214452E-003
  -5.1860445491388185E-002   1.6373158593855533E-002  -4.6828841755567341E-003
  -4.8538822809167326E-002   1.5428262321365960E-002  -2.2853960744548818E-003
  -3.9163398224070667E-002   1.1432849729843375E-002   2.8447150454671055E-002
  -3.6397583812315309E-002   1.0802303720836015E-002   2.7344429480894328E-002
  -3.3631769400559952E-002   1.0095878019568932E-002   2.6476287171114554E-002
  -3.0865954988804609E-002   9.3135726260421894E-003   2.5842723525331596E-002
  -2.8100140577049210E-002   8.4553875402557654E-003   2.5443738543545535E-002
  -4.2518987195296898E-002   1.2431702877724105E-002   2.0904690206962173E-002
  -3.9606764670592612E-002   1.1720296168700406E-002   2.0325331096211485E-002
  -3.6694542145888520E-002   1.0958856880148971E-002   1.9804209547361507E-002
  -3.3782319621184359E-002   1.0147385012069576E-002   1.9341325560412001E-002
  -3.0870097096480142E-002   9.2858805644620013E-003   1.8936679135363399E-002
  -4.5200087616555029E-002   1.3430556025604667E-002   1.3268445702871640E-002
  -4.2317798080998337E-002   1.2638288616565241E-002   1.3238295567878311E-002
  -3.9435508545441589E-002   1.1821835740729439E-002   1.3090041892689933E-002
  -3.6553219009884910E-002   1.0981197398096849E-002   1.2823684677305505E-002
  -3.3670929474328211E-002   1.0116373588668237E-002   1.2439223921725751E-002
  -4.7206699487845144E-002   1.4429409173485536E-002   5.5384169423991769E-003
  -4.4530684043532207E-002   1.3556281064429854E-002   6.0833228958954919E-003
  -4.1854668599219325E-002   1.2684814601309304E-002   6.3337842070993917E-003
  -3.9178653154906359E-002   1.1815009784124511E-002   6.2898008760120163E-003
  -3.6502637710593505E-002   1.0946866612874584E-002   5.9513729026325832E-003
  -4.8538822809167326E-002   1.5428262321365960E-002  -2.2853960744548818E-003
  -4.6245422558194416E-002   1.4474273512294467E-002  -1.1395869197381447E-003
  -4.3952022307221561E-002   1.3547793461889945E-002  -4.6456350940884961E-004
  -4.1658622056248706E-002   1.2648822170151952E-002  -2.6032584346850213E-004
  -3.9365221805275796E-002   1.1777359637080931E-002  -5.2687392191608229E-004
  -2.8100140577049210E-002   8.4553875402557654E-003   2.5443738543545535E-002
  -2.5751860541977617E-002   7.5576720867148173E-003   2.5096577811096532E-002
  -2.3403580506906010E-002   6.6567755899232250E-003   2.4651472191600299E-002
  -2.1055300471834425E-002   5.7526980498820574E-003   2.4108421685056614E-002
  -1.8707020436762811E-002   4.8454394665904399E-003   2.3467426291465587E-002
  -3.0870097096480142E-002   9.2858805644620013E-003   1.8936679135363399E-002
  -2.8599582967608506E-002   8.4172423855604639E-003   1.8595113562189347E-002
  -2.6329068838736841E-002   7.5843693235984055E-003   1.8195961063662558E-002
  -2.4058554709865176E-002   6.7872613785760760E-003   1.7739221639783281E-002
  -2.1788040580993484E-002   6.0259185504932811E-003   1.7224895290551101E-002
  -3.3670929474328211E-002   1.0116373588668237E-002   1.2439223921725751E-002
  -3.1437823289961815E-002   9.2768126844061938E-003   1.2142199668016190E-002
  -2.9204717105595395E-002   8.5119630572733362E-003   1.1827946450648941E-002
  -2.6971610921228913E-002   7.8218247072697547E-003   1.1496464269623620E-002
  -2.4738504736862524E-002   7.2063976343959002E-003   1.1147753124940457E-002
  -3.6502637710593505E-002   1.0946866612874584E-002   5.9513729026325832E-003
  -3.4266581509037664E-002   1.0136382983251438E-002   5.7378361285775545E-003
  -3.2030525307481746E-002   9.4395567909483918E-003   5.5474283525591764E-003
  -2.9794469105925831E-002   8.8563880359637699E-003   5.3801495745779693E-003
  -2.7558412904369976E-002   8.3868767182982418E-003   5.2359997946333503E-003
  -3.9365221805275796E-002   1.1777359637080931E-002  -5.2687392191608229E-004
  -3.7085857624835850E-002   1.0995953282097348E-002  -6.1797705612681719E-004
  -3.4806493444395792E-002   1.0367150524623225E-002  -6.4559323060600637E-004
  -3.2527129263955817E-002   9.8909513646573965E-003  -6.0972244535362902E-004
  -3.0247765083515787E-002   9.5673558022013605E-003  -5.1036470037013615E-004
  -1.8707020436762811E-002   4.8454394665904399E-003   2.3467426291465587E-002
  -1.5677966359659623E-002   4.1229110016101633E-003   2.4284049213877612E-002
  -1.2648912282556490E-002   3.7730238165027408E-003   2.5568456961449382E-002
  -9.6198582054533438E-003   3.7957779112673257E-003   2.7320649534180980E-002
  -6.5908041283501695E-003   4.1911732859052364E-003   2.9540626932072378E-002
  -2.1788040580993484E-002   6.0259185504932811E-003   1.7224895290551101E-002
  -1.8558272341130028E-002   5.3706688355484866E-003   1.8179534733529734E-002
  -1.5328504101266530E-002   4.8918402299389374E-003   1.9067817676868853E-002
  -1.2098735861402976E-002   4.5894327336660212E-003   1.9889744120569222E-002
  -8.8689676215395752E-003   4.4634463467287944E-003   2.0645314064629994E-002
  -2.4738504736862524E-002   7.2063976343959002E-003   1.1147753124940457E-002
  -2.1842163659037683E-002   6.6184266694861160E-003   1.2044188917948645E-002
  -1.8945822581212815E-002   6.0106566433759390E-003   1.2340126886518726E-002
  -1.6049481503387957E-002   5.3830875560646127E-003   1.2035567030651007E-002
  -1.3153140425563106E-002   4.7357194075523523E-003   1.1130509350344653E-002
  -2.7558412904369976E-002   8.3868767182982418E-003   5.2359997946333503E-003
  -2.5529640313382701E-002   7.8661845034240924E-003   5.8780117671346083E-003
  -2.3500867722395347E-002   7.1294730568118719E-003   5.3853845903987438E-003
  -2.1472095131408055E-002   6.1767423784629231E-003   3.7581182644260760E-003
  -1.9443322540420714E-002   5.0079924683765764E-003   9.9621278921598055E-004
  -3.0247765083515787E-002   9.5673558022013605E-003  -5.1036470037013615E-004
  -2.9620702304165025E-002   9.1139423373622908E-003  -3.1899671891255643E-004
  -2.8993639524814208E-002   8.2482894702488041E-003  -1.7964092114909347E-003
  -2.8366576745463418E-002   6.9703972008619275E-003  -4.9426021781049656E-003
  -2.7739513966112628E-002   5.2802655291996903E-003  -9.7575756187551210E-003
  -6.5908041283501695E-003   4.1911732859052364E-003   2.9540626932072378E-002
  -6.0600396527281941E-003   6.1598885544258408E-003   3.4032670047272062E-002
  -5.5292751771062465E-003   1.0902602330841060E-002   3.9208901538462682E-002
  -4.9985107014842989E-003   1.8419314615151033E-002   4.5069321405643847E-002
  -4.4677462258623235E-003   2.8710025407355122E-002   5.1613929648816281E-002
  -8.8689676215395752E-003   4.4634463467287944E-003   2.0645314064629994E-002
  -7.5827286921807957E-003   5.6695174345224308E-003   2.5833480120751651E-002
  -6.2964897628220023E-003   9.3632823624419659E-003   3.1848406708355981E-002
  -5.0102508334631812E-003   1.5544741130486893E-002   3.8690093827443234E-002
  -3.7240119041043185E-003   2.4213893738658010E-002   4.6358541478013437E-002
  -1.3153140425563106E-002   4.7357194075523523E-003   1.1130509350344653E-002
  -1.0968854886975486E-002   5.1791463146191319E-003   1.6728493679619649E-002
  -8.7845693483878176E-003   7.8239623940424274E-003   2.3295810695869501E-002
  -6.6002838098002184E-003   1.2670167645823197E-002   3.0832460399094486E-002
  -4.4159982712125290E-003   1.9717762069960676E-002   3.9338442789293548E-002
  -1.9443322540420714E-002   5.0079924683765764E-003   9.9621278921598055E-004
  -1.6218418237112266E-002   4.6887751947155554E-003   6.7177107238757944E-003
  -1.2993513933803765E-002   6.2846424256424449E-003   1.3551113501002555E-002
  -9.7686096304950652E-003   9.7955941611589450E-003   2.1496421120595903E-002
  -6.5437053271868162E-003   1.5221630401263675E-002   3.0553633582656392E-002
  -2.7739513966112628E-002   5.2802655291996903E-003  -9.7575756187551210E-003
  -2.3331418742591148E-002   4.1984040748126450E-003  -4.1988687464794006E-003
  -1.8923323519069724E-002   4.7453224572429620E-003   2.6143151237549844E-003
  -1.4515228295548382E-002   6.9210206764950405E-003   1.0681975991948700E-002
  -1.0107133072026819E-002   1.0725498732566230E-002   2.0004113858101080E-002
 </DataArray>
 </PointData>
 </Piece>
 </UnstructuredGrid>
 </VTKFile>
