 <VTKFile type="UnstructuredGrid"  version="0.1"   >
 <UnstructuredGrid>
 <Piece  NumberOfPoints="          1600 "  NumberOfCells="         1024 ">
 <Points>
 <DataArray  type="Float64" NumberOfComponents="3"  format="ascii" >
   0.0000000000000000        0.0000000000000000        0.0000000000000000     
   3.1250000000000000E-002   0.0000000000000000        0.0000000000000000     
   6.2500000000000000E-002   0.0000000000000000        0.0000000000000000     
   9.3750000000000000E-002   0.0000000000000000        0.0000000000000000     
  0.12500000000000000        0.0000000000000000        0.0000000000000000     
   0.0000000000000000        3.1250000000000000E-002   0.0000000000000000     
   3.1250000000000000E-002   3.1250000000000000E-002   0.0000000000000000     
   6.2500000000000000E-002   3.1250000000000000E-002   0.0000000000000000     
   9.3750000000000000E-002   3.1250000000000000E-002   0.0000000000000000     
  0.12500000000000000        3.1250000000000000E-002   0.0000000000000000     
   0.0000000000000000        6.2500000000000000E-002   0.0000000000000000     
   3.1250000000000000E-002   6.2500000000000000E-002   0.0000000000000000     
   6.2500000000000000E-002   6.2500000000000000E-002   0.0000000000000000     
   9.3750000000000000E-002   6.2500000000000000E-002   0.0000000000000000     
  0.12500000000000000        6.2500000000000000E-002   0.0000000000000000     
   0.0000000000000000        9.3750000000000000E-002   0.0000000000000000     
   3.1250000000000000E-002   9.3750000000000000E-002   0.0000000000000000     
   6.2500000000000000E-002   9.3750000000000000E-002   0.0000000000000000     
   9.3750000000000000E-002   9.3750000000000000E-002   0.0000000000000000     
  0.12500000000000000        9.3750000000000000E-002   0.0000000000000000     
   0.0000000000000000       0.12500000000000000        0.0000000000000000     
   3.1250000000000000E-002  0.12500000000000000        0.0000000000000000     
   6.2500000000000000E-002  0.12500000000000000        0.0000000000000000     
   9.3750000000000000E-002  0.12500000000000000        0.0000000000000000     
  0.12500000000000000       0.12500000000000000        0.0000000000000000     
  0.12500000000000000        0.0000000000000000        0.0000000000000000     
  0.15625000000000000        0.0000000000000000        0.0000000000000000     
  0.18750000000000000        0.0000000000000000        0.0000000000000000     
  0.21875000000000000        0.0000000000000000        0.0000000000000000     
  0.25000000000000000        0.0000000000000000        0.0000000000000000     
  0.12500000000000000        3.1250000000000000E-002   0.0000000000000000     
  0.15625000000000000        3.1250000000000000E-002   0.0000000000000000     
  0.18750000000000000        3.1250000000000000E-002   0.0000000000000000     
  0.21875000000000000        3.1250000000000000E-002   0.0000000000000000     
  0.25000000000000000        3.1250000000000000E-002   0.0000000000000000     
  0.12500000000000000        6.2500000000000000E-002   0.0000000000000000     
  0.15625000000000000        6.2500000000000000E-002   0.0000000000000000     
  0.18750000000000000        6.2500000000000000E-002   0.0000000000000000     
  0.21875000000000000        6.2500000000000000E-002   0.0000000000000000     
  0.25000000000000000        6.2500000000000000E-002   0.0000000000000000     
  0.12500000000000000        9.3750000000000000E-002   0.0000000000000000     
  0.15625000000000000        9.3750000000000000E-002   0.0000000000000000     
  0.18750000000000000        9.3750000000000000E-002   0.0000000000000000     
  0.21875000000000000        9.3750000000000000E-002   0.0000000000000000     
  0.25000000000000000        9.3750000000000000E-002   0.0000000000000000     
  0.12500000000000000       0.12500000000000000        0.0000000000000000     
  0.15625000000000000       0.12500000000000000        0.0000000000000000     
  0.18750000000000000       0.12500000000000000        0.0000000000000000     
  0.21875000000000000       0.12500000000000000        0.0000000000000000     
  0.25000000000000000       0.12500000000000000        0.0000000000000000     
  0.25000000000000000        0.0000000000000000        0.0000000000000000     
  0.28125000000000000        0.0000000000000000        0.0000000000000000     
  0.31250000000000000        0.0000000000000000        0.0000000000000000     
  0.34375000000000000        0.0000000000000000        0.0000000000000000     
  0.37500000000000000        0.0000000000000000        0.0000000000000000     
  0.25000000000000000        3.1250000000000000E-002   0.0000000000000000     
  0.28125000000000000        3.1250000000000000E-002   0.0000000000000000     
  0.31250000000000000        3.1250000000000000E-002   0.0000000000000000     
  0.34375000000000000        3.1250000000000000E-002   0.0000000000000000     
  0.37500000000000000        3.1250000000000000E-002   0.0000000000000000     
  0.25000000000000000        6.2500000000000000E-002   0.0000000000000000     
  0.28125000000000000        6.2500000000000000E-002   0.0000000000000000     
  0.31250000000000000        6.2500000000000000E-002   0.0000000000000000     
  0.34375000000000000        6.2500000000000000E-002   0.0000000000000000     
  0.37500000000000000        6.2500000000000000E-002   0.0000000000000000     
  0.25000000000000000        9.3750000000000000E-002   0.0000000000000000     
  0.28125000000000000        9.3750000000000000E-002   0.0000000000000000     
  0.31250000000000000        9.3750000000000000E-002   0.0000000000000000     
  0.34375000000000000        9.3750000000000000E-002   0.0000000000000000     
  0.37500000000000000        9.3750000000000000E-002   0.0000000000000000     
  0.25000000000000000       0.12500000000000000        0.0000000000000000     
  0.28125000000000000       0.12500000000000000        0.0000000000000000     
  0.31250000000000000       0.12500000000000000        0.0000000000000000     
  0.34375000000000000       0.12500000000000000        0.0000000000000000     
  0.37500000000000000       0.12500000000000000        0.0000000000000000     
  0.37500000000000000        0.0000000000000000        0.0000000000000000     
  0.40625000000000000        0.0000000000000000        0.0000000000000000     
  0.43750000000000000        0.0000000000000000        0.0000000000000000     
  0.46875000000000000        0.0000000000000000        0.0000000000000000     
  0.50000000000000000        0.0000000000000000        0.0000000000000000     
  0.37500000000000000        3.1250000000000000E-002   0.0000000000000000     
  0.40625000000000000        3.1250000000000000E-002   0.0000000000000000     
  0.43750000000000000        3.1250000000000000E-002   0.0000000000000000     
  0.46875000000000000        3.1250000000000000E-002   0.0000000000000000     
  0.50000000000000000        3.1250000000000000E-002   0.0000000000000000     
  0.37500000000000000        6.2500000000000000E-002   0.0000000000000000     
  0.40625000000000000        6.2500000000000000E-002   0.0000000000000000     
  0.43750000000000000        6.2500000000000000E-002   0.0000000000000000     
  0.46875000000000000        6.2500000000000000E-002   0.0000000000000000     
  0.50000000000000000        6.2500000000000000E-002   0.0000000000000000     
  0.37500000000000000        9.3750000000000000E-002   0.0000000000000000     
  0.40625000000000000        9.3750000000000000E-002   0.0000000000000000     
  0.43750000000000000        9.3750000000000000E-002   0.0000000000000000     
  0.46875000000000000        9.3750000000000000E-002   0.0000000000000000     
  0.50000000000000000        9.3750000000000000E-002   0.0000000000000000     
  0.37500000000000000       0.12500000000000000        0.0000000000000000     
  0.40625000000000000       0.12500000000000000        0.0000000000000000     
  0.43750000000000000       0.12500000000000000        0.0000000000000000     
  0.46875000000000000       0.12500000000000000        0.0000000000000000     
  0.50000000000000000       0.12500000000000000        0.0000000000000000     
  0.50000000000000000        0.0000000000000000        0.0000000000000000     
  0.53125000000000000        0.0000000000000000        0.0000000000000000     
  0.56250000000000000        0.0000000000000000        0.0000000000000000     
  0.59375000000000000        0.0000000000000000        0.0000000000000000     
  0.62500000000000000        0.0000000000000000        0.0000000000000000     
  0.50000000000000000        3.1250000000000000E-002   0.0000000000000000     
  0.53125000000000000        3.1250000000000000E-002   0.0000000000000000     
  0.56250000000000000        3.1250000000000000E-002   0.0000000000000000     
  0.59375000000000000        3.1250000000000000E-002   0.0000000000000000     
  0.62500000000000000        3.1250000000000000E-002   0.0000000000000000     
  0.50000000000000000        6.2500000000000000E-002   0.0000000000000000     
  0.53125000000000000        6.2500000000000000E-002   0.0000000000000000     
  0.56250000000000000        6.2500000000000000E-002   0.0000000000000000     
  0.59375000000000000        6.2500000000000000E-002   0.0000000000000000     
  0.62500000000000000        6.2500000000000000E-002   0.0000000000000000     
  0.50000000000000000        9.3750000000000000E-002   0.0000000000000000     
  0.53125000000000000        9.3750000000000000E-002   0.0000000000000000     
  0.56250000000000000        9.3750000000000000E-002   0.0000000000000000     
  0.59375000000000000        9.3750000000000000E-002   0.0000000000000000     
  0.62500000000000000        9.3750000000000000E-002   0.0000000000000000     
  0.50000000000000000       0.12500000000000000        0.0000000000000000     
  0.53125000000000000       0.12500000000000000        0.0000000000000000     
  0.56250000000000000       0.12500000000000000        0.0000000000000000     
  0.59375000000000000       0.12500000000000000        0.0000000000000000     
  0.62500000000000000       0.12500000000000000        0.0000000000000000     
  0.62500000000000000        0.0000000000000000        0.0000000000000000     
  0.65625000000000000        0.0000000000000000        0.0000000000000000     
  0.68750000000000000        0.0000000000000000        0.0000000000000000     
  0.71875000000000000        0.0000000000000000        0.0000000000000000     
  0.75000000000000000        0.0000000000000000        0.0000000000000000     
  0.62500000000000000        3.1250000000000000E-002   0.0000000000000000     
  0.65625000000000000        3.1250000000000000E-002   0.0000000000000000     
  0.68750000000000000        3.1250000000000000E-002   0.0000000000000000     
  0.71875000000000000        3.1250000000000000E-002   0.0000000000000000     
  0.75000000000000000        3.1250000000000000E-002   0.0000000000000000     
  0.62500000000000000        6.2500000000000000E-002   0.0000000000000000     
  0.65625000000000000        6.2500000000000000E-002   0.0000000000000000     
  0.68750000000000000        6.2500000000000000E-002   0.0000000000000000     
  0.71875000000000000        6.2500000000000000E-002   0.0000000000000000     
  0.75000000000000000        6.2500000000000000E-002   0.0000000000000000     
  0.62500000000000000        9.3750000000000000E-002   0.0000000000000000     
  0.65625000000000000        9.3750000000000000E-002   0.0000000000000000     
  0.68750000000000000        9.3750000000000000E-002   0.0000000000000000     
  0.71875000000000000        9.3750000000000000E-002   0.0000000000000000     
  0.75000000000000000        9.3750000000000000E-002   0.0000000000000000     
  0.62500000000000000       0.12500000000000000        0.0000000000000000     
  0.65625000000000000       0.12500000000000000        0.0000000000000000     
  0.68750000000000000       0.12500000000000000        0.0000000000000000     
  0.71875000000000000       0.12500000000000000        0.0000000000000000     
  0.75000000000000000       0.12500000000000000        0.0000000000000000     
  0.75000000000000000        0.0000000000000000        0.0000000000000000     
  0.78125000000000000        0.0000000000000000        0.0000000000000000     
  0.81250000000000000        0.0000000000000000        0.0000000000000000     
  0.84375000000000000        0.0000000000000000        0.0000000000000000     
  0.87500000000000000        0.0000000000000000        0.0000000000000000     
  0.75000000000000000        3.1250000000000000E-002   0.0000000000000000     
  0.78125000000000000        3.1250000000000000E-002   0.0000000000000000     
  0.81250000000000000        3.1250000000000000E-002   0.0000000000000000     
  0.84375000000000000        3.1250000000000000E-002   0.0000000000000000     
  0.87500000000000000        3.1250000000000000E-002   0.0000000000000000     
  0.75000000000000000        6.2500000000000000E-002   0.0000000000000000     
  0.78125000000000000        6.2500000000000000E-002   0.0000000000000000     
  0.81250000000000000        6.2500000000000000E-002   0.0000000000000000     
  0.84375000000000000        6.2500000000000000E-002   0.0000000000000000     
  0.87500000000000000        6.2500000000000000E-002   0.0000000000000000     
  0.75000000000000000        9.3750000000000000E-002   0.0000000000000000     
  0.78125000000000000        9.3750000000000000E-002   0.0000000000000000     
  0.81250000000000000        9.3750000000000000E-002   0.0000000000000000     
  0.84375000000000000        9.3750000000000000E-002   0.0000000000000000     
  0.87500000000000000        9.3750000000000000E-002   0.0000000000000000     
  0.75000000000000000       0.12500000000000000        0.0000000000000000     
  0.78125000000000000       0.12500000000000000        0.0000000000000000     
  0.81250000000000000       0.12500000000000000        0.0000000000000000     
  0.84375000000000000       0.12500000000000000        0.0000000000000000     
  0.87500000000000000       0.12500000000000000        0.0000000000000000     
  0.87500000000000000        0.0000000000000000        0.0000000000000000     
  0.90625000000000000        0.0000000000000000        0.0000000000000000     
  0.93750000000000000        0.0000000000000000        0.0000000000000000     
  0.96875000000000000        0.0000000000000000        0.0000000000000000     
   1.0000000000000000        0.0000000000000000        0.0000000000000000     
  0.87500000000000000        3.1250000000000000E-002   0.0000000000000000     
  0.90625000000000000        3.1250000000000000E-002   0.0000000000000000     
  0.93750000000000000        3.1250000000000000E-002   0.0000000000000000     
  0.96875000000000000        3.1250000000000000E-002   0.0000000000000000     
   1.0000000000000000        3.1250000000000000E-002   0.0000000000000000     
  0.87500000000000000        6.2500000000000000E-002   0.0000000000000000     
  0.90625000000000000        6.2500000000000000E-002   0.0000000000000000     
  0.93750000000000000        6.2500000000000000E-002   0.0000000000000000     
  0.96875000000000000        6.2500000000000000E-002   0.0000000000000000     
   1.0000000000000000        6.2500000000000000E-002   0.0000000000000000     
  0.87500000000000000        9.3750000000000000E-002   0.0000000000000000     
  0.90625000000000000        9.3750000000000000E-002   0.0000000000000000     
  0.93750000000000000        9.3750000000000000E-002   0.0000000000000000     
  0.96875000000000000        9.3750000000000000E-002   0.0000000000000000     
   1.0000000000000000        9.3750000000000000E-002   0.0000000000000000     
  0.87500000000000000       0.12500000000000000        0.0000000000000000     
  0.90625000000000000       0.12500000000000000        0.0000000000000000     
  0.93750000000000000       0.12500000000000000        0.0000000000000000     
  0.96875000000000000       0.12500000000000000        0.0000000000000000     
   1.0000000000000000       0.12500000000000000        0.0000000000000000     
   0.0000000000000000       0.12500000000000000        0.0000000000000000     
   3.1250000000000000E-002  0.12500000000000000        0.0000000000000000     
   6.2500000000000000E-002  0.12500000000000000        0.0000000000000000     
   9.3750000000000000E-002  0.12500000000000000        0.0000000000000000     
  0.12500000000000000       0.12500000000000000        0.0000000000000000     
   0.0000000000000000       0.15625000000000000        0.0000000000000000     
   3.1250000000000000E-002  0.15625000000000000        0.0000000000000000     
   6.2500000000000000E-002  0.15625000000000000        0.0000000000000000     
   9.3750000000000000E-002  0.15625000000000000        0.0000000000000000     
  0.12500000000000000       0.15625000000000000        0.0000000000000000     
   0.0000000000000000       0.18750000000000000        0.0000000000000000     
   3.1250000000000000E-002  0.18750000000000000        0.0000000000000000     
   6.2500000000000000E-002  0.18750000000000000        0.0000000000000000     
   9.3750000000000000E-002  0.18750000000000000        0.0000000000000000     
  0.12500000000000000       0.18750000000000000        0.0000000000000000     
   0.0000000000000000       0.21875000000000000        0.0000000000000000     
   3.1250000000000000E-002  0.21875000000000000        0.0000000000000000     
   6.2500000000000000E-002  0.21875000000000000        0.0000000000000000     
   9.3750000000000000E-002  0.21875000000000000        0.0000000000000000     
  0.12500000000000000       0.21875000000000000        0.0000000000000000     
   0.0000000000000000       0.25000000000000000        0.0000000000000000     
   3.1250000000000000E-002  0.25000000000000000        0.0000000000000000     
   6.2500000000000000E-002  0.25000000000000000        0.0000000000000000     
   9.3750000000000000E-002  0.25000000000000000        0.0000000000000000     
  0.12500000000000000       0.25000000000000000        0.0000000000000000     
  0.12500000000000000       0.12500000000000000        0.0000000000000000     
  0.15625000000000000       0.12500000000000000        0.0000000000000000     
  0.18750000000000000       0.12500000000000000        0.0000000000000000     
  0.21875000000000000       0.12500000000000000        0.0000000000000000     
  0.25000000000000000       0.12500000000000000        0.0000000000000000     
  0.12500000000000000       0.15625000000000000        0.0000000000000000     
  0.15625000000000000       0.15625000000000000        0.0000000000000000     
  0.18750000000000000       0.15625000000000000        0.0000000000000000     
  0.21875000000000000       0.15625000000000000        0.0000000000000000     
  0.25000000000000000       0.15625000000000000        0.0000000000000000     
  0.12500000000000000       0.18750000000000000        0.0000000000000000     
  0.15625000000000000       0.18750000000000000        0.0000000000000000     
  0.18750000000000000       0.18750000000000000        0.0000000000000000     
  0.21875000000000000       0.18750000000000000        0.0000000000000000     
  0.25000000000000000       0.18750000000000000        0.0000000000000000     
  0.12500000000000000       0.21875000000000000        0.0000000000000000     
  0.15625000000000000       0.21875000000000000        0.0000000000000000     
  0.18750000000000000       0.21875000000000000        0.0000000000000000     
  0.21875000000000000       0.21875000000000000        0.0000000000000000     
  0.25000000000000000       0.21875000000000000        0.0000000000000000     
  0.12500000000000000       0.25000000000000000        0.0000000000000000     
  0.15625000000000000       0.25000000000000000        0.0000000000000000     
  0.18750000000000000       0.25000000000000000        0.0000000000000000     
  0.21875000000000000       0.25000000000000000        0.0000000000000000     
  0.25000000000000000       0.25000000000000000        0.0000000000000000     
  0.25000000000000000       0.12500000000000000        0.0000000000000000     
  0.28125000000000000       0.12500000000000000        0.0000000000000000     
  0.31250000000000000       0.12500000000000000        0.0000000000000000     
  0.34375000000000000       0.12500000000000000        0.0000000000000000     
  0.37500000000000000       0.12500000000000000        0.0000000000000000     
  0.25000000000000000       0.15625000000000000        0.0000000000000000     
  0.28125000000000000       0.15625000000000000        0.0000000000000000     
  0.31250000000000000       0.15625000000000000        0.0000000000000000     
  0.34375000000000000       0.15625000000000000        0.0000000000000000     
  0.37500000000000000       0.15625000000000000        0.0000000000000000     
  0.25000000000000000       0.18750000000000000        0.0000000000000000     
  0.28125000000000000       0.18750000000000000        0.0000000000000000     
  0.31250000000000000       0.18750000000000000        0.0000000000000000     
  0.34375000000000000       0.18750000000000000        0.0000000000000000     
  0.37500000000000000       0.18750000000000000        0.0000000000000000     
  0.25000000000000000       0.21875000000000000        0.0000000000000000     
  0.28125000000000000       0.21875000000000000        0.0000000000000000     
  0.31250000000000000       0.21875000000000000        0.0000000000000000     
  0.34375000000000000       0.21875000000000000        0.0000000000000000     
  0.37500000000000000       0.21875000000000000        0.0000000000000000     
  0.25000000000000000       0.25000000000000000        0.0000000000000000     
  0.28125000000000000       0.25000000000000000        0.0000000000000000     
  0.31250000000000000       0.25000000000000000        0.0000000000000000     
  0.34375000000000000       0.25000000000000000        0.0000000000000000     
  0.37500000000000000       0.25000000000000000        0.0000000000000000     
  0.37500000000000000       0.12500000000000000        0.0000000000000000     
  0.40625000000000000       0.12500000000000000        0.0000000000000000     
  0.43750000000000000       0.12500000000000000        0.0000000000000000     
  0.46875000000000000       0.12500000000000000        0.0000000000000000     
  0.50000000000000000       0.12500000000000000        0.0000000000000000     
  0.37500000000000000       0.15625000000000000        0.0000000000000000     
  0.40625000000000000       0.15625000000000000        0.0000000000000000     
  0.43750000000000000       0.15625000000000000        0.0000000000000000     
  0.46875000000000000       0.15625000000000000        0.0000000000000000     
  0.50000000000000000       0.15625000000000000        0.0000000000000000     
  0.37500000000000000       0.18750000000000000        0.0000000000000000     
  0.40625000000000000       0.18750000000000000        0.0000000000000000     
  0.43750000000000000       0.18750000000000000        0.0000000000000000     
  0.46875000000000000       0.18750000000000000        0.0000000000000000     
  0.50000000000000000       0.18750000000000000        0.0000000000000000     
  0.37500000000000000       0.21875000000000000        0.0000000000000000     
  0.40625000000000000       0.21875000000000000        0.0000000000000000     
  0.43750000000000000       0.21875000000000000        0.0000000000000000     
  0.46875000000000000       0.21875000000000000        0.0000000000000000     
  0.50000000000000000       0.21875000000000000        0.0000000000000000     
  0.37500000000000000       0.25000000000000000        0.0000000000000000     
  0.40625000000000000       0.25000000000000000        0.0000000000000000     
  0.43750000000000000       0.25000000000000000        0.0000000000000000     
  0.46875000000000000       0.25000000000000000        0.0000000000000000     
  0.50000000000000000       0.25000000000000000        0.0000000000000000     
  0.50000000000000000       0.12500000000000000        0.0000000000000000     
  0.53125000000000000       0.12500000000000000        0.0000000000000000     
  0.56250000000000000       0.12500000000000000        0.0000000000000000     
  0.59375000000000000       0.12500000000000000        0.0000000000000000     
  0.62500000000000000       0.12500000000000000        0.0000000000000000     
  0.50000000000000000       0.15625000000000000        0.0000000000000000     
  0.53125000000000000       0.15625000000000000        0.0000000000000000     
  0.56250000000000000       0.15625000000000000        0.0000000000000000     
  0.59375000000000000       0.15625000000000000        0.0000000000000000     
  0.62500000000000000       0.15625000000000000        0.0000000000000000     
  0.50000000000000000       0.18750000000000000        0.0000000000000000     
  0.53125000000000000       0.18750000000000000        0.0000000000000000     
  0.56250000000000000       0.18750000000000000        0.0000000000000000     
  0.59375000000000000       0.18750000000000000        0.0000000000000000     
  0.62500000000000000       0.18750000000000000        0.0000000000000000     
  0.50000000000000000       0.21875000000000000        0.0000000000000000     
  0.53125000000000000       0.21875000000000000        0.0000000000000000     
  0.56250000000000000       0.21875000000000000        0.0000000000000000     
  0.59375000000000000       0.21875000000000000        0.0000000000000000     
  0.62500000000000000       0.21875000000000000        0.0000000000000000     
  0.50000000000000000       0.25000000000000000        0.0000000000000000     
  0.53125000000000000       0.25000000000000000        0.0000000000000000     
  0.56250000000000000       0.25000000000000000        0.0000000000000000     
  0.59375000000000000       0.25000000000000000        0.0000000000000000     
  0.62500000000000000       0.25000000000000000        0.0000000000000000     
  0.62500000000000000       0.12500000000000000        0.0000000000000000     
  0.65625000000000000       0.12500000000000000        0.0000000000000000     
  0.68750000000000000       0.12500000000000000        0.0000000000000000     
  0.71875000000000000       0.12500000000000000        0.0000000000000000     
  0.75000000000000000       0.12500000000000000        0.0000000000000000     
  0.62500000000000000       0.15625000000000000        0.0000000000000000     
  0.65625000000000000       0.15625000000000000        0.0000000000000000     
  0.68750000000000000       0.15625000000000000        0.0000000000000000     
  0.71875000000000000       0.15625000000000000        0.0000000000000000     
  0.75000000000000000       0.15625000000000000        0.0000000000000000     
  0.62500000000000000       0.18750000000000000        0.0000000000000000     
  0.65625000000000000       0.18750000000000000        0.0000000000000000     
  0.68750000000000000       0.18750000000000000        0.0000000000000000     
  0.71875000000000000       0.18750000000000000        0.0000000000000000     
  0.75000000000000000       0.18750000000000000        0.0000000000000000     
  0.62500000000000000       0.21875000000000000        0.0000000000000000     
  0.65625000000000000       0.21875000000000000        0.0000000000000000     
  0.68750000000000000       0.21875000000000000        0.0000000000000000     
  0.71875000000000000       0.21875000000000000        0.0000000000000000     
  0.75000000000000000       0.21875000000000000        0.0000000000000000     
  0.62500000000000000       0.25000000000000000        0.0000000000000000     
  0.65625000000000000       0.25000000000000000        0.0000000000000000     
  0.68750000000000000       0.25000000000000000        0.0000000000000000     
  0.71875000000000000       0.25000000000000000        0.0000000000000000     
  0.75000000000000000       0.25000000000000000        0.0000000000000000     
  0.75000000000000000       0.12500000000000000        0.0000000000000000     
  0.78125000000000000       0.12500000000000000        0.0000000000000000     
  0.81250000000000000       0.12500000000000000        0.0000000000000000     
  0.84375000000000000       0.12500000000000000        0.0000000000000000     
  0.87500000000000000       0.12500000000000000        0.0000000000000000     
  0.75000000000000000       0.15625000000000000        0.0000000000000000     
  0.78125000000000000       0.15625000000000000        0.0000000000000000     
  0.81250000000000000       0.15625000000000000        0.0000000000000000     
  0.84375000000000000       0.15625000000000000        0.0000000000000000     
  0.87500000000000000       0.15625000000000000        0.0000000000000000     
  0.75000000000000000       0.18750000000000000        0.0000000000000000     
  0.78125000000000000       0.18750000000000000        0.0000000000000000     
  0.81250000000000000       0.18750000000000000        0.0000000000000000     
  0.84375000000000000       0.18750000000000000        0.0000000000000000     
  0.87500000000000000       0.18750000000000000        0.0000000000000000     
  0.75000000000000000       0.21875000000000000        0.0000000000000000     
  0.78125000000000000       0.21875000000000000        0.0000000000000000     
  0.81250000000000000       0.21875000000000000        0.0000000000000000     
  0.84375000000000000       0.21875000000000000        0.0000000000000000     
  0.87500000000000000       0.21875000000000000        0.0000000000000000     
  0.75000000000000000       0.25000000000000000        0.0000000000000000     
  0.78125000000000000       0.25000000000000000        0.0000000000000000     
  0.81250000000000000       0.25000000000000000        0.0000000000000000     
  0.84375000000000000       0.25000000000000000        0.0000000000000000     
  0.87500000000000000       0.25000000000000000        0.0000000000000000     
  0.87500000000000000       0.12500000000000000        0.0000000000000000     
  0.90625000000000000       0.12500000000000000        0.0000000000000000     
  0.93750000000000000       0.12500000000000000        0.0000000000000000     
  0.96875000000000000       0.12500000000000000        0.0000000000000000     
   1.0000000000000000       0.12500000000000000        0.0000000000000000     
  0.87500000000000000       0.15625000000000000        0.0000000000000000     
  0.90625000000000000       0.15625000000000000        0.0000000000000000     
  0.93750000000000000       0.15625000000000000        0.0000000000000000     
  0.96875000000000000       0.15625000000000000        0.0000000000000000     
   1.0000000000000000       0.15625000000000000        0.0000000000000000     
  0.87500000000000000       0.18750000000000000        0.0000000000000000     
  0.90625000000000000       0.18750000000000000        0.0000000000000000     
  0.93750000000000000       0.18750000000000000        0.0000000000000000     
  0.96875000000000000       0.18750000000000000        0.0000000000000000     
   1.0000000000000000       0.18750000000000000        0.0000000000000000     
  0.87500000000000000       0.21875000000000000        0.0000000000000000     
  0.90625000000000000       0.21875000000000000        0.0000000000000000     
  0.93750000000000000       0.21875000000000000        0.0000000000000000     
  0.96875000000000000       0.21875000000000000        0.0000000000000000     
   1.0000000000000000       0.21875000000000000        0.0000000000000000     
  0.87500000000000000       0.25000000000000000        0.0000000000000000     
  0.90625000000000000       0.25000000000000000        0.0000000000000000     
  0.93750000000000000       0.25000000000000000        0.0000000000000000     
  0.96875000000000000       0.25000000000000000        0.0000000000000000     
   1.0000000000000000       0.25000000000000000        0.0000000000000000     
   0.0000000000000000       0.25000000000000000        0.0000000000000000     
   3.1250000000000000E-002  0.25000000000000000        0.0000000000000000     
   6.2500000000000000E-002  0.25000000000000000        0.0000000000000000     
   9.3750000000000000E-002  0.25000000000000000        0.0000000000000000     
  0.12500000000000000       0.25000000000000000        0.0000000000000000     
   0.0000000000000000       0.28125000000000000        0.0000000000000000     
   3.1250000000000000E-002  0.28125000000000000        0.0000000000000000     
   6.2500000000000000E-002  0.28125000000000000        0.0000000000000000     
   9.3750000000000000E-002  0.28125000000000000        0.0000000000000000     
  0.12500000000000000       0.28125000000000000        0.0000000000000000     
   0.0000000000000000       0.31250000000000000        0.0000000000000000     
   3.1250000000000000E-002  0.31250000000000000        0.0000000000000000     
   6.2500000000000000E-002  0.31250000000000000        0.0000000000000000     
   9.3750000000000000E-002  0.31250000000000000        0.0000000000000000     
  0.12500000000000000       0.31250000000000000        0.0000000000000000     
   0.0000000000000000       0.34375000000000000        0.0000000000000000     
   3.1250000000000000E-002  0.34375000000000000        0.0000000000000000     
   6.2500000000000000E-002  0.34375000000000000        0.0000000000000000     
   9.3750000000000000E-002  0.34375000000000000        0.0000000000000000     
  0.12500000000000000       0.34375000000000000        0.0000000000000000     
   0.0000000000000000       0.37500000000000000        0.0000000000000000     
   3.1250000000000000E-002  0.37500000000000000        0.0000000000000000     
   6.2500000000000000E-002  0.37500000000000000        0.0000000000000000     
   9.3750000000000000E-002  0.37500000000000000        0.0000000000000000     
  0.12500000000000000       0.37500000000000000        0.0000000000000000     
  0.12500000000000000       0.25000000000000000        0.0000000000000000     
  0.15625000000000000       0.25000000000000000        0.0000000000000000     
  0.18750000000000000       0.25000000000000000        0.0000000000000000     
  0.21875000000000000       0.25000000000000000        0.0000000000000000     
  0.25000000000000000       0.25000000000000000        0.0000000000000000     
  0.12500000000000000       0.28125000000000000        0.0000000000000000     
  0.15625000000000000       0.28125000000000000        0.0000000000000000     
  0.18750000000000000       0.28125000000000000        0.0000000000000000     
  0.21875000000000000       0.28125000000000000        0.0000000000000000     
  0.25000000000000000       0.28125000000000000        0.0000000000000000     
  0.12500000000000000       0.31250000000000000        0.0000000000000000     
  0.15625000000000000       0.31250000000000000        0.0000000000000000     
  0.18750000000000000       0.31250000000000000        0.0000000000000000     
  0.21875000000000000       0.31250000000000000        0.0000000000000000     
  0.25000000000000000       0.31250000000000000        0.0000000000000000     
  0.12500000000000000       0.34375000000000000        0.0000000000000000     
  0.15625000000000000       0.34375000000000000        0.0000000000000000     
  0.18750000000000000       0.34375000000000000        0.0000000000000000     
  0.21875000000000000       0.34375000000000000        0.0000000000000000     
  0.25000000000000000       0.34375000000000000        0.0000000000000000     
  0.12500000000000000       0.37500000000000000        0.0000000000000000     
  0.15625000000000000       0.37500000000000000        0.0000000000000000     
  0.18750000000000000       0.37500000000000000        0.0000000000000000     
  0.21875000000000000       0.37500000000000000        0.0000000000000000     
  0.25000000000000000       0.37500000000000000        0.0000000000000000     
  0.25000000000000000       0.25000000000000000        0.0000000000000000     
  0.28125000000000000       0.25000000000000000        0.0000000000000000     
  0.31250000000000000       0.25000000000000000        0.0000000000000000     
  0.34375000000000000       0.25000000000000000        0.0000000000000000     
  0.37500000000000000       0.25000000000000000        0.0000000000000000     
  0.25000000000000000       0.28125000000000000        0.0000000000000000     
  0.28125000000000000       0.28125000000000000        0.0000000000000000     
  0.31250000000000000       0.28125000000000000        0.0000000000000000     
  0.34375000000000000       0.28125000000000000        0.0000000000000000     
  0.37500000000000000       0.28125000000000000        0.0000000000000000     
  0.25000000000000000       0.31250000000000000        0.0000000000000000     
  0.28125000000000000       0.31250000000000000        0.0000000000000000     
  0.31250000000000000       0.31250000000000000        0.0000000000000000     
  0.34375000000000000       0.31250000000000000        0.0000000000000000     
  0.37500000000000000       0.31250000000000000        0.0000000000000000     
  0.25000000000000000       0.34375000000000000        0.0000000000000000     
  0.28125000000000000       0.34375000000000000        0.0000000000000000     
  0.31250000000000000       0.34375000000000000        0.0000000000000000     
  0.34375000000000000       0.34375000000000000        0.0000000000000000     
  0.37500000000000000       0.34375000000000000        0.0000000000000000     
  0.25000000000000000       0.37500000000000000        0.0000000000000000     
  0.28125000000000000       0.37500000000000000        0.0000000000000000     
  0.31250000000000000       0.37500000000000000        0.0000000000000000     
  0.34375000000000000       0.37500000000000000        0.0000000000000000     
  0.37500000000000000       0.37500000000000000        0.0000000000000000     
  0.37500000000000000       0.25000000000000000        0.0000000000000000     
  0.40625000000000000       0.25000000000000000        0.0000000000000000     
  0.43750000000000000       0.25000000000000000        0.0000000000000000     
  0.46875000000000000       0.25000000000000000        0.0000000000000000     
  0.50000000000000000       0.25000000000000000        0.0000000000000000     
  0.37500000000000000       0.28125000000000000        0.0000000000000000     
  0.40625000000000000       0.28125000000000000        0.0000000000000000     
  0.43750000000000000       0.28125000000000000        0.0000000000000000     
  0.46875000000000000       0.28125000000000000        0.0000000000000000     
  0.50000000000000000       0.28125000000000000        0.0000000000000000     
  0.37500000000000000       0.31250000000000000        0.0000000000000000     
  0.40625000000000000       0.31250000000000000        0.0000000000000000     
  0.43750000000000000       0.31250000000000000        0.0000000000000000     
  0.46875000000000000       0.31250000000000000        0.0000000000000000     
  0.50000000000000000       0.31250000000000000        0.0000000000000000     
  0.37500000000000000       0.34375000000000000        0.0000000000000000     
  0.40625000000000000       0.34375000000000000        0.0000000000000000     
  0.43750000000000000       0.34375000000000000        0.0000000000000000     
  0.46875000000000000       0.34375000000000000        0.0000000000000000     
  0.50000000000000000       0.34375000000000000        0.0000000000000000     
  0.37500000000000000       0.37500000000000000        0.0000000000000000     
  0.40625000000000000       0.37500000000000000        0.0000000000000000     
  0.43750000000000000       0.37500000000000000        0.0000000000000000     
  0.46875000000000000       0.37500000000000000        0.0000000000000000     
  0.50000000000000000       0.37500000000000000        0.0000000000000000     
  0.50000000000000000       0.25000000000000000        0.0000000000000000     
  0.53125000000000000       0.25000000000000000        0.0000000000000000     
  0.56250000000000000       0.25000000000000000        0.0000000000000000     
  0.59375000000000000       0.25000000000000000        0.0000000000000000     
  0.62500000000000000       0.25000000000000000        0.0000000000000000     
  0.50000000000000000       0.28125000000000000        0.0000000000000000     
  0.53125000000000000       0.28125000000000000        0.0000000000000000     
  0.56250000000000000       0.28125000000000000        0.0000000000000000     
  0.59375000000000000       0.28125000000000000        0.0000000000000000     
  0.62500000000000000       0.28125000000000000        0.0000000000000000     
  0.50000000000000000       0.31250000000000000        0.0000000000000000     
  0.53125000000000000       0.31250000000000000        0.0000000000000000     
  0.56250000000000000       0.31250000000000000        0.0000000000000000     
  0.59375000000000000       0.31250000000000000        0.0000000000000000     
  0.62500000000000000       0.31250000000000000        0.0000000000000000     
  0.50000000000000000       0.34375000000000000        0.0000000000000000     
  0.53125000000000000       0.34375000000000000        0.0000000000000000     
  0.56250000000000000       0.34375000000000000        0.0000000000000000     
  0.59375000000000000       0.34375000000000000        0.0000000000000000     
  0.62500000000000000       0.34375000000000000        0.0000000000000000     
  0.50000000000000000       0.37500000000000000        0.0000000000000000     
  0.53125000000000000       0.37500000000000000        0.0000000000000000     
  0.56250000000000000       0.37500000000000000        0.0000000000000000     
  0.59375000000000000       0.37500000000000000        0.0000000000000000     
  0.62500000000000000       0.37500000000000000        0.0000000000000000     
  0.62500000000000000       0.25000000000000000        0.0000000000000000     
  0.65625000000000000       0.25000000000000000        0.0000000000000000     
  0.68750000000000000       0.25000000000000000        0.0000000000000000     
  0.71875000000000000       0.25000000000000000        0.0000000000000000     
  0.75000000000000000       0.25000000000000000        0.0000000000000000     
  0.62500000000000000       0.28125000000000000        0.0000000000000000     
  0.65625000000000000       0.28125000000000000        0.0000000000000000     
  0.68750000000000000       0.28125000000000000        0.0000000000000000     
  0.71875000000000000       0.28125000000000000        0.0000000000000000     
  0.75000000000000000       0.28125000000000000        0.0000000000000000     
  0.62500000000000000       0.31250000000000000        0.0000000000000000     
  0.65625000000000000       0.31250000000000000        0.0000000000000000     
  0.68750000000000000       0.31250000000000000        0.0000000000000000     
  0.71875000000000000       0.31250000000000000        0.0000000000000000     
  0.75000000000000000       0.31250000000000000        0.0000000000000000     
  0.62500000000000000       0.34375000000000000        0.0000000000000000     
  0.65625000000000000       0.34375000000000000        0.0000000000000000     
  0.68750000000000000       0.34375000000000000        0.0000000000000000     
  0.71875000000000000       0.34375000000000000        0.0000000000000000     
  0.75000000000000000       0.34375000000000000        0.0000000000000000     
  0.62500000000000000       0.37500000000000000        0.0000000000000000     
  0.65625000000000000       0.37500000000000000        0.0000000000000000     
  0.68750000000000000       0.37500000000000000        0.0000000000000000     
  0.71875000000000000       0.37500000000000000        0.0000000000000000     
  0.75000000000000000       0.37500000000000000        0.0000000000000000     
  0.75000000000000000       0.25000000000000000        0.0000000000000000     
  0.78125000000000000       0.25000000000000000        0.0000000000000000     
  0.81250000000000000       0.25000000000000000        0.0000000000000000     
  0.84375000000000000       0.25000000000000000        0.0000000000000000     
  0.87500000000000000       0.25000000000000000        0.0000000000000000     
  0.75000000000000000       0.28125000000000000        0.0000000000000000     
  0.78125000000000000       0.28125000000000000        0.0000000000000000     
  0.81250000000000000       0.28125000000000000        0.0000000000000000     
  0.84375000000000000       0.28125000000000000        0.0000000000000000     
  0.87500000000000000       0.28125000000000000        0.0000000000000000     
  0.75000000000000000       0.31250000000000000        0.0000000000000000     
  0.78125000000000000       0.31250000000000000        0.0000000000000000     
  0.81250000000000000       0.31250000000000000        0.0000000000000000     
  0.84375000000000000       0.31250000000000000        0.0000000000000000     
  0.87500000000000000       0.31250000000000000        0.0000000000000000     
  0.75000000000000000       0.34375000000000000        0.0000000000000000     
  0.78125000000000000       0.34375000000000000        0.0000000000000000     
  0.81250000000000000       0.34375000000000000        0.0000000000000000     
  0.84375000000000000       0.34375000000000000        0.0000000000000000     
  0.87500000000000000       0.34375000000000000        0.0000000000000000     
  0.75000000000000000       0.37500000000000000        0.0000000000000000     
  0.78125000000000000       0.37500000000000000        0.0000000000000000     
  0.81250000000000000       0.37500000000000000        0.0000000000000000     
  0.84375000000000000       0.37500000000000000        0.0000000000000000     
  0.87500000000000000       0.37500000000000000        0.0000000000000000     
  0.87500000000000000       0.25000000000000000        0.0000000000000000     
  0.90625000000000000       0.25000000000000000        0.0000000000000000     
  0.93750000000000000       0.25000000000000000        0.0000000000000000     
  0.96875000000000000       0.25000000000000000        0.0000000000000000     
   1.0000000000000000       0.25000000000000000        0.0000000000000000     
  0.87500000000000000       0.28125000000000000        0.0000000000000000     
  0.90625000000000000       0.28125000000000000        0.0000000000000000     
  0.93750000000000000       0.28125000000000000        0.0000000000000000     
  0.96875000000000000       0.28125000000000000        0.0000000000000000     
   1.0000000000000000       0.28125000000000000        0.0000000000000000     
  0.87500000000000000       0.31250000000000000        0.0000000000000000     
  0.90625000000000000       0.31250000000000000        0.0000000000000000     
  0.93750000000000000       0.31250000000000000        0.0000000000000000     
  0.96875000000000000       0.31250000000000000        0.0000000000000000     
   1.0000000000000000       0.31250000000000000        0.0000000000000000     
  0.87500000000000000       0.34375000000000000        0.0000000000000000     
  0.90625000000000000       0.34375000000000000        0.0000000000000000     
  0.93750000000000000       0.34375000000000000        0.0000000000000000     
  0.96875000000000000       0.34375000000000000        0.0000000000000000     
   1.0000000000000000       0.34375000000000000        0.0000000000000000     
  0.87500000000000000       0.37500000000000000        0.0000000000000000     
  0.90625000000000000       0.37500000000000000        0.0000000000000000     
  0.93750000000000000       0.37500000000000000        0.0000000000000000     
  0.96875000000000000       0.37500000000000000        0.0000000000000000     
   1.0000000000000000       0.37500000000000000        0.0000000000000000     
   0.0000000000000000       0.37500000000000000        0.0000000000000000     
   3.1250000000000000E-002  0.37500000000000000        0.0000000000000000     
   6.2500000000000000E-002  0.37500000000000000        0.0000000000000000     
   9.3750000000000000E-002  0.37500000000000000        0.0000000000000000     
  0.12500000000000000       0.37500000000000000        0.0000000000000000     
   0.0000000000000000       0.40625000000000000        0.0000000000000000     
   3.1250000000000000E-002  0.40625000000000000        0.0000000000000000     
   6.2500000000000000E-002  0.40625000000000000        0.0000000000000000     
   9.3750000000000000E-002  0.40625000000000000        0.0000000000000000     
  0.12500000000000000       0.40625000000000000        0.0000000000000000     
   0.0000000000000000       0.43750000000000000        0.0000000000000000     
   3.1250000000000000E-002  0.43750000000000000        0.0000000000000000     
   6.2500000000000000E-002  0.43750000000000000        0.0000000000000000     
   9.3750000000000000E-002  0.43750000000000000        0.0000000000000000     
  0.12500000000000000       0.43750000000000000        0.0000000000000000     
   0.0000000000000000       0.46875000000000000        0.0000000000000000     
   3.1250000000000000E-002  0.46875000000000000        0.0000000000000000     
   6.2500000000000000E-002  0.46875000000000000        0.0000000000000000     
   9.3750000000000000E-002  0.46875000000000000        0.0000000000000000     
  0.12500000000000000       0.46875000000000000        0.0000000000000000     
   0.0000000000000000       0.50000000000000000        0.0000000000000000     
   3.1250000000000000E-002  0.50000000000000000        0.0000000000000000     
   6.2500000000000000E-002  0.50000000000000000        0.0000000000000000     
   9.3750000000000000E-002  0.50000000000000000        0.0000000000000000     
  0.12500000000000000       0.50000000000000000        0.0000000000000000     
  0.12500000000000000       0.37500000000000000        0.0000000000000000     
  0.15625000000000000       0.37500000000000000        0.0000000000000000     
  0.18750000000000000       0.37500000000000000        0.0000000000000000     
  0.21875000000000000       0.37500000000000000        0.0000000000000000     
  0.25000000000000000       0.37500000000000000        0.0000000000000000     
  0.12500000000000000       0.40625000000000000        0.0000000000000000     
  0.15625000000000000       0.40625000000000000        0.0000000000000000     
  0.18750000000000000       0.40625000000000000        0.0000000000000000     
  0.21875000000000000       0.40625000000000000        0.0000000000000000     
  0.25000000000000000       0.40625000000000000        0.0000000000000000     
  0.12500000000000000       0.43750000000000000        0.0000000000000000     
  0.15625000000000000       0.43750000000000000        0.0000000000000000     
  0.18750000000000000       0.43750000000000000        0.0000000000000000     
  0.21875000000000000       0.43750000000000000        0.0000000000000000     
  0.25000000000000000       0.43750000000000000        0.0000000000000000     
  0.12500000000000000       0.46875000000000000        0.0000000000000000     
  0.15625000000000000       0.46875000000000000        0.0000000000000000     
  0.18750000000000000       0.46875000000000000        0.0000000000000000     
  0.21875000000000000       0.46875000000000000        0.0000000000000000     
  0.25000000000000000       0.46875000000000000        0.0000000000000000     
  0.12500000000000000       0.50000000000000000        0.0000000000000000     
  0.15625000000000000       0.50000000000000000        0.0000000000000000     
  0.18750000000000000       0.50000000000000000        0.0000000000000000     
  0.21875000000000000       0.50000000000000000        0.0000000000000000     
  0.25000000000000000       0.50000000000000000        0.0000000000000000     
  0.25000000000000000       0.37500000000000000        0.0000000000000000     
  0.28125000000000000       0.37500000000000000        0.0000000000000000     
  0.31250000000000000       0.37500000000000000        0.0000000000000000     
  0.34375000000000000       0.37500000000000000        0.0000000000000000     
  0.37500000000000000       0.37500000000000000        0.0000000000000000     
  0.25000000000000000       0.40625000000000000        0.0000000000000000     
  0.28125000000000000       0.40625000000000000        0.0000000000000000     
  0.31250000000000000       0.40625000000000000        0.0000000000000000     
  0.34375000000000000       0.40625000000000000        0.0000000000000000     
  0.37500000000000000       0.40625000000000000        0.0000000000000000     
  0.25000000000000000       0.43750000000000000        0.0000000000000000     
  0.28125000000000000       0.43750000000000000        0.0000000000000000     
  0.31250000000000000       0.43750000000000000        0.0000000000000000     
  0.34375000000000000       0.43750000000000000        0.0000000000000000     
  0.37500000000000000       0.43750000000000000        0.0000000000000000     
  0.25000000000000000       0.46875000000000000        0.0000000000000000     
  0.28125000000000000       0.46875000000000000        0.0000000000000000     
  0.31250000000000000       0.46875000000000000        0.0000000000000000     
  0.34375000000000000       0.46875000000000000        0.0000000000000000     
  0.37500000000000000       0.46875000000000000        0.0000000000000000     
  0.25000000000000000       0.50000000000000000        0.0000000000000000     
  0.28125000000000000       0.50000000000000000        0.0000000000000000     
  0.31250000000000000       0.50000000000000000        0.0000000000000000     
  0.34375000000000000       0.50000000000000000        0.0000000000000000     
  0.37500000000000000       0.50000000000000000        0.0000000000000000     
  0.37500000000000000       0.37500000000000000        0.0000000000000000     
  0.40625000000000000       0.37500000000000000        0.0000000000000000     
  0.43750000000000000       0.37500000000000000        0.0000000000000000     
  0.46875000000000000       0.37500000000000000        0.0000000000000000     
  0.50000000000000000       0.37500000000000000        0.0000000000000000     
  0.37500000000000000       0.40625000000000000        0.0000000000000000     
  0.40625000000000000       0.40625000000000000        0.0000000000000000     
  0.43750000000000000       0.40625000000000000        0.0000000000000000     
  0.46875000000000000       0.40625000000000000        0.0000000000000000     
  0.50000000000000000       0.40625000000000000        0.0000000000000000     
  0.37500000000000000       0.43750000000000000        0.0000000000000000     
  0.40625000000000000       0.43750000000000000        0.0000000000000000     
  0.43750000000000000       0.43750000000000000        0.0000000000000000     
  0.46875000000000000       0.43750000000000000        0.0000000000000000     
  0.50000000000000000       0.43750000000000000        0.0000000000000000     
  0.37500000000000000       0.46875000000000000        0.0000000000000000     
  0.40625000000000000       0.46875000000000000        0.0000000000000000     
  0.43750000000000000       0.46875000000000000        0.0000000000000000     
  0.46875000000000000       0.46875000000000000        0.0000000000000000     
  0.50000000000000000       0.46875000000000000        0.0000000000000000     
  0.37500000000000000       0.50000000000000000        0.0000000000000000     
  0.40625000000000000       0.50000000000000000        0.0000000000000000     
  0.43750000000000000       0.50000000000000000        0.0000000000000000     
  0.46875000000000000       0.50000000000000000        0.0000000000000000     
  0.50000000000000000       0.50000000000000000        0.0000000000000000     
  0.50000000000000000       0.37500000000000000        0.0000000000000000     
  0.53125000000000000       0.37500000000000000        0.0000000000000000     
  0.56250000000000000       0.37500000000000000        0.0000000000000000     
  0.59375000000000000       0.37500000000000000        0.0000000000000000     
  0.62500000000000000       0.37500000000000000        0.0000000000000000     
  0.50000000000000000       0.40625000000000000        0.0000000000000000     
  0.53125000000000000       0.40625000000000000        0.0000000000000000     
  0.56250000000000000       0.40625000000000000        0.0000000000000000     
  0.59375000000000000       0.40625000000000000        0.0000000000000000     
  0.62500000000000000       0.40625000000000000        0.0000000000000000     
  0.50000000000000000       0.43750000000000000        0.0000000000000000     
  0.53125000000000000       0.43750000000000000        0.0000000000000000     
  0.56250000000000000       0.43750000000000000        0.0000000000000000     
  0.59375000000000000       0.43750000000000000        0.0000000000000000     
  0.62500000000000000       0.43750000000000000        0.0000000000000000     
  0.50000000000000000       0.46875000000000000        0.0000000000000000     
  0.53125000000000000       0.46875000000000000        0.0000000000000000     
  0.56250000000000000       0.46875000000000000        0.0000000000000000     
  0.59375000000000000       0.46875000000000000        0.0000000000000000     
  0.62500000000000000       0.46875000000000000        0.0000000000000000     
  0.50000000000000000       0.50000000000000000        0.0000000000000000     
  0.53125000000000000       0.50000000000000000        0.0000000000000000     
  0.56250000000000000       0.50000000000000000        0.0000000000000000     
  0.59375000000000000       0.50000000000000000        0.0000000000000000     
  0.62500000000000000       0.50000000000000000        0.0000000000000000     
  0.62500000000000000       0.37500000000000000        0.0000000000000000     
  0.65625000000000000       0.37500000000000000        0.0000000000000000     
  0.68750000000000000       0.37500000000000000        0.0000000000000000     
  0.71875000000000000       0.37500000000000000        0.0000000000000000     
  0.75000000000000000       0.37500000000000000        0.0000000000000000     
  0.62500000000000000       0.40625000000000000        0.0000000000000000     
  0.65625000000000000       0.40625000000000000        0.0000000000000000     
  0.68750000000000000       0.40625000000000000        0.0000000000000000     
  0.71875000000000000       0.40625000000000000        0.0000000000000000     
  0.75000000000000000       0.40625000000000000        0.0000000000000000     
  0.62500000000000000       0.43750000000000000        0.0000000000000000     
  0.65625000000000000       0.43750000000000000        0.0000000000000000     
  0.68750000000000000       0.43750000000000000        0.0000000000000000     
  0.71875000000000000       0.43750000000000000        0.0000000000000000     
  0.75000000000000000       0.43750000000000000        0.0000000000000000     
  0.62500000000000000       0.46875000000000000        0.0000000000000000     
  0.65625000000000000       0.46875000000000000        0.0000000000000000     
  0.68750000000000000       0.46875000000000000        0.0000000000000000     
  0.71875000000000000       0.46875000000000000        0.0000000000000000     
  0.75000000000000000       0.46875000000000000        0.0000000000000000     
  0.62500000000000000       0.50000000000000000        0.0000000000000000     
  0.65625000000000000       0.50000000000000000        0.0000000000000000     
  0.68750000000000000       0.50000000000000000        0.0000000000000000     
  0.71875000000000000       0.50000000000000000        0.0000000000000000     
  0.75000000000000000       0.50000000000000000        0.0000000000000000     
  0.75000000000000000       0.37500000000000000        0.0000000000000000     
  0.78125000000000000       0.37500000000000000        0.0000000000000000     
  0.81250000000000000       0.37500000000000000        0.0000000000000000     
  0.84375000000000000       0.37500000000000000        0.0000000000000000     
  0.87500000000000000       0.37500000000000000        0.0000000000000000     
  0.75000000000000000       0.40625000000000000        0.0000000000000000     
  0.78125000000000000       0.40625000000000000        0.0000000000000000     
  0.81250000000000000       0.40625000000000000        0.0000000000000000     
  0.84375000000000000       0.40625000000000000        0.0000000000000000     
  0.87500000000000000       0.40625000000000000        0.0000000000000000     
  0.75000000000000000       0.43750000000000000        0.0000000000000000     
  0.78125000000000000       0.43750000000000000        0.0000000000000000     
  0.81250000000000000       0.43750000000000000        0.0000000000000000     
  0.84375000000000000       0.43750000000000000        0.0000000000000000     
  0.87500000000000000       0.43750000000000000        0.0000000000000000     
  0.75000000000000000       0.46875000000000000        0.0000000000000000     
  0.78125000000000000       0.46875000000000000        0.0000000000000000     
  0.81250000000000000       0.46875000000000000        0.0000000000000000     
  0.84375000000000000       0.46875000000000000        0.0000000000000000     
  0.87500000000000000       0.46875000000000000        0.0000000000000000     
  0.75000000000000000       0.50000000000000000        0.0000000000000000     
  0.78125000000000000       0.50000000000000000        0.0000000000000000     
  0.81250000000000000       0.50000000000000000        0.0000000000000000     
  0.84375000000000000       0.50000000000000000        0.0000000000000000     
  0.87500000000000000       0.50000000000000000        0.0000000000000000     
  0.87500000000000000       0.37500000000000000        0.0000000000000000     
  0.90625000000000000       0.37500000000000000        0.0000000000000000     
  0.93750000000000000       0.37500000000000000        0.0000000000000000     
  0.96875000000000000       0.37500000000000000        0.0000000000000000     
   1.0000000000000000       0.37500000000000000        0.0000000000000000     
  0.87500000000000000       0.40625000000000000        0.0000000000000000     
  0.90625000000000000       0.40625000000000000        0.0000000000000000     
  0.93750000000000000       0.40625000000000000        0.0000000000000000     
  0.96875000000000000       0.40625000000000000        0.0000000000000000     
   1.0000000000000000       0.40625000000000000        0.0000000000000000     
  0.87500000000000000       0.43750000000000000        0.0000000000000000     
  0.90625000000000000       0.43750000000000000        0.0000000000000000     
  0.93750000000000000       0.43750000000000000        0.0000000000000000     
  0.96875000000000000       0.43750000000000000        0.0000000000000000     
   1.0000000000000000       0.43750000000000000        0.0000000000000000     
  0.87500000000000000       0.46875000000000000        0.0000000000000000     
  0.90625000000000000       0.46875000000000000        0.0000000000000000     
  0.93750000000000000       0.46875000000000000        0.0000000000000000     
  0.96875000000000000       0.46875000000000000        0.0000000000000000     
   1.0000000000000000       0.46875000000000000        0.0000000000000000     
  0.87500000000000000       0.50000000000000000        0.0000000000000000     
  0.90625000000000000       0.50000000000000000        0.0000000000000000     
  0.93750000000000000       0.50000000000000000        0.0000000000000000     
  0.96875000000000000       0.50000000000000000        0.0000000000000000     
   1.0000000000000000       0.50000000000000000        0.0000000000000000     
   0.0000000000000000       0.50000000000000000        0.0000000000000000     
   3.1250000000000000E-002  0.50000000000000000        0.0000000000000000     
   6.2500000000000000E-002  0.50000000000000000        0.0000000000000000     
   9.3750000000000000E-002  0.50000000000000000        0.0000000000000000     
  0.12500000000000000       0.50000000000000000        0.0000000000000000     
   0.0000000000000000       0.53125000000000000        0.0000000000000000     
   3.1250000000000000E-002  0.53125000000000000        0.0000000000000000     
   6.2500000000000000E-002  0.53125000000000000        0.0000000000000000     
   9.3750000000000000E-002  0.53125000000000000        0.0000000000000000     
  0.12500000000000000       0.53125000000000000        0.0000000000000000     
   0.0000000000000000       0.56250000000000000        0.0000000000000000     
   3.1250000000000000E-002  0.56250000000000000        0.0000000000000000     
   6.2500000000000000E-002  0.56250000000000000        0.0000000000000000     
   9.3750000000000000E-002  0.56250000000000000        0.0000000000000000     
  0.12500000000000000       0.56250000000000000        0.0000000000000000     
   0.0000000000000000       0.59375000000000000        0.0000000000000000     
   3.1250000000000000E-002  0.59375000000000000        0.0000000000000000     
   6.2500000000000000E-002  0.59375000000000000        0.0000000000000000     
   9.3750000000000000E-002  0.59375000000000000        0.0000000000000000     
  0.12500000000000000       0.59375000000000000        0.0000000000000000     
   0.0000000000000000       0.62500000000000000        0.0000000000000000     
   3.1250000000000000E-002  0.62500000000000000        0.0000000000000000     
   6.2500000000000000E-002  0.62500000000000000        0.0000000000000000     
   9.3750000000000000E-002  0.62500000000000000        0.0000000000000000     
  0.12500000000000000       0.62500000000000000        0.0000000000000000     
  0.12500000000000000       0.50000000000000000        0.0000000000000000     
  0.15625000000000000       0.50000000000000000        0.0000000000000000     
  0.18750000000000000       0.50000000000000000        0.0000000000000000     
  0.21875000000000000       0.50000000000000000        0.0000000000000000     
  0.25000000000000000       0.50000000000000000        0.0000000000000000     
  0.12500000000000000       0.53125000000000000        0.0000000000000000     
  0.15625000000000000       0.53125000000000000        0.0000000000000000     
  0.18750000000000000       0.53125000000000000        0.0000000000000000     
  0.21875000000000000       0.53125000000000000        0.0000000000000000     
  0.25000000000000000       0.53125000000000000        0.0000000000000000     
  0.12500000000000000       0.56250000000000000        0.0000000000000000     
  0.15625000000000000       0.56250000000000000        0.0000000000000000     
  0.18750000000000000       0.56250000000000000        0.0000000000000000     
  0.21875000000000000       0.56250000000000000        0.0000000000000000     
  0.25000000000000000       0.56250000000000000        0.0000000000000000     
  0.12500000000000000       0.59375000000000000        0.0000000000000000     
  0.15625000000000000       0.59375000000000000        0.0000000000000000     
  0.18750000000000000       0.59375000000000000        0.0000000000000000     
  0.21875000000000000       0.59375000000000000        0.0000000000000000     
  0.25000000000000000       0.59375000000000000        0.0000000000000000     
  0.12500000000000000       0.62500000000000000        0.0000000000000000     
  0.15625000000000000       0.62500000000000000        0.0000000000000000     
  0.18750000000000000       0.62500000000000000        0.0000000000000000     
  0.21875000000000000       0.62500000000000000        0.0000000000000000     
  0.25000000000000000       0.62500000000000000        0.0000000000000000     
  0.25000000000000000       0.50000000000000000        0.0000000000000000     
  0.28125000000000000       0.50000000000000000        0.0000000000000000     
  0.31250000000000000       0.50000000000000000        0.0000000000000000     
  0.34375000000000000       0.50000000000000000        0.0000000000000000     
  0.37500000000000000       0.50000000000000000        0.0000000000000000     
  0.25000000000000000       0.53125000000000000        0.0000000000000000     
  0.28125000000000000       0.53125000000000000        0.0000000000000000     
  0.31250000000000000       0.53125000000000000        0.0000000000000000     
  0.34375000000000000       0.53125000000000000        0.0000000000000000     
  0.37500000000000000       0.53125000000000000        0.0000000000000000     
  0.25000000000000000       0.56250000000000000        0.0000000000000000     
  0.28125000000000000       0.56250000000000000        0.0000000000000000     
  0.31250000000000000       0.56250000000000000        0.0000000000000000     
  0.34375000000000000       0.56250000000000000        0.0000000000000000     
  0.37500000000000000       0.56250000000000000        0.0000000000000000     
  0.25000000000000000       0.59375000000000000        0.0000000000000000     
  0.28125000000000000       0.59375000000000000        0.0000000000000000     
  0.31250000000000000       0.59375000000000000        0.0000000000000000     
  0.34375000000000000       0.59375000000000000        0.0000000000000000     
  0.37500000000000000       0.59375000000000000        0.0000000000000000     
  0.25000000000000000       0.62500000000000000        0.0000000000000000     
  0.28125000000000000       0.62500000000000000        0.0000000000000000     
  0.31250000000000000       0.62500000000000000        0.0000000000000000     
  0.34375000000000000       0.62500000000000000        0.0000000000000000     
  0.37500000000000000       0.62500000000000000        0.0000000000000000     
  0.37500000000000000       0.50000000000000000        0.0000000000000000     
  0.40625000000000000       0.50000000000000000        0.0000000000000000     
  0.43750000000000000       0.50000000000000000        0.0000000000000000     
  0.46875000000000000       0.50000000000000000        0.0000000000000000     
  0.50000000000000000       0.50000000000000000        0.0000000000000000     
  0.37500000000000000       0.53125000000000000        0.0000000000000000     
  0.40625000000000000       0.53125000000000000        0.0000000000000000     
  0.43750000000000000       0.53125000000000000        0.0000000000000000     
  0.46875000000000000       0.53125000000000000        0.0000000000000000     
  0.50000000000000000       0.53125000000000000        0.0000000000000000     
  0.37500000000000000       0.56250000000000000        0.0000000000000000     
  0.40625000000000000       0.56250000000000000        0.0000000000000000     
  0.43750000000000000       0.56250000000000000        0.0000000000000000     
  0.46875000000000000       0.56250000000000000        0.0000000000000000     
  0.50000000000000000       0.56250000000000000        0.0000000000000000     
  0.37500000000000000       0.59375000000000000        0.0000000000000000     
  0.40625000000000000       0.59375000000000000        0.0000000000000000     
  0.43750000000000000       0.59375000000000000        0.0000000000000000     
  0.46875000000000000       0.59375000000000000        0.0000000000000000     
  0.50000000000000000       0.59375000000000000        0.0000000000000000     
  0.37500000000000000       0.62500000000000000        0.0000000000000000     
  0.40625000000000000       0.62500000000000000        0.0000000000000000     
  0.43750000000000000       0.62500000000000000        0.0000000000000000     
  0.46875000000000000       0.62500000000000000        0.0000000000000000     
  0.50000000000000000       0.62500000000000000        0.0000000000000000     
  0.50000000000000000       0.50000000000000000        0.0000000000000000     
  0.53125000000000000       0.50000000000000000        0.0000000000000000     
  0.56250000000000000       0.50000000000000000        0.0000000000000000     
  0.59375000000000000       0.50000000000000000        0.0000000000000000     
  0.62500000000000000       0.50000000000000000        0.0000000000000000     
  0.50000000000000000       0.53125000000000000        0.0000000000000000     
  0.53125000000000000       0.53125000000000000        0.0000000000000000     
  0.56250000000000000       0.53125000000000000        0.0000000000000000     
  0.59375000000000000       0.53125000000000000        0.0000000000000000     
  0.62500000000000000       0.53125000000000000        0.0000000000000000     
  0.50000000000000000       0.56250000000000000        0.0000000000000000     
  0.53125000000000000       0.56250000000000000        0.0000000000000000     
  0.56250000000000000       0.56250000000000000        0.0000000000000000     
  0.59375000000000000       0.56250000000000000        0.0000000000000000     
  0.62500000000000000       0.56250000000000000        0.0000000000000000     
  0.50000000000000000       0.59375000000000000        0.0000000000000000     
  0.53125000000000000       0.59375000000000000        0.0000000000000000     
  0.56250000000000000       0.59375000000000000        0.0000000000000000     
  0.59375000000000000       0.59375000000000000        0.0000000000000000     
  0.62500000000000000       0.59375000000000000        0.0000000000000000     
  0.50000000000000000       0.62500000000000000        0.0000000000000000     
  0.53125000000000000       0.62500000000000000        0.0000000000000000     
  0.56250000000000000       0.62500000000000000        0.0000000000000000     
  0.59375000000000000       0.62500000000000000        0.0000000000000000     
  0.62500000000000000       0.62500000000000000        0.0000000000000000     
  0.62500000000000000       0.50000000000000000        0.0000000000000000     
  0.65625000000000000       0.50000000000000000        0.0000000000000000     
  0.68750000000000000       0.50000000000000000        0.0000000000000000     
  0.71875000000000000       0.50000000000000000        0.0000000000000000     
  0.75000000000000000       0.50000000000000000        0.0000000000000000     
  0.62500000000000000       0.53125000000000000        0.0000000000000000     
  0.65625000000000000       0.53125000000000000        0.0000000000000000     
  0.68750000000000000       0.53125000000000000        0.0000000000000000     
  0.71875000000000000       0.53125000000000000        0.0000000000000000     
  0.75000000000000000       0.53125000000000000        0.0000000000000000     
  0.62500000000000000       0.56250000000000000        0.0000000000000000     
  0.65625000000000000       0.56250000000000000        0.0000000000000000     
  0.68750000000000000       0.56250000000000000        0.0000000000000000     
  0.71875000000000000       0.56250000000000000        0.0000000000000000     
  0.75000000000000000       0.56250000000000000        0.0000000000000000     
  0.62500000000000000       0.59375000000000000        0.0000000000000000     
  0.65625000000000000       0.59375000000000000        0.0000000000000000     
  0.68750000000000000       0.59375000000000000        0.0000000000000000     
  0.71875000000000000       0.59375000000000000        0.0000000000000000     
  0.75000000000000000       0.59375000000000000        0.0000000000000000     
  0.62500000000000000       0.62500000000000000        0.0000000000000000     
  0.65625000000000000       0.62500000000000000        0.0000000000000000     
  0.68750000000000000       0.62500000000000000        0.0000000000000000     
  0.71875000000000000       0.62500000000000000        0.0000000000000000     
  0.75000000000000000       0.62500000000000000        0.0000000000000000     
  0.75000000000000000       0.50000000000000000        0.0000000000000000     
  0.78125000000000000       0.50000000000000000        0.0000000000000000     
  0.81250000000000000       0.50000000000000000        0.0000000000000000     
  0.84375000000000000       0.50000000000000000        0.0000000000000000     
  0.87500000000000000       0.50000000000000000        0.0000000000000000     
  0.75000000000000000       0.53125000000000000        0.0000000000000000     
  0.78125000000000000       0.53125000000000000        0.0000000000000000     
  0.81250000000000000       0.53125000000000000        0.0000000000000000     
  0.84375000000000000       0.53125000000000000        0.0000000000000000     
  0.87500000000000000       0.53125000000000000        0.0000000000000000     
  0.75000000000000000       0.56250000000000000        0.0000000000000000     
  0.78125000000000000       0.56250000000000000        0.0000000000000000     
  0.81250000000000000       0.56250000000000000        0.0000000000000000     
  0.84375000000000000       0.56250000000000000        0.0000000000000000     
  0.87500000000000000       0.56250000000000000        0.0000000000000000     
  0.75000000000000000       0.59375000000000000        0.0000000000000000     
  0.78125000000000000       0.59375000000000000        0.0000000000000000     
  0.81250000000000000       0.59375000000000000        0.0000000000000000     
  0.84375000000000000       0.59375000000000000        0.0000000000000000     
  0.87500000000000000       0.59375000000000000        0.0000000000000000     
  0.75000000000000000       0.62500000000000000        0.0000000000000000     
  0.78125000000000000       0.62500000000000000        0.0000000000000000     
  0.81250000000000000       0.62500000000000000        0.0000000000000000     
  0.84375000000000000       0.62500000000000000        0.0000000000000000     
  0.87500000000000000       0.62500000000000000        0.0000000000000000     
  0.87500000000000000       0.50000000000000000        0.0000000000000000     
  0.90625000000000000       0.50000000000000000        0.0000000000000000     
  0.93750000000000000       0.50000000000000000        0.0000000000000000     
  0.96875000000000000       0.50000000000000000        0.0000000000000000     
   1.0000000000000000       0.50000000000000000        0.0000000000000000     
  0.87500000000000000       0.53125000000000000        0.0000000000000000     
  0.90625000000000000       0.53125000000000000        0.0000000000000000     
  0.93750000000000000       0.53125000000000000        0.0000000000000000     
  0.96875000000000000       0.53125000000000000        0.0000000000000000     
   1.0000000000000000       0.53125000000000000        0.0000000000000000     
  0.87500000000000000       0.56250000000000000        0.0000000000000000     
  0.90625000000000000       0.56250000000000000        0.0000000000000000     
  0.93750000000000000       0.56250000000000000        0.0000000000000000     
  0.96875000000000000       0.56250000000000000        0.0000000000000000     
   1.0000000000000000       0.56250000000000000        0.0000000000000000     
  0.87500000000000000       0.59375000000000000        0.0000000000000000     
  0.90625000000000000       0.59375000000000000        0.0000000000000000     
  0.93750000000000000       0.59375000000000000        0.0000000000000000     
  0.96875000000000000       0.59375000000000000        0.0000000000000000     
   1.0000000000000000       0.59375000000000000        0.0000000000000000     
  0.87500000000000000       0.62500000000000000        0.0000000000000000     
  0.90625000000000000       0.62500000000000000        0.0000000000000000     
  0.93750000000000000       0.62500000000000000        0.0000000000000000     
  0.96875000000000000       0.62500000000000000        0.0000000000000000     
   1.0000000000000000       0.62500000000000000        0.0000000000000000     
   0.0000000000000000       0.62500000000000000        0.0000000000000000     
   3.1250000000000000E-002  0.62500000000000000        0.0000000000000000     
   6.2500000000000000E-002  0.62500000000000000        0.0000000000000000     
   9.3750000000000000E-002  0.62500000000000000        0.0000000000000000     
  0.12500000000000000       0.62500000000000000        0.0000000000000000     
   0.0000000000000000       0.65625000000000000        0.0000000000000000     
   3.1250000000000000E-002  0.65625000000000000        0.0000000000000000     
   6.2500000000000000E-002  0.65625000000000000        0.0000000000000000     
   9.3750000000000000E-002  0.65625000000000000        0.0000000000000000     
  0.12500000000000000       0.65625000000000000        0.0000000000000000     
   0.0000000000000000       0.68750000000000000        0.0000000000000000     
   3.1250000000000000E-002  0.68750000000000000        0.0000000000000000     
   6.2500000000000000E-002  0.68750000000000000        0.0000000000000000     
   9.3750000000000000E-002  0.68750000000000000        0.0000000000000000     
  0.12500000000000000       0.68750000000000000        0.0000000000000000     
   0.0000000000000000       0.71875000000000000        0.0000000000000000     
   3.1250000000000000E-002  0.71875000000000000        0.0000000000000000     
   6.2500000000000000E-002  0.71875000000000000        0.0000000000000000     
   9.3750000000000000E-002  0.71875000000000000        0.0000000000000000     
  0.12500000000000000       0.71875000000000000        0.0000000000000000     
   0.0000000000000000       0.75000000000000000        0.0000000000000000     
   3.1250000000000000E-002  0.75000000000000000        0.0000000000000000     
   6.2500000000000000E-002  0.75000000000000000        0.0000000000000000     
   9.3750000000000000E-002  0.75000000000000000        0.0000000000000000     
  0.12500000000000000       0.75000000000000000        0.0000000000000000     
  0.12500000000000000       0.62500000000000000        0.0000000000000000     
  0.15625000000000000       0.62500000000000000        0.0000000000000000     
  0.18750000000000000       0.62500000000000000        0.0000000000000000     
  0.21875000000000000       0.62500000000000000        0.0000000000000000     
  0.25000000000000000       0.62500000000000000        0.0000000000000000     
  0.12500000000000000       0.65625000000000000        0.0000000000000000     
  0.15625000000000000       0.65625000000000000        0.0000000000000000     
  0.18750000000000000       0.65625000000000000        0.0000000000000000     
  0.21875000000000000       0.65625000000000000        0.0000000000000000     
  0.25000000000000000       0.65625000000000000        0.0000000000000000     
  0.12500000000000000       0.68750000000000000        0.0000000000000000     
  0.15625000000000000       0.68750000000000000        0.0000000000000000     
  0.18750000000000000       0.68750000000000000        0.0000000000000000     
  0.21875000000000000       0.68750000000000000        0.0000000000000000     
  0.25000000000000000       0.68750000000000000        0.0000000000000000     
  0.12500000000000000       0.71875000000000000        0.0000000000000000     
  0.15625000000000000       0.71875000000000000        0.0000000000000000     
  0.18750000000000000       0.71875000000000000        0.0000000000000000     
  0.21875000000000000       0.71875000000000000        0.0000000000000000     
  0.25000000000000000       0.71875000000000000        0.0000000000000000     
  0.12500000000000000       0.75000000000000000        0.0000000000000000     
  0.15625000000000000       0.75000000000000000        0.0000000000000000     
  0.18750000000000000       0.75000000000000000        0.0000000000000000     
  0.21875000000000000       0.75000000000000000        0.0000000000000000     
  0.25000000000000000       0.75000000000000000        0.0000000000000000     
  0.25000000000000000       0.62500000000000000        0.0000000000000000     
  0.28125000000000000       0.62500000000000000        0.0000000000000000     
  0.31250000000000000       0.62500000000000000        0.0000000000000000     
  0.34375000000000000       0.62500000000000000        0.0000000000000000     
  0.37500000000000000       0.62500000000000000        0.0000000000000000     
  0.25000000000000000       0.65625000000000000        0.0000000000000000     
  0.28125000000000000       0.65625000000000000        0.0000000000000000     
  0.31250000000000000       0.65625000000000000        0.0000000000000000     
  0.34375000000000000       0.65625000000000000        0.0000000000000000     
  0.37500000000000000       0.65625000000000000        0.0000000000000000     
  0.25000000000000000       0.68750000000000000        0.0000000000000000     
  0.28125000000000000       0.68750000000000000        0.0000000000000000     
  0.31250000000000000       0.68750000000000000        0.0000000000000000     
  0.34375000000000000       0.68750000000000000        0.0000000000000000     
  0.37500000000000000       0.68750000000000000        0.0000000000000000     
  0.25000000000000000       0.71875000000000000        0.0000000000000000     
  0.28125000000000000       0.71875000000000000        0.0000000000000000     
  0.31250000000000000       0.71875000000000000        0.0000000000000000     
  0.34375000000000000       0.71875000000000000        0.0000000000000000     
  0.37500000000000000       0.71875000000000000        0.0000000000000000     
  0.25000000000000000       0.75000000000000000        0.0000000000000000     
  0.28125000000000000       0.75000000000000000        0.0000000000000000     
  0.31250000000000000       0.75000000000000000        0.0000000000000000     
  0.34375000000000000       0.75000000000000000        0.0000000000000000     
  0.37500000000000000       0.75000000000000000        0.0000000000000000     
  0.37500000000000000       0.62500000000000000        0.0000000000000000     
  0.40625000000000000       0.62500000000000000        0.0000000000000000     
  0.43750000000000000       0.62500000000000000        0.0000000000000000     
  0.46875000000000000       0.62500000000000000        0.0000000000000000     
  0.50000000000000000       0.62500000000000000        0.0000000000000000     
  0.37500000000000000       0.65625000000000000        0.0000000000000000     
  0.40625000000000000       0.65625000000000000        0.0000000000000000     
  0.43750000000000000       0.65625000000000000        0.0000000000000000     
  0.46875000000000000       0.65625000000000000        0.0000000000000000     
  0.50000000000000000       0.65625000000000000        0.0000000000000000     
  0.37500000000000000       0.68750000000000000        0.0000000000000000     
  0.40625000000000000       0.68750000000000000        0.0000000000000000     
  0.43750000000000000       0.68750000000000000        0.0000000000000000     
  0.46875000000000000       0.68750000000000000        0.0000000000000000     
  0.50000000000000000       0.68750000000000000        0.0000000000000000     
  0.37500000000000000       0.71875000000000000        0.0000000000000000     
  0.40625000000000000       0.71875000000000000        0.0000000000000000     
  0.43750000000000000       0.71875000000000000        0.0000000000000000     
  0.46875000000000000       0.71875000000000000        0.0000000000000000     
  0.50000000000000000       0.71875000000000000        0.0000000000000000     
  0.37500000000000000       0.75000000000000000        0.0000000000000000     
  0.40625000000000000       0.75000000000000000        0.0000000000000000     
  0.43750000000000000       0.75000000000000000        0.0000000000000000     
  0.46875000000000000       0.75000000000000000        0.0000000000000000     
  0.50000000000000000       0.75000000000000000        0.0000000000000000     
  0.50000000000000000       0.62500000000000000        0.0000000000000000     
  0.53125000000000000       0.62500000000000000        0.0000000000000000     
  0.56250000000000000       0.62500000000000000        0.0000000000000000     
  0.59375000000000000       0.62500000000000000        0.0000000000000000     
  0.62500000000000000       0.62500000000000000        0.0000000000000000     
  0.50000000000000000       0.65625000000000000        0.0000000000000000     
  0.53125000000000000       0.65625000000000000        0.0000000000000000     
  0.56250000000000000       0.65625000000000000        0.0000000000000000     
  0.59375000000000000       0.65625000000000000        0.0000000000000000     
  0.62500000000000000       0.65625000000000000        0.0000000000000000     
  0.50000000000000000       0.68750000000000000        0.0000000000000000     
  0.53125000000000000       0.68750000000000000        0.0000000000000000     
  0.56250000000000000       0.68750000000000000        0.0000000000000000     
  0.59375000000000000       0.68750000000000000        0.0000000000000000     
  0.62500000000000000       0.68750000000000000        0.0000000000000000     
  0.50000000000000000       0.71875000000000000        0.0000000000000000     
  0.53125000000000000       0.71875000000000000        0.0000000000000000     
  0.56250000000000000       0.71875000000000000        0.0000000000000000     
  0.59375000000000000       0.71875000000000000        0.0000000000000000     
  0.62500000000000000       0.71875000000000000        0.0000000000000000     
  0.50000000000000000       0.75000000000000000        0.0000000000000000     
  0.53125000000000000       0.75000000000000000        0.0000000000000000     
  0.56250000000000000       0.75000000000000000        0.0000000000000000     
  0.59375000000000000       0.75000000000000000        0.0000000000000000     
  0.62500000000000000       0.75000000000000000        0.0000000000000000     
  0.62500000000000000       0.62500000000000000        0.0000000000000000     
  0.65625000000000000       0.62500000000000000        0.0000000000000000     
  0.68750000000000000       0.62500000000000000        0.0000000000000000     
  0.71875000000000000       0.62500000000000000        0.0000000000000000     
  0.75000000000000000       0.62500000000000000        0.0000000000000000     
  0.62500000000000000       0.65625000000000000        0.0000000000000000     
  0.65625000000000000       0.65625000000000000        0.0000000000000000     
  0.68750000000000000       0.65625000000000000        0.0000000000000000     
  0.71875000000000000       0.65625000000000000        0.0000000000000000     
  0.75000000000000000       0.65625000000000000        0.0000000000000000     
  0.62500000000000000       0.68750000000000000        0.0000000000000000     
  0.65625000000000000       0.68750000000000000        0.0000000000000000     
  0.68750000000000000       0.68750000000000000        0.0000000000000000     
  0.71875000000000000       0.68750000000000000        0.0000000000000000     
  0.75000000000000000       0.68750000000000000        0.0000000000000000     
  0.62500000000000000       0.71875000000000000        0.0000000000000000     
  0.65625000000000000       0.71875000000000000        0.0000000000000000     
  0.68750000000000000       0.71875000000000000        0.0000000000000000     
  0.71875000000000000       0.71875000000000000        0.0000000000000000     
  0.75000000000000000       0.71875000000000000        0.0000000000000000     
  0.62500000000000000       0.75000000000000000        0.0000000000000000     
  0.65625000000000000       0.75000000000000000        0.0000000000000000     
  0.68750000000000000       0.75000000000000000        0.0000000000000000     
  0.71875000000000000       0.75000000000000000        0.0000000000000000     
  0.75000000000000000       0.75000000000000000        0.0000000000000000     
  0.75000000000000000       0.62500000000000000        0.0000000000000000     
  0.78125000000000000       0.62500000000000000        0.0000000000000000     
  0.81250000000000000       0.62500000000000000        0.0000000000000000     
  0.84375000000000000       0.62500000000000000        0.0000000000000000     
  0.87500000000000000       0.62500000000000000        0.0000000000000000     
  0.75000000000000000       0.65625000000000000        0.0000000000000000     
  0.78125000000000000       0.65625000000000000        0.0000000000000000     
  0.81250000000000000       0.65625000000000000        0.0000000000000000     
  0.84375000000000000       0.65625000000000000        0.0000000000000000     
  0.87500000000000000       0.65625000000000000        0.0000000000000000     
  0.75000000000000000       0.68750000000000000        0.0000000000000000     
  0.78125000000000000       0.68750000000000000        0.0000000000000000     
  0.81250000000000000       0.68750000000000000        0.0000000000000000     
  0.84375000000000000       0.68750000000000000        0.0000000000000000     
  0.87500000000000000       0.68750000000000000        0.0000000000000000     
  0.75000000000000000       0.71875000000000000        0.0000000000000000     
  0.78125000000000000       0.71875000000000000        0.0000000000000000     
  0.81250000000000000       0.71875000000000000        0.0000000000000000     
  0.84375000000000000       0.71875000000000000        0.0000000000000000     
  0.87500000000000000       0.71875000000000000        0.0000000000000000     
  0.75000000000000000       0.75000000000000000        0.0000000000000000     
  0.78125000000000000       0.75000000000000000        0.0000000000000000     
  0.81250000000000000       0.75000000000000000        0.0000000000000000     
  0.84375000000000000       0.75000000000000000        0.0000000000000000     
  0.87500000000000000       0.75000000000000000        0.0000000000000000     
  0.87500000000000000       0.62500000000000000        0.0000000000000000     
  0.90625000000000000       0.62500000000000000        0.0000000000000000     
  0.93750000000000000       0.62500000000000000        0.0000000000000000     
  0.96875000000000000       0.62500000000000000        0.0000000000000000     
   1.0000000000000000       0.62500000000000000        0.0000000000000000     
  0.87500000000000000       0.65625000000000000        0.0000000000000000     
  0.90625000000000000       0.65625000000000000        0.0000000000000000     
  0.93750000000000000       0.65625000000000000        0.0000000000000000     
  0.96875000000000000       0.65625000000000000        0.0000000000000000     
   1.0000000000000000       0.65625000000000000        0.0000000000000000     
  0.87500000000000000       0.68750000000000000        0.0000000000000000     
  0.90625000000000000       0.68750000000000000        0.0000000000000000     
  0.93750000000000000       0.68750000000000000        0.0000000000000000     
  0.96875000000000000       0.68750000000000000        0.0000000000000000     
   1.0000000000000000       0.68750000000000000        0.0000000000000000     
  0.87500000000000000       0.71875000000000000        0.0000000000000000     
  0.90625000000000000       0.71875000000000000        0.0000000000000000     
  0.93750000000000000       0.71875000000000000        0.0000000000000000     
  0.96875000000000000       0.71875000000000000        0.0000000000000000     
   1.0000000000000000       0.71875000000000000        0.0000000000000000     
  0.87500000000000000       0.75000000000000000        0.0000000000000000     
  0.90625000000000000       0.75000000000000000        0.0000000000000000     
  0.93750000000000000       0.75000000000000000        0.0000000000000000     
  0.96875000000000000       0.75000000000000000        0.0000000000000000     
   1.0000000000000000       0.75000000000000000        0.0000000000000000     
   0.0000000000000000       0.75000000000000000        0.0000000000000000     
   3.1250000000000000E-002  0.75000000000000000        0.0000000000000000     
   6.2500000000000000E-002  0.75000000000000000        0.0000000000000000     
   9.3750000000000000E-002  0.75000000000000000        0.0000000000000000     
  0.12500000000000000       0.75000000000000000        0.0000000000000000     
   0.0000000000000000       0.78125000000000000        0.0000000000000000     
   3.1250000000000000E-002  0.78125000000000000        0.0000000000000000     
   6.2500000000000000E-002  0.78125000000000000        0.0000000000000000     
   9.3750000000000000E-002  0.78125000000000000        0.0000000000000000     
  0.12500000000000000       0.78125000000000000        0.0000000000000000     
   0.0000000000000000       0.81250000000000000        0.0000000000000000     
   3.1250000000000000E-002  0.81250000000000000        0.0000000000000000     
   6.2500000000000000E-002  0.81250000000000000        0.0000000000000000     
   9.3750000000000000E-002  0.81250000000000000        0.0000000000000000     
  0.12500000000000000       0.81250000000000000        0.0000000000000000     
   0.0000000000000000       0.84375000000000000        0.0000000000000000     
   3.1250000000000000E-002  0.84375000000000000        0.0000000000000000     
   6.2500000000000000E-002  0.84375000000000000        0.0000000000000000     
   9.3750000000000000E-002  0.84375000000000000        0.0000000000000000     
  0.12500000000000000       0.84375000000000000        0.0000000000000000     
   0.0000000000000000       0.87500000000000000        0.0000000000000000     
   3.1250000000000000E-002  0.87500000000000000        0.0000000000000000     
   6.2500000000000000E-002  0.87500000000000000        0.0000000000000000     
   9.3750000000000000E-002  0.87500000000000000        0.0000000000000000     
  0.12500000000000000       0.87500000000000000        0.0000000000000000     
  0.12500000000000000       0.75000000000000000        0.0000000000000000     
  0.15625000000000000       0.75000000000000000        0.0000000000000000     
  0.18750000000000000       0.75000000000000000        0.0000000000000000     
  0.21875000000000000       0.75000000000000000        0.0000000000000000     
  0.25000000000000000       0.75000000000000000        0.0000000000000000     
  0.12500000000000000       0.78125000000000000        0.0000000000000000     
  0.15625000000000000       0.78125000000000000        0.0000000000000000     
  0.18750000000000000       0.78125000000000000        0.0000000000000000     
  0.21875000000000000       0.78125000000000000        0.0000000000000000     
  0.25000000000000000       0.78125000000000000        0.0000000000000000     
  0.12500000000000000       0.81250000000000000        0.0000000000000000     
  0.15625000000000000       0.81250000000000000        0.0000000000000000     
  0.18750000000000000       0.81250000000000000        0.0000000000000000     
  0.21875000000000000       0.81250000000000000        0.0000000000000000     
  0.25000000000000000       0.81250000000000000        0.0000000000000000     
  0.12500000000000000       0.84375000000000000        0.0000000000000000     
  0.15625000000000000       0.84375000000000000        0.0000000000000000     
  0.18750000000000000       0.84375000000000000        0.0000000000000000     
  0.21875000000000000       0.84375000000000000        0.0000000000000000     
  0.25000000000000000       0.84375000000000000        0.0000000000000000     
  0.12500000000000000       0.87500000000000000        0.0000000000000000     
  0.15625000000000000       0.87500000000000000        0.0000000000000000     
  0.18750000000000000       0.87500000000000000        0.0000000000000000     
  0.21875000000000000       0.87500000000000000        0.0000000000000000     
  0.25000000000000000       0.87500000000000000        0.0000000000000000     
  0.25000000000000000       0.75000000000000000        0.0000000000000000     
  0.28125000000000000       0.75000000000000000        0.0000000000000000     
  0.31250000000000000       0.75000000000000000        0.0000000000000000     
  0.34375000000000000       0.75000000000000000        0.0000000000000000     
  0.37500000000000000       0.75000000000000000        0.0000000000000000     
  0.25000000000000000       0.78125000000000000        0.0000000000000000     
  0.28125000000000000       0.78125000000000000        0.0000000000000000     
  0.31250000000000000       0.78125000000000000        0.0000000000000000     
  0.34375000000000000       0.78125000000000000        0.0000000000000000     
  0.37500000000000000       0.78125000000000000        0.0000000000000000     
  0.25000000000000000       0.81250000000000000        0.0000000000000000     
  0.28125000000000000       0.81250000000000000        0.0000000000000000     
  0.31250000000000000       0.81250000000000000        0.0000000000000000     
  0.34375000000000000       0.81250000000000000        0.0000000000000000     
  0.37500000000000000       0.81250000000000000        0.0000000000000000     
  0.25000000000000000       0.84375000000000000        0.0000000000000000     
  0.28125000000000000       0.84375000000000000        0.0000000000000000     
  0.31250000000000000       0.84375000000000000        0.0000000000000000     
  0.34375000000000000       0.84375000000000000        0.0000000000000000     
  0.37500000000000000       0.84375000000000000        0.0000000000000000     
  0.25000000000000000       0.87500000000000000        0.0000000000000000     
  0.28125000000000000       0.87500000000000000        0.0000000000000000     
  0.31250000000000000       0.87500000000000000        0.0000000000000000     
  0.34375000000000000       0.87500000000000000        0.0000000000000000     
  0.37500000000000000       0.87500000000000000        0.0000000000000000     
  0.37500000000000000       0.75000000000000000        0.0000000000000000     
  0.40625000000000000       0.75000000000000000        0.0000000000000000     
  0.43750000000000000       0.75000000000000000        0.0000000000000000     
  0.46875000000000000       0.75000000000000000        0.0000000000000000     
  0.50000000000000000       0.75000000000000000        0.0000000000000000     
  0.37500000000000000       0.78125000000000000        0.0000000000000000     
  0.40625000000000000       0.78125000000000000        0.0000000000000000     
  0.43750000000000000       0.78125000000000000        0.0000000000000000     
  0.46875000000000000       0.78125000000000000        0.0000000000000000     
  0.50000000000000000       0.78125000000000000        0.0000000000000000     
  0.37500000000000000       0.81250000000000000        0.0000000000000000     
  0.40625000000000000       0.81250000000000000        0.0000000000000000     
  0.43750000000000000       0.81250000000000000        0.0000000000000000     
  0.46875000000000000       0.81250000000000000        0.0000000000000000     
  0.50000000000000000       0.81250000000000000        0.0000000000000000     
  0.37500000000000000       0.84375000000000000        0.0000000000000000     
  0.40625000000000000       0.84375000000000000        0.0000000000000000     
  0.43750000000000000       0.84375000000000000        0.0000000000000000     
  0.46875000000000000       0.84375000000000000        0.0000000000000000     
  0.50000000000000000       0.84375000000000000        0.0000000000000000     
  0.37500000000000000       0.87500000000000000        0.0000000000000000     
  0.40625000000000000       0.87500000000000000        0.0000000000000000     
  0.43750000000000000       0.87500000000000000        0.0000000000000000     
  0.46875000000000000       0.87500000000000000        0.0000000000000000     
  0.50000000000000000       0.87500000000000000        0.0000000000000000     
  0.50000000000000000       0.75000000000000000        0.0000000000000000     
  0.53125000000000000       0.75000000000000000        0.0000000000000000     
  0.56250000000000000       0.75000000000000000        0.0000000000000000     
  0.59375000000000000       0.75000000000000000        0.0000000000000000     
  0.62500000000000000       0.75000000000000000        0.0000000000000000     
  0.50000000000000000       0.78125000000000000        0.0000000000000000     
  0.53125000000000000       0.78125000000000000        0.0000000000000000     
  0.56250000000000000       0.78125000000000000        0.0000000000000000     
  0.59375000000000000       0.78125000000000000        0.0000000000000000     
  0.62500000000000000       0.78125000000000000        0.0000000000000000     
  0.50000000000000000       0.81250000000000000        0.0000000000000000     
  0.53125000000000000       0.81250000000000000        0.0000000000000000     
  0.56250000000000000       0.81250000000000000        0.0000000000000000     
  0.59375000000000000       0.81250000000000000        0.0000000000000000     
  0.62500000000000000       0.81250000000000000        0.0000000000000000     
  0.50000000000000000       0.84375000000000000        0.0000000000000000     
  0.53125000000000000       0.84375000000000000        0.0000000000000000     
  0.56250000000000000       0.84375000000000000        0.0000000000000000     
  0.59375000000000000       0.84375000000000000        0.0000000000000000     
  0.62500000000000000       0.84375000000000000        0.0000000000000000     
  0.50000000000000000       0.87500000000000000        0.0000000000000000     
  0.53125000000000000       0.87500000000000000        0.0000000000000000     
  0.56250000000000000       0.87500000000000000        0.0000000000000000     
  0.59375000000000000       0.87500000000000000        0.0000000000000000     
  0.62500000000000000       0.87500000000000000        0.0000000000000000     
  0.62500000000000000       0.75000000000000000        0.0000000000000000     
  0.65625000000000000       0.75000000000000000        0.0000000000000000     
  0.68750000000000000       0.75000000000000000        0.0000000000000000     
  0.71875000000000000       0.75000000000000000        0.0000000000000000     
  0.75000000000000000       0.75000000000000000        0.0000000000000000     
  0.62500000000000000       0.78125000000000000        0.0000000000000000     
  0.65625000000000000       0.78125000000000000        0.0000000000000000     
  0.68750000000000000       0.78125000000000000        0.0000000000000000     
  0.71875000000000000       0.78125000000000000        0.0000000000000000     
  0.75000000000000000       0.78125000000000000        0.0000000000000000     
  0.62500000000000000       0.81250000000000000        0.0000000000000000     
  0.65625000000000000       0.81250000000000000        0.0000000000000000     
  0.68750000000000000       0.81250000000000000        0.0000000000000000     
  0.71875000000000000       0.81250000000000000        0.0000000000000000     
  0.75000000000000000       0.81250000000000000        0.0000000000000000     
  0.62500000000000000       0.84375000000000000        0.0000000000000000     
  0.65625000000000000       0.84375000000000000        0.0000000000000000     
  0.68750000000000000       0.84375000000000000        0.0000000000000000     
  0.71875000000000000       0.84375000000000000        0.0000000000000000     
  0.75000000000000000       0.84375000000000000        0.0000000000000000     
  0.62500000000000000       0.87500000000000000        0.0000000000000000     
  0.65625000000000000       0.87500000000000000        0.0000000000000000     
  0.68750000000000000       0.87500000000000000        0.0000000000000000     
  0.71875000000000000       0.87500000000000000        0.0000000000000000     
  0.75000000000000000       0.87500000000000000        0.0000000000000000     
  0.75000000000000000       0.75000000000000000        0.0000000000000000     
  0.78125000000000000       0.75000000000000000        0.0000000000000000     
  0.81250000000000000       0.75000000000000000        0.0000000000000000     
  0.84375000000000000       0.75000000000000000        0.0000000000000000     
  0.87500000000000000       0.75000000000000000        0.0000000000000000     
  0.75000000000000000       0.78125000000000000        0.0000000000000000     
  0.78125000000000000       0.78125000000000000        0.0000000000000000     
  0.81250000000000000       0.78125000000000000        0.0000000000000000     
  0.84375000000000000       0.78125000000000000        0.0000000000000000     
  0.87500000000000000       0.78125000000000000        0.0000000000000000     
  0.75000000000000000       0.81250000000000000        0.0000000000000000     
  0.78125000000000000       0.81250000000000000        0.0000000000000000     
  0.81250000000000000       0.81250000000000000        0.0000000000000000     
  0.84375000000000000       0.81250000000000000        0.0000000000000000     
  0.87500000000000000       0.81250000000000000        0.0000000000000000     
  0.75000000000000000       0.84375000000000000        0.0000000000000000     
  0.78125000000000000       0.84375000000000000        0.0000000000000000     
  0.81250000000000000       0.84375000000000000        0.0000000000000000     
  0.84375000000000000       0.84375000000000000        0.0000000000000000     
  0.87500000000000000       0.84375000000000000        0.0000000000000000     
  0.75000000000000000       0.87500000000000000        0.0000000000000000     
  0.78125000000000000       0.87500000000000000        0.0000000000000000     
  0.81250000000000000       0.87500000000000000        0.0000000000000000     
  0.84375000000000000       0.87500000000000000        0.0000000000000000     
  0.87500000000000000       0.87500000000000000        0.0000000000000000     
  0.87500000000000000       0.75000000000000000        0.0000000000000000     
  0.90625000000000000       0.75000000000000000        0.0000000000000000     
  0.93750000000000000       0.75000000000000000        0.0000000000000000     
  0.96875000000000000       0.75000000000000000        0.0000000000000000     
   1.0000000000000000       0.75000000000000000        0.0000000000000000     
  0.87500000000000000       0.78125000000000000        0.0000000000000000     
  0.90625000000000000       0.78125000000000000        0.0000000000000000     
  0.93750000000000000       0.78125000000000000        0.0000000000000000     
  0.96875000000000000       0.78125000000000000        0.0000000000000000     
   1.0000000000000000       0.78125000000000000        0.0000000000000000     
  0.87500000000000000       0.81250000000000000        0.0000000000000000     
  0.90625000000000000       0.81250000000000000        0.0000000000000000     
  0.93750000000000000       0.81250000000000000        0.0000000000000000     
  0.96875000000000000       0.81250000000000000        0.0000000000000000     
   1.0000000000000000       0.81250000000000000        0.0000000000000000     
  0.87500000000000000       0.84375000000000000        0.0000000000000000     
  0.90625000000000000       0.84375000000000000        0.0000000000000000     
  0.93750000000000000       0.84375000000000000        0.0000000000000000     
  0.96875000000000000       0.84375000000000000        0.0000000000000000     
   1.0000000000000000       0.84375000000000000        0.0000000000000000     
  0.87500000000000000       0.87500000000000000        0.0000000000000000     
  0.90625000000000000       0.87500000000000000        0.0000000000000000     
  0.93750000000000000       0.87500000000000000        0.0000000000000000     
  0.96875000000000000       0.87500000000000000        0.0000000000000000     
   1.0000000000000000       0.87500000000000000        0.0000000000000000     
   0.0000000000000000       0.87500000000000000        0.0000000000000000     
   3.1250000000000000E-002  0.87500000000000000        0.0000000000000000     
   6.2500000000000000E-002  0.87500000000000000        0.0000000000000000     
   9.3750000000000000E-002  0.87500000000000000        0.0000000000000000     
  0.12500000000000000       0.87500000000000000        0.0000000000000000     
   0.0000000000000000       0.90625000000000000        0.0000000000000000     
   3.1250000000000000E-002  0.90625000000000000        0.0000000000000000     
   6.2500000000000000E-002  0.90625000000000000        0.0000000000000000     
   9.3750000000000000E-002  0.90625000000000000        0.0000000000000000     
  0.12500000000000000       0.90625000000000000        0.0000000000000000     
   0.0000000000000000       0.93750000000000000        0.0000000000000000     
   3.1250000000000000E-002  0.93750000000000000        0.0000000000000000     
   6.2500000000000000E-002  0.93750000000000000        0.0000000000000000     
   9.3750000000000000E-002  0.93750000000000000        0.0000000000000000     
  0.12500000000000000       0.93750000000000000        0.0000000000000000     
   0.0000000000000000       0.96875000000000000        0.0000000000000000     
   3.1250000000000000E-002  0.96875000000000000        0.0000000000000000     
   6.2500000000000000E-002  0.96875000000000000        0.0000000000000000     
   9.3750000000000000E-002  0.96875000000000000        0.0000000000000000     
  0.12500000000000000       0.96875000000000000        0.0000000000000000     
   0.0000000000000000        1.0000000000000000        0.0000000000000000     
   3.1250000000000000E-002   1.0000000000000000        0.0000000000000000     
   6.2500000000000000E-002   1.0000000000000000        0.0000000000000000     
   9.3750000000000000E-002   1.0000000000000000        0.0000000000000000     
  0.12500000000000000        1.0000000000000000        0.0000000000000000     
  0.12500000000000000       0.87500000000000000        0.0000000000000000     
  0.15625000000000000       0.87500000000000000        0.0000000000000000     
  0.18750000000000000       0.87500000000000000        0.0000000000000000     
  0.21875000000000000       0.87500000000000000        0.0000000000000000     
  0.25000000000000000       0.87500000000000000        0.0000000000000000     
  0.12500000000000000       0.90625000000000000        0.0000000000000000     
  0.15625000000000000       0.90625000000000000        0.0000000000000000     
  0.18750000000000000       0.90625000000000000        0.0000000000000000     
  0.21875000000000000       0.90625000000000000        0.0000000000000000     
  0.25000000000000000       0.90625000000000000        0.0000000000000000     
  0.12500000000000000       0.93750000000000000        0.0000000000000000     
  0.15625000000000000       0.93750000000000000        0.0000000000000000     
  0.18750000000000000       0.93750000000000000        0.0000000000000000     
  0.21875000000000000       0.93750000000000000        0.0000000000000000     
  0.25000000000000000       0.93750000000000000        0.0000000000000000     
  0.12500000000000000       0.96875000000000000        0.0000000000000000     
  0.15625000000000000       0.96875000000000000        0.0000000000000000     
  0.18750000000000000       0.96875000000000000        0.0000000000000000     
  0.21875000000000000       0.96875000000000000        0.0000000000000000     
  0.25000000000000000       0.96875000000000000        0.0000000000000000     
  0.12500000000000000        1.0000000000000000        0.0000000000000000     
  0.15625000000000000        1.0000000000000000        0.0000000000000000     
  0.18750000000000000        1.0000000000000000        0.0000000000000000     
  0.21875000000000000        1.0000000000000000        0.0000000000000000     
  0.25000000000000000        1.0000000000000000        0.0000000000000000     
  0.25000000000000000       0.87500000000000000        0.0000000000000000     
  0.28125000000000000       0.87500000000000000        0.0000000000000000     
  0.31250000000000000       0.87500000000000000        0.0000000000000000     
  0.34375000000000000       0.87500000000000000        0.0000000000000000     
  0.37500000000000000       0.87500000000000000        0.0000000000000000     
  0.25000000000000000       0.90625000000000000        0.0000000000000000     
  0.28125000000000000       0.90625000000000000        0.0000000000000000     
  0.31250000000000000       0.90625000000000000        0.0000000000000000     
  0.34375000000000000       0.90625000000000000        0.0000000000000000     
  0.37500000000000000       0.90625000000000000        0.0000000000000000     
  0.25000000000000000       0.93750000000000000        0.0000000000000000     
  0.28125000000000000       0.93750000000000000        0.0000000000000000     
  0.31250000000000000       0.93750000000000000        0.0000000000000000     
  0.34375000000000000       0.93750000000000000        0.0000000000000000     
  0.37500000000000000       0.93750000000000000        0.0000000000000000     
  0.25000000000000000       0.96875000000000000        0.0000000000000000     
  0.28125000000000000       0.96875000000000000        0.0000000000000000     
  0.31250000000000000       0.96875000000000000        0.0000000000000000     
  0.34375000000000000       0.96875000000000000        0.0000000000000000     
  0.37500000000000000       0.96875000000000000        0.0000000000000000     
  0.25000000000000000        1.0000000000000000        0.0000000000000000     
  0.28125000000000000        1.0000000000000000        0.0000000000000000     
  0.31250000000000000        1.0000000000000000        0.0000000000000000     
  0.34375000000000000        1.0000000000000000        0.0000000000000000     
  0.37500000000000000        1.0000000000000000        0.0000000000000000     
  0.37500000000000000       0.87500000000000000        0.0000000000000000     
  0.40625000000000000       0.87500000000000000        0.0000000000000000     
  0.43750000000000000       0.87500000000000000        0.0000000000000000     
  0.46875000000000000       0.87500000000000000        0.0000000000000000     
  0.50000000000000000       0.87500000000000000        0.0000000000000000     
  0.37500000000000000       0.90625000000000000        0.0000000000000000     
  0.40625000000000000       0.90625000000000000        0.0000000000000000     
  0.43750000000000000       0.90625000000000000        0.0000000000000000     
  0.46875000000000000       0.90625000000000000        0.0000000000000000     
  0.50000000000000000       0.90625000000000000        0.0000000000000000     
  0.37500000000000000       0.93750000000000000        0.0000000000000000     
  0.40625000000000000       0.93750000000000000        0.0000000000000000     
  0.43750000000000000       0.93750000000000000        0.0000000000000000     
  0.46875000000000000       0.93750000000000000        0.0000000000000000     
  0.50000000000000000       0.93750000000000000        0.0000000000000000     
  0.37500000000000000       0.96875000000000000        0.0000000000000000     
  0.40625000000000000       0.96875000000000000        0.0000000000000000     
  0.43750000000000000       0.96875000000000000        0.0000000000000000     
  0.46875000000000000       0.96875000000000000        0.0000000000000000     
  0.50000000000000000       0.96875000000000000        0.0000000000000000     
  0.37500000000000000        1.0000000000000000        0.0000000000000000     
  0.40625000000000000        1.0000000000000000        0.0000000000000000     
  0.43750000000000000        1.0000000000000000        0.0000000000000000     
  0.46875000000000000        1.0000000000000000        0.0000000000000000     
  0.50000000000000000        1.0000000000000000        0.0000000000000000     
  0.50000000000000000       0.87500000000000000        0.0000000000000000     
  0.53125000000000000       0.87500000000000000        0.0000000000000000     
  0.56250000000000000       0.87500000000000000        0.0000000000000000     
  0.59375000000000000       0.87500000000000000        0.0000000000000000     
  0.62500000000000000       0.87500000000000000        0.0000000000000000     
  0.50000000000000000       0.90625000000000000        0.0000000000000000     
  0.53125000000000000       0.90625000000000000        0.0000000000000000     
  0.56250000000000000       0.90625000000000000        0.0000000000000000     
  0.59375000000000000       0.90625000000000000        0.0000000000000000     
  0.62500000000000000       0.90625000000000000        0.0000000000000000     
  0.50000000000000000       0.93750000000000000        0.0000000000000000     
  0.53125000000000000       0.93750000000000000        0.0000000000000000     
  0.56250000000000000       0.93750000000000000        0.0000000000000000     
  0.59375000000000000       0.93750000000000000        0.0000000000000000     
  0.62500000000000000       0.93750000000000000        0.0000000000000000     
  0.50000000000000000       0.96875000000000000        0.0000000000000000     
  0.53125000000000000       0.96875000000000000        0.0000000000000000     
  0.56250000000000000       0.96875000000000000        0.0000000000000000     
  0.59375000000000000       0.96875000000000000        0.0000000000000000     
  0.62500000000000000       0.96875000000000000        0.0000000000000000     
  0.50000000000000000        1.0000000000000000        0.0000000000000000     
  0.53125000000000000        1.0000000000000000        0.0000000000000000     
  0.56250000000000000        1.0000000000000000        0.0000000000000000     
  0.59375000000000000        1.0000000000000000        0.0000000000000000     
  0.62500000000000000        1.0000000000000000        0.0000000000000000     
  0.62500000000000000       0.87500000000000000        0.0000000000000000     
  0.65625000000000000       0.87500000000000000        0.0000000000000000     
  0.68750000000000000       0.87500000000000000        0.0000000000000000     
  0.71875000000000000       0.87500000000000000        0.0000000000000000     
  0.75000000000000000       0.87500000000000000        0.0000000000000000     
  0.62500000000000000       0.90625000000000000        0.0000000000000000     
  0.65625000000000000       0.90625000000000000        0.0000000000000000     
  0.68750000000000000       0.90625000000000000        0.0000000000000000     
  0.71875000000000000       0.90625000000000000        0.0000000000000000     
  0.75000000000000000       0.90625000000000000        0.0000000000000000     
  0.62500000000000000       0.93750000000000000        0.0000000000000000     
  0.65625000000000000       0.93750000000000000        0.0000000000000000     
  0.68750000000000000       0.93750000000000000        0.0000000000000000     
  0.71875000000000000       0.93750000000000000        0.0000000000000000     
  0.75000000000000000       0.93750000000000000        0.0000000000000000     
  0.62500000000000000       0.96875000000000000        0.0000000000000000     
  0.65625000000000000       0.96875000000000000        0.0000000000000000     
  0.68750000000000000       0.96875000000000000        0.0000000000000000     
  0.71875000000000000       0.96875000000000000        0.0000000000000000     
  0.75000000000000000       0.96875000000000000        0.0000000000000000     
  0.62500000000000000        1.0000000000000000        0.0000000000000000     
  0.65625000000000000        1.0000000000000000        0.0000000000000000     
  0.68750000000000000        1.0000000000000000        0.0000000000000000     
  0.71875000000000000        1.0000000000000000        0.0000000000000000     
  0.75000000000000000        1.0000000000000000        0.0000000000000000     
  0.75000000000000000       0.87500000000000000        0.0000000000000000     
  0.78125000000000000       0.87500000000000000        0.0000000000000000     
  0.81250000000000000       0.87500000000000000        0.0000000000000000     
  0.84375000000000000       0.87500000000000000        0.0000000000000000     
  0.87500000000000000       0.87500000000000000        0.0000000000000000     
  0.75000000000000000       0.90625000000000000        0.0000000000000000     
  0.78125000000000000       0.90625000000000000        0.0000000000000000     
  0.81250000000000000       0.90625000000000000        0.0000000000000000     
  0.84375000000000000       0.90625000000000000        0.0000000000000000     
  0.87500000000000000       0.90625000000000000        0.0000000000000000     
  0.75000000000000000       0.93750000000000000        0.0000000000000000     
  0.78125000000000000       0.93750000000000000        0.0000000000000000     
  0.81250000000000000       0.93750000000000000        0.0000000000000000     
  0.84375000000000000       0.93750000000000000        0.0000000000000000     
  0.87500000000000000       0.93750000000000000        0.0000000000000000     
  0.75000000000000000       0.96875000000000000        0.0000000000000000     
  0.78125000000000000       0.96875000000000000        0.0000000000000000     
  0.81250000000000000       0.96875000000000000        0.0000000000000000     
  0.84375000000000000       0.96875000000000000        0.0000000000000000     
  0.87500000000000000       0.96875000000000000        0.0000000000000000     
  0.75000000000000000        1.0000000000000000        0.0000000000000000     
  0.78125000000000000        1.0000000000000000        0.0000000000000000     
  0.81250000000000000        1.0000000000000000        0.0000000000000000     
  0.84375000000000000        1.0000000000000000        0.0000000000000000     
  0.87500000000000000        1.0000000000000000        0.0000000000000000     
  0.87500000000000000       0.87500000000000000        0.0000000000000000     
  0.90625000000000000       0.87500000000000000        0.0000000000000000     
  0.93750000000000000       0.87500000000000000        0.0000000000000000     
  0.96875000000000000       0.87500000000000000        0.0000000000000000     
   1.0000000000000000       0.87500000000000000        0.0000000000000000     
  0.87500000000000000       0.90625000000000000        0.0000000000000000     
  0.90625000000000000       0.90625000000000000        0.0000000000000000     
  0.93750000000000000       0.90625000000000000        0.0000000000000000     
  0.96875000000000000       0.90625000000000000        0.0000000000000000     
   1.0000000000000000       0.90625000000000000        0.0000000000000000     
  0.87500000000000000       0.93750000000000000        0.0000000000000000     
  0.90625000000000000       0.93750000000000000        0.0000000000000000     
  0.93750000000000000       0.93750000000000000        0.0000000000000000     
  0.96875000000000000       0.93750000000000000        0.0000000000000000     
   1.0000000000000000       0.93750000000000000        0.0000000000000000     
  0.87500000000000000       0.96875000000000000        0.0000000000000000     
  0.90625000000000000       0.96875000000000000        0.0000000000000000     
  0.93750000000000000       0.96875000000000000        0.0000000000000000     
  0.96875000000000000       0.96875000000000000        0.0000000000000000     
   1.0000000000000000       0.96875000000000000        0.0000000000000000     
  0.87500000000000000        1.0000000000000000        0.0000000000000000     
  0.90625000000000000        1.0000000000000000        0.0000000000000000     
  0.93750000000000000        1.0000000000000000        0.0000000000000000     
  0.96875000000000000        1.0000000000000000        0.0000000000000000     
   1.0000000000000000        1.0000000000000000        0.0000000000000000     
 </DataArray>
 </Points>
 <Cells>
 <DataArray  type="Int32"  Name="connectivity"  format="ascii">
           0           1           6           5
           1           2           7           6
           2           3           8           7
           3           4           9           8
           5           6          11          10
           6           7          12          11
           7           8          13          12
           8           9          14          13
          10          11          16          15
          11          12          17          16
          12          13          18          17
          13          14          19          18
          15          16          21          20
          16          17          22          21
          17          18          23          22
          18          19          24          23
          25          26          31          30
          26          27          32          31
          27          28          33          32
          28          29          34          33
          30          31          36          35
          31          32          37          36
          32          33          38          37
          33          34          39          38
          35          36          41          40
          36          37          42          41
          37          38          43          42
          38          39          44          43
          40          41          46          45
          41          42          47          46
          42          43          48          47
          43          44          49          48
          50          51          56          55
          51          52          57          56
          52          53          58          57
          53          54          59          58
          55          56          61          60
          56          57          62          61
          57          58          63          62
          58          59          64          63
          60          61          66          65
          61          62          67          66
          62          63          68          67
          63          64          69          68
          65          66          71          70
          66          67          72          71
          67          68          73          72
          68          69          74          73
          75          76          81          80
          76          77          82          81
          77          78          83          82
          78          79          84          83
          80          81          86          85
          81          82          87          86
          82          83          88          87
          83          84          89          88
          85          86          91          90
          86          87          92          91
          87          88          93          92
          88          89          94          93
          90          91          96          95
          91          92          97          96
          92          93          98          97
          93          94          99          98
         100         101         106         105
         101         102         107         106
         102         103         108         107
         103         104         109         108
         105         106         111         110
         106         107         112         111
         107         108         113         112
         108         109         114         113
         110         111         116         115
         111         112         117         116
         112         113         118         117
         113         114         119         118
         115         116         121         120
         116         117         122         121
         117         118         123         122
         118         119         124         123
         125         126         131         130
         126         127         132         131
         127         128         133         132
         128         129         134         133
         130         131         136         135
         131         132         137         136
         132         133         138         137
         133         134         139         138
         135         136         141         140
         136         137         142         141
         137         138         143         142
         138         139         144         143
         140         141         146         145
         141         142         147         146
         142         143         148         147
         143         144         149         148
         150         151         156         155
         151         152         157         156
         152         153         158         157
         153         154         159         158
         155         156         161         160
         156         157         162         161
         157         158         163         162
         158         159         164         163
         160         161         166         165
         161         162         167         166
         162         163         168         167
         163         164         169         168
         165         166         171         170
         166         167         172         171
         167         168         173         172
         168         169         174         173
         175         176         181         180
         176         177         182         181
         177         178         183         182
         178         179         184         183
         180         181         186         185
         181         182         187         186
         182         183         188         187
         183         184         189         188
         185         186         191         190
         186         187         192         191
         187         188         193         192
         188         189         194         193
         190         191         196         195
         191         192         197         196
         192         193         198         197
         193         194         199         198
         200         201         206         205
         201         202         207         206
         202         203         208         207
         203         204         209         208
         205         206         211         210
         206         207         212         211
         207         208         213         212
         208         209         214         213
         210         211         216         215
         211         212         217         216
         212         213         218         217
         213         214         219         218
         215         216         221         220
         216         217         222         221
         217         218         223         222
         218         219         224         223
         225         226         231         230
         226         227         232         231
         227         228         233         232
         228         229         234         233
         230         231         236         235
         231         232         237         236
         232         233         238         237
         233         234         239         238
         235         236         241         240
         236         237         242         241
         237         238         243         242
         238         239         244         243
         240         241         246         245
         241         242         247         246
         242         243         248         247
         243         244         249         248
         250         251         256         255
         251         252         257         256
         252         253         258         257
         253         254         259         258
         255         256         261         260
         256         257         262         261
         257         258         263         262
         258         259         264         263
         260         261         266         265
         261         262         267         266
         262         263         268         267
         263         264         269         268
         265         266         271         270
         266         267         272         271
         267         268         273         272
         268         269         274         273
         275         276         281         280
         276         277         282         281
         277         278         283         282
         278         279         284         283
         280         281         286         285
         281         282         287         286
         282         283         288         287
         283         284         289         288
         285         286         291         290
         286         287         292         291
         287         288         293         292
         288         289         294         293
         290         291         296         295
         291         292         297         296
         292         293         298         297
         293         294         299         298
         300         301         306         305
         301         302         307         306
         302         303         308         307
         303         304         309         308
         305         306         311         310
         306         307         312         311
         307         308         313         312
         308         309         314         313
         310         311         316         315
         311         312         317         316
         312         313         318         317
         313         314         319         318
         315         316         321         320
         316         317         322         321
         317         318         323         322
         318         319         324         323
         325         326         331         330
         326         327         332         331
         327         328         333         332
         328         329         334         333
         330         331         336         335
         331         332         337         336
         332         333         338         337
         333         334         339         338
         335         336         341         340
         336         337         342         341
         337         338         343         342
         338         339         344         343
         340         341         346         345
         341         342         347         346
         342         343         348         347
         343         344         349         348
         350         351         356         355
         351         352         357         356
         352         353         358         357
         353         354         359         358
         355         356         361         360
         356         357         362         361
         357         358         363         362
         358         359         364         363
         360         361         366         365
         361         362         367         366
         362         363         368         367
         363         364         369         368
         365         366         371         370
         366         367         372         371
         367         368         373         372
         368         369         374         373
         375         376         381         380
         376         377         382         381
         377         378         383         382
         378         379         384         383
         380         381         386         385
         381         382         387         386
         382         383         388         387
         383         384         389         388
         385         386         391         390
         386         387         392         391
         387         388         393         392
         388         389         394         393
         390         391         396         395
         391         392         397         396
         392         393         398         397
         393         394         399         398
         400         401         406         405
         401         402         407         406
         402         403         408         407
         403         404         409         408
         405         406         411         410
         406         407         412         411
         407         408         413         412
         408         409         414         413
         410         411         416         415
         411         412         417         416
         412         413         418         417
         413         414         419         418
         415         416         421         420
         416         417         422         421
         417         418         423         422
         418         419         424         423
         425         426         431         430
         426         427         432         431
         427         428         433         432
         428         429         434         433
         430         431         436         435
         431         432         437         436
         432         433         438         437
         433         434         439         438
         435         436         441         440
         436         437         442         441
         437         438         443         442
         438         439         444         443
         440         441         446         445
         441         442         447         446
         442         443         448         447
         443         444         449         448
         450         451         456         455
         451         452         457         456
         452         453         458         457
         453         454         459         458
         455         456         461         460
         456         457         462         461
         457         458         463         462
         458         459         464         463
         460         461         466         465
         461         462         467         466
         462         463         468         467
         463         464         469         468
         465         466         471         470
         466         467         472         471
         467         468         473         472
         468         469         474         473
         475         476         481         480
         476         477         482         481
         477         478         483         482
         478         479         484         483
         480         481         486         485
         481         482         487         486
         482         483         488         487
         483         484         489         488
         485         486         491         490
         486         487         492         491
         487         488         493         492
         488         489         494         493
         490         491         496         495
         491         492         497         496
         492         493         498         497
         493         494         499         498
         500         501         506         505
         501         502         507         506
         502         503         508         507
         503         504         509         508
         505         506         511         510
         506         507         512         511
         507         508         513         512
         508         509         514         513
         510         511         516         515
         511         512         517         516
         512         513         518         517
         513         514         519         518
         515         516         521         520
         516         517         522         521
         517         518         523         522
         518         519         524         523
         525         526         531         530
         526         527         532         531
         527         528         533         532
         528         529         534         533
         530         531         536         535
         531         532         537         536
         532         533         538         537
         533         534         539         538
         535         536         541         540
         536         537         542         541
         537         538         543         542
         538         539         544         543
         540         541         546         545
         541         542         547         546
         542         543         548         547
         543         544         549         548
         550         551         556         555
         551         552         557         556
         552         553         558         557
         553         554         559         558
         555         556         561         560
         556         557         562         561
         557         558         563         562
         558         559         564         563
         560         561         566         565
         561         562         567         566
         562         563         568         567
         563         564         569         568
         565         566         571         570
         566         567         572         571
         567         568         573         572
         568         569         574         573
         575         576         581         580
         576         577         582         581
         577         578         583         582
         578         579         584         583
         580         581         586         585
         581         582         587         586
         582         583         588         587
         583         584         589         588
         585         586         591         590
         586         587         592         591
         587         588         593         592
         588         589         594         593
         590         591         596         595
         591         592         597         596
         592         593         598         597
         593         594         599         598
         600         601         606         605
         601         602         607         606
         602         603         608         607
         603         604         609         608
         605         606         611         610
         606         607         612         611
         607         608         613         612
         608         609         614         613
         610         611         616         615
         611         612         617         616
         612         613         618         617
         613         614         619         618
         615         616         621         620
         616         617         622         621
         617         618         623         622
         618         619         624         623
         625         626         631         630
         626         627         632         631
         627         628         633         632
         628         629         634         633
         630         631         636         635
         631         632         637         636
         632         633         638         637
         633         634         639         638
         635         636         641         640
         636         637         642         641
         637         638         643         642
         638         639         644         643
         640         641         646         645
         641         642         647         646
         642         643         648         647
         643         644         649         648
         650         651         656         655
         651         652         657         656
         652         653         658         657
         653         654         659         658
         655         656         661         660
         656         657         662         661
         657         658         663         662
         658         659         664         663
         660         661         666         665
         661         662         667         666
         662         663         668         667
         663         664         669         668
         665         666         671         670
         666         667         672         671
         667         668         673         672
         668         669         674         673
         675         676         681         680
         676         677         682         681
         677         678         683         682
         678         679         684         683
         680         681         686         685
         681         682         687         686
         682         683         688         687
         683         684         689         688
         685         686         691         690
         686         687         692         691
         687         688         693         692
         688         689         694         693
         690         691         696         695
         691         692         697         696
         692         693         698         697
         693         694         699         698
         700         701         706         705
         701         702         707         706
         702         703         708         707
         703         704         709         708
         705         706         711         710
         706         707         712         711
         707         708         713         712
         708         709         714         713
         710         711         716         715
         711         712         717         716
         712         713         718         717
         713         714         719         718
         715         716         721         720
         716         717         722         721
         717         718         723         722
         718         719         724         723
         725         726         731         730
         726         727         732         731
         727         728         733         732
         728         729         734         733
         730         731         736         735
         731         732         737         736
         732         733         738         737
         733         734         739         738
         735         736         741         740
         736         737         742         741
         737         738         743         742
         738         739         744         743
         740         741         746         745
         741         742         747         746
         742         743         748         747
         743         744         749         748
         750         751         756         755
         751         752         757         756
         752         753         758         757
         753         754         759         758
         755         756         761         760
         756         757         762         761
         757         758         763         762
         758         759         764         763
         760         761         766         765
         761         762         767         766
         762         763         768         767
         763         764         769         768
         765         766         771         770
         766         767         772         771
         767         768         773         772
         768         769         774         773
         775         776         781         780
         776         777         782         781
         777         778         783         782
         778         779         784         783
         780         781         786         785
         781         782         787         786
         782         783         788         787
         783         784         789         788
         785         786         791         790
         786         787         792         791
         787         788         793         792
         788         789         794         793
         790         791         796         795
         791         792         797         796
         792         793         798         797
         793         794         799         798
         800         801         806         805
         801         802         807         806
         802         803         808         807
         803         804         809         808
         805         806         811         810
         806         807         812         811
         807         808         813         812
         808         809         814         813
         810         811         816         815
         811         812         817         816
         812         813         818         817
         813         814         819         818
         815         816         821         820
         816         817         822         821
         817         818         823         822
         818         819         824         823
         825         826         831         830
         826         827         832         831
         827         828         833         832
         828         829         834         833
         830         831         836         835
         831         832         837         836
         832         833         838         837
         833         834         839         838
         835         836         841         840
         836         837         842         841
         837         838         843         842
         838         839         844         843
         840         841         846         845
         841         842         847         846
         842         843         848         847
         843         844         849         848
         850         851         856         855
         851         852         857         856
         852         853         858         857
         853         854         859         858
         855         856         861         860
         856         857         862         861
         857         858         863         862
         858         859         864         863
         860         861         866         865
         861         862         867         866
         862         863         868         867
         863         864         869         868
         865         866         871         870
         866         867         872         871
         867         868         873         872
         868         869         874         873
         875         876         881         880
         876         877         882         881
         877         878         883         882
         878         879         884         883
         880         881         886         885
         881         882         887         886
         882         883         888         887
         883         884         889         888
         885         886         891         890
         886         887         892         891
         887         888         893         892
         888         889         894         893
         890         891         896         895
         891         892         897         896
         892         893         898         897
         893         894         899         898
         900         901         906         905
         901         902         907         906
         902         903         908         907
         903         904         909         908
         905         906         911         910
         906         907         912         911
         907         908         913         912
         908         909         914         913
         910         911         916         915
         911         912         917         916
         912         913         918         917
         913         914         919         918
         915         916         921         920
         916         917         922         921
         917         918         923         922
         918         919         924         923
         925         926         931         930
         926         927         932         931
         927         928         933         932
         928         929         934         933
         930         931         936         935
         931         932         937         936
         932         933         938         937
         933         934         939         938
         935         936         941         940
         936         937         942         941
         937         938         943         942
         938         939         944         943
         940         941         946         945
         941         942         947         946
         942         943         948         947
         943         944         949         948
         950         951         956         955
         951         952         957         956
         952         953         958         957
         953         954         959         958
         955         956         961         960
         956         957         962         961
         957         958         963         962
         958         959         964         963
         960         961         966         965
         961         962         967         966
         962         963         968         967
         963         964         969         968
         965         966         971         970
         966         967         972         971
         967         968         973         972
         968         969         974         973
         975         976         981         980
         976         977         982         981
         977         978         983         982
         978         979         984         983
         980         981         986         985
         981         982         987         986
         982         983         988         987
         983         984         989         988
         985         986         991         990
         986         987         992         991
         987         988         993         992
         988         989         994         993
         990         991         996         995
         991         992         997         996
         992         993         998         997
         993         994         999         998
        1000        1001        1006        1005
        1001        1002        1007        1006
        1002        1003        1008        1007
        1003        1004        1009        1008
        1005        1006        1011        1010
        1006        1007        1012        1011
        1007        1008        1013        1012
        1008        1009        1014        1013
        1010        1011        1016        1015
        1011        1012        1017        1016
        1012        1013        1018        1017
        1013        1014        1019        1018
        1015        1016        1021        1020
        1016        1017        1022        1021
        1017        1018        1023        1022
        1018        1019        1024        1023
        1025        1026        1031        1030
        1026        1027        1032        1031
        1027        1028        1033        1032
        1028        1029        1034        1033
        1030        1031        1036        1035
        1031        1032        1037        1036
        1032        1033        1038        1037
        1033        1034        1039        1038
        1035        1036        1041        1040
        1036        1037        1042        1041
        1037        1038        1043        1042
        1038        1039        1044        1043
        1040        1041        1046        1045
        1041        1042        1047        1046
        1042        1043        1048        1047
        1043        1044        1049        1048
        1050        1051        1056        1055
        1051        1052        1057        1056
        1052        1053        1058        1057
        1053        1054        1059        1058
        1055        1056        1061        1060
        1056        1057        1062        1061
        1057        1058        1063        1062
        1058        1059        1064        1063
        1060        1061        1066        1065
        1061        1062        1067        1066
        1062        1063        1068        1067
        1063        1064        1069        1068
        1065        1066        1071        1070
        1066        1067        1072        1071
        1067        1068        1073        1072
        1068        1069        1074        1073
        1075        1076        1081        1080
        1076        1077        1082        1081
        1077        1078        1083        1082
        1078        1079        1084        1083
        1080        1081        1086        1085
        1081        1082        1087        1086
        1082        1083        1088        1087
        1083        1084        1089        1088
        1085        1086        1091        1090
        1086        1087        1092        1091
        1087        1088        1093        1092
        1088        1089        1094        1093
        1090        1091        1096        1095
        1091        1092        1097        1096
        1092        1093        1098        1097
        1093        1094        1099        1098
        1100        1101        1106        1105
        1101        1102        1107        1106
        1102        1103        1108        1107
        1103        1104        1109        1108
        1105        1106        1111        1110
        1106        1107        1112        1111
        1107        1108        1113        1112
        1108        1109        1114        1113
        1110        1111        1116        1115
        1111        1112        1117        1116
        1112        1113        1118        1117
        1113        1114        1119        1118
        1115        1116        1121        1120
        1116        1117        1122        1121
        1117        1118        1123        1122
        1118        1119        1124        1123
        1125        1126        1131        1130
        1126        1127        1132        1131
        1127        1128        1133        1132
        1128        1129        1134        1133
        1130        1131        1136        1135
        1131        1132        1137        1136
        1132        1133        1138        1137
        1133        1134        1139        1138
        1135        1136        1141        1140
        1136        1137        1142        1141
        1137        1138        1143        1142
        1138        1139        1144        1143
        1140        1141        1146        1145
        1141        1142        1147        1146
        1142        1143        1148        1147
        1143        1144        1149        1148
        1150        1151        1156        1155
        1151        1152        1157        1156
        1152        1153        1158        1157
        1153        1154        1159        1158
        1155        1156        1161        1160
        1156        1157        1162        1161
        1157        1158        1163        1162
        1158        1159        1164        1163
        1160        1161        1166        1165
        1161        1162        1167        1166
        1162        1163        1168        1167
        1163        1164        1169        1168
        1165        1166        1171        1170
        1166        1167        1172        1171
        1167        1168        1173        1172
        1168        1169        1174        1173
        1175        1176        1181        1180
        1176        1177        1182        1181
        1177        1178        1183        1182
        1178        1179        1184        1183
        1180        1181        1186        1185
        1181        1182        1187        1186
        1182        1183        1188        1187
        1183        1184        1189        1188
        1185        1186        1191        1190
        1186        1187        1192        1191
        1187        1188        1193        1192
        1188        1189        1194        1193
        1190        1191        1196        1195
        1191        1192        1197        1196
        1192        1193        1198        1197
        1193        1194        1199        1198
        1200        1201        1206        1205
        1201        1202        1207        1206
        1202        1203        1208        1207
        1203        1204        1209        1208
        1205        1206        1211        1210
        1206        1207        1212        1211
        1207        1208        1213        1212
        1208        1209        1214        1213
        1210        1211        1216        1215
        1211        1212        1217        1216
        1212        1213        1218        1217
        1213        1214        1219        1218
        1215        1216        1221        1220
        1216        1217        1222        1221
        1217        1218        1223        1222
        1218        1219        1224        1223
        1225        1226        1231        1230
        1226        1227        1232        1231
        1227        1228        1233        1232
        1228        1229        1234        1233
        1230        1231        1236        1235
        1231        1232        1237        1236
        1232        1233        1238        1237
        1233        1234        1239        1238
        1235        1236        1241        1240
        1236        1237        1242        1241
        1237        1238        1243        1242
        1238        1239        1244        1243
        1240        1241        1246        1245
        1241        1242        1247        1246
        1242        1243        1248        1247
        1243        1244        1249        1248
        1250        1251        1256        1255
        1251        1252        1257        1256
        1252        1253        1258        1257
        1253        1254        1259        1258
        1255        1256        1261        1260
        1256        1257        1262        1261
        1257        1258        1263        1262
        1258        1259        1264        1263
        1260        1261        1266        1265
        1261        1262        1267        1266
        1262        1263        1268        1267
        1263        1264        1269        1268
        1265        1266        1271        1270
        1266        1267        1272        1271
        1267        1268        1273        1272
        1268        1269        1274        1273
        1275        1276        1281        1280
        1276        1277        1282        1281
        1277        1278        1283        1282
        1278        1279        1284        1283
        1280        1281        1286        1285
        1281        1282        1287        1286
        1282        1283        1288        1287
        1283        1284        1289        1288
        1285        1286        1291        1290
        1286        1287        1292        1291
        1287        1288        1293        1292
        1288        1289        1294        1293
        1290        1291        1296        1295
        1291        1292        1297        1296
        1292        1293        1298        1297
        1293        1294        1299        1298
        1300        1301        1306        1305
        1301        1302        1307        1306
        1302        1303        1308        1307
        1303        1304        1309        1308
        1305        1306        1311        1310
        1306        1307        1312        1311
        1307        1308        1313        1312
        1308        1309        1314        1313
        1310        1311        1316        1315
        1311        1312        1317        1316
        1312        1313        1318        1317
        1313        1314        1319        1318
        1315        1316        1321        1320
        1316        1317        1322        1321
        1317        1318        1323        1322
        1318        1319        1324        1323
        1325        1326        1331        1330
        1326        1327        1332        1331
        1327        1328        1333        1332
        1328        1329        1334        1333
        1330        1331        1336        1335
        1331        1332        1337        1336
        1332        1333        1338        1337
        1333        1334        1339        1338
        1335        1336        1341        1340
        1336        1337        1342        1341
        1337        1338        1343        1342
        1338        1339        1344        1343
        1340        1341        1346        1345
        1341        1342        1347        1346
        1342        1343        1348        1347
        1343        1344        1349        1348
        1350        1351        1356        1355
        1351        1352        1357        1356
        1352        1353        1358        1357
        1353        1354        1359        1358
        1355        1356        1361        1360
        1356        1357        1362        1361
        1357        1358        1363        1362
        1358        1359        1364        1363
        1360        1361        1366        1365
        1361        1362        1367        1366
        1362        1363        1368        1367
        1363        1364        1369        1368
        1365        1366        1371        1370
        1366        1367        1372        1371
        1367        1368        1373        1372
        1368        1369        1374        1373
        1375        1376        1381        1380
        1376        1377        1382        1381
        1377        1378        1383        1382
        1378        1379        1384        1383
        1380        1381        1386        1385
        1381        1382        1387        1386
        1382        1383        1388        1387
        1383        1384        1389        1388
        1385        1386        1391        1390
        1386        1387        1392        1391
        1387        1388        1393        1392
        1388        1389        1394        1393
        1390        1391        1396        1395
        1391        1392        1397        1396
        1392        1393        1398        1397
        1393        1394        1399        1398
        1400        1401        1406        1405
        1401        1402        1407        1406
        1402        1403        1408        1407
        1403        1404        1409        1408
        1405        1406        1411        1410
        1406        1407        1412        1411
        1407        1408        1413        1412
        1408        1409        1414        1413
        1410        1411        1416        1415
        1411        1412        1417        1416
        1412        1413        1418        1417
        1413        1414        1419        1418
        1415        1416        1421        1420
        1416        1417        1422        1421
        1417        1418        1423        1422
        1418        1419        1424        1423
        1425        1426        1431        1430
        1426        1427        1432        1431
        1427        1428        1433        1432
        1428        1429        1434        1433
        1430        1431        1436        1435
        1431        1432        1437        1436
        1432        1433        1438        1437
        1433        1434        1439        1438
        1435        1436        1441        1440
        1436        1437        1442        1441
        1437        1438        1443        1442
        1438        1439        1444        1443
        1440        1441        1446        1445
        1441        1442        1447        1446
        1442        1443        1448        1447
        1443        1444        1449        1448
        1450        1451        1456        1455
        1451        1452        1457        1456
        1452        1453        1458        1457
        1453        1454        1459        1458
        1455        1456        1461        1460
        1456        1457        1462        1461
        1457        1458        1463        1462
        1458        1459        1464        1463
        1460        1461        1466        1465
        1461        1462        1467        1466
        1462        1463        1468        1467
        1463        1464        1469        1468
        1465        1466        1471        1470
        1466        1467        1472        1471
        1467        1468        1473        1472
        1468        1469        1474        1473
        1475        1476        1481        1480
        1476        1477        1482        1481
        1477        1478        1483        1482
        1478        1479        1484        1483
        1480        1481        1486        1485
        1481        1482        1487        1486
        1482        1483        1488        1487
        1483        1484        1489        1488
        1485        1486        1491        1490
        1486        1487        1492        1491
        1487        1488        1493        1492
        1488        1489        1494        1493
        1490        1491        1496        1495
        1491        1492        1497        1496
        1492        1493        1498        1497
        1493        1494        1499        1498
        1500        1501        1506        1505
        1501        1502        1507        1506
        1502        1503        1508        1507
        1503        1504        1509        1508
        1505        1506        1511        1510
        1506        1507        1512        1511
        1507        1508        1513        1512
        1508        1509        1514        1513
        1510        1511        1516        1515
        1511        1512        1517        1516
        1512        1513        1518        1517
        1513        1514        1519        1518
        1515        1516        1521        1520
        1516        1517        1522        1521
        1517        1518        1523        1522
        1518        1519        1524        1523
        1525        1526        1531        1530
        1526        1527        1532        1531
        1527        1528        1533        1532
        1528        1529        1534        1533
        1530        1531        1536        1535
        1531        1532        1537        1536
        1532        1533        1538        1537
        1533        1534        1539        1538
        1535        1536        1541        1540
        1536        1537        1542        1541
        1537        1538        1543        1542
        1538        1539        1544        1543
        1540        1541        1546        1545
        1541        1542        1547        1546
        1542        1543        1548        1547
        1543        1544        1549        1548
        1550        1551        1556        1555
        1551        1552        1557        1556
        1552        1553        1558        1557
        1553        1554        1559        1558
        1555        1556        1561        1560
        1556        1557        1562        1561
        1557        1558        1563        1562
        1558        1559        1564        1563
        1560        1561        1566        1565
        1561        1562        1567        1566
        1562        1563        1568        1567
        1563        1564        1569        1568
        1565        1566        1571        1570
        1566        1567        1572        1571
        1567        1568        1573        1572
        1568        1569        1574        1573
        1575        1576        1581        1580
        1576        1577        1582        1581
        1577        1578        1583        1582
        1578        1579        1584        1583
        1580        1581        1586        1585
        1581        1582        1587        1586
        1582        1583        1588        1587
        1583        1584        1589        1588
        1585        1586        1591        1590
        1586        1587        1592        1591
        1587        1588        1593        1592
        1588        1589        1594        1593
        1590        1591        1596        1595
        1591        1592        1597        1596
        1592        1593        1598        1597
        1593        1594        1599        1598
 </DataArray>
 <DataArray  type="Int32"  Name="offsets"  format="ascii"> 
           4
           8
          12
          16
          20
          24
          28
          32
          36
          40
          44
          48
          52
          56
          60
          64
          68
          72
          76
          80
          84
          88
          92
          96
         100
         104
         108
         112
         116
         120
         124
         128
         132
         136
         140
         144
         148
         152
         156
         160
         164
         168
         172
         176
         180
         184
         188
         192
         196
         200
         204
         208
         212
         216
         220
         224
         228
         232
         236
         240
         244
         248
         252
         256
         260
         264
         268
         272
         276
         280
         284
         288
         292
         296
         300
         304
         308
         312
         316
         320
         324
         328
         332
         336
         340
         344
         348
         352
         356
         360
         364
         368
         372
         376
         380
         384
         388
         392
         396
         400
         404
         408
         412
         416
         420
         424
         428
         432
         436
         440
         444
         448
         452
         456
         460
         464
         468
         472
         476
         480
         484
         488
         492
         496
         500
         504
         508
         512
         516
         520
         524
         528
         532
         536
         540
         544
         548
         552
         556
         560
         564
         568
         572
         576
         580
         584
         588
         592
         596
         600
         604
         608
         612
         616
         620
         624
         628
         632
         636
         640
         644
         648
         652
         656
         660
         664
         668
         672
         676
         680
         684
         688
         692
         696
         700
         704
         708
         712
         716
         720
         724
         728
         732
         736
         740
         744
         748
         752
         756
         760
         764
         768
         772
         776
         780
         784
         788
         792
         796
         800
         804
         808
         812
         816
         820
         824
         828
         832
         836
         840
         844
         848
         852
         856
         860
         864
         868
         872
         876
         880
         884
         888
         892
         896
         900
         904
         908
         912
         916
         920
         924
         928
         932
         936
         940
         944
         948
         952
         956
         960
         964
         968
         972
         976
         980
         984
         988
         992
         996
        1000
        1004
        1008
        1012
        1016
        1020
        1024
        1028
        1032
        1036
        1040
        1044
        1048
        1052
        1056
        1060
        1064
        1068
        1072
        1076
        1080
        1084
        1088
        1092
        1096
        1100
        1104
        1108
        1112
        1116
        1120
        1124
        1128
        1132
        1136
        1140
        1144
        1148
        1152
        1156
        1160
        1164
        1168
        1172
        1176
        1180
        1184
        1188
        1192
        1196
        1200
        1204
        1208
        1212
        1216
        1220
        1224
        1228
        1232
        1236
        1240
        1244
        1248
        1252
        1256
        1260
        1264
        1268
        1272
        1276
        1280
        1284
        1288
        1292
        1296
        1300
        1304
        1308
        1312
        1316
        1320
        1324
        1328
        1332
        1336
        1340
        1344
        1348
        1352
        1356
        1360
        1364
        1368
        1372
        1376
        1380
        1384
        1388
        1392
        1396
        1400
        1404
        1408
        1412
        1416
        1420
        1424
        1428
        1432
        1436
        1440
        1444
        1448
        1452
        1456
        1460
        1464
        1468
        1472
        1476
        1480
        1484
        1488
        1492
        1496
        1500
        1504
        1508
        1512
        1516
        1520
        1524
        1528
        1532
        1536
        1540
        1544
        1548
        1552
        1556
        1560
        1564
        1568
        1572
        1576
        1580
        1584
        1588
        1592
        1596
        1600
        1604
        1608
        1612
        1616
        1620
        1624
        1628
        1632
        1636
        1640
        1644
        1648
        1652
        1656
        1660
        1664
        1668
        1672
        1676
        1680
        1684
        1688
        1692
        1696
        1700
        1704
        1708
        1712
        1716
        1720
        1724
        1728
        1732
        1736
        1740
        1744
        1748
        1752
        1756
        1760
        1764
        1768
        1772
        1776
        1780
        1784
        1788
        1792
        1796
        1800
        1804
        1808
        1812
        1816
        1820
        1824
        1828
        1832
        1836
        1840
        1844
        1848
        1852
        1856
        1860
        1864
        1868
        1872
        1876
        1880
        1884
        1888
        1892
        1896
        1900
        1904
        1908
        1912
        1916
        1920
        1924
        1928
        1932
        1936
        1940
        1944
        1948
        1952
        1956
        1960
        1964
        1968
        1972
        1976
        1980
        1984
        1988
        1992
        1996
        2000
        2004
        2008
        2012
        2016
        2020
        2024
        2028
        2032
        2036
        2040
        2044
        2048
        2052
        2056
        2060
        2064
        2068
        2072
        2076
        2080
        2084
        2088
        2092
        2096
        2100
        2104
        2108
        2112
        2116
        2120
        2124
        2128
        2132
        2136
        2140
        2144
        2148
        2152
        2156
        2160
        2164
        2168
        2172
        2176
        2180
        2184
        2188
        2192
        2196
        2200
        2204
        2208
        2212
        2216
        2220
        2224
        2228
        2232
        2236
        2240
        2244
        2248
        2252
        2256
        2260
        2264
        2268
        2272
        2276
        2280
        2284
        2288
        2292
        2296
        2300
        2304
        2308
        2312
        2316
        2320
        2324
        2328
        2332
        2336
        2340
        2344
        2348
        2352
        2356
        2360
        2364
        2368
        2372
        2376
        2380
        2384
        2388
        2392
        2396
        2400
        2404
        2408
        2412
        2416
        2420
        2424
        2428
        2432
        2436
        2440
        2444
        2448
        2452
        2456
        2460
        2464
        2468
        2472
        2476
        2480
        2484
        2488
        2492
        2496
        2500
        2504
        2508
        2512
        2516
        2520
        2524
        2528
        2532
        2536
        2540
        2544
        2548
        2552
        2556
        2560
        2564
        2568
        2572
        2576
        2580
        2584
        2588
        2592
        2596
        2600
        2604
        2608
        2612
        2616
        2620
        2624
        2628
        2632
        2636
        2640
        2644
        2648
        2652
        2656
        2660
        2664
        2668
        2672
        2676
        2680
        2684
        2688
        2692
        2696
        2700
        2704
        2708
        2712
        2716
        2720
        2724
        2728
        2732
        2736
        2740
        2744
        2748
        2752
        2756
        2760
        2764
        2768
        2772
        2776
        2780
        2784
        2788
        2792
        2796
        2800
        2804
        2808
        2812
        2816
        2820
        2824
        2828
        2832
        2836
        2840
        2844
        2848
        2852
        2856
        2860
        2864
        2868
        2872
        2876
        2880
        2884
        2888
        2892
        2896
        2900
        2904
        2908
        2912
        2916
        2920
        2924
        2928
        2932
        2936
        2940
        2944
        2948
        2952
        2956
        2960
        2964
        2968
        2972
        2976
        2980
        2984
        2988
        2992
        2996
        3000
        3004
        3008
        3012
        3016
        3020
        3024
        3028
        3032
        3036
        3040
        3044
        3048
        3052
        3056
        3060
        3064
        3068
        3072
        3076
        3080
        3084
        3088
        3092
        3096
        3100
        3104
        3108
        3112
        3116
        3120
        3124
        3128
        3132
        3136
        3140
        3144
        3148
        3152
        3156
        3160
        3164
        3168
        3172
        3176
        3180
        3184
        3188
        3192
        3196
        3200
        3204
        3208
        3212
        3216
        3220
        3224
        3228
        3232
        3236
        3240
        3244
        3248
        3252
        3256
        3260
        3264
        3268
        3272
        3276
        3280
        3284
        3288
        3292
        3296
        3300
        3304
        3308
        3312
        3316
        3320
        3324
        3328
        3332
        3336
        3340
        3344
        3348
        3352
        3356
        3360
        3364
        3368
        3372
        3376
        3380
        3384
        3388
        3392
        3396
        3400
        3404
        3408
        3412
        3416
        3420
        3424
        3428
        3432
        3436
        3440
        3444
        3448
        3452
        3456
        3460
        3464
        3468
        3472
        3476
        3480
        3484
        3488
        3492
        3496
        3500
        3504
        3508
        3512
        3516
        3520
        3524
        3528
        3532
        3536
        3540
        3544
        3548
        3552
        3556
        3560
        3564
        3568
        3572
        3576
        3580
        3584
        3588
        3592
        3596
        3600
        3604
        3608
        3612
        3616
        3620
        3624
        3628
        3632
        3636
        3640
        3644
        3648
        3652
        3656
        3660
        3664
        3668
        3672
        3676
        3680
        3684
        3688
        3692
        3696
        3700
        3704
        3708
        3712
        3716
        3720
        3724
        3728
        3732
        3736
        3740
        3744
        3748
        3752
        3756
        3760
        3764
        3768
        3772
        3776
        3780
        3784
        3788
        3792
        3796
        3800
        3804
        3808
        3812
        3816
        3820
        3824
        3828
        3832
        3836
        3840
        3844
        3848
        3852
        3856
        3860
        3864
        3868
        3872
        3876
        3880
        3884
        3888
        3892
        3896
        3900
        3904
        3908
        3912
        3916
        3920
        3924
        3928
        3932
        3936
        3940
        3944
        3948
        3952
        3956
        3960
        3964
        3968
        3972
        3976
        3980
        3984
        3988
        3992
        3996
        4000
        4004
        4008
        4012
        4016
        4020
        4024
        4028
        4032
        4036
        4040
        4044
        4048
        4052
        4056
        4060
        4064
        4068
        4072
        4076
        4080
        4084
        4088
        4092
        4096
 </DataArray>
 <DataArray  type="UInt8"  Name="types"  format="ascii">
 9
 9
 9
 9
 9
 9
 9
 9
 9
 9
 9
 9
 9
 9
 9
 9
 9
 9
 9
 9
 9
 9
 9
 9
 9
 9
 9
 9
 9
 9
 9
 9
 9
 9
 9
 9
 9
 9
 9
 9
 9
 9
 9
 9
 9
 9
 9
 9
 9
 9
 9
 9
 9
 9
 9
 9
 9
 9
 9
 9
 9
 9
 9
 9
 9
 9
 9
 9
 9
 9
 9
 9
 9
 9
 9
 9
 9
 9
 9
 9
 9
 9
 9
 9
 9
 9
 9
 9
 9
 9
 9
 9
 9
 9
 9
 9
 9
 9
 9
 9
 9
 9
 9
 9
 9
 9
 9
 9
 9
 9
 9
 9
 9
 9
 9
 9
 9
 9
 9
 9
 9
 9
 9
 9
 9
 9
 9
 9
 9
 9
 9
 9
 9
 9
 9
 9
 9
 9
 9
 9
 9
 9
 9
 9
 9
 9
 9
 9
 9
 9
 9
 9
 9
 9
 9
 9
 9
 9
 9
 9
 9
 9
 9
 9
 9
 9
 9
 9
 9
 9
 9
 9
 9
 9
 9
 9
 9
 9
 9
 9
 9
 9
 9
 9
 9
 9
 9
 9
 9
 9
 9
 9
 9
 9
 9
 9
 9
 9
 9
 9
 9
 9
 9
 9
 9
 9
 9
 9
 9
 9
 9
 9
 9
 9
 9
 9
 9
 9
 9
 9
 9
 9
 9
 9
 9
 9
 9
 9
 9
 9
 9
 9
 9
 9
 9
 9
 9
 9
 9
 9
 9
 9
 9
 9
 9
 9
 9
 9
 9
 9
 9
 9
 9
 9
 9
 9
 9
 9
 9
 9
 9
 9
 9
 9
 9
 9
 9
 9
 9
 9
 9
 9
 9
 9
 9
 9
 9
 9
 9
 9
 9
 9
 9
 9
 9
 9
 9
 9
 9
 9
 9
 9
 9
 9
 9
 9
 9
 9
 9
 9
 9
 9
 9
 9
 9
 9
 9
 9
 9
 9
 9
 9
 9
 9
 9
 9
 9
 9
 9
 9
 9
 9
 9
 9
 9
 9
 9
 9
 9
 9
 9
 9
 9
 9
 9
 9
 9
 9
 9
 9
 9
 9
 9
 9
 9
 9
 9
 9
 9
 9
 9
 9
 9
 9
 9
 9
 9
 9
 9
 9
 9
 9
 9
 9
 9
 9
 9
 9
 9
 9
 9
 9
 9
 9
 9
 9
 9
 9
 9
 9
 9
 9
 9
 9
 9
 9
 9
 9
 9
 9
 9
 9
 9
 9
 9
 9
 9
 9
 9
 9
 9
 9
 9
 9
 9
 9
 9
 9
 9
 9
 9
 9
 9
 9
 9
 9
 9
 9
 9
 9
 9
 9
 9
 9
 9
 9
 9
 9
 9
 9
 9
 9
 9
 9
 9
 9
 9
 9
 9
 9
 9
 9
 9
 9
 9
 9
 9
 9
 9
 9
 9
 9
 9
 9
 9
 9
 9
 9
 9
 9
 9
 9
 9
 9
 9
 9
 9
 9
 9
 9
 9
 9
 9
 9
 9
 9
 9
 9
 9
 9
 9
 9
 9
 9
 9
 9
 9
 9
 9
 9
 9
 9
 9
 9
 9
 9
 9
 9
 9
 9
 9
 9
 9
 9
 9
 9
 9
 9
 9
 9
 9
 9
 9
 9
 9
 9
 9
 9
 9
 9
 9
 9
 9
 9
 9
 9
 9
 9
 9
 9
 9
 9
 9
 9
 9
 9
 9
 9
 9
 9
 9
 9
 9
 9
 9
 9
 9
 9
 9
 9
 9
 9
 9
 9
 9
 9
 9
 9
 9
 9
 9
 9
 9
 9
 9
 9
 9
 9
 9
 9
 9
 9
 9
 9
 9
 9
 9
 9
 9
 9
 9
 9
 9
 9
 9
 9
 9
 9
 9
 9
 9
 9
 9
 9
 9
 9
 9
 9
 9
 9
 9
 9
 9
 9
 9
 9
 9
 9
 9
 9
 9
 9
 9
 9
 9
 9
 9
 9
 9
 9
 9
 9
 9
 9
 9
 9
 9
 9
 9
 9
 9
 9
 9
 9
 9
 9
 9
 9
 9
 9
 9
 9
 9
 9
 9
 9
 9
 9
 9
 9
 9
 9
 9
 9
 9
 9
 9
 9
 9
 9
 9
 9
 9
 9
 9
 9
 9
 9
 9
 9
 9
 9
 9
 9
 9
 9
 9
 9
 9
 9
 9
 9
 9
 9
 9
 9
 9
 9
 9
 9
 9
 9
 9
 9
 9
 9
 9
 9
 9
 9
 9
 9
 9
 9
 9
 9
 9
 9
 9
 9
 9
 9
 9
 9
 9
 9
 9
 9
 9
 9
 9
 9
 9
 9
 9
 9
 9
 9
 9
 9
 9
 9
 9
 9
 9
 9
 9
 9
 9
 9
 9
 9
 9
 9
 9
 9
 9
 9
 9
 9
 9
 9
 9
 9
 9
 9
 9
 9
 9
 9
 9
 9
 9
 9
 9
 9
 9
 9
 9
 9
 9
 9
 9
 9
 9
 9
 9
 9
 9
 9
 9
 9
 9
 9
 9
 9
 9
 9
 9
 9
 9
 9
 9
 9
 9
 9
 9
 9
 9
 9
 9
 9
 9
 9
 9
 9
 9
 9
 9
 9
 9
 9
 9
 9
 9
 9
 9
 9
 9
 9
 9
 9
 9
 9
 9
 9
 9
 9
 9
 9
 9
 9
 9
 9
 9
 9
 9
 9
 9
 9
 9
 9
 9
 9
 9
 9
 9
 9
 9
 9
 9
 9
 9
 9
 9
 9
 9
 9
 9
 9
 9
 9
 9
 9
 9
 9
 9
 9
 9
 9
 9
 9
 9
 9
 9
 9
 9
 9
 9
 9
 9
 9
 9
 9
 9
 9
 9
 9
 9
 9
 9
 9
 9
 9
 9
 9
 9
 9
 9
 9
 9
 9
 9
 9
 9
 9
 9
 9
 9
 9
 9
 9
 9
 9
 9
 9
 9
 9
 9
 9
 9
 9
 9
 9
 9
 9
 9
 9
 9
 9
 9
 9
 9
 9
 9
 9
 9
 9
 9
 9
 9
 9
 9
 9
 9
 9
 9
 9
 9
 9
 9
 9
 9
 9
 9
 9
 9
 9
 9
 9
 9
 9
 9
 9
 9
 9
 9
 9
 9
 9
 9
 9
 9
 9
 9
 9
 9
 9
 9
 9
 9
 9
 9
 9
 9
 9
 9
 9
 9
 9
 9
 9
 9
 9
 9
 9
 9
 9
 9
 9
 9
 9
 9
 9
 9
 9
 9
 9
 9
 9
 9
 9
 9
 9
 9
 9
 9
 9
 9
 9
 9
 9
 9
 9
 </DataArray>
 </Cells> 
 <PointData>
 <DataArray  type="Float64" Name="disp" NumberOfComponents="3" format="ascii">
   0.0000000000000000        0.0000000000000000        0.0000000000000000     
   6.0959802246862765E-003   3.7904825044953287E-003   0.0000000000000000     
   1.1666004642393512E-002   7.3239426189159566E-003   0.0000000000000000     
   1.6710073253121710E-002   1.0600380343261887E-002   0.0000000000000000     
   2.1228186056870869E-002   1.3619795677533117E-002   0.0000000000000000     
   0.0000000000000000        0.0000000000000000        0.0000000000000000     
   4.8911462771078600E-003   3.0222031634280686E-003   0.0000000000000000     
   9.5736093988169624E-003   6.0606445651756411E-003   0.0000000000000000     
   1.4047389365127307E-002   9.1153242052427162E-003   0.0000000000000000     
   1.8312486176038898E-002   1.2186242083629298E-002   0.0000000000000000     
   0.0000000000000000        0.0000000000000000        0.0000000000000000     
   3.9535502008697732E-003   2.4251775571951738E-003   0.0000000000000000     
   7.9105852336114457E-003   5.0630090816116951E-003   0.0000000000000000     
   1.1871105098225017E-002   7.9134945732495660E-003   0.0000000000000000     
   1.5835109794710488E-002   1.0976634032108782E-002   0.0000000000000000     
   0.0000000000000000        0.0000000000000000        0.0000000000000000     
   3.2831919959720158E-003   1.9994056857966444E-003   0.0000000000000000     
   6.6769321467769613E-003   4.3310361682241203E-003   0.0000000000000000     
   1.0181220452414838E-002   6.9948914472824295E-003   0.0000000000000000     
   1.3796056912885645E-002   9.9909715229715701E-003   0.0000000000000000     
   0.0000000000000000        0.0000000000000000        0.0000000000000000     
   2.8800716624145890E-003   1.7448875492324799E-003   0.0000000000000000     
   5.8726501383135126E-003   3.8647258250129159E-003   0.0000000000000000     
   8.9777354276967709E-003   6.3595148273413093E-003   0.0000000000000000     
   1.2195327530564362E-002   9.2292545562176580E-003   0.0000000000000000     
   2.1228186056870869E-002   1.3619795677533117E-002   0.0000000000000000     
   2.5433232213316111E-002   1.6612797098260822E-002   0.0000000000000000     
   2.9538100882132566E-002   1.9809993081976177E-002   0.0000000000000000     
   3.3542792063320226E-002   2.3211383628679191E-002   0.0000000000000000     
   3.7447305756879094E-002   2.6816968738369855E-002   0.0000000000000000     
   1.8312486176038898E-002   1.2186242083629298E-002   0.0000000000000000     
   2.2407109803171548E-002   1.5341756160484462E-002   0.0000000000000000     
   2.6369470218145077E-002   1.8650224395957288E-002   0.0000000000000000     
   3.0199567420959483E-002   2.2111646790047783E-002   0.0000000000000000     
   3.3897401411614778E-002   2.5726023342755939E-002   0.0000000000000000     
   1.5835109794710488E-002   1.0976634032108782E-002   0.0000000000000000     
   1.9730813287207986E-002   1.4211254731720248E-002   0.0000000000000000     
   2.3486429539857641E-002   1.7576183945614863E-002   0.0000000000000000     
   2.7101958552659445E-002   2.1071421673792619E-002   0.0000000000000000     
   3.0577400325613416E-002   2.4696967916253532E-002   0.0000000000000000     
   1.3796056912885645E-002   9.9909715229715701E-003   0.0000000000000000     
   1.7404342665425433E-002   1.3221292811968178E-002   0.0000000000000000     
   2.0888978847270260E-002   1.6587871730948889E-002   0.0000000000000000     
   2.4249965458420113E-002   2.0090708279913713E-002   0.0000000000000000     
   2.7487302498875002E-002   2.3729802458862626E-002   0.0000000000000000     
   1.2195327530564362E-002   9.2292545562176580E-003   0.0000000000000000     
   1.5427697937823880E-002   1.2371870401228254E-002   0.0000000000000000     
   1.8577118140382921E-002   1.5685287751959379E-002   0.0000000000000000     
   2.1643588138241479E-002   1.9169506608411040E-002   0.0000000000000000     
   2.4627107931399553E-002   2.2824526970583233E-002   0.0000000000000000     
   3.7447305756879094E-002   2.6816968738369855E-002   0.0000000000000000     
   4.1255869368504047E-002   3.0622095851984211E-002   0.0000000000000000     
   4.4972710303889968E-002   3.4622112410458310E-002   0.0000000000000000     
   4.8597828563036849E-002   3.8817018413792141E-002   0.0000000000000000     
   5.2131224145944691E-002   4.3206813861985729E-002   0.0000000000000000     
   3.3897401411614778E-002   2.5726023342755939E-002   0.0000000000000000     
   3.7486062518009386E-002   2.9522202406950207E-002   0.0000000000000000     
   4.0988641068041752E-002   3.3529032335499039E-002   0.0000000000000000     
   4.4405137061711883E-002   3.7746513128402437E-002   0.0000000000000000     
   4.7735550499019772E-002   4.2174644785660409E-002   0.0000000000000000     
   3.0577400325613416E-002   2.4696967916253532E-002   0.0000000000000000     
   3.3942128107759970E-002   2.8497404715706495E-002   0.0000000000000000     
   3.7225515148139578E-002   3.2517314114860439E-002   0.0000000000000000     
   4.0427561446752233E-002   3.6756696113715355E-002   0.0000000000000000     
   4.3548267003597922E-002   4.1215550712271252E-002   0.0000000000000000     
   2.7487302498875002E-002   2.3729802458862626E-002   0.0000000000000000     
   3.0624066137755819E-002   2.7547702778253084E-002   0.0000000000000000     
   3.3683332544183445E-002   3.1586957748542505E-002   0.0000000000000000     
   3.6665101718157886E-002   3.5847567369730896E-002   0.0000000000000000     
   3.9569373659679136E-002   4.0329531641818246E-002   0.0000000000000000     
   2.4627107931399553E-002   2.2824526970583233E-002   0.0000000000000000     
   2.7531876607996924E-002   2.6673096594589964E-002   0.0000000000000000     
   3.0362093256173360E-002   3.0737963236545235E-002   0.0000000000000000     
   3.3117757875928862E-002   3.5019126896449052E-002   0.0000000000000000     
   3.5798870467263433E-002   3.9516587574301404E-002   0.0000000000000000     
   5.2131224145944691E-002   4.3206813861985729E-002   0.0000000000000000     
   5.5570632522833271E-002   4.7795893501539094E-002   0.0000000000000000     
   5.8913789163922335E-002   5.2588652078952317E-002   0.0000000000000000     
   6.2160694069211909E-002   5.7585089594225376E-002   0.0000000000000000     
   6.5311347238701967E-002   6.2785206047358294E-002   0.0000000000000000     
   4.7735550499019772E-002   4.2174644785660409E-002   0.0000000000000000     
   5.0975909849519226E-002   4.6806749099163963E-002   0.0000000000000000     
   5.4122243582764046E-002   5.1636147860804130E-002   0.0000000000000000     
   5.7174551698754239E-002   5.6662841070580908E-002   0.0000000000000000     
   6.0132834197489785E-002   6.1886828728494318E-002   0.0000000000000000     
   4.3548267003597922E-002   4.1215550712271252E-002   0.0000000000000000     
   4.6583439501635709E-002   4.5881190831422565E-002   0.0000000000000000     
   4.9528886623824646E-002   5.0740929392063788E-002   0.0000000000000000     
   5.2384608370164759E-002   5.5794766394194874E-002   0.0000000000000000     
   5.5150604740656001E-002   6.1042701837815877E-002   0.0000000000000000     
   3.9569373659679136E-002   4.0329531641818246E-002   0.0000000000000000     
   4.2393221479182730E-002   4.5019218698314920E-002   0.0000000000000000     
   4.5133718287104170E-002   4.9902996672731258E-002   0.0000000000000000     
   4.7790864083443463E-002   5.4980865565067275E-002   0.0000000000000000     
   5.0364658868200615E-002   6.0252825375322977E-002   0.0000000000000000     
   3.5798870467263433E-002   3.9516587574301404E-002   0.0000000000000000     
   3.8405255782160273E-002   4.4220832699841006E-002   0.0000000000000000     
   4.0936738572602591E-002   4.9122349702806573E-002   0.0000000000000000     
   4.3393318838590371E-002   5.4221138583198103E-002   0.0000000000000000     
   4.5774996580123628E-002   5.9517199341015598E-002   0.0000000000000000     
   6.5311347238701967E-002   6.2785206047358294E-002   0.0000000000000000     
   6.8368292035140027E-002   6.8175999192884806E-002   0.0000000000000000     
   7.1334071821273576E-002   7.3744466785338719E-002   0.0000000000000000     
   7.4208686597102599E-002   7.9490608824720005E-002   0.0000000000000000     
   7.6992136362627112E-002   8.5414425311028677E-002   0.0000000000000000     
   6.0132834197489785E-002   6.1886828728494318E-002   0.0000000000000000     
   6.3001062557448140E-002   6.7299629873967481E-002   0.0000000000000000     
   6.5783208257106748E-002   7.2892763546423600E-002   0.0000000000000000     
   6.8479271296465583E-002   7.8666229745862654E-002   0.0000000000000000     
   7.1089251675524656E-002   8.4620028472284642E-002   0.0000000000000000     
   5.5150604740656001E-002   6.1042701837815877E-002   0.0000000000000000     
   5.7831142608409179E-002   6.6478585609719337E-002   0.0000000000000000     
   6.0430488846535076E-002   7.2096267596697808E-002   0.0000000000000000     
   6.2948643455033690E-002   7.7895747798751330E-002   0.0000000000000000     
   6.5385606433905008E-002   8.3877026215879891E-002   0.0000000000000000     
   5.0364658868200615E-002   6.0252825375322977E-002   0.0000000000000000     
   5.2858532188023138E-002   6.5712866400140332E-002   0.0000000000000000     
   5.5275913589558578E-002   7.1354978936161370E-002   0.0000000000000000     
   5.7616803072806921E-002   7.7179162983386049E-002   0.0000000000000000     
   5.9881200637768167E-002   8.3185418541814451E-002   0.0000000000000000     
   4.5774996580123628E-002   5.9517199341015598E-002   0.0000000000000000     
   4.8083231296290031E-002   6.5002472245230494E-002   0.0000000000000000     
   5.0319482486177243E-002   7.0668897564814245E-002   0.0000000000000000     
   5.2483750149785270E-002   7.6516475299766851E-002   0.0000000000000000     
   5.4576034287114106E-002   8.2545205450088310E-002   0.0000000000000000     
   7.6992136362627112E-002   8.5414425311028677E-002   0.0000000000000000     
   7.9678450704278897E-002   9.1506647483271031E-002   0.0000000000000000     
   8.2261659208489796E-002   9.7758006580453347E-002   0.0000000000000000     
   8.4741761875259766E-002  0.10416850260257564        0.0000000000000000     
   8.7118758704588822E-002  0.11073813554963791        0.0000000000000000     
   7.1089251675524656E-002   8.4620028472284642E-002   0.0000000000000000     
   7.3607925102608121E-002   9.0742857133501026E-002   0.0000000000000000     
   7.6030067286040101E-002   9.7023413137323253E-002   0.0000000000000000     
   7.8355678225820596E-002  0.10346169648375132        0.0000000000000000     
   8.0584757921949607E-002  0.11005770717278526        0.0000000000000000     
   6.5385606433905008E-002   8.3877026215879891E-002   0.0000000000000000     
   6.7736945230449028E-002   9.0027664685510059E-002   0.0000000000000000     
   6.9998227291965726E-002   9.6335225045068404E-002   0.0000000000000000     
   7.2169452618455088E-002  0.10279970729455495        0.0000000000000000     
   7.4250621209917100E-002  0.10942111143396968        0.0000000000000000     
   5.9881200637768167E-002   8.3185418541814451E-002   0.0000000000000000     
   6.2065511087801624E-002   8.9361070139298157E-002   0.0000000000000000     
   6.4166139226266641E-002   9.5693442303688842E-002   0.0000000000000000     
   6.6183085053163213E-002  0.10218253503498652        0.0000000000000000     
   6.8116348568491303E-002  0.10882834833319117        0.0000000000000000     
   5.4576034287114106E-002   8.2545205450088310E-002   0.0000000000000000     
   5.6593622674665910E-002   8.8743073494865293E-002   0.0000000000000000     
   5.8533803088942869E-002   9.5098064913184524E-002   0.0000000000000000     
   6.0396575529944971E-002  0.10161017970504599        0.0000000000000000     
   6.2181939997672221E-002  0.10827941787044967        0.0000000000000000     
   8.7118758704588822E-002  0.11073813554963791        0.0000000000000000     
   8.9402028989570059E-002  0.11745360842570493        0.0000000000000000     
   9.1600952023296475E-002  0.12430162423484145        0.0000000000000000     
   9.3715527805768126E-002  0.13128218297704750        0.0000000000000000     
   9.5745756336984983E-002  0.13839528465232304        0.0000000000000000     
   8.0584757921949607E-002  0.11005770717278526        0.0000000000000000     
   8.2725278176887573E-002  0.11679936600286313        0.0000000000000000     
   8.4785210793094881E-002  0.12367459377242296        0.0000000000000000     
   8.6764555770571586E-002  0.13068339048146480        0.0000000000000000     
   8.8663313109317660E-002  0.13782575612998860        0.0000000000000000     
   7.4250621209917100E-002  0.10942111143396968        0.0000000000000000     
   7.6248603799171033E-002  0.11618806625506554        0.0000000000000000     
   7.8170271119036100E-002  0.12308920054959555        0.0000000000000000     
   8.0015623169512343E-002  0.13012451431755959        0.0000000000000000     
   8.1784659950599692E-002  0.13729400755895776        0.0000000000000000     
   6.8116348568491303E-002  0.10882834833319117        0.0000000000000000     
   6.9972005856420452E-002  0.11561970918231221        0.0000000000000000     
   7.1756133001120131E-002  0.12254544456635910        0.0000000000000000     
   7.3468730002590327E-002  0.12960555448533187        0.0000000000000000     
   7.5109796860831107E-002  0.13680003893923046        0.0000000000000000     
   6.2181939997672221E-002  0.10827941787044967        0.0000000000000000     
   6.3895484348635817E-002  0.11509429478460309        0.0000000000000000     
   6.5542796439346948E-002  0.12204332582271374        0.0000000000000000     
   6.7123876269805621E-002  0.12912651098478162        0.0000000000000000     
   6.8638723840011850E-002  0.13634385027080673        0.0000000000000000     
   9.5745756336984983E-002  0.13839528465232304        0.0000000000000000     
   9.7678758364733803E-002  0.14563018398420507        0.0000000000000000     
   9.9501654636801357E-002  0.15297613569623059        0.0000000000000000     
  0.10121444515318766       0.16043313978839954        0.0000000000000000     
  0.10281712991389266       0.16800119626071197        0.0000000000000000     
   8.8663313109317660E-002  0.13782575612998860        0.0000000000000000     
   9.0471288509723830E-002  0.14508942216163079        0.0000000000000000     
   9.2178287672180795E-002  0.15246212002002776        0.0000000000000000     
   9.3784310596688611E-002  0.15994384970517950        0.0000000000000000     
   9.5289357283247222E-002  0.16753461121708596        0.0000000000000000     
   8.1784659950599692E-002  0.13729400755895776        0.0000000000000000     
   8.3468874139181956E-002  0.14458455435140105        0.0000000000000000     
   8.5059758412142847E-002  0.15198302877250050        0.0000000000000000     
   8.6557312769482350E-002  0.15948943082225608        0.0000000000000000     
   8.7961537211200480E-002  0.16710376050066786        0.0000000000000000     
   7.5109796860831107E-002  0.13680003893923046        0.0000000000000000     
   7.6671515253108197E-002  0.14411558055351578        0.0000000000000000     
   7.8146066856687471E-002  0.15153886195364877        0.0000000000000000     
   7.9533451671568875E-002  0.15906988313962933        0.0000000000000000     
   8.0833669697752464E-002  0.16670864411145758        0.0000000000000000     
   6.8638723840011850E-002  0.13634385027080673        0.0000000000000000     
   7.0079211851502565E-002  0.14368250076797506        0.0000000000000000     
   7.1437213005814668E-002  0.15112961956347254        0.0000000000000000     
   7.2712727302948199E-002  0.15868520665729932        0.0000000000000000     
   7.3905754742903118E-002  0.16634926204945522        0.0000000000000000     
   0.0000000000000000        0.0000000000000000        0.0000000000000000     
   2.8800716624145890E-003   1.7448875492324799E-003   0.0000000000000000     
   5.8726501383135126E-003   3.8647258250129159E-003   0.0000000000000000     
   8.9777354276967709E-003   6.3595148273413093E-003   0.0000000000000000     
   1.2195327530564362E-002   9.2292545562176580E-003   0.0000000000000000     
   0.0000000000000000        0.0000000000000000        0.0000000000000000     
   2.6103382410599691E-003   1.5889665174619819E-003   0.0000000000000000     
   5.2897491603974382E-003   3.5567695494809069E-003   0.0000000000000000     
   8.0382327580124056E-003   5.9034090960567755E-003   0.0000000000000000     
   1.0855789033904875E-002   8.6288851571895888E-003   0.0000000000000000     
   0.0000000000000000        0.0000000000000000        0.0000000000000000     
   2.3401407727706336E-003   1.4589859604444506E-003   0.0000000000000000     
   4.7202391652050807E-003   3.2998588391309168E-003   0.0000000000000000     
   7.1402951773033392E-003   5.5226186360593996E-003   0.0000000000000000     
   9.6003088090654120E-003   8.1272653512298974E-003   0.0000000000000000     
   0.0000000000000000        0.0000000000000000        0.0000000000000000     
   2.0694792575465825E-003   1.3549458781798873E-003   0.0000000000000000     
   4.1641201527364393E-003   3.0939936939629472E-003   0.0000000000000000     
   6.2839226855695689E-003   5.2171434473491807E-003   0.0000000000000000     
   8.4288868560459720E-003   7.7243951383385865E-003   0.0000000000000000     
   0.0000000000000000        0.0000000000000000        0.0000000000000000     
   1.7983536953878163E-003   1.2768462706682910E-003   0.0000000000000000     
   3.6213921229915152E-003   2.9391741139769972E-003   0.0000000000000000     
   5.4691152828110958E-003   4.9869835299261181E-003   0.0000000000000000     
   7.3415231748465582E-003   7.4202745185156542E-003   0.0000000000000000     
   1.2195327530564362E-002   9.2292545562176580E-003   0.0000000000000000     
   1.5427697937823880E-002   1.2371870401228254E-002   0.0000000000000000     
   1.8577118140382921E-002   1.5685287751959379E-002   0.0000000000000000     
   2.1643588138241479E-002   1.9169506608411040E-002   0.0000000000000000     
   2.4627107931399553E-002   2.2824526970583233E-002   0.0000000000000000     
   1.0855789033904875E-002   8.6288851571895888E-003   0.0000000000000000     
   1.3689103274671363E-002   1.1650928170062115E-002   0.0000000000000000     
   1.6484860766908388E-002   1.4887268571857123E-002   0.0000000000000000     
   1.9243061510615948E-002   1.8337906362574610E-002   0.0000000000000000     
   2.1963705505794053E-002   2.2002841542214588E-002   0.0000000000000000     
   9.6003088090654120E-003   8.1272653512298974E-003   0.0000000000000000     
   1.2076782846235900E-002   1.1046406789031404E-002   0.0000000000000000     
   1.4546220074559408E-002   1.4212650753852909E-002   0.0000000000000000     
   1.7008620494035939E-002   1.7625997245694414E-002   0.0000000000000000     
   1.9463984104665488E-002   2.1286446264555923E-002   0.0000000000000000     
   8.4288868560459720E-003   7.7243951383385865E-003   0.0000000000000000     
   1.0590736652517497E-002   1.0558306258136120E-002   0.0000000000000000     
   1.2761196063335986E-002   1.3661434297946744E-002   0.0000000000000000     
   1.4940265088501442E-002   1.7033779257770450E-002   0.0000000000000000     
   1.7127943728013868E-002   2.0675341137607238E-002   0.0000000000000000     
   7.3415231748465582E-003   7.4202745185156542E-003   0.0000000000000000     
   9.2309646935161502E-003   1.0186626577376267E-002   0.0000000000000000     
   1.1129788733238119E-002   1.3233619204138618E-002   0.0000000000000000     
   1.3037995294012462E-002   1.6561252398802712E-002   0.0000000000000000     
   1.4955584375839187E-002   2.0169526161368540E-002   0.0000000000000000     
   2.4627107931399553E-002   2.2824526970583233E-002   0.0000000000000000     
   2.7531876607996924E-002   2.6673096594589964E-002   0.0000000000000000     
   3.0362093256173360E-002   3.0737963236545235E-002   0.0000000000000000     
   3.3117757875928862E-002   3.5019126896449052E-002   0.0000000000000000     
   3.5798870467263433E-002   3.9516587574301404E-002   0.0000000000000000     
   2.1963705505794053E-002   2.2002841542214588E-002   0.0000000000000000     
   2.4630269198249555E-002   2.5880101058889961E-002   0.0000000000000000     
   2.7226229033789327E-002   2.9967711860713658E-002   0.0000000000000000     
   2.9751585012413369E-002   3.4265673947685669E-002   0.0000000000000000     
   3.2206337134121681E-002   3.8773987319806004E-002   0.0000000000000000     
   1.9463984104665488E-002   2.1286446264555923E-002   0.0000000000000000     
   2.1883953588279988E-002   2.5175231065325890E-002   0.0000000000000000     
   2.4240171626711365E-002   2.9273584902892780E-002   0.0000000000000000     
   2.6532638219959617E-002   3.3581507777256603E-002   0.0000000000000000     
   2.8761353368024756E-002   3.8098999688417345E-002   0.0000000000000000     
   1.7127943728013868E-002   2.0675341137607238E-002   0.0000000000000000     
   1.9292929778088226E-002   2.4558486613897750E-002   0.0000000000000000     
   2.1403921034939474E-002   2.8655582363082622E-002   0.0000000000000000     
   2.3460917498567619E-002   3.2966628385161845E-002   0.0000000000000000     
   2.5463919168972660E-002   3.7491624680135428E-002   0.0000000000000000     
   1.4955584375839187E-002   2.0169526161368540E-002   0.0000000000000000     
   1.6857197767674258E-002   2.4029867704605544E-002   0.0000000000000000     
   1.8717477258473648E-002   2.8113704241283167E-002   0.0000000000000000     
   2.0536422848237368E-002   3.2421035771401395E-002   0.0000000000000000     
   2.2314034536965403E-002   3.6951862294960239E-002   0.0000000000000000     
   3.5798870467263433E-002   3.9516587574301404E-002   0.0000000000000000     
   3.8405255782160273E-002   4.4220832699841006E-002   0.0000000000000000     
   4.0936738572602591E-002   4.9122349702806573E-002   0.0000000000000000     
   4.3393318838590371E-002   5.4221138583198103E-002   0.0000000000000000     
   4.5774996580123628E-002   5.9517199341015598E-002   0.0000000000000000     
   3.2206337134121681E-002   3.8773987319806004E-002   0.0000000000000000     
   3.4592772648548868E-002   4.3488179745052861E-002   0.0000000000000000     
   3.6913178805329565E-002   4.8403778991404439E-002   0.0000000000000000     
   3.9167555604463743E-002   5.3520785058860737E-002   0.0000000000000000     
   4.1355903045951423E-002   5.8839197947421762E-002   0.0000000000000000     
   2.8761353368024756E-002   3.8098999688417345E-002   0.0000000000000000     
   3.0929002316329036E-002   4.2823406743002515E-002   0.0000000000000000     
   3.3038270310294729E-002   4.7752075047639585E-002   0.0000000000000000     
   3.5089157349921844E-002   5.2885004602328554E-002   0.0000000000000000     
   3.7081663435210376E-002   5.8222195407069445E-002   0.0000000000000000     
   2.5463919168972660E-002   3.7491624680135428E-002   0.0000000000000000     
   2.7413944785500768E-002   4.2226513693689946E-002   0.0000000000000000     
   2.9312013087498111E-002   4.7167237871511988E-002   0.0000000000000000     
   3.1158124074964676E-002   5.2313797213601562E-002   0.0000000000000000     
   3.2952277747900480E-002   5.7666191719958661E-002   0.0000000000000000     
   2.2314034536965403E-002   3.6951862294960239E-002   0.0000000000000000     
   2.4047600056064069E-002   4.1697500597115182E-002   0.0000000000000000     
   2.5734407136939683E-002   4.6649267463021678E-002   0.0000000000000000     
   2.7374455779592237E-002   5.1807162892679760E-002   0.0000000000000000     
   2.8967745984021742E-002   5.7171186886089402E-002   0.0000000000000000     
   4.5774996580123628E-002   5.9517199341015598E-002   0.0000000000000000     
   4.8083231296290031E-002   6.5002472245230494E-002   0.0000000000000000     
   5.0319482486177243E-002   7.0668897564814245E-002   0.0000000000000000     
   5.2483750149785270E-002   7.6516475299766851E-002   0.0000000000000000     
   5.4576034287114106E-002   8.2545205450088310E-002   0.0000000000000000     
   4.1355903045951423E-002   5.8839197947421762E-002   0.0000000000000000     
   4.3477630190106746E-002   6.4348333382218473E-002   0.0000000000000000     
   4.5532146097243868E-002   7.0037507088381856E-002   0.0000000000000000     
   4.7519450767362796E-002   7.5906719065911912E-002   0.0000000000000000     
   4.9439544200463509E-002   8.1955969314808627E-002   0.0000000000000000     
   3.7081663435210376E-002   5.8222195407069445E-002   0.0000000000000000     
   3.9014119126370220E-002   6.3751380048332890E-002   0.0000000000000000     
   4.0884854983611274E-002   6.9460291112589556E-002   0.0000000000000000     
   4.2693871006933552E-002   7.5348928599839451E-002   0.0000000000000000     
   4.4441167196337047E-002   8.1417292510082562E-002   0.0000000000000000     
   3.2952277747900480E-002   5.7666191719958661E-002   0.0000000000000000     
   3.4692698105080431E-002   6.3211612243573773E-002   0.0000000000000000     
   3.6377609145279453E-002   6.8937249637437373E-002   0.0000000000000000     
   3.8007010868497552E-002   7.4843103901549496E-002   0.0000000000000000     
   3.9580903274734729E-002   8.0929175035910114E-002   0.0000000000000000     
   2.8967745984021742E-002   5.7171186886089402E-002   0.0000000000000000     
   3.0513367126237399E-002   6.2729029967941094E-002   0.0000000000000000     
   3.2010408582248420E-002   6.8468382662925292E-002   0.0000000000000000     
   3.3458870352054804E-002   7.4389244971042032E-002   0.0000000000000000     
   3.4858752435656538E-002   8.0491616892291284E-002   0.0000000000000000     
   5.4576034287114106E-002   8.2545205450088310E-002   0.0000000000000000     
   5.6593622674665910E-002   8.8743073494865293E-002   0.0000000000000000     
   5.8533803088942869E-002   9.5098064913184524E-002   0.0000000000000000     
   6.0396575529944971E-002  0.10161017970504599        0.0000000000000000     
   6.2181939997672221E-002  0.10827941787044967        0.0000000000000000     
   4.9439544200463509E-002   8.1955969314808627E-002   0.0000000000000000     
   5.1290418362062912E-002   8.8174092878436264E-002   0.0000000000000000     
   5.3070065217677903E-002   9.4549924800159030E-002   0.0000000000000000     
   5.4778484767308483E-002  0.10108346507997698        0.0000000000000000     
   5.6415677010954651E-002  0.10777471371789003        0.0000000000000000     
   4.4441167196337047E-002   8.1417292510082562E-002   0.0000000000000000     
   4.6125036521013636E-002   8.7654546416235754E-002   0.0000000000000000     
   4.7743771950155230E-002   9.4049853891215895E-002   0.0000000000000000     
   4.9297373483761807E-002  0.10060321493502300        0.0000000000000000     
   5.0785841121833382E-002  0.10731462954765703        0.0000000000000000     
   3.9580903274734729E-002   8.0929175035910114E-002   0.0000000000000000     
   4.1097477151518104E-002   8.7184434108263820E-002   0.0000000000000000     
   4.2554923286374863E-002   9.3597852186355121E-002   0.0000000000000000     
   4.3953241679304957E-002  0.10016942927018407        0.0000000000000000     
   4.5292432330308441E-002  0.10689916535975064        0.0000000000000000     
   3.4858752435656538E-002   8.0491616892291284E-002   0.0000000000000000     
   3.6207740253576308E-002   8.6763755954520405E-002   0.0000000000000000     
   3.7503519226336768E-002   9.3193919685576720E-002   0.0000000000000000     
   3.8746089353937932E-002   9.9782108085460203E-002   0.0000000000000000     
   3.9935450636379793E-002  0.10652832115417089        0.0000000000000000     
   6.2181939997672221E-002  0.10827941787044967        0.0000000000000000     
   6.3895484348635817E-002  0.11509429478460309        0.0000000000000000     
   6.5542796439346948E-002  0.12204332582271374        0.0000000000000000     
   6.7123876269805621E-002  0.12912651098478162        0.0000000000000000     
   6.8638723840011850E-002  0.13634385027080673        0.0000000000000000     
   5.6415677010954651E-002  0.10777471371789003        0.0000000000000000     
   5.7986857677286882E-002  0.11461174862816303        0.0000000000000000     
   5.9497242494975656E-002  0.12158264772506072        0.0000000000000000     
   6.0946831464020974E-002  0.12868741100858311        0.0000000000000000     
   6.2335624584422850E-002  0.13592603847873019        0.0000000000000000     
   5.0785841121833382E-002  0.10731462954765703        0.0000000000000000     
   5.2213944243843409E-002  0.11417199627921688        0.0000000000000000     
   5.3586452229265356E-002  0.12116321367980140        0.0000000000000000     
   5.4903365078099210E-002  0.12828828174941057        0.0000000000000000     
   5.6164682790344984E-002  0.13554720048804444        0.0000000000000000     
   4.5292432330308441E-002  0.10689916535975064        0.0000000000000000     
   4.6576744048305405E-002  0.11377503773776462        0.0000000000000000     
   4.7810425642216041E-002  0.12078502368693575        0.0000000000000000     
   4.8993477112040322E-002  0.12792912320726407        0.0000000000000000     
   5.0125898457778248E-002  0.13520733629874954        0.0000000000000000     
   3.9935450636379793E-002  0.10652832115417089        0.0000000000000000     
   4.1075257090672876E-002  0.11342087300380625        0.0000000000000000     
   4.2169162733827710E-002  0.12044807774646381        0.0000000000000000     
   4.3217167565844303E-002  0.12760993538214352        0.0000000000000000     
   4.4219271586722640E-002  0.13490644591084541        0.0000000000000000     
   6.8638723840011850E-002  0.13634385027080673        0.0000000000000000     
   7.0079211851502565E-002  0.14368250076797506        0.0000000000000000     
   7.1437213005814668E-002  0.15112961956347254        0.0000000000000000     
   7.2712727302948199E-002  0.15868520665729932        0.0000000000000000     
   7.3905754742903118E-002  0.16634926204945522        0.0000000000000000     
   6.2335624584422850E-002  0.13592603847873019        0.0000000000000000     
   6.3654974458176181E-002  0.14328633698530063        0.0000000000000000     
   6.4896233687275873E-002  0.15075611337809303        0.0000000000000000     
   6.6059402271721940E-002  0.15833536765710748        0.0000000000000000     
   6.7144480211514368E-002  0.16602409982234392        0.0000000000000000     
   5.6164682790344984E-002  0.13554720048804444        0.0000000000000000     
   5.7361813596940224E-002  0.14292811119601426        0.0000000000000000     
   5.8486165728822481E-002  0.15041915517363127        0.0000000000000000     
   5.9537739185991756E-002  0.15802033242089553        0.0000000000000000     
   6.0516533968448034E-002  0.16573164293780696        0.0000000000000000     
   5.0125898457778248E-002  0.13520733629874954        0.0000000000000000     
   5.1199729267794682E-002  0.14260782340011599        0.0000000000000000     
   5.2207009130454472E-002  0.15011874495008726        0.0000000000000000     
   5.3147738045757634E-002  0.15774010094866336        0.0000000000000000     
   5.4021916013704138E-002  0.16547189139584431        0.0000000000000000     
   4.4219271586722640E-002  0.13490644591084541        0.0000000000000000     
   4.5168721470739560E-002  0.14232547359760581        0.0000000000000000     
   4.6058763892171874E-002  0.14985488270746103        0.0000000000000000     
   4.6889398851019573E-002  0.15749467324041111        0.0000000000000000     
   4.7660626347282672E-002  0.16524484519645605        0.0000000000000000     
   0.0000000000000000        0.0000000000000000        0.0000000000000000     
   1.7983536953878163E-003   1.2768462706682910E-003   0.0000000000000000     
   3.6213921229915152E-003   2.9391741139769972E-003   0.0000000000000000     
   5.4691152828110958E-003   4.9869835299261181E-003   0.0000000000000000     
   7.3415231748465582E-003   7.4202745185156542E-003   0.0000000000000000     
   0.0000000000000000        0.0000000000000000        0.0000000000000000     
   1.5350437471450119E-003   1.2175693513659788E-003   0.0000000000000000     
   3.0994154943118106E-003   2.8208838186440286E-003   0.0000000000000000     
   4.6931152415003964E-003   4.8099434018341490E-003   0.0000000000000000     
   6.3161429887107681E-003   7.1847481009363412E-003   0.0000000000000000     
   0.0000000000000000        0.0000000000000000        0.0000000000000000     
   1.2878290736688465E-003   1.1699973337292685E-003   0.0000000000000000     
   2.6055506850388289E-003   2.7246065274350059E-003   0.0000000000000000     
   3.9531648341099481E-003   4.6638275811172131E-003   0.0000000000000000     
   5.3306715208822041E-003   6.9876604947758884E-003   0.0000000000000000     
   0.0000000000000000        0.0000000000000000        0.0000000000000000     
   1.0567096749593205E-003   1.1341302177581595E-003   0.0000000000000000     
   2.1397976951725716E-003   2.6503422403499279E-003   0.0000000000000000     
   3.2492640606397519E-003   4.5486360677753071E-003   0.0000000000000000     
   4.3851087713608627E-003   6.8290117000342947E-003   0.0000000000000000     
   0.0000000000000000        0.0000000000000000        0.0000000000000000     
   8.4168555101643366E-004   1.1099680034526518E-003   0.0000000000000000     
   1.7021565247130361E-003   2.5980909573887958E-003   0.0000000000000000     
   2.5814129210898072E-003   4.4643688618084317E-003   0.0000000000000000     
   3.4794547401467467E-003   6.7088017167115611E-003   0.0000000000000000     
   7.3415231748465582E-003   7.4202745185156542E-003   0.0000000000000000     
   9.2309646935161502E-003   1.0186626577376267E-002   0.0000000000000000     
   1.1129788733238119E-002   1.3233619204138618E-002   0.0000000000000000     
   1.3037995294012462E-002   1.6561252398802712E-002   0.0000000000000000     
   1.4955584375839187E-002   2.0169526161368540E-002   0.0000000000000000     
   6.3161429887107681E-003   7.1847481009363412E-003   0.0000000000000000     
   7.9558050744590967E-003   9.8957389229723108E-003   0.0000000000000000     
   9.5994078372615473E-003   1.2893356874963763E-002   0.0000000000000000     
   1.1246951277118122E-002   1.6177601956910700E-002   0.0000000000000000     
   1.2898435394028815E-002   1.9748474168813118E-002   0.0000000000000000     
   5.3306715208822041E-003   6.9876604947758884E-003   0.0000000000000000     
   6.7235959005735669E-003   9.6500144711447224E-003   0.0000000000000000     
   8.1174631284020062E-003   1.2604798712957393E-002   0.0000000000000000     
   9.5122732043675280E-003   1.5852013220213915E-002   0.0000000000000000     
   1.0908026128470123E-002   1.9391657992914275E-002   0.0000000000000000     
   4.3851087713608627E-003   6.8290117000342947E-003   0.0000000000000000     
   5.5343371718595607E-003   9.4494532218934967E-003   0.0000000000000000     
   6.6839546066595010E-003   1.2367944718119516E-002   0.0000000000000000     
   7.8339610757606846E-003   1.5584486188712349E-002   0.0000000000000000     
   8.9843565791631087E-003   1.9099077633672003E-002   0.0000000000000000     
   3.4794547401467467E-003   6.7088017167115611E-003   0.0000000000000000     
   4.3880288883170800E-003   9.2940551752186389E-003   0.0000000000000000     
   5.2988822720340285E-003   1.2182794890450124E-002   0.0000000000000000     
   6.2120148912975922E-003   1.5375020862406014E-002   0.0000000000000000     
   7.1274267461077737E-003   1.8870733091086306E-002   0.0000000000000000     
   1.4955584375839187E-002   2.0169526161368540E-002   0.0000000000000000     
   1.6857197767674258E-002   2.4029867704605544E-002   0.0000000000000000     
   1.8717477258473648E-002   2.8113704241283167E-002   0.0000000000000000     
   2.0536422848237368E-002   3.2421035771401395E-002   0.0000000000000000     
   2.2314034536965403E-002   3.6951862294960239E-002   0.0000000000000000     
   1.2898435394028815E-002   1.9748474168813118E-002   0.0000000000000000     
   1.4537467495098389E-002   2.3579837253898187E-002   0.0000000000000000     
   1.6147654887431601E-002   2.7645554955393052E-002   0.0000000000000000     
   1.7728997571028454E-002   3.1945627273297729E-002   0.0000000000000000     
   1.9281495545888937E-002   3.6480054207612217E-002   0.0000000000000000     
   1.0908026128470123E-002   1.9391657992914275E-002   0.0000000000000000     
   1.2294448898420920E-002   2.3198858178224573E-002   0.0000000000000000     
   1.3661268511931036E-002   2.7248738923310929E-002   0.0000000000000000     
   1.5008484969000476E-002   3.1541300228173329E-002   0.0000000000000000     
   1.6336098269629236E-002   3.6076542092811761E-002   0.0000000000000000     
   8.9843565791631087E-003   1.9099077633672003E-002   0.0000000000000000     
   1.0128141977641844E-002   2.2886930477584732E-002   0.0000000000000000     
   1.1258318131971954E-002   2.6923256145036784E-002   0.0000000000000000     
   1.2374885042153437E-002   3.1208054636028177E-002   0.0000000000000000     
   1.3477842708186298E-002   3.5741325950558893E-002   0.0000000000000000     
   7.1274267461077737E-003   1.8870733091086306E-002   0.0000000000000000     
   8.0385467327611631E-003   2.2644054151978635E-002   0.0000000000000000     
   8.9388037475543504E-003   2.6669106620570628E-002   0.0000000000000000     
   9.8281977904873374E-003   3.0945890496862284E-002   0.0000000000000000     
   1.0706728861560124E-002   3.5474405780853598E-002   0.0000000000000000     
   2.2314034536965403E-002   3.6951862294960239E-002   0.0000000000000000     
   2.4047600056064069E-002   4.1697500597115182E-002   0.0000000000000000     
   2.5734407136939683E-002   4.6649267463021678E-002   0.0000000000000000     
   2.7374455779592237E-002   5.1807162892679760E-002   0.0000000000000000     
   2.8967745984021742E-002   5.7171186886089402E-002   0.0000000000000000     
   1.9281495545888937E-002   3.6480054207612217E-002   0.0000000000000000     
   2.0798673396768039E-002   4.1234750775536039E-002   0.0000000000000000     
   2.2274055708420722E-002   4.6195631994268738E-002   0.0000000000000000     
   2.3707642480846999E-002   5.1362697863810314E-002   0.0000000000000000     
   2.5099433714046864E-002   5.6735948384160753E-002   0.0000000000000000     
   1.6336098269629236E-002   3.6076542092811761E-002   0.0000000000000000     
   1.7635870076361759E-002   4.0836647551210359E-002   0.0000000000000000     
   1.8899562051742484E-002   4.5803799637353239E-002   0.0000000000000000     
   2.0127174195771411E-002   5.0977998351240388E-002   0.0000000000000000     
   2.1318706508448550E-002   5.6359243692871798E-002   0.0000000000000000     
   1.3477842708186298E-002   3.5741325950558893E-002   0.0000000000000000     
   1.4559190094845241E-002   4.0503190924138163E-002   0.0000000000000000     
   1.5610926166904968E-002   4.5473770392275188E-002   0.0000000000000000     
   1.6633050924365480E-002   5.0653064354969989E-002   0.0000000000000000     
   1.7625564367226784E-002   5.6041072812222537E-002   0.0000000000000000     
   1.0706728861560124E-002   3.5474405780853598E-002   0.0000000000000000     
   1.1568633452218478E-002   4.0234380894319417E-002   0.0000000000000000     
   1.2408148053908172E-002   4.5205544259034579E-002   0.0000000000000000     
   1.3225272666629203E-002   5.0387895874999103E-002   0.0000000000000000     
   1.4020007290381572E-002   5.5781435742212976E-002   0.0000000000000000     
   2.8967745984021742E-002   5.7171186886089402E-002   0.0000000000000000     
   3.0513367126237399E-002   6.2729029967941094E-002   0.0000000000000000     
   3.2010408582248420E-002   6.8468382662925292E-002   0.0000000000000000     
   3.3458870352054804E-002   7.4389244971042032E-002   0.0000000000000000     
   3.4858752435656538E-002   8.0491616892291284E-002   0.0000000000000000     
   2.5099433714046864E-002   5.6735948384160753E-002   0.0000000000000000     
   2.6449549003867995E-002   6.2303792581196851E-002   0.0000000000000000     
   2.7758107946158062E-002   6.8054639480795362E-002   0.0000000000000000     
   2.9025110540917064E-002   7.3988489082956271E-002   0.0000000000000000     
   3.0250556788145005E-002   8.0105341387679635E-002   0.0000000000000000     
   2.1318706508448550E-002   5.6359243692871798E-002   0.0000000000000000     
   2.2474666551999107E-002   6.1936059443103021E-002   0.0000000000000000     
   2.3595561888648305E-002   6.7696969382789574E-002   0.0000000000000000     
   2.4681392518396156E-002   7.3641973511931441E-002   0.0000000000000000     
   2.5732158441242652E-002   7.9771071830528673E-002   0.0000000000000000     
   1.7625564367226784E-002   5.6041072812222537E-002   0.0000000000000000     
   1.8588719770630719E-002   6.1625830553659618E-002   0.0000000000000000     
   1.9522770409719146E-002   6.7395372368907955E-002   0.0000000000000000     
   2.0427716284492057E-002   7.3349698257967541E-002   0.0000000000000000     
   2.1303557394949463E-002   7.9488808220838383E-002   0.0000000000000000     
   1.4020007290381572E-002   5.5781435742212976E-002   0.0000000000000000     
   1.4791708659762844E-002   6.1373105912866613E-002   0.0000000000000000     
   1.5539733509370582E-002   6.7149848439150478E-002   0.0000000000000000     
   1.6264081839204782E-002   7.3111663321064543E-002   0.0000000000000000     
   1.6964753649265453E-002   7.9258550558608837E-002   0.0000000000000000     
   3.4858752435656538E-002   8.0491616892291284E-002   0.0000000000000000     
   3.6207740253576308E-002   8.6763755954520405E-002   0.0000000000000000     
   3.7503519226336768E-002   9.3193919685576720E-002   0.0000000000000000     
   3.8746089353937932E-002   9.9782108085460203E-002   0.0000000000000000     
   3.9935450636379793E-002  0.10652832115417089        0.0000000000000000     
   3.0250556788145005E-002   8.0105341387679635E-002   0.0000000000000000     
   3.1431632835725865E-002   8.6392634393842746E-002   0.0000000000000000     
   3.2565524831543624E-002   9.2837806100322981E-002   0.0000000000000000     
   3.3652232775598270E-002   9.9440856507120340E-002   0.0000000000000000     
   3.4691756667889817E-002  0.10620178561423482        0.0000000000000000     
   2.5732158441242652E-002   7.9771071830528673E-002   0.0000000000000000     
   2.6744961906504400E-002   8.6071191865067995E-002   0.0000000000000000     
   2.7716905163498024E-002   9.2529261142036245E-002   0.0000000000000000     
   2.8647988212223502E-002   9.9145279661433439E-002   0.0000000000000000     
   2.9538211052680851E-002  0.10591924742325950        0.0000000000000000     
   2.1303557394949463E-002   7.9488808220838383E-002   0.0000000000000000     
   2.2147727465911912E-002   8.5799428368196179E-002   0.0000000000000000     
   2.2957660222199971E-002   9.2268284810716528E-002   0.0000000000000000     
   2.3733355663813637E-002   9.8895377548399430E-002   0.0000000000000000     
   2.4474813790752906E-002  0.10568070658124495        0.0000000000000000     
   1.6964753649265453E-002   7.9258550558608837E-002   0.0000000000000000     
   1.7639929513948407E-002   8.5577343903227257E-002   0.0000000000000000     
   1.8287790007649483E-002   9.2054877106363800E-002   0.0000000000000000     
   1.8908335130368673E-002   9.8691150168018410E-002   0.0000000000000000     
   1.9501564882105974E-002  0.10548616308819114        0.0000000000000000     
   3.9935450636379793E-002  0.10652832115417089        0.0000000000000000     
   4.1075257090672876E-002  0.11342087300380625        0.0000000000000000     
   4.2169162733827710E-002  0.12044807774646381        0.0000000000000000     
   4.3217167565844303E-002  0.12760993538214352        0.0000000000000000     
   4.4219271586722640E-002  0.13490644591084541        0.0000000000000000     
   3.4691756667889817E-002  0.10620178561423482        0.0000000000000000     
   3.5687155590490675E-002  0.11310927015393132        0.0000000000000000     
   3.6641488625473256E-002  0.12015198685847474        0.0000000000000000     
   3.7554755772837581E-002  0.12732993572786505        0.0000000000000000     
   3.8426957032583628E-002  0.13464311676210228        0.0000000000000000     
   2.9538211052680851E-002  0.10591924742325950        0.0000000000000000     
   3.0390111767303676E-002  0.11283999726472933        0.0000000000000000     
   3.1206228438525583E-002  0.11989636202305774        0.0000000000000000     
   3.1986561066346578E-002  0.12708834169824473        0.0000000000000000     
   3.2731109650766657E-002  0.13441593629029028        0.0000000000000000     
   2.4474813790752906E-002  0.10568070658124495        0.0000000000000000     
   2.5184125621111886E-002  0.11261305433620032        0.0000000000000000     
   2.5863382172984679E-002  0.11968120324021285        0.0000000000000000     
   2.6512583446371293E-002  0.12688515329328254        0.0000000000000000     
   2.7131729441271724E-002  0.13422490449540941        0.0000000000000000     
   1.9501564882105974E-002  0.10548616308819114        0.0000000000000000     
   2.0069197151915300E-002  0.11242844136834425        0.0000000000000000     
   2.0612949828850553E-002  0.11950651050994006        0.0000000000000000     
   2.1132822912911731E-002  0.12672037051297852        0.0000000000000000     
   2.1628816404098833E-002  0.13407002137745971        0.0000000000000000     
   4.4219271586722640E-002  0.13490644591084541        0.0000000000000000     
   4.5168721470739560E-002  0.14232547359760581        0.0000000000000000     
   4.6058763892171874E-002  0.14985488270746103        0.0000000000000000     
   4.6889398851019573E-002  0.15749467324041111        0.0000000000000000     
   4.7660626347282672E-002  0.16524484519645605        0.0000000000000000     
   3.8426957032583628E-002  0.13464311676210228        0.0000000000000000     
   3.9252652839347105E-002  0.14207905491759631        0.0000000000000000     
   4.0026403627763697E-002  0.14962527515075710        0.0000000000000000     
   4.0748209397833426E-002  0.15728177746158464        0.0000000000000000     
   4.1418070149556264E-002  0.16504856185007893        0.0000000000000000     
   3.2731109650766657E-002  0.13441593629029028        0.0000000000000000     
   3.3435386007189545E-002  0.14186656048920013        0.0000000000000000     
   3.4094901951018983E-002  0.14942762898497999        0.0000000000000000     
   3.4709657482254984E-002  0.15709914177762990        0.0000000000000000     
   3.5279652600897521E-002  0.16488109886714983        0.0000000000000000     
   2.7131729441271724E-002  0.13422490449540941        0.0000000000000000     
   2.7716920974266895E-002  0.14168799031241722        0.0000000000000000     
   2.8264258861937740E-002  0.14926194421012970        0.0000000000000000     
   2.8773743104284259E-002  0.15694676618854689        0.0000000000000000     
   2.9245373701306449E-002  0.16474245624766881        0.0000000000000000     
   2.1628816404098833E-002  0.13407002137745971        0.0000000000000000     
   2.2097257740579149E-002  0.14154334438724761        0.0000000000000000     
   2.2534474360519956E-002  0.14912822082620625        0.0000000000000000     
   2.2940466263921253E-002  0.15682465069433565        0.0000000000000000     
   2.3315233450783041E-002  0.16463263399163583        0.0000000000000000     
   0.0000000000000000        0.0000000000000000        0.0000000000000000     
   8.4168555101643366E-004   1.1099680034526518E-003   0.0000000000000000     
   1.7021565247130361E-003   2.5980909573887958E-003   0.0000000000000000     
   2.5814129210898072E-003   4.4643688618084317E-003   0.0000000000000000     
   3.4794547401467467E-003   6.7088017167115611E-003   0.0000000000000000     
   0.0000000000000000        0.0000000000000000        0.0000000000000000     
   6.3384783915913291E-004   1.0939469604134614E-003   0.0000000000000000     
   1.2780827963530901E-003   2.5620017741013056E-003   0.0000000000000000     
   1.9327048715818713E-003   4.4041644410635333E-003   0.0000000000000000     
   2.5977140648454763E-003   6.6204349613001425E-003   0.0000000000000000     
   0.0000000000000000        0.0000000000000000        0.0000000000000000     
   4.2428767670636442E-004   1.0825033582413041E-003   0.0000000000000000     
   8.5303213278559793E-004   2.5362237860371548E-003   0.0000000000000000     
   1.2862333682377007E-003   4.3611612833875536E-003   0.0000000000000000     
   1.7238913830626725E-003   6.5573158502924972E-003   0.0000000000000000     
   0.0000000000000000        0.0000000000000000        0.0000000000000000     
   2.1300506365812841E-004   1.0756371969361800E-003   0.0000000000000000     
   4.2700453401056031E-004   2.5207569931963440E-003   0.0000000000000000     
   6.4199841105729580E-004   4.3353593887804917E-003   0.0000000000000000     
   8.5798669479833479E-004   6.5194443836886226E-003   0.0000000000000000     
   0.0000000000000000        0.0000000000000000        0.0000000000000000     
   1.4424794908887706E-014   1.0733484764980890E-003   0.0000000000000000     
   2.7976915489141829E-014   2.5156013955788719E-003   0.0000000000000000     
   4.0656605686251179E-014   4.3267587572423495E-003   0.0000000000000000     
   5.2463540239564010E-014   6.5068205614885223E-003   0.0000000000000000     
   3.4794547401467467E-003   6.7088017167115611E-003   0.0000000000000000     
   4.3880288883170800E-003   9.2940551752186389E-003   0.0000000000000000     
   5.2988822720340285E-003   1.2182794890450124E-002   0.0000000000000000     
   6.2120148912975922E-003   1.5375020862406014E-002   0.0000000000000000     
   7.1274267461077737E-003   1.8870733091086306E-002   0.0000000000000000     
   2.5977140648454763E-003   6.6204349613001425E-003   0.0000000000000000     
   3.2701522870837753E-003   9.1778407855060990E-003   0.0000000000000000     
   3.9470614492366348E-003   1.2043409364376364E-002   0.0000000000000000     
   4.6284415513040567E-003   1.5217140697910938E-002   0.0000000000000000     
   5.3142925932860401E-003   1.8699034786109819E-002   0.0000000000000000     
   1.7238913830626725E-003   6.5573158502924972E-003   0.0000000000000000     
   2.1661886052972996E-003   9.0948305071418285E-003   0.0000000000000000     
   2.6133074629783679E-003   1.1943848274325382E-002   0.0000000000000000     
   3.0652479561058786E-003   1.5104369151843162E-002   0.0000000000000000     
   3.5220100846798303E-003   1.8576393139695169E-002   0.0000000000000000     
   8.5798669479833479E-004   6.5194443836886226E-003   0.0000000000000000     
   1.0761378429576533E-003   9.0450243401258255E-003   0.0000000000000000     
   1.2976203132592284E-003   1.1884111620297179E-002   0.0000000000000000     
   1.5224341057030590E-003   1.5036706224202690E-002   0.0000000000000000     
   1.7505792202891454E-003   1.8502808151842354E-002   0.0000000000000000     
   5.2463540239564010E-014   6.5068205614885223E-003   0.0000000000000000     
   6.4836834902728957E-014   9.0284222844580885E-003   0.0000000000000000     
   7.9214568661067214E-014   1.1864199402291754E-002   0.0000000000000000     
   9.5597288697862708E-014   1.5014151914989518E-002   0.0000000000000000     
   1.1398499331904954E-013   1.8478279822551378E-002   0.0000000000000000     
   7.1274267461077737E-003   1.8870733091086306E-002   0.0000000000000000     
   8.0385467327611631E-003   2.2644054151978635E-002   0.0000000000000000     
   8.9388037475543504E-003   2.6669106620570628E-002   0.0000000000000000     
   9.8281977904873374E-003   3.0945890496862284E-002   0.0000000000000000     
   1.0706728861560124E-002   3.5474405780853598E-002   0.0000000000000000     
   5.3142925932860401E-003   1.8699034786109819E-002   0.0000000000000000     
   5.9977080067728393E-003   2.2461747343649304E-002   0.0000000000000000     
   6.6717812233547114E-003   2.6477934085205691E-002   0.0000000000000000     
   7.3365122430316563E-003   3.0747595010778981E-002   0.0000000000000000     
   7.9919010658036724E-003   3.5270730120369166E-002   0.0000000000000000     
   3.5220100846798303E-003   1.8576393139695169E-002   0.0000000000000000     
   3.9776706426708393E-003   2.2331528194839738E-002   0.0000000000000000     
   4.4263064240495217E-003   2.6341382274235218E-002   0.0000000000000000     
   4.8679174288158763E-003   3.0605955377881602E-002   0.0000000000000000     
   5.3025036569699048E-003   3.5125247505778896E-002   0.0000000000000000     
   1.7505792202891454E-003   1.8502808151842354E-002   0.0000000000000000     
   1.9784346404551610E-003   2.2253396705549936E-002   0.0000000000000000     
   2.2023793496387793E-003   2.6259451187659200E-002   0.0000000000000000     
   2.4224133478399999E-003   3.0520971598170150E-002   0.0000000000000000     
   2.6385366350588227E-003   3.5037957937082788E-002   0.0000000000000000     
   1.1398499331904954E-013   1.8478279822551378E-002   0.0000000000000000     
   1.2580469435294339E-013   2.2227352875779902E-002   0.0000000000000000     
   1.2248492151090140E-013   2.6232140825477649E-002   0.0000000000000000     
   1.0402480743118558E-013   3.0492643671644622E-002   0.0000000000000000     
   7.0425002635099432E-014   3.5008861414280827E-002   0.0000000000000000     
   1.0706728861560124E-002   3.5474405780853598E-002   0.0000000000000000     
   1.1568633452218478E-002   4.0234380894319417E-002   0.0000000000000000     
   1.2408148053908172E-002   4.5205544259034579E-002   0.0000000000000000     
   1.3225272666629203E-002   5.0387895874999103E-002   0.0000000000000000     
   1.4020007290381572E-002   5.5781435742212976E-002   0.0000000000000000     
   7.9919010658036724E-003   3.5270730120369166E-002   0.0000000000000000     
   8.6349726315684480E-003   4.0027455004554395E-002   0.0000000000000000     
   9.2627518802236679E-003   4.4997885253912795E-002   0.0000000000000000     
   9.8752388117693355E-003   5.0182020868444359E-002   0.0000000000000000     
   1.0472433426205447E-002   5.5579861848149101E-002   0.0000000000000000     
   5.3025036569699048E-003   3.5125247505778896E-002   0.0000000000000000     
   5.7289801159821187E-003   3.9879650797643343E-002   0.0000000000000000     
   6.1462618133230279E-003   4.4849557393191172E-002   0.0000000000000000     
   6.5543487489926324E-003   5.0034967292422371E-002   0.0000000000000000     
   6.9532409229909348E-003   5.5435880495336973E-002   0.0000000000000000     
   2.6385366350588227E-003   3.5037957937082788E-002   0.0000000000000000     
   2.8506559054594914E-003   3.9790968273586240E-002   0.0000000000000000     
   3.0586778532062501E-003   4.4760560676869690E-002   0.0000000000000000     
   3.2626024782990968E-003   4.9946735146933124E-002   0.0000000000000000     
   3.4624297807380341E-003   5.5349491683776529E-002   0.0000000000000000     
   7.0425002635099432E-014   3.5008861414280827E-002   0.0000000000000000     
   5.6747141707891302E-016   3.9761407432383128E-002   0.0000000000000000     
  -1.2666495456670201E-013   4.4730895104948390E-002   0.0000000000000000     
  -3.1127298004765547E-013   4.9917324431976620E-002   0.0000000000000000     
  -5.5325622555502108E-013   5.5320695413467819E-002   0.0000000000000000     
   1.4020007290381572E-002   5.5781435742212976E-002   0.0000000000000000     
   1.4791708659762844E-002   6.1373105912866613E-002   0.0000000000000000     
   1.5539733509370582E-002   6.7149848439150478E-002   0.0000000000000000     
   1.6264081839204782E-002   7.3111663321064543E-002   0.0000000000000000     
   1.6964753649265453E-002   7.9258550558608837E-002   0.0000000000000000     
   1.0472433426205447E-002   5.5579861848149101E-002   0.0000000000000000     
   1.1052819411762751E-002   6.1177129960995086E-002   0.0000000000000000     
   1.1614880456671984E-002   6.6959546974950337E-002   0.0000000000000000     
   1.2158616560933151E-002   7.2927112890014884E-002   0.0000000000000000     
   1.2684027724546250E-002   7.9079827706188696E-002   0.0000000000000000     
   6.9532409229909348E-003   5.5435880495336973E-002   0.0000000000000000     
   7.3412382189977097E-003   6.1037147138316039E-002   0.0000000000000000     
   7.7166405206927297E-003   6.6823617357740686E-002   0.0000000000000000     
   8.0794478280759967E-003   7.2795291153610928E-002   0.0000000000000000     
   8.4296601411475072E-003   7.8952168525926736E-002   0.0000000000000000     
   3.4624297807380341E-003   5.5349491683776529E-002   0.0000000000000000     
   3.6569650814677192E-003   6.0953157444829480E-002   0.0000000000000000     
   3.8450137014328120E-003   6.6742059587521524E-002   0.0000000000000000     
   4.0265756406333130E-003   7.2716198111852676E-002   0.0000000000000000     
   4.2016508990692205E-003   7.8875573017822914E-002   0.0000000000000000     
  -5.5325622555502108E-013   5.5320695413467819E-002   0.0000000000000000     
  -8.2721893571169325E-013   6.0925160880535428E-002   0.0000000000000000     
  -1.1077660056618699E-012   6.6714873664292865E-002   0.0000000000000000     
  -1.3948968390943561E-012   7.2689833764740142E-002   0.0000000000000000     
  -1.6886110565383916E-012   7.8850041181877259E-002   0.0000000000000000     
   1.6964753649265453E-002   7.9258550558608837E-002   0.0000000000000000     
   1.7639929513948407E-002   8.5577343903227257E-002   0.0000000000000000     
   1.8287790007649483E-002   9.2054877106363800E-002   0.0000000000000000     
   1.8908335130368673E-002   9.8691150168018410E-002   0.0000000000000000     
   1.9501564882105974E-002  0.10548616308819114        0.0000000000000000     
   1.2684027724546250E-002   7.9079827706188696E-002   0.0000000000000000     
   1.3190124138464453E-002   8.5404754572845992E-002   0.0000000000000000     
   1.3675915993640929E-002   9.1888956639361002E-002   0.0000000000000000     
   1.4141403290075677E-002   9.8532433905733685E-002   0.0000000000000000     
   1.4586586027768703E-002  0.10533518637196408        0.0000000000000000     
   8.4296601411475072E-003   7.8952168525926736E-002   0.0000000000000000     
   8.7668674273106238E-003   8.5281476479737120E-002   0.0000000000000000     
   9.0906596539686978E-003   9.1770442020091089E-002   0.0000000000000000     
   9.4010368211217311E-003   9.8419065146988657E-002   0.0000000000000000     
   9.6979989287697254E-003  0.10522734586042981        0.0000000000000000     
   4.2016508990692205E-003   7.8875573017822914E-002   0.0000000000000000     
   4.3701593804869165E-003   8.5207509623900571E-002   0.0000000000000000     
   4.5320209886327879E-003   9.1699333248554060E-002   0.0000000000000000     
   4.6872357235068288E-003   9.8351043891783299E-002   0.0000000000000000     
   4.8358035851090459E-003  0.10516264155358832        0.0000000000000000     
  -1.6886110565383916E-012   7.8850041181877259E-002   0.0000000000000000     
  -2.0066611133157108E-012   8.5182854005336442E-002   0.0000000000000000     
  -2.3667987058065276E-012   9.1675630324749888E-002   0.0000000000000000     
  -2.7690237526956790E-012   9.8328370140117610E-002   0.0000000000000000     
  -3.2133371484499573E-012  0.10514107345143961        0.0000000000000000     
   1.9501564882105974E-002  0.10548616308819114        0.0000000000000000     
   2.0069197151915300E-002  0.11242844136834425        0.0000000000000000     
   2.0612949828850553E-002  0.11950651050994006        0.0000000000000000     
   2.1132822912911731E-002  0.12672037051297852        0.0000000000000000     
   2.1628816404098833E-002  0.13407002137745971        0.0000000000000000     
   1.4586586027768703E-002  0.10533518637196408        0.0000000000000000     
   1.5012822606646154E-002  0.11228542437932476        0.0000000000000000     
   1.5421471426634189E-002  0.11937135826908829        0.0000000000000000     
   1.5812532487732810E-002  0.12659298804125468        0.0000000000000000     
   1.6186005789942018E-002  0.13395031369582391        0.0000000000000000     
   9.6979989287697254E-003  0.10522734586042981        0.0000000000000000     
   9.9824982322366772E-003  0.11218326938730547        0.0000000000000000     
   1.0255486986846590E-002  0.11927482095450656        0.0000000000000000     
   1.0516965192599464E-002  0.12650200056203301        0.0000000000000000     
   1.0766932849495297E-002  0.13386480820988494        0.0000000000000000     
   4.8358035851090459E-003  0.10516264155358832        0.0000000000000000     
   4.9782240286868739E-003  0.11212197639228641        0.0000000000000000     
   5.1149965094877533E-003  0.11921689856619483        0.0000000000000000     
   5.2461210275116868E-003  0.12644740807531357        0.0000000000000000     
   5.3715975827586743E-003  0.13381350491964261        0.0000000000000000     
  -3.2133371484499573E-012  0.10514107345143961        0.0000000000000000     
  -4.0032621315133632E-012  0.11210154539426755        0.0000000000000000     
  -5.4423226992714180E-012  0.11919759110415312        0.0000000000000000     
  -7.5305190414595019E-012  0.12642921058109630        0.0000000000000000     
  -1.0267852106754516E-011  0.13379640382509711        0.0000000000000000     
   2.1628816404098833E-002  0.13407002137745971        0.0000000000000000     
   2.2097257740579149E-002  0.14154334438724761        0.0000000000000000     
   2.2534474360519956E-002  0.14912822082620625        0.0000000000000000     
   2.2940466263921253E-002  0.15682465069433565        0.0000000000000000     
   2.3315233450783041E-002  0.16463263399163583        0.0000000000000000     
   1.6186005789942018E-002  0.13395031369582391        0.0000000000000000     
   1.6538482380431190E-002  0.14143162106301960        0.0000000000000000     
   1.6866553306369700E-002  0.14902519597306513        0.0000000000000000     
   1.7170218567757564E-002  0.15673103842596059        0.0000000000000000     
   1.7449478164594766E-002  0.16454914842170593        0.0000000000000000     
   1.0766932849495297E-002  0.13386480820988494        0.0000000000000000     
   1.1002680968127893E-002  0.14135181868906144        0.0000000000000000     
   1.1221500559091059E-002  0.14895160679056185        0.0000000000000000     
   1.1423391622384791E-002  0.15666417251438608        0.0000000000000000     
   1.1608354158009091E-002  0.16448951586053420        0.0000000000000000     
   5.3715975827586743E-003  0.13381350491964261        0.0000000000000000     
   5.4898535036692672E-003  0.14130393726537319        0.0000000000000000     
   5.5993161186840210E-003  0.14890745327869637        0.0000000000000000     
   5.6999854278029366E-003  0.15662405295961221        0.0000000000000000     
   5.7918614310260115E-003  0.16445373630812066        0.0000000000000000     
  -1.0267852106754516E-011  0.13379640382509711        0.0000000000000000     
  -1.2944691759469995E-011  0.14128797679195484        0.0000000000000000     
  -1.4851408080759909E-011  0.14889273543746875        0.0000000000000000     
  -1.5988000907993932E-011  0.15661067976163889        0.0000000000000000     
  -1.6354471596424780E-011  0.16444180976446524        0.0000000000000000     
   0.0000000000000000        0.0000000000000000        0.0000000000000000     
   1.4424794908887706E-014   1.0733484764980890E-003   0.0000000000000000     
   2.7976915489141829E-014   2.5156013955788719E-003   0.0000000000000000     
   4.0656605686251179E-014   4.3267587572423495E-003   0.0000000000000000     
   5.2463540239564010E-014   6.5068205614885223E-003   0.0000000000000000     
   0.0000000000000000        0.0000000000000000        0.0000000000000000     
  -2.1300506362999054E-004   1.0756371969279390E-003   0.0000000000000000     
  -4.2700453395563907E-004   2.5207569931854582E-003   0.0000000000000000     
  -6.4199841097694580E-004   4.3353593887725571E-003   0.0000000000000000     
  -8.5798669469391040E-004   6.5194443836892367E-003   0.0000000000000000     
   0.0000000000000000        0.0000000000000000        0.0000000000000000     
  -4.2428767668036146E-004   1.0825033582266372E-003   0.0000000000000000     
  -8.5303213273377459E-004   2.5362237860168182E-003   0.0000000000000000     
  -1.2862333681602396E-003   4.3611612833705429E-003   0.0000000000000000     
  -1.7238913829597563E-003   6.5573158502878100E-003   0.0000000000000000     
   0.0000000000000000        0.0000000000000000        0.0000000000000000     
  -6.3384783913668829E-004   1.0939469603941849E-003   0.0000000000000000     
  -1.2780827963064299E-003   2.5620017740729546E-003   0.0000000000000000     
  -1.9327048715092256E-003   4.4041644410363076E-003   0.0000000000000000     
  -2.5977140647450744E-003   6.6204349612842446E-003   0.0000000000000000     
   0.0000000000000000        0.0000000000000000        0.0000000000000000     
  -8.4168555099897052E-004   1.1099680034305807E-003   0.0000000000000000     
  -1.7021565246736047E-003   2.5980909573538641E-003   0.0000000000000000     
  -2.5814129210239025E-003   4.4643688617698506E-003   0.0000000000000000     
  -3.4794547400498642E-003   6.7088017166785406E-003   0.0000000000000000     
   5.2463540239564010E-014   6.5068205614885223E-003   0.0000000000000000     
   6.4836834902728957E-014   9.0284222844580885E-003   0.0000000000000000     
   7.9214568661067214E-014   1.1864199402291754E-002   0.0000000000000000     
   9.5597288697862708E-014   1.5014151914989518E-002   0.0000000000000000     
   1.1398499331904954E-013   1.8478279822551378E-002   0.0000000000000000     
  -8.5798669469391040E-004   6.5194443836892367E-003   0.0000000000000000     
  -1.0761378428280036E-003   9.0450243401338816E-003   0.0000000000000000     
  -1.2976203131006962E-003   1.1884111620304869E-002   0.0000000000000000     
  -1.5224341055119872E-003   1.5036706224202211E-002   0.0000000000000000     
  -1.7505792200618775E-003   1.8502808151825902E-002   0.0000000000000000     
  -1.7238913829597563E-003   6.5573158502878100E-003   0.0000000000000000     
  -2.1661886051677205E-003   9.0948305071484499E-003   0.0000000000000000     
  -2.6133074628195275E-003   1.1943848274332295E-002   0.0000000000000000     
  -3.0652479559151774E-003   1.5104369151839339E-002   0.0000000000000000     
  -3.5220100844546697E-003   1.8576393139669588E-002   0.0000000000000000     
  -2.5977140647450744E-003   6.6204349612842446E-003   0.0000000000000000     
  -3.2701522869543129E-003   9.1778407855018073E-003   0.0000000000000000     
  -3.9470614490772805E-003   1.2043409364374024E-002   0.0000000000000000     
  -4.6284415511139735E-003   1.5217140697900903E-002   0.0000000000000000     
  -5.3142925930643936E-003   1.8699034786082445E-002   0.0000000000000000     
  -3.4794547400498642E-003   6.7088017166785406E-003   0.0000000000000000     
  -4.3880288881877824E-003   9.2940551751939417E-003   0.0000000000000000     
  -5.2988822718739526E-003   1.2182794890430060E-002   0.0000000000000000     
  -6.2120148911083738E-003   1.5375020862386901E-002   0.0000000000000000     
  -7.1274267458910452E-003   1.8870733091064462E-002   0.0000000000000000     
   1.1398499331904954E-013   1.8478279822551378E-002   0.0000000000000000     
   1.2580469435294339E-013   2.2227352875779902E-002   0.0000000000000000     
   1.2248492151090140E-013   2.6232140825477649E-002   0.0000000000000000     
   1.0402480743118558E-013   3.0492643671644622E-002   0.0000000000000000     
   7.0425002635099432E-014   3.5008861414280827E-002   0.0000000000000000     
  -1.7505792200618775E-003   1.8502808151825902E-002   0.0000000000000000     
  -1.9784346402038099E-003   2.2253396705534986E-002   0.0000000000000000     
  -2.2023793493912286E-003   2.6259451187688510E-002   0.0000000000000000     
  -2.4224133476241326E-003   3.0520971598286466E-002   0.0000000000000000     
  -2.6385366349025215E-003   3.5037957937328869E-002   0.0000000000000000     
  -3.5220100844546697E-003   1.8576393139669588E-002   0.0000000000000000     
  -3.9776706424202671E-003   2.2331528194820552E-002   0.0000000000000000     
  -4.4263064237942303E-003   2.6341382274289737E-002   0.0000000000000000     
  -4.8679174285765573E-003   3.0605955378077133E-002   0.0000000000000000     
  -5.3025036567672492E-003   3.5125247506182754E-002   0.0000000000000000     
  -5.3142925930643936E-003   1.8699034786082445E-002   0.0000000000000000     
  -5.9977080065235656E-003   2.2461747343636599E-002   0.0000000000000000     
  -6.6717812230865188E-003   2.6477934085281322E-002   0.0000000000000000     
  -7.3365122427532488E-003   3.0747595011016614E-002   0.0000000000000000     
  -7.9919010655237592E-003   3.5270730120842482E-002   0.0000000000000000     
  -7.1274267458910452E-003   1.8870733091064462E-002   0.0000000000000000     
  -8.0385467325137065E-003   2.2644054151983121E-002   0.0000000000000000     
  -8.9388037472680950E-003   2.6669106620663276E-002   0.0000000000000000     
  -9.8281977901542080E-003   3.0945890497104913E-002   0.0000000000000000     
  -1.0706728861172051E-002   3.5474405781308040E-002   0.0000000000000000     
   7.0425002635099432E-014   3.5008861414280827E-002   0.0000000000000000     
   5.6747141707891302E-016   3.9761407432383128E-002   0.0000000000000000     
  -1.2666495456670201E-013   4.4730895104948390E-002   0.0000000000000000     
  -3.1127298004765547E-013   4.9917324431976620E-002   0.0000000000000000     
  -5.5325622555502108E-013   5.5320695413467819E-002   0.0000000000000000     
  -2.6385366349025215E-003   3.5037957937328869E-002   0.0000000000000000     
  -2.8506559054303857E-003   3.9790968273965090E-002   0.0000000000000000     
  -3.0586778534117151E-003   4.4760560677344498E-002   0.0000000000000000     
  -3.2626024788465114E-003   4.9946735147467114E-002   0.0000000000000000     
  -3.4624297817347719E-003   5.5349491684332945E-002   0.0000000000000000     
  -5.3025036567672492E-003   3.5125247506182754E-002   0.0000000000000000     
  -5.7289801158690997E-003   3.9879650798263250E-002   0.0000000000000000     
  -6.1462618133849003E-003   4.4849557393975288E-002   0.0000000000000000     
  -6.5543487493146509E-003   5.0034967293318855E-002   0.0000000000000000     
  -6.9532409236583523E-003   5.5435880496293964E-002   0.0000000000000000     
  -7.9919010655237592E-003   3.5270730120842482E-002   0.0000000000000000     
  -8.6349726313155739E-003   4.0027455005277608E-002   0.0000000000000000     
  -9.2627518800462161E-003   4.4997885254840740E-002   0.0000000000000000     
  -9.8752388117156909E-003   5.0182020869531836E-002   0.0000000000000000     
  -1.0472433426323995E-002   5.5579861849350917E-002   0.0000000000000000     
  -1.0706728861172051E-002   3.5474405781308040E-002   0.0000000000000000     
  -1.1568633451769807E-002   4.0234380895008179E-002   0.0000000000000000     
  -1.2408148053395667E-002   4.5205544259940854E-002   0.0000000000000000     
  -1.3225272666049634E-002   5.0387895876106058E-002   0.0000000000000000     
  -1.4020007289731701E-002   5.5781435743503797E-002   0.0000000000000000     
  -5.5325622555502108E-013   5.5320695413467819E-002   0.0000000000000000     
  -8.2721893571169325E-013   6.0925160880535428E-002   0.0000000000000000     
  -1.1077660056618699E-012   6.6714873664292865E-002   0.0000000000000000     
  -1.3948968390943561E-012   7.2689833764740142E-002   0.0000000000000000     
  -1.6886110565383916E-012   7.8850041181877259E-002   0.0000000000000000     
  -3.4624297817347719E-003   5.5349491684332945E-002   0.0000000000000000     
  -3.6569650829742510E-003   6.0953157445370443E-002   0.0000000000000000     
  -3.8450137034626948E-003   6.6742059588008176E-002   0.0000000000000000     
  -4.0265756432001053E-003   7.2716198112246111E-002   0.0000000000000000     
  -4.2016509021864813E-003   7.8875573018084275E-002   0.0000000000000000     
  -6.9532409236583523E-003   5.5435880496293964E-002   0.0000000000000000     
  -7.3412382200605183E-003   6.1037147139271150E-002   0.0000000000000000     
  -7.7166405221656634E-003   6.6823617358620954E-002   0.0000000000000000     
  -8.0794478299737876E-003   7.2795291154343369E-002   0.0000000000000000     
  -8.4296601434848926E-003   7.8952168526438410E-002   0.0000000000000000     
  -1.0472433426323995E-002   5.5579861849350917E-002   0.0000000000000000     
  -1.1052819412086025E-002   6.1177129962237523E-002   0.0000000000000000     
  -1.1614880457216675E-002   6.6959546976131171E-002   0.0000000000000000     
  -1.2158616561715947E-002   7.2927112891031917E-002   0.0000000000000000     
  -1.2684027725583838E-002   7.9079827706939707E-002   0.0000000000000000     
  -1.4020007289731701E-002   5.5781435743503797E-002   0.0000000000000000     
  -1.4791708659050766E-002   6.1373105914269567E-002   0.0000000000000000     
  -1.5539733508615726E-002   6.7149848440538881E-002   0.0000000000000000     
  -1.6264081838426574E-002   7.3111663322311740E-002   0.0000000000000000     
  -1.6964753648483322E-002   7.9258550559588109E-002   0.0000000000000000     
  -1.6886110565383916E-012   7.8850041181877259E-002   0.0000000000000000     
  -2.0066611133157108E-012   8.5182854005336442E-002   0.0000000000000000     
  -2.3667987058065276E-012   9.1675630324749888E-002   0.0000000000000000     
  -2.7690237526956790E-012   9.8328370140117610E-002   0.0000000000000000     
  -3.2133371484499573E-012  0.10514107345143961        0.0000000000000000     
  -4.2016509021864813E-003   7.8875573018084275E-002   0.0000000000000000     
  -4.3701593841999680E-003   8.5207509624054503E-002   0.0000000000000000     
  -4.5320209930186980E-003   9.1699333248688661E-002   0.0000000000000000     
  -4.6872357286426771E-003   9.8351043891986817E-002   0.0000000000000000     
  -4.8358035910719011E-003  0.10516264155394889        0.0000000000000000     
  -8.4296601434848926E-003   7.8952168526438410E-002   0.0000000000000000     
  -8.7668674301228499E-003   8.5281476480064594E-002   0.0000000000000000     
  -9.0906596573115447E-003   9.1770442020380510E-002   0.0000000000000000     
  -9.4010368250509665E-003   9.8419065147386076E-002   0.0000000000000000     
  -9.6979989333411259E-003  0.10522734586108140        0.0000000000000000     
  -1.2684027725583838E-002   7.9079827706939707E-002   0.0000000000000000     
  -1.3190124139775310E-002   8.5404754573366770E-002   0.0000000000000000     
  -1.3675915995245333E-002   9.1888956639825367E-002   0.0000000000000000     
  -1.4141403291993900E-002   9.8532433906315484E-002   0.0000000000000000     
  -1.4586586030021012E-002  0.10533518637283712        0.0000000000000000     
  -1.6964753648483322E-002   7.9258550559588109E-002   0.0000000000000000     
  -1.7639929513157356E-002   8.5577343903960976E-002   0.0000000000000000     
  -1.8287790006820067E-002   9.2054877107023259E-002   0.0000000000000000     
  -1.8908335129471470E-002   9.8691150168774944E-002   0.0000000000000000     
  -1.9501564881111558E-002  0.10548616308921605        0.0000000000000000     
  -3.2133371484499573E-012  0.10514107345143961        0.0000000000000000     
  -4.0032621315133632E-012  0.11210154539426755        0.0000000000000000     
  -5.4423226992714180E-012  0.11919759110415312        0.0000000000000000     
  -7.5305190414595019E-012  0.12642921058109630        0.0000000000000000     
  -1.0267852106754516E-011  0.13379640382509711        0.0000000000000000     
  -4.8358035910719011E-003  0.10516264155394889        0.0000000000000000     
  -4.9782240361098745E-003  0.11212197639309809        0.0000000000000000     
  -5.1149965195601017E-003  0.11921689856795763        0.0000000000000000     
  -5.2461210414225740E-003  0.12644740807852745        0.0000000000000000     
  -5.3715976016973019E-003  0.13381350492480759        0.0000000000000000     
  -9.6979989333411259E-003  0.10522734586108140        0.0000000000000000     
  -9.9824982379091154E-003  0.11218326938862726        0.0000000000000000     
  -1.0255486994482041E-002  0.11927482095718453        0.0000000000000000     
  -1.0516965203059904E-002  0.12650200056675323        0.0000000000000000     
  -1.0766932863642699E-002  0.13386480821733338        0.0000000000000000     
  -1.4586586030021012E-002  0.10533518637283712        0.0000000000000000     
  -1.5012822609400988E-002  0.11228542438085500        0.0000000000000000     
  -1.5421471430208153E-002  0.11937135827183384        0.0000000000000000     
  -1.5812532492442504E-002  0.12659298804577365        0.0000000000000000     
  -1.6186005796104044E-002  0.13395031370267446        0.0000000000000000     
  -1.9501564881111558E-002  0.10548616308921605        0.0000000000000000     
  -2.0069197150585485E-002  0.11242844136978133        0.0000000000000000     
  -2.0612949826738423E-002  0.11950651051190556        0.0000000000000000     
  -2.1132822909570373E-002  0.12672037051558871        0.0000000000000000     
  -2.1628816399081326E-002  0.13407002138083080        0.0000000000000000     
  -1.0267852106754516E-011  0.13379640382509711        0.0000000000000000     
  -1.2944691759469995E-011  0.14128797679195484        0.0000000000000000     
  -1.4851408080759909E-011  0.14889273543746875        0.0000000000000000     
  -1.5988000907993932E-011  0.15661067976163889        0.0000000000000000     
  -1.6354471596424780E-011  0.16444180976446524        0.0000000000000000     
  -5.3715976016973019E-003  0.13381350492480759        0.0000000000000000     
  -5.4898535275030736E-003  0.14130393726781512        0.0000000000000000     
  -5.5993161459586766E-003  0.14890745326856714        0.0000000000000000     
  -5.6999854570641186E-003  0.15662405292706358        0.0000000000000000     
  -5.7918614608193936E-003  0.16445373624330445        0.0000000000000000     
  -1.0766932863642699E-002  0.13386480821733338        0.0000000000000000     
  -1.1002680985794964E-002  0.14135181869196287        0.0000000000000000     
  -1.1221500579081233E-002  0.14895160677367955        0.0000000000000000     
  -1.1423391643501509E-002  0.15666417246248354        0.0000000000000000     
  -1.1608354179055787E-002  0.16448951575837467        0.0000000000000000     
  -1.6186005796104044E-002  0.13395031370267446        0.0000000000000000     
  -1.6538482387820366E-002  0.14143162106439799        0.0000000000000000     
  -1.6866553314219077E-002  0.14902519595280611        0.0000000000000000     
  -1.7170218575300177E-002  0.15673103836789878        0.0000000000000000     
  -1.7449478171063661E-002  0.16454914830967601        0.0000000000000000     
  -2.1628816399081326E-002  0.13407002138083080        0.0000000000000000     
  -2.2097257733579279E-002  0.14154334438512053        0.0000000000000000     
  -2.2534474351372204E-002  0.14912822080594676        0.0000000000000000     
  -2.2940466252460122E-002  0.15682465064330936        0.0000000000000000     
  -2.3315233436843004E-002  0.16463263389720839        0.0000000000000000     
   0.0000000000000000        0.0000000000000000        0.0000000000000000     
  -8.4168555099897052E-004   1.1099680034305807E-003   0.0000000000000000     
  -1.7021565246736047E-003   2.5980909573538641E-003   0.0000000000000000     
  -2.5814129210239025E-003   4.4643688617698506E-003   0.0000000000000000     
  -3.4794547400498642E-003   6.7088017166785406E-003   0.0000000000000000     
   0.0000000000000000        0.0000000000000000        0.0000000000000000     
  -1.0567096749471740E-003   1.1341302177341277E-003   0.0000000000000000     
  -2.1397976951414775E-003   2.6503422403091571E-003   0.0000000000000000     
  -3.2492640605829098E-003   4.5486360677250877E-003   0.0000000000000000     
  -4.3851087712714707E-003   6.8290116999819199E-003   0.0000000000000000     
   0.0000000000000000        0.0000000000000000        0.0000000000000000     
  -1.2878290736612636E-003   1.1699973337031279E-003   0.0000000000000000     
  -2.6055506850162246E-003   2.7246065273884390E-003   0.0000000000000000     
  -3.9531648340648835E-003   4.6638275810559331E-003   0.0000000000000000     
  -5.3306715208072388E-003   6.9876604947056104E-003   0.0000000000000000     
   0.0000000000000000        0.0000000000000000        0.0000000000000000     
  -1.5350437471412395E-003   1.2175693513375816E-003   0.0000000000000000     
  -3.0994154942978478E-003   2.8208838185917102E-003   0.0000000000000000     
  -4.6931152414698236E-003   4.8099434017623861E-003   0.0000000000000000     
  -6.3161429886571677E-003   7.1847481008496111E-003   0.0000000000000000     
   0.0000000000000000        0.0000000000000000        0.0000000000000000     
  -1.7983536953871016E-003   1.2768462706374880E-003   0.0000000000000000     
  -3.6213921229863453E-003   2.9391741139189707E-003   0.0000000000000000     
  -5.4691152827977315E-003   4.9869835298444491E-003   0.0000000000000000     
  -7.3415231748212581E-003   7.4202745184139213E-003   0.0000000000000000     
  -3.4794547400498642E-003   6.7088017166785406E-003   0.0000000000000000     
  -4.3880288881877824E-003   9.2940551751939417E-003   0.0000000000000000     
  -5.2988822718739526E-003   1.2182794890430060E-002   0.0000000000000000     
  -6.2120148911083738E-003   1.5375020862386901E-002   0.0000000000000000     
  -7.1274267458910452E-003   1.8870733091064462E-002   0.0000000000000000     
  -4.3851087712714707E-003   6.8290116999819199E-003   0.0000000000000000     
  -5.5343371717360094E-003   9.4494532218444699E-003   0.0000000000000000     
  -6.6839546065053726E-003   1.2367944718077553E-002   0.0000000000000000     
  -7.8339610755795638E-003   1.5584486188681169E-002   0.0000000000000000     
  -8.9843565789585779E-003   1.9099077633655318E-002   0.0000000000000000     
  -5.3306715208072388E-003   6.9876604947056104E-003   0.0000000000000000     
  -6.7235959004668736E-003   9.6500144710730072E-003   0.0000000000000000     
  -8.1174631282673691E-003   1.2604798712893649E-002   0.0000000000000000     
  -9.5122732042087262E-003   1.5852013220167542E-002   0.0000000000000000     
  -1.0908026128290947E-002   1.9391657992894686E-002   0.0000000000000000     
  -6.3161429886571677E-003   7.1847481008496111E-003   0.0000000000000000     
  -7.9558050743803749E-003   9.8957389228795430E-003   0.0000000000000000     
  -9.5994078371599411E-003   1.2893356874878347E-002   0.0000000000000000     
  -1.1246951276995864E-002   1.6177601956846022E-002   0.0000000000000000     
  -1.2898435393888142E-002   1.9748474168782570E-002   0.0000000000000000     
  -7.3415231748212581E-003   7.4202745184139213E-003   0.0000000000000000     
  -9.2309646934765153E-003   1.0186626577264090E-002   0.0000000000000000     
  -1.1129788733183087E-002   1.3233619204031653E-002   0.0000000000000000     
  -1.3037995293940974E-002   1.6561252398716610E-002   0.0000000000000000     
  -1.4955584375750175E-002   2.0169526161318962E-002   0.0000000000000000     
  -7.1274267458910452E-003   1.8870733091064462E-002   0.0000000000000000     
  -8.0385467325137065E-003   2.2644054151983121E-002   0.0000000000000000     
  -8.9388037472680950E-003   2.6669106620663276E-002   0.0000000000000000     
  -9.8281977901542080E-003   3.0945890497104913E-002   0.0000000000000000     
  -1.0706728861172051E-002   3.5474405781308040E-002   0.0000000000000000     
  -8.9843565789585779E-003   1.9099077633655318E-002   0.0000000000000000     
  -1.0128141977404075E-002   2.2886930477605299E-002   0.0000000000000000     
  -1.1258318131677703E-002   2.6923256145136396E-002   0.0000000000000000     
  -1.2374885041779466E-002   3.1208054636248619E-002   0.0000000000000000     
  -1.3477842707709362E-002   3.5741325950941968E-002   0.0000000000000000     
  -1.0908026128290947E-002   1.9391657992894686E-002   0.0000000000000000     
  -1.2294448898208058E-002   2.3198858178248270E-002   0.0000000000000000     
  -1.3661268511654091E-002   2.7248738923401482E-002   0.0000000000000000     
  -1.5008484968629048E-002   3.1541300228354316E-002   0.0000000000000000     
  -1.6336098269132925E-002   3.6076542093106789E-002   0.0000000000000000     
  -1.2898435393888142E-002   1.9748474168782570E-002   0.0000000000000000     
  -1.4537467494925653E-002   2.3579837253912047E-002   0.0000000000000000     
  -1.6147654887197254E-002   2.7645554955458528E-002   0.0000000000000000     
  -1.7728997570702953E-002   3.1945627273422005E-002   0.0000000000000000     
  -1.9281495545442746E-002   3.6480054207802495E-002   0.0000000000000000     
  -1.4955584375750175E-002   2.0169526161318962E-002   0.0000000000000000     
  -1.6857197767556863E-002   2.4029867704596631E-002   0.0000000000000000     
  -1.8717477258307198E-002   2.8113704241307543E-002   0.0000000000000000     
  -2.0536422848001189E-002   3.2421035771451695E-002   0.0000000000000000     
  -2.2314034536638827E-002   3.6951862295029086E-002   0.0000000000000000     
  -1.0706728861172051E-002   3.5474405781308040E-002   0.0000000000000000     
  -1.1568633451769807E-002   4.0234380895008179E-002   0.0000000000000000     
  -1.2408148053395667E-002   4.5205544259940854E-002   0.0000000000000000     
  -1.3225272666049634E-002   5.0387895876106058E-002   0.0000000000000000     
  -1.4020007289731701E-002   5.5781435743503797E-002   0.0000000000000000     
  -1.3477842707709362E-002   3.5741325950941968E-002   0.0000000000000000     
  -1.4559190094228085E-002   4.0503190924713994E-002   0.0000000000000000     
  -1.5610926166096342E-002   4.5473770393062274E-002   0.0000000000000000     
  -1.6633050923314123E-002   5.0653064355986786E-002   0.0000000000000000     
  -1.7625564365881436E-002   5.6041072813487532E-002   0.0000000000000000     
  -1.6336098269132925E-002   3.6076542093106789E-002   0.0000000000000000     
  -1.7635870075686698E-002   4.0836647551654143E-002   0.0000000000000000     
  -1.8899562050811329E-002   4.5803799637991631E-002   0.0000000000000000     
  -2.0127174194506822E-002   5.0977998352119289E-002   0.0000000000000000     
  -2.1318706506773168E-002   5.6359243694037081E-002   0.0000000000000000     
  -1.9281495545442746E-002   3.6480054207802495E-002   0.0000000000000000     
  -2.0798673396145634E-002   4.1234750775828596E-002   0.0000000000000000     
  -2.2274055707540631E-002   4.6195631994728953E-002   0.0000000000000000     
  -2.3707642479627717E-002   5.1362697864503565E-002   0.0000000000000000     
  -2.5099433712406898E-002   5.6735948385152425E-002   0.0000000000000000     
  -2.2314034536638827E-002   3.6951862295029086E-002   0.0000000000000000     
  -2.4047600055604912E-002   4.1697500597237383E-002   0.0000000000000000     
  -2.5734407136284242E-002   4.6649267463274226E-002   0.0000000000000000     
  -2.7374455778676809E-002   5.1807162893139622E-002   0.0000000000000000     
  -2.8967745982782629E-002   5.7171186886833578E-002   0.0000000000000000     
  -1.4020007289731701E-002   5.5781435743503797E-002   0.0000000000000000     
  -1.4791708659050766E-002   6.1373105914269567E-002   0.0000000000000000     
  -1.5539733508615726E-002   6.7149848440538881E-002   0.0000000000000000     
  -1.6264081838426574E-002   7.3111663322311740E-002   0.0000000000000000     
  -1.6964753648483322E-002   7.9258550559588109E-002   0.0000000000000000     
  -1.7625564365881436E-002   5.6041072813487532E-002   0.0000000000000000     
  -1.8588719768976931E-002   6.1625830555111241E-002   0.0000000000000000     
  -1.9522770407779267E-002   6.7395372370404660E-002   0.0000000000000000     
  -2.0427716282288445E-002   7.3349698259367740E-002   0.0000000000000000     
  -2.1303557392504460E-002   7.9488808222000495E-002   0.0000000000000000     
  -2.1318706506773168E-002   5.6359243694037081E-002   0.0000000000000000     
  -2.2474666549886703E-002   6.1936059444506517E-002   0.0000000000000000     
  -2.3595561886123748E-002   6.7696969384289096E-002   0.0000000000000000     
  -2.4681392515484304E-002   7.3641973513384820E-002   0.0000000000000000     
  -2.5732158437968368E-002   7.9771071831793675E-002   0.0000000000000000     
  -2.5099433712406898E-002   5.6735948385152425E-002   0.0000000000000000     
  -2.6449549001780089E-002   6.2303792582455365E-002   0.0000000000000000     
  -2.7758107943649177E-002   6.8054639482192203E-002   0.0000000000000000     
  -2.9025110538014164E-002   7.3988489084362979E-002   0.0000000000000000     
  -3.0250556784875055E-002   8.0105341388967632E-002   0.0000000000000000     
  -2.8967745982782629E-002   5.7171186886833578E-002   0.0000000000000000     
  -3.0513367124657076E-002   6.2729029968957795E-002   0.0000000000000000     
  -3.2010408580355539E-002   6.8468382664114022E-002   0.0000000000000000     
  -3.3458870349878017E-002   7.4389244972302204E-002   0.0000000000000000     
  -3.4858752433224512E-002   8.0491616893522383E-002   0.0000000000000000     
  -1.6964753648483322E-002   7.9258550559588109E-002   0.0000000000000000     
  -1.7639929513157356E-002   8.5577343903960976E-002   0.0000000000000000     
  -1.8287790006820067E-002   9.2054877107023259E-002   0.0000000000000000     
  -1.8908335129471470E-002   9.8691150168774944E-002   0.0000000000000000     
  -1.9501564881111558E-002  0.10548616308921605        0.0000000000000000     
  -2.1303557392504460E-002   7.9488808222000495E-002   0.0000000000000000     
  -2.2147727463195870E-002   8.5799428369116665E-002   0.0000000000000000     
  -2.2957660219131246E-002   9.2268284811529933E-002   0.0000000000000000     
  -2.3733355660310582E-002   9.8895377549240257E-002   0.0000000000000000     
  -2.4474813786733871E-002  0.10568070658224769        0.0000000000000000     
  -2.5732158437968368E-002   7.9771071831793675E-002   0.0000000000000000     
  -2.6744961902817777E-002   8.6071191866103250E-002   0.0000000000000000     
  -2.7716905159274365E-002   9.2529261142901081E-002   0.0000000000000000     
  -2.8647988207338122E-002   9.9145279662187183E-002   0.0000000000000000     
  -2.9538211047009058E-002  0.10591924742396153        0.0000000000000000     
  -3.0250556784875055E-002   8.0105341388967632E-002   0.0000000000000000     
  -3.1431632832023063E-002   8.6392634394920717E-002   0.0000000000000000     
  -3.2565524827249413E-002   9.2837806101136733E-002   0.0000000000000000     
  -3.3652232770554104E-002   9.9440856507615652E-002   0.0000000000000000     
  -3.4691756661937134E-002  0.10620178561435752        0.0000000000000000     
  -3.4858752433224512E-002   8.0491616893522383E-002   0.0000000000000000     
  -3.6207740250811728E-002   8.6763755955569108E-002   0.0000000000000000     
  -3.7503519223056399E-002   9.3193919686236887E-002   0.0000000000000000     
  -3.8746089349958511E-002   9.9782108085525734E-002   0.0000000000000000     
  -3.9935450631518078E-002  0.10652832115343569        0.0000000000000000     
  -1.9501564881111558E-002  0.10548616308921605        0.0000000000000000     
  -2.0069197150585485E-002  0.11242844136978133        0.0000000000000000     
  -2.0612949826738423E-002  0.11950651051190556        0.0000000000000000     
  -2.1132822909570373E-002  0.12672037051558871        0.0000000000000000     
  -2.1628816399081326E-002  0.13407002138083080        0.0000000000000000     
  -2.4474813786733871E-002  0.10568070658224769        0.0000000000000000     
  -2.5184125615969163E-002  0.11261305433724461        0.0000000000000000     
  -2.5863382165584495E-002  0.11968120324092341        0.0000000000000000     
  -2.6512583435579867E-002  0.12688515329328412        0.0000000000000000     
  -2.7131729425955282E-002  0.13422490449432667        0.0000000000000000     
  -2.9538211047009058E-002  0.10591924742396153        0.0000000000000000     
  -3.0390111760058548E-002  0.11283999726508318        0.0000000000000000     
  -3.1206228428257977E-002  0.11989636202241120        0.0000000000000000     
  -3.1986561051607333E-002  0.12708834169594563        0.0000000000000000     
  -3.2731109630106628E-002  0.13441593628568638        0.0000000000000000     
  -3.4691756661937134E-002  0.10620178561435752        0.0000000000000000     
  -3.5687155582853659E-002  0.11310927015329703        0.0000000000000000     
  -3.6641488614758883E-002  0.12015198685636892        0.0000000000000000     
  -3.7554755757652762E-002  0.12732993572357321        0.0000000000000000     
  -3.8426957011535347E-002  0.13464311675490989        0.0000000000000000     
  -3.9935450631518078E-002  0.10652832115343569        0.0000000000000000     
  -4.1075257084354493E-002  0.11342087300188615        0.0000000000000000     
  -4.2169162725087195E-002  0.12044807774279656        0.0000000000000000     
  -4.3217167553716185E-002  0.12760993537616691        0.0000000000000000     
  -4.4219271570241449E-002  0.13490644590199724        0.0000000000000000     
  -2.1628816399081326E-002  0.13407002138083080        0.0000000000000000     
  -2.2097257733579279E-002  0.14154334438512053        0.0000000000000000     
  -2.2534474351372204E-002  0.14912822080594676        0.0000000000000000     
  -2.2940466252460122E-002  0.15682465064330936        0.0000000000000000     
  -2.3315233436843004E-002  0.16463263389720839        0.0000000000000000     
  -2.7131729425955282E-002  0.13422490449432667        0.0000000000000000     
  -2.7716920954082881E-002  0.14168799030644233        0.0000000000000000     
  -2.8264258837334799E-002  0.14926194419202224        0.0000000000000000     
  -2.8773743075711029E-002  0.15694676615106648        0.0000000000000000     
  -2.9245373669211587E-002  0.16474245618357494        0.0000000000000000     
  -3.2731109630106628E-002  0.13441593628568638        0.0000000000000000     
  -3.3435385980342347E-002  0.14186656048067509        0.0000000000000000     
  -3.4094901918901022E-002  0.14942762896995337        0.0000000000000000     
  -3.4709657445782624E-002  0.15709914175352130        0.0000000000000000     
  -3.5279652560987175E-002  0.16488109883137872        0.0000000000000000     
  -3.8426957011535347E-002  0.13464311675490989        0.0000000000000000     
  -3.9252652812357673E-002  0.14207905490781891        0.0000000000000000     
  -4.0026403596070861E-002  0.14962527513974022        0.0000000000000000     
  -4.0748209362674891E-002  0.15728177745067384        0.0000000000000000     
  -4.1418070112169761E-002  0.16504856184061972        0.0000000000000000     
  -4.4219271570241449E-002  0.13490644590199724        0.0000000000000000     
  -4.5168721450128874E-002  0.14232547358787373        0.0000000000000000     
  -4.6058763868844339E-002  0.14985488270138270        0.0000000000000000     
  -4.6889398826387832E-002  0.15749467324252411        0.0000000000000000     
  -4.7660626322759345E-002  0.16524484521129801        0.0000000000000000     
   0.0000000000000000        0.0000000000000000        0.0000000000000000     
  -1.7983536953871016E-003   1.2768462706374880E-003   0.0000000000000000     
  -3.6213921229863453E-003   2.9391741139189707E-003   0.0000000000000000     
  -5.4691152827977315E-003   4.9869835298444491E-003   0.0000000000000000     
  -7.3415231748212581E-003   7.4202745184139213E-003   0.0000000000000000     
   0.0000000000000000        0.0000000000000000        0.0000000000000000     
  -2.0694792575492106E-003   1.3549458781471340E-003   0.0000000000000000     
  -4.1641201527409192E-003   3.0939936939004330E-003   0.0000000000000000     
  -6.2839226855751261E-003   5.2171434472598971E-003   0.0000000000000000     
  -8.4288868560518319E-003   7.7243951382255267E-003   0.0000000000000000     
   0.0000000000000000        0.0000000000000000        0.0000000000000000     
  -2.3401407727779268E-003   1.4589859604108048E-003   0.0000000000000000     
  -4.7202391652207704E-003   3.2998588390663088E-003   0.0000000000000000     
  -7.1402951773285300E-003   5.5226186359665121E-003   0.0000000000000000     
  -9.6003088091012063E-003   8.1272653511114141E-003   0.0000000000000000     
   0.0000000000000000        0.0000000000000000        0.0000000000000000     
  -2.6103382410732510E-003   1.5889665174285009E-003   0.0000000000000000     
  -5.2897491604258981E-003   3.5567695494165981E-003   0.0000000000000000     
  -8.0382327580579421E-003   5.9034090959642913E-003   0.0000000000000000     
  -1.0855789033969382E-002   8.6288851570715808E-003   0.0000000000000000     
   0.0000000000000000        0.0000000000000000        0.0000000000000000     
  -2.8800716624351823E-003   1.7448875492002221E-003   0.0000000000000000     
  -5.8726501383563031E-003   3.8647258249513011E-003   0.0000000000000000     
  -8.9777354277633635E-003   6.3595148272532365E-003   0.0000000000000000     
  -1.2195327530656363E-002   9.2292545561060285E-003   0.0000000000000000     
  -7.3415231748212581E-003   7.4202745184139213E-003   0.0000000000000000     
  -9.2309646934765153E-003   1.0186626577264090E-002   0.0000000000000000     
  -1.1129788733183087E-002   1.3233619204031653E-002   0.0000000000000000     
  -1.3037995293940974E-002   1.6561252398716610E-002   0.0000000000000000     
  -1.4955584375750175E-002   2.0169526161318962E-002   0.0000000000000000     
  -8.4288868560518319E-003   7.7243951382255267E-003   0.0000000000000000     
  -1.0590736652521254E-002   1.0558306258008998E-002   0.0000000000000000     
  -1.2761196063333610E-002   1.3661434297821977E-002   0.0000000000000000     
  -1.4940265088488901E-002   1.7033779257664469E-002   0.0000000000000000     
  -1.7127943727987129E-002   2.0675341137536472E-002   0.0000000000000000     
  -9.6003088091012063E-003   8.1272653511114141E-003   0.0000000000000000     
  -1.2076782846280549E-002   1.1046406788896620E-002   0.0000000000000000     
  -1.4546220074608311E-002   1.4212650753717740E-002   0.0000000000000000     
  -1.7008620494084487E-002   1.7625997245574770E-002   0.0000000000000000     
  -1.9463984104709082E-002   2.1286446264467712E-002   0.0000000000000000     
  -1.0855789033969382E-002   8.6288851570715808E-003   0.0000000000000000     
  -1.3689103274754404E-002   1.1650928169926966E-002   0.0000000000000000     
  -1.6484860767007191E-002   1.4887268571718940E-002   0.0000000000000000     
  -1.9243061510727737E-002   1.8337906362447511E-002   0.0000000000000000     
  -2.1963705505916042E-002   2.2002841542112669E-002   0.0000000000000000     
  -1.2195327530656363E-002   9.2292545561060285E-003   0.0000000000000000     
  -1.5427697937942816E-002   1.2371870401100028E-002   0.0000000000000000     
  -1.8577118140530240E-002   1.5685287751825580E-002   0.0000000000000000     
  -2.1643588138418639E-002   1.9169506608282691E-002   0.0000000000000000     
  -2.4627107931608001E-002   2.2824526970471357E-002   0.0000000000000000     
  -1.4955584375750175E-002   2.0169526161318962E-002   0.0000000000000000     
  -1.6857197767556863E-002   2.4029867704596631E-002   0.0000000000000000     
  -1.8717477258307198E-002   2.8113704241307543E-002   0.0000000000000000     
  -2.0536422848001189E-002   3.2421035771451695E-002   0.0000000000000000     
  -2.2314034536638827E-002   3.6951862295029086E-002   0.0000000000000000     
  -1.7127943727987129E-002   2.0675341137536472E-002   0.0000000000000000     
  -1.9292929778040271E-002   2.4558486613861331E-002   0.0000000000000000     
  -2.1403921034860326E-002   2.8655582363062388E-002   0.0000000000000000     
  -2.3460917498447274E-002   3.2966628385139633E-002   0.0000000000000000     
  -2.5463919168801141E-002   3.7491624680093080E-002   0.0000000000000000     
  -1.9463984104709082E-002   2.1286446264467712E-002   0.0000000000000000     
  -2.1883953588314471E-002   2.5175231065265462E-002   0.0000000000000000     
  -2.4240171626733038E-002   2.9273584902836918E-002   0.0000000000000000     
  -2.6532638219964773E-002   3.3581507777182079E-002   0.0000000000000000     
  -2.8761353368009678E-002   3.8098999688300952E-002   0.0000000000000000     
  -2.1963705505916042E-002   2.2002841542112669E-002   0.0000000000000000     
  -2.4630269198379455E-002   2.5880101058809016E-002   0.0000000000000000     
  -2.7226229033925336E-002   2.9967711860631140E-002   0.0000000000000000     
  -2.9751585012553650E-002   3.4265673947579040E-002   0.0000000000000000     
  -3.2206337134264434E-002   3.8773987319652724E-002   0.0000000000000000     
  -2.4627107931608001E-002   2.2824526970471357E-002   0.0000000000000000     
  -2.7531876608235233E-002   2.6673096594492001E-002   0.0000000000000000     
  -3.0362093256437208E-002   3.0737963236445055E-002   0.0000000000000000     
  -3.3117757876213939E-002   3.5019126896330514E-002   0.0000000000000000     
  -3.5798870467565420E-002   3.9516587574148380E-002   0.0000000000000000     
  -2.2314034536638827E-002   3.6951862295029086E-002   0.0000000000000000     
  -2.4047600055604912E-002   4.1697500597237383E-002   0.0000000000000000     
  -2.5734407136284242E-002   4.6649267463274226E-002   0.0000000000000000     
  -2.7374455778676809E-002   5.1807162893139622E-002   0.0000000000000000     
  -2.8967745982782629E-002   5.7171186886833578E-002   0.0000000000000000     
  -2.5463919168801141E-002   3.7491624680093080E-002   0.0000000000000000     
  -2.7413944785255304E-002   4.2226513693660789E-002   0.0000000000000000     
  -2.9312013087143172E-002   4.7167237871580864E-002   0.0000000000000000     
  -3.1158124074464739E-002   5.2313797213853278E-002   0.0000000000000000     
  -3.2952277747220010E-002   5.7666191720478051E-002   0.0000000000000000     
  -2.8761353368009678E-002   3.8098999688300952E-002   0.0000000000000000     
  -3.0929002316287615E-002   4.2823406742879148E-002   0.0000000000000000     
  -3.3038270310218429E-002   4.7752075047602274E-002   0.0000000000000000     
  -3.5089157349802134E-002   5.2885004602470344E-002   0.0000000000000000     
  -3.7081663435038714E-002   5.8222195407483343E-002   0.0000000000000000     
  -3.2206337134264434E-002   3.8773987319652724E-002   0.0000000000000000     
  -3.4592772648701836E-002   4.3488179744892448E-002   0.0000000000000000     
  -3.6913178805510018E-002   4.8403778991338485E-002   0.0000000000000000     
  -3.9167555604688986E-002   5.3520785058990814E-002   0.0000000000000000     
  -4.1355903046238721E-002   5.8839197947849468E-002   0.0000000000000000     
  -3.5798870467565420E-002   3.9516587574148380E-002   0.0000000000000000     
  -3.8405255782497982E-002   4.4220832699700681E-002   0.0000000000000000     
  -4.0936738573017932E-002   4.9122349702789468E-002   0.0000000000000000     
  -4.3393318839125290E-002   5.4221138583414714E-002   0.0000000000000000     
  -4.5774996580820050E-002   5.9517199341576427E-002   0.0000000000000000     
  -2.8967745982782629E-002   5.7171186886833578E-002   0.0000000000000000     
  -3.0513367124657076E-002   6.2729029968957795E-002   0.0000000000000000     
  -3.2010408580355539E-002   6.8468382664114022E-002   0.0000000000000000     
  -3.3458870349878017E-002   7.4389244972302204E-002   0.0000000000000000     
  -3.4858752433224512E-002   8.0491616893522383E-002   0.0000000000000000     
  -3.2952277747220010E-002   5.7666191720478051E-002   0.0000000000000000     
  -3.4692698104215602E-002   6.3211612244365292E-002   0.0000000000000000     
  -3.6377609144258131E-002   6.8937249638425124E-002   0.0000000000000000     
  -3.8007010867347583E-002   7.4843103902657554E-002   0.0000000000000000     
  -3.9580903273483958E-002   8.0929175037062567E-002   0.0000000000000000     
  -3.7081663435038714E-002   5.8222195407483343E-002   0.0000000000000000     
  -3.9014119126153601E-002   6.3751380049029291E-002   0.0000000000000000     
  -4.0884854983372215E-002   6.9460291113496192E-002   0.0000000000000000     
  -4.2693871006694563E-002   7.5348928600884033E-002   0.0000000000000000     
  -4.4441167196120630E-002   8.1417292511192840E-002   0.0000000000000000     
  -4.1355903046238721E-002   5.8839197947849468E-002   0.0000000000000000     
  -4.3477630190471066E-002   6.4348333382949804E-002   0.0000000000000000     
  -4.5532146097697804E-002   7.0037507089327197E-002   0.0000000000000000     
  -4.7519450767918969E-002   7.5906719066981654E-002   0.0000000000000000     
  -4.9439544201134528E-002   8.1955969315913188E-002   0.0000000000000000     
  -4.5774996580820050E-002   5.9517199341576427E-002   0.0000000000000000     
  -4.8083231297167982E-002   6.5002472246126833E-002   0.0000000000000000     
  -5.0319482487234904E-002   7.0668897565918168E-002   0.0000000000000000     
  -5.2483750151020782E-002   7.6516475300950432E-002   0.0000000000000000     
  -5.4576034288525643E-002   8.2545205451223597E-002   0.0000000000000000     
  -3.4858752433224512E-002   8.0491616893522383E-002   0.0000000000000000     
  -3.6207740250811728E-002   8.6763755955569108E-002   0.0000000000000000     
  -3.7503519223056399E-002   9.3193919686236887E-002   0.0000000000000000     
  -3.8746089349958511E-002   9.9782108085525734E-002   0.0000000000000000     
  -3.9935450631518078E-002  0.10652832115343569        0.0000000000000000     
  -3.9580903273483958E-002   8.0929175037062567E-002   0.0000000000000000     
  -4.1097477150085222E-002   8.7184434109249226E-002   0.0000000000000000     
  -4.2554923284569293E-002   9.3597852186826550E-002   0.0000000000000000     
  -4.3953241676936178E-002  0.10016942926979455        0.0000000000000000     
  -4.5292432327185862E-002  0.10689916535815326        0.0000000000000000     
  -4.4441167196120630E-002   8.1417292511192840E-002   0.0000000000000000     
  -4.6125036520744962E-002   8.7654546417161944E-002   0.0000000000000000     
  -4.7743771949662041E-002   9.4049853891530755E-002   0.0000000000000000     
  -4.9297373482871887E-002  0.10060321493429920        0.0000000000000000     
  -5.0785841120374500E-002  0.10731462954546740        0.0000000000000000     
  -4.9439544201134528E-002   8.1955969315913188E-002   0.0000000000000000     
  -5.1290418362790947E-002   8.8174092879307275E-002   0.0000000000000000     
  -5.3070065218334656E-002   9.4549924800349433E-002   0.0000000000000000     
  -5.4778484767765666E-002  0.10108346507903977        0.0000000000000000     
  -5.6415677011083958E-002  0.10777471371537817        0.0000000000000000     
  -5.4576034288525643E-002   8.2545205451223597E-002   0.0000000000000000     
  -5.6593622676223185E-002   8.8743073495685193E-002   0.0000000000000000     
  -5.8533803090587137E-002   9.5098064913282709E-002   0.0000000000000000     
  -6.0396575531617494E-002  0.10161017970401615        0.0000000000000000     
  -6.2181939999314248E-002  0.10827941786788549        0.0000000000000000     
  -3.9935450631518078E-002  0.10652832115343569        0.0000000000000000     
  -4.1075257084354493E-002  0.11342087300188615        0.0000000000000000     
  -4.2169162725087195E-002  0.12044807774279656        0.0000000000000000     
  -4.3217167553716185E-002  0.12760993537616691        0.0000000000000000     
  -4.4219271570241449E-002  0.13490644590199724        0.0000000000000000     
  -4.5292432327185862E-002  0.10689916535815326        0.0000000000000000     
  -4.6576744044128079E-002  0.11377503773463096        0.0000000000000000     
  -4.7810425636572493E-002  0.12078502368195611        0.0000000000000000     
  -4.8993477104519116E-002  0.12792912320012864        0.0000000000000000     
  -5.0125898447967943E-002  0.13520733628914858        0.0000000000000000     
  -5.0785841120374500E-002  0.10731462954546740        0.0000000000000000     
  -5.2213944241741458E-002  0.11417199627531197        0.0000000000000000     
  -5.3586452226544311E-002  0.12116321367410961        0.0000000000000000     
  -5.4903365074783106E-002  0.12828828174186033        0.0000000000000000     
  -5.6164682786457795E-002  0.13554720047856414        0.0000000000000000     
  -5.6415677011083958E-002  0.10777471371537817        0.0000000000000000     
  -5.7986857677194616E-002  0.11461174862392910        0.0000000000000000     
  -5.9497242495002677E-002  0.12158264771925707        0.0000000000000000     
  -6.0946831464508140E-002  0.12868741100136200        0.0000000000000000     
  -6.2335624585711027E-002  0.13592603847024398        0.0000000000000000     
  -6.2181939999314248E-002  0.10827941786788549        0.0000000000000000     
  -6.3895484350487558E-002  0.11509429478048240        0.0000000000000000     
  -6.5542796441947548E-002  0.12204332581739843        0.0000000000000000     
  -6.7123876273694261E-002  0.12912651097863362        0.0000000000000000     
  -6.8638723845727612E-002  0.13634385026418797        0.0000000000000000     
  -4.4219271570241449E-002  0.13490644590199724        0.0000000000000000     
  -4.5168721450128874E-002  0.14232547358787373        0.0000000000000000     
  -4.6058763868844339E-002  0.14985488270138270        0.0000000000000000     
  -4.6889398826387832E-002  0.15749467324252411        0.0000000000000000     
  -4.7660626322759345E-002  0.16524484521129801        0.0000000000000000     
  -5.0125898447967943E-002  0.13520733628914858        0.0000000000000000     
  -5.1199729256191338E-002  0.14260782339121944        0.0000000000000000     
  -5.2207009118461670E-002  0.15011874494854471        0.0000000000000000     
  -5.3147738034778964E-002  0.15774010096112445        0.0000000000000000     
  -5.4021916005143181E-002  0.16547189142895863        0.0000000000000000     
  -5.6164682786457795E-002  0.13554720047856414        0.0000000000000000     
  -5.7361813593080443E-002  0.14292811118823581        0.0000000000000000     
  -5.8486165726163122E-002  0.15041915517489018        0.0000000000000000     
  -5.9537739185705804E-002  0.15802033243852714        0.0000000000000000     
  -6.0516533971708510E-002  0.16573164297914675        0.0000000000000000     
  -6.2335624585711027E-002  0.13592603847024398        0.0000000000000000     
  -6.3654974460796238E-002  0.14328633697892293        0.0000000000000000     
  -6.4896233691948677E-002  0.15075611338041900        0.0000000000000000     
  -6.6059402279168358E-002  0.15833536767473216        0.0000000000000000     
  -6.7144480222455311E-002  0.16602409986186237        0.0000000000000000     
  -6.8638723845727612E-002  0.13634385026418797        0.0000000000000000     
  -7.0079211859338644E-002  0.14368250076328073        0.0000000000000000     
  -7.1437213015818318E-002  0.15112961956513130        0.0000000000000000     
  -7.2712727315166634E-002  0.15868520666973954        0.0000000000000000     
  -7.3905754757383618E-002  0.16634926207710549        0.0000000000000000     
   0.0000000000000000        0.0000000000000000        0.0000000000000000     
  -2.8800716624351823E-003   1.7448875492002221E-003   0.0000000000000000     
  -5.8726501383563031E-003   3.8647258249513011E-003   0.0000000000000000     
  -8.9777354277633635E-003   6.3595148272532365E-003   0.0000000000000000     
  -1.2195327530656363E-002   9.2292545561060285E-003   0.0000000000000000     
   0.0000000000000000        0.0000000000000000        0.0000000000000000     
  -3.2831919959984230E-003   1.9994056857667950E-003   0.0000000000000000     
  -6.6769321468314029E-003   4.3310361681674235E-003   0.0000000000000000     
  -1.0181220452498939E-002   6.9948914472018862E-003   0.0000000000000000     
  -1.3796056913001032E-002   9.9909715228701842E-003   0.0000000000000000     
   0.0000000000000000        0.0000000000000000        0.0000000000000000     
  -3.9535502008976754E-003   2.4251775571690467E-003   0.0000000000000000     
  -7.9105852336706136E-003   5.0630090815619736E-003   0.0000000000000000     
  -1.1871105098318816E-002   7.9134945731787788E-003   0.0000000000000000     
  -1.5835109794842286E-002   1.0976634032019466E-002   0.0000000000000000     
   0.0000000000000000        0.0000000000000000        0.0000000000000000     
  -4.8911462771329389E-003   3.0222031634069770E-003   0.0000000000000000     
  -9.5736093988739376E-003   6.0606445651349488E-003   0.0000000000000000     
  -1.4047389365223000E-002   9.1153242051839143E-003   0.0000000000000000     
  -1.8312486176180118E-002   1.2186242083553879E-002   0.0000000000000000     
   0.0000000000000000        0.0000000000000000        0.0000000000000000     
  -6.0959802247042127E-003   3.7904825044805857E-003   0.0000000000000000     
  -1.1666004642441372E-002   7.3239426188863501E-003   0.0000000000000000     
  -1.6710073253211478E-002   1.0600380343217294E-002   0.0000000000000000     
  -2.1228186057014535E-002   1.3619795677473422E-002   0.0000000000000000     
  -1.2195327530656363E-002   9.2292545561060285E-003   0.0000000000000000     
  -1.5427697937942816E-002   1.2371870401100028E-002   0.0000000000000000     
  -1.8577118140530240E-002   1.5685287751825580E-002   0.0000000000000000     
  -2.1643588138418639E-002   1.9169506608282691E-002   0.0000000000000000     
  -2.4627107931608001E-002   2.2824526970471357E-002   0.0000000000000000     
  -1.3796056913001032E-002   9.9909715228701842E-003   0.0000000000000000     
  -1.7404342665575577E-002   1.3221292811851425E-002   0.0000000000000000     
  -2.0888978847460476E-002   1.6587871730824721E-002   0.0000000000000000     
  -2.4249965458655719E-002   2.0090708279790075E-002   0.0000000000000000     
  -2.7487302499161308E-002   2.3729802458747489E-002   0.0000000000000000     
  -1.5835109794842286E-002   1.0976634032019466E-002   0.0000000000000000     
  -1.9730813287382486E-002   1.4211254731616767E-002   0.0000000000000000     
  -2.3486429540080889E-002   1.7576183945503421E-002   0.0000000000000000     
  -2.7101958552937497E-002   2.1071421673679432E-002   0.0000000000000000     
  -3.0577400325952298E-002   2.4696967916144799E-002   0.0000000000000000     
  -1.8312486176180118E-002   1.2186242083553879E-002   0.0000000000000000     
  -2.2407109803363540E-002   1.5341756160396063E-002   0.0000000000000000     
  -2.6369470218391484E-002   1.8650224395861687E-002   0.0000000000000000     
  -3.0199567421263965E-002   2.2111646789950756E-002   0.0000000000000000     
  -3.3897401411980971E-002   2.5726023342663273E-002   0.0000000000000000     
  -2.1228186057014535E-002   1.3619795677473422E-002   0.0000000000000000     
  -2.5433232213518727E-002   1.6612797098189299E-002   0.0000000000000000     
  -2.9538100882392261E-002   1.9809993081899509E-002   0.0000000000000000     
  -3.3542792063635127E-002   2.3211383628604053E-002   0.0000000000000000     
  -3.7447305757247334E-002   2.6816968738302929E-002   0.0000000000000000     
  -2.4627107931608001E-002   2.2824526970471357E-002   0.0000000000000000     
  -2.7531876608235233E-002   2.6673096594492001E-002   0.0000000000000000     
  -3.0362093256437208E-002   3.0737963236445055E-002   0.0000000000000000     
  -3.3117757876213939E-002   3.5019126896330514E-002   0.0000000000000000     
  -3.5798870467565420E-002   3.9516587574148380E-002   0.0000000000000000     
  -2.7487302499161308E-002   2.3729802458747489E-002   0.0000000000000000     
  -3.0624066138093119E-002   2.7547702778146266E-002   0.0000000000000000     
  -3.3683332544567020E-002   3.1586957748435701E-002   0.0000000000000000     
  -3.6665101718583004E-002   3.5847567369615821E-002   0.0000000000000000     
  -3.9569373660141065E-002   4.0329531641686601E-002   0.0000000000000000     
  -3.0577400325952298E-002   2.4696967916144799E-002   0.0000000000000000     
  -3.3942128108164452E-002   2.8497404715603653E-002   0.0000000000000000     
  -3.7225515148613088E-002   3.2517314114760151E-002   0.0000000000000000     
  -4.0427561447298220E-002   3.6756696113614283E-002   0.0000000000000000     
  -4.3548267004219821E-002   4.1215550712166059E-002   0.0000000000000000     
  -3.3897401411980971E-002   2.5726023342663273E-002   0.0000000000000000     
  -3.7486062518449229E-002   2.9522202406864168E-002   0.0000000000000000     
  -4.0988641068575436E-002   3.3529032335418381E-002   0.0000000000000000     
  -4.4405137062359580E-002   3.7746513128325908E-002   0.0000000000000000     
  -4.7735550499801688E-002   4.2174644785586753E-002   0.0000000000000000     
  -3.7447305757247334E-002   2.6816968738302929E-002   0.0000000000000000     
  -4.1255869368947450E-002   3.0622095851927818E-002   0.0000000000000000     
  -4.4972710304454037E-002   3.4622112410410404E-002   0.0000000000000000     
  -4.8597828563767119E-002   3.8817018413750695E-002   0.0000000000000000     
  -5.2131224146886666E-002   4.3206813861948683E-002   0.0000000000000000     
  -3.5798870467565420E-002   3.9516587574148380E-002   0.0000000000000000     
  -3.8405255782497982E-002   4.4220832699700681E-002   0.0000000000000000     
  -4.0936738573017932E-002   4.9122349702789468E-002   0.0000000000000000     
  -4.3393318839125290E-002   5.4221138583414714E-002   0.0000000000000000     
  -4.5774996580820050E-002   5.9517199341576427E-002   0.0000000000000000     
  -3.9569373660141065E-002   4.0329531641686601E-002   0.0000000000000000     
  -4.2393221479706387E-002   4.5019218698222348E-002   0.0000000000000000     
  -4.5133718287744137E-002   4.9902996672797337E-002   0.0000000000000000     
  -4.7790864084254286E-002   5.4980865565411589E-002   0.0000000000000000     
  -5.0364658869236870E-002   6.0252825376065078E-002   0.0000000000000000     
  -4.3548267004219821E-002   4.1215550712166059E-002   0.0000000000000000     
  -4.6583439502357431E-002   4.5881190831375901E-002   0.0000000000000000     
  -4.9528886624690578E-002   5.0740929392204218E-002   0.0000000000000000     
  -5.2384608371219221E-002   5.5794766394651023E-002   0.0000000000000000     
  -5.5150604741943388E-002   6.1042701838716310E-002   0.0000000000000000     
  -4.7735550499801688E-002   4.2174644785586753E-002   0.0000000000000000     
  -5.0975909850451119E-002   4.6806749099161341E-002   0.0000000000000000     
  -5.4122243583857255E-002   5.1636147861010097E-002   0.0000000000000000     
  -5.7174551700020074E-002   5.6662841071133015E-002   0.0000000000000000     
  -6.0132834198939590E-002   6.1886828729530122E-002   0.0000000000000000     
  -5.2131224146886666E-002   4.3206813861948683E-002   0.0000000000000000     
  -5.5570632523987432E-002   4.7795893501578673E-002   0.0000000000000000     
  -5.8913789165244160E-002   5.2588652079214968E-002   0.0000000000000000     
  -6.2160694070656844E-002   5.7585089594857579E-002   0.0000000000000000     
  -6.5311347240225470E-002   6.2785206048506487E-002   0.0000000000000000     
  -4.5774996580820050E-002   5.9517199341576427E-002   0.0000000000000000     
  -4.8083231297167982E-002   6.5002472246126833E-002   0.0000000000000000     
  -5.0319482487234904E-002   7.0668897565918168E-002   0.0000000000000000     
  -5.2483750151020782E-002   7.6516475300950432E-002   0.0000000000000000     
  -5.4576034288525643E-002   8.2545205451223597E-002   0.0000000000000000     
  -5.0364658869236870E-002   6.0252825376065078E-002   0.0000000000000000     
  -5.2858532189302226E-002   6.5712866401253914E-002   0.0000000000000000     
  -5.5275913591060696E-002   7.1354978937474167E-002   0.0000000000000000     
  -5.7616803074512307E-002   7.7179162984725852E-002   0.0000000000000000     
  -5.9881200639657024E-002   8.3185418543008940E-002   0.0000000000000000     
  -5.5150604741943388E-002   6.1042701838716310E-002   0.0000000000000000     
  -5.7831142609931607E-002   6.6478585611024557E-002   0.0000000000000000     
  -6.0430488848252396E-002   7.2096267598200259E-002   0.0000000000000000     
  -6.2948643456905776E-002   7.7895747800243401E-002   0.0000000000000000     
  -6.5385606435891752E-002   8.3877026217154024E-002   0.0000000000000000     
  -6.0132834198939590E-002   6.1886828729530122E-002   0.0000000000000000     
  -6.3001062559056131E-002   6.7299629875438804E-002   0.0000000000000000     
  -6.5783208258809997E-002   7.2892763548096456E-002   0.0000000000000000     
  -6.8479271298201222E-002   7.8666229747503161E-002   0.0000000000000000     
  -7.1089251677229820E-002   8.4620028473658848E-002   0.0000000000000000     
  -6.5311347240225470E-002   6.2785206048506487E-002   0.0000000000000000     
  -6.8368292036675798E-002   6.8175999194496587E-002   0.0000000000000000     
  -7.1334071822733505E-002   7.3744466787162774E-002   0.0000000000000000     
  -7.4208686598398660E-002   7.9490608826505035E-002   0.0000000000000000     
  -7.6992136363671207E-002   8.5414425312523384E-002   0.0000000000000000     
  -5.4576034288525643E-002   8.2545205451223597E-002   0.0000000000000000     
  -5.6593622676223185E-002   8.8743073495685193E-002   0.0000000000000000     
  -5.8533803090587137E-002   9.5098064913282709E-002   0.0000000000000000     
  -6.0396575531617494E-002  0.10161017970401615        0.0000000000000000     
  -6.2181939999314248E-002  0.10827941786788549        0.0000000000000000     
  -5.9881200639657024E-002   8.3185418543008940E-002   0.0000000000000000     
  -6.2065511089876693E-002   8.9361070140092341E-002   0.0000000000000000     
  -6.4166139228553090E-002   9.5693442303745005E-002   0.0000000000000000     
  -6.6183085055686250E-002  0.10218253503396685        0.0000000000000000     
  -6.8116348571276158E-002  0.10882834833075795        0.0000000000000000     
  -6.5385606435891752E-002   8.3877026217154024E-002   0.0000000000000000     
  -6.7736945232586485E-002   9.0027664686325365E-002   0.0000000000000000     
  -6.9998227294366180E-002   9.6335225045150838E-002   0.0000000000000000     
  -7.2169452621230840E-002  0.10279970729363036        0.0000000000000000     
  -7.4250621213180448E-002  0.10942111143176400        0.0000000000000000     
  -7.1089251677229820E-002   8.4620028473658848E-002   0.0000000000000000     
  -7.3607925104352587E-002   9.0742857134384278E-002   0.0000000000000000     
  -7.6030067288026387E-002   9.7023413137500208E-002   0.0000000000000000     
  -7.8355678228251263E-002  0.10346169648300665        0.0000000000000000     
  -8.0584757925027159E-002  0.11005770717090363        0.0000000000000000     
  -7.6992136363671207E-002   8.5414425312523384E-002   0.0000000000000000     
  -7.9678450705174958E-002   9.1506647484269024E-002   0.0000000000000000     
  -8.2261659209533725E-002   9.7758006580793158E-002   0.0000000000000000     
  -8.4741761876747493E-002  0.10416850260209577        0.0000000000000000     
  -8.7118758706816263E-002  0.11073813554817688        0.0000000000000000     
  -6.2181939999314248E-002  0.10827941786788549        0.0000000000000000     
  -6.3895484350487558E-002  0.11509429478048240        0.0000000000000000     
  -6.5542796441947548E-002  0.12204332581739843        0.0000000000000000     
  -6.7123876273694261E-002  0.12912651097863362        0.0000000000000000     
  -6.8638723845727612E-002  0.13634385026418797        0.0000000000000000     
  -6.8116348571276158E-002  0.10882834833075795        0.0000000000000000     
  -6.9972005859783901E-002  0.11561970917855049        0.0000000000000000     
  -7.1756133005670519E-002  0.12254544456177670        0.0000000000000000     
  -7.3468730008936070E-002  0.12960555448043659        0.0000000000000000     
  -7.5109796869580511E-002  0.13680003893453016        0.0000000000000000     
  -7.4250621213180448E-002  0.10942111143176400        0.0000000000000000     
  -7.6248603803247189E-002  0.11618806625171203        0.0000000000000000     
  -7.8170271124463106E-002  0.12308920054563477        0.0000000000000000     
  -8.0015623176828282E-002  0.13012451431353225        0.0000000000000000     
  -8.1784659960342648E-002  0.13729400755540447        0.0000000000000000     
  -8.0584757925027159E-002  0.11005770717090363        0.0000000000000000     
  -8.2725278180877423E-002  0.11679936599996703        0.0000000000000000     
  -8.4785210798325308E-002  0.12367459376897265        0.0000000000000000     
  -8.6764555777370855E-002  0.13068339047792066        0.0000000000000000     
  -8.8663313118014009E-002  0.13782575612681089        0.0000000000000000     
  -8.7118758706816263E-002  0.11073813554817688        0.0000000000000000     
  -8.9402028992674618E-002  0.11745360842331545        0.0000000000000000     
  -9.1600952027257140E-002  0.12430162423179036        0.0000000000000000     
  -9.3715527810563803E-002  0.13128218297360170        0.0000000000000000     
  -9.5745756342594648E-002  0.13839528464874939        0.0000000000000000     
  -6.8638723845727612E-002  0.13634385026418797        0.0000000000000000     
  -7.0079211859338644E-002  0.14368250076328073        0.0000000000000000     
  -7.1437213015818318E-002  0.15112961956513130        0.0000000000000000     
  -7.2712727315166634E-002  0.15868520666973954        0.0000000000000000     
  -7.3905754757383618E-002  0.16634926207710549        0.0000000000000000     
  -7.5109796869580511E-002  0.13680003893453016        0.0000000000000000     
  -7.6671515264240472E-002  0.14411558055021800        0.0000000000000000     
  -7.8146066869552569E-002  0.15153886195366076        0.0000000000000000     
  -7.9533451685516815E-002  0.15906988314485840        0.0000000000000000     
  -8.0833669712133155E-002  0.16670864412381090        0.0000000000000000     
  -8.1784659960342648E-002  0.13729400755540447        0.0000000000000000     
  -8.3468874151034475E-002  0.14458455434864348        0.0000000000000000     
  -8.5059758424931922E-002  0.15198302877064127        0.0000000000000000     
  -8.6557312782035031E-002  0.15948943082139791        0.0000000000000000     
  -8.7961537222343761E-002  0.16710376050091341        0.0000000000000000     
  -8.8663313118014009E-002  0.13782575612681089        0.0000000000000000     
  -9.0471288519720611E-002  0.14508942215855708        0.0000000000000000     
  -9.2178287681956392E-002  0.15246212001607282        0.0000000000000000     
  -9.3784310604721297E-002  0.15994384969935813        0.0000000000000000     
  -9.5289357288015381E-002  0.16753461120841301        0.0000000000000000     
  -9.5745756342594648E-002  0.13839528464874939        0.0000000000000000     
  -9.7678758370298921E-002  0.14563018397995886        0.0000000000000000     
  -9.9501654640625908E-002  0.15297613568995538        0.0000000000000000     
 -0.10121444515357562       0.16043313977873899        0.0000000000000000     
 -0.10281712990914804       0.16800119624630969        0.0000000000000000     
 </DataArray>
 <DataArray  type="Float64" Name="stress" NumberOfComponents="3" format="ascii">
   13416702863.843437        4025010859.1530313        2894026116.5779777     
   11766499429.242563        1890449908.4826393        1715828991.6623237     
   10313581107.838242        413506001.80075026        810733393.19720209     
   9057947899.6304703       -405820860.89263964        178739321.18261266     
   7999599804.6192465       -567530679.59752655       -180153224.38144472     
   10539930418.933952        3161979125.6801858        2225785140.3827567     
   9667535382.4635582        1589567865.3309190        1446725369.1172202     
   8943785171.1593895        512639355.53572512        863151372.19664514     
   8368679785.0214386       -68806403.705396652        475063149.62103164     
   7942219224.0497122       -154769412.39244652        282460701.39038169     
   8337880161.6186152        2501364048.4855843        1712381962.0316305     
   8021534231.5485020        1424574690.9383833        1275712541.7141607     
   7805192838.6142817        681133790.51082468        956913143.63608325     
   7688855982.8159542        271041347.20290899        755983767.79739642     
   7672523664.1535215        194297361.01463699        672924414.19810295     
   6810552091.8974247        2043165627.5692275        1353816581.5245993     
   6828495976.4973917        1395470385.3050313        1202790509.4531462     
   6897804110.2029247        918989306.72604918        1092018707.5155144     
   7018476493.0140200        613722391.83228016        1021501175.7117053     
   7190513124.9306774        479669640.62372422        991237914.04171824     
   5957946209.7703838        1787383862.9311152        1150088998.8616626     
   6088420617.3102312        1502254948.4308643        1227959272.3341756     
   6221618985.9253139        1226205904.1813977        1268468063.8349407     
   6357541315.6156311        959236730.18271482        1271615373.3639574     
   6496187606.3811827        701347426.43481612        1237401200.9212265     
   7999599804.6192465       -567530679.59752655       -180153224.38144472     
   7917498102.7434568       -200067098.35923386       -78230145.240763664     
   7793913143.9365339        29118959.775291443       -8959304.5870717466     
   7628844928.1984825        120027494.80604315        27659297.579630319     
   7422293455.5292959        72658506.733023643        31625661.259341810     
   7942219224.0497122       -154769412.39244652        282460701.39038169     
   7739626899.8442268        16407398.074316978        281192634.91195214     
   7513650859.1256714        109638486.83083582        265188659.92187008     
   7264291101.8940392        124923853.87710238        234448776.42013869     
   6991547628.1493340        62263499.213129997        188972984.40675521     
   7672523664.1535215        194297361.01463699        672924414.19810295     
   7400630231.8336010        184544254.97444677        589581332.58829451     
   7123452623.4186630        157177228.61753511        509418672.44217235     
   6840990838.9087076        112196281.94389963        432436433.75973868     
   6553244878.3037395        49601414.953544140        358634616.54099542     
   7190513124.9306774        479669640.62372422        991237914.04171824     
   6900508098.7115736        304343472.34115648        846935947.78826463     
   6623318436.8155107        171735185.13539243        723730732.97383702     
   6358944139.2424889        81844779.006429195        621622269.59843552     
   6107385205.9925070        34672253.954269171        540610557.66206241     
   6496187606.3811827        701347426.43481612        1237401200.9212265     
   6239260500.4781494        375805050.17444849        1053256480.5118612     
   6013248299.3162136        153312356.38440585        908124841.51686132     
   5818151002.8953772        33869345.064691305        802006283.93622756     
   5653968611.2156372        17476016.215303898        734900807.76995981     
   7422293455.5292959        72658506.733023643        31625661.259341810     
   7218925454.6145573       -18209701.719605446        14642780.622971145     
   7027730208.2753811       -68502061.587024212        2156593.5380172990     
   6848707716.5117712       -78218572.869217873       -5832899.9955075588     
   6681857979.3237267       -47359235.566205025       -9325699.9776072726     
   6991547628.1493340        62263499.213129997        188972984.40675521     
   6808438486.7273798        2828055.1916060448        180652701.04579625     
   6633109508.5958366       -30673511.195204258        176165747.33606565     
   6465560693.7547054       -38241199.947310448        175512123.27756774     
   6305792042.2039890       -19875011.064702749        178691828.87029979     
   6553244878.3037395        49601414.953544140        358634616.54099542     
   6388499270.9454393        21030137.734393835        353852240.62277591     
   6227141235.5923967        3750767.1994433403        352239830.45559180     
   6069170772.2446156       -2236696.6513016224        353797386.03943872     
   5914587880.9021015        3067746.1821556091        358524907.37432247     
   6107385205.9925070        34672253.954269171        540610557.66206241     
   5959107807.2687321        36396545.908749819        534241399.35390663     
   5809825389.2650623        34770773.596922636        530378842.89658618     
   5659537951.9815025        29794937.018796206        529022888.29010874     
   5508245495.4180565        21469036.174362898        530173535.53447026     
   5653968611.2156372        17476016.215303898        734900807.76995981     
   5520264095.6972570        48927279.714674473        721820177.23918653     
   5381161969.6138344        62386507.997235060        710582784.65905786     
   5236662232.9653692        57853701.062989235        701188630.02957404     
   5086764885.7518587        35328858.911931276        693637713.35073268     
   6681857979.3237267       -47359235.566205025       -9325699.9776072726     
   6509013664.5230207       -7495842.4517374039       -3640414.1878287462     
   6331119075.8688850        15533304.484636784        2922944.5479839188     
   6148174213.3613319        21728205.242949724        10364376.229820475     
   5960179077.0003490        11088859.823161602        18683880.857686047     
   6305792042.2039890       -19875011.064702749        178691828.87029979     
   6131638452.0889511        1376972.3148236275        175129866.07243198     
   5954452792.7930861        12522058.424933434        173977636.17942137     
   5774235064.3164043        13560247.265642643        175235139.19127247     
   5590985266.6588964        4491538.8369486332        178902375.10798016     
   5914587880.9021015        3067746.1821556091        358524907.37432247     
   5743501186.7836723        7021171.2200181484        348070268.10684288     
   5571400628.1570234        7595047.8971505165        341557021.70305395     
   5398286205.0221567        4789376.2135560513        338985168.16295159     
   5224157917.3790722       -1395843.8307707310        340354707.48653483     
   5508245495.4180565        21469036.174362898        530173535.53447026     
   5344601868.6071835        9436754.2638525963        515180791.91541421     
   5181962581.9606924        752272.90128946304        505661101.11887622     
   5020327635.4785862       -4584407.9133341312        501614463.14485782     
   4859697029.1608629       -6573288.1800084114        503040877.99335510     
   5086764885.7518587        35328858.911931276        693637713.35073268     
   4934940497.5594845        8623721.4463253021        676461437.49814022     
   4786138654.2040968       -8006266.5626506805        666289874.42689204     
   4640359355.6856918       -14561105.115021706        663123024.13699603     
   4497602602.0042753       -11040794.210759878        666960886.62844503     
   5960179077.0003490        11088859.823161602        18683880.857686047     
   5781421160.2501459       -1314796.7286205292        10150986.071534051     
   5604723092.9477215       -6852288.4544701576        5441852.2731256234     
   5430084875.0930729       -5523615.3544104099        4556479.4624553202     
   5257506506.6861973        2671222.5715718269        7494867.6395202558     
   5590985266.6588964        4491538.8369486332        178902375.10798016     
   5423630753.0556211       -2427813.9221737385        173089990.59634554     
   5257581344.0968800       -4996817.8662040234        170960085.10400131     
   5092837039.7826710       -3215472.9951162338        172512658.63093856     
   4929397840.1129894        2916220.6910617352        177747711.17716363     
   5224157917.3790722       -1395843.8307707310        340354707.48653483     
   5067803144.1557064       -2951991.6273610592        336382297.64563805     
   4911998730.7736301       -2673606.6196608543        335951084.85557139     
   4756744677.2328386       -560688.80766439438        339061069.11634022     
   4602040983.5333395        3386761.8086256981        345712250.42793131     
   4859697029.1608629       -6573288.1800084114        503040877.99335510     
   4713938333.5503969       -2887329.8441584110        500027907.21941167     
   4567975252.9779701        117345.28516340256        500414851.52784044     
   4421807787.4435902        2440737.2079689503        504201710.91864294     
   4275435936.9472542        4082845.9242558479        511388485.39182317     
   4497602602.0042753       -11040794.210759878        666960886.62844503     
   4362036321.2396946       -2233828.5725705624        664026819.31766820     
   4225510910.7099056        3376037.8482663631        664351385.12080443     
   4088026370.4149194        5788805.0517778397        667934584.03786135     
   3949582700.3547335        5004473.0379550457        674776416.06883574     
   5257506506.6861973        2671222.5715718269        7494867.6395202558     
   5060222521.8113060        4935299.2770860195        1101908.8879067500     
   4861855120.7105656        3587988.5631263256       -399010.69664492429     
   4662404303.3839951       -1370709.5702810287        2992108.8858786840     
   4461870069.8315773       -9940795.1231737137        11275267.635460282     
   4929397840.1129894        2916220.6910617352        177747711.17716363     
   4744215319.0545750        3441109.8658473492        170540009.06168857     
   4558331775.9264965        1629258.8084123135        168150437.06815028     
   4371747210.7287531       -2519332.4812405109        170578995.19655612     
   4184461623.4613485       -9004664.0030980110        177825683.44688651     
   4602040983.5333395        3386761.8086256981        345712250.42793131     
   4428748757.5910444        2109112.8425629139        338135931.46412963     
   4255137903.7352624       -230629.16845703125        335303833.57714188     
   4081208421.9659944       -3632464.2244353294        337215956.76697278     
   3906960312.2832308       -8096392.3253855705        343872301.03360099     
   4275435936.9472542        4082845.9242558479        511388485.39182317     
   4113822837.4207172        939308.20724868774        503889676.09524161     
   3952273504.1368694       -1991675.3674643040        501061178.83034062     
   3790787937.0957074       -4710104.7998917103        502902993.59712350     
   3629366136.2972269       -7215980.0900406837        509415120.39559078     
   3949582700.3547335        5004473.0379550457        674776416.06883574     
   3799437558.5435896       -68304.040110349655        667801242.95500731     
   3649738577.1313081       -3653879.7886295319        665422472.82773328     
   3500485756.1178899       -5752254.2076179981        667640105.68701792     
   3351679095.5033312       -6363427.2970635891        674454141.53285635     
   4461870069.8315773       -9940795.1231737137        11275267.635460282     
   4300763142.8458509       -7141477.0449662209        3659307.6452728058     
   4140437134.2800908       -1739097.5668647289       -1369648.6904852982     
   3980892044.1342945        6266343.3111169338       -3811601.3718428533     
   3822127872.4084740        16874845.589009285       -3666550.3987928140     
   4184461623.4613485       -9004664.0030980110        177825683.44688651     
   4030723748.5223441       -5703359.2570972443        171124212.64197782     
   3877503811.6327934       -675594.34623980522        167388396.67986795     
   3724801812.7926779        6078630.7294085026        166618235.56055728     
   3572617752.0020332        14559315.969936132        168813729.28406405     
   3906960312.2832308       -8096392.3253855705        343872301.03360099     
   3761673349.9292126       -3968542.7501177788        337778508.98167765     
   3616641345.2541270        1009165.7549350262        335029022.96095848     
   3471864298.2579770        6836733.1897745132        335623842.97144085     
   3327342208.9407682        13514159.554401875        339562969.01311684     
   3629366136.2972269       -7215980.0900406837        509415120.39559078     
   3493611947.0664577       -1937027.5240375996        503622196.66439521     
   3357849735.1441212        3315182.7367279530        501552230.15279567     
   3222079500.5301943        8540650.6922029257        503205220.86078972     
   3086301243.2246990        13739376.342433453        508581168.78837198     
   3351679095.5033312       -6363427.2970635891        674454141.53285635     
   3226539539.9340897        391186.42117846012        668655275.69011569     
   3101128981.3027582        6242456.5991142988        666958018.25537074     
   2975447419.6093283        11190383.236717939        669362369.22861278     
   2849494854.8538008        15234966.334012866        675868328.60983717     
   3822127872.4084740        16874845.589009285       -3666550.3987928140     
   3608622068.6436615        9865669.3997652531       -14453224.829732351     
   3393547309.8508868       -2373356.8826763630       -17950460.170794543     
   3176903596.0301647       -19842233.258254528       -14158256.421956971     
   2958690927.1815081       -42540959.727001548       -3076613.5832305253     
   3572617752.0020332        14559315.969936132        168813729.28406405     
   3377180490.2209496        9349699.5744221210        157469414.57992578     
   3180754296.1010170        843642.04941260815        152319256.20560193     
   2983339169.6422524       -10958856.605036616        153363254.16107142     
   2784935110.8446445       -26057796.388955116        160601408.44636941     
   3327342208.9407682        13514159.554401875        339562969.01311684     
   3146844109.8288927        9165289.1582688093        328337707.17309052     
   2965937101.0672760        3453386.5963269472        322211318.90279007     
   2784621182.6559453       -3621548.1313209534        321183804.20220631     
   2602896354.5948730       -12059515.024780869        325255163.07135677     
   3086301243.2246990        13739376.342433453        508581168.78837198     
   2917612927.4675021        9312438.1513055563        498151652.94974744     
   2749095724.7496848        5455876.7581129074        491725727.92075902     
   2580749635.0712523        2169692.1628510952        489303393.70142257     
   2412574658.4321976       -546115.63447809219        490884650.29172385     
   2849494854.8538008        15234966.334012866        675868328.60983717     
   2689486943.1367683        9791146.5535459518        666911251.90990531     
   2530230167.1482215        6851112.5347046852        660862483.25953567     
   2371724526.8881779        6414864.2775318623        657722022.65872943     
   2213970022.3566084        8482401.7819508314        657489870.10747325     
   5957946209.7703838        1787383862.9311152        1150088998.8616626     
   6088420617.3102312        1502254948.4308643        1227959272.3341756     
   6221618985.9253139        1226205904.1813977        1268468063.8349407     
   6357541315.6156311        959236730.18271482        1271615373.3639574     
   6496187606.3811827        701347426.43481612        1237401200.9212265     
   5434658957.8997145        1630397687.3699145        1033512561.3662843     
   5489911578.4731741        1372507948.3054442        1113909659.0167208     
   5547359389.3849716        1121935510.3687725        1167519362.0257337     
   5607002390.6351089        878680373.55989993        1194341670.3933234     
   5668840582.2235870        642742537.87882590        1194376584.1194899     
   4895286778.9476442        1468586033.6842933        936400616.36192703     
   4905529290.6413565        1246998973.4815960        1018707638.9972421     
   4917438221.9365110        1030966645.2837121        1084801354.3214586     
   4931013572.8331089        820489049.09064114        1134681762.3345761     
   4946255343.3311539        615566184.90238392        1168348863.0365942     
   4339829672.9141722        1301948901.8742516        858753163.84859133     
   4335273753.8147774        1125728023.9593196        942353212.27574027     
   4331855483.5799313        953299308.92621553        1020314040.7221148     
   4329574862.2096329        784662756.77493954        1092635649.1877151     
   4328431889.7038832        619818367.50549138        1159318037.6725411     
   3768287639.7992973        1130486291.9397893        800570203.82627690     
   3779144967.9934392        1008695099.7386153        884846378.85221493     
   3790611174.3152328        888933501.29628348        974057421.22770238     
   3802686258.7646799        771201496.61279488        1068203330.9527410     
   3815370221.3417797        655499085.68814838        1167284108.0273294     
   6496187606.3811827        701347426.43481612        1237401200.9212265     
   6239260500.4781494        375805050.17444849        1053256480.5118612     
   6013248299.3162136        153312356.38440585        908124841.51686132     
   5818151002.8953772        33869345.064691305        802006283.93622756     
   5653968611.2156372        17476016.215303898        734900807.76995981     
   5668840582.2235870        642742537.87882590        1194376584.1194899     
   5518874003.7040434        383217133.40223837        1073526765.4447573     
   5393055440.7166395        204185114.03278089        980706508.31593406     
   5291384893.2613735        105646479.77045250        915915812.73301840     
   5213862361.3382483        87601230.615254164        879154678.69601166     
   4946255343.3311539        615566184.90238392        1168348863.0365942     
   4871867806.8566504        412643306.60804200        1102899242.0193772     
   4814861396.7053270        267657516.05763316        1054495662.6796099     
   4775236112.8771830        180608813.25115657        1023138125.0172940     
   4752991955.3722210        151497198.18861222        1008826629.0324287     
   4328431889.7038832        619818367.50549138        1159318037.6725411     
   4298241909.9359722        464083569.79186082        1141373910.2357192     
   4278666167.2822804        343729562.45896566        1129492304.6078899     
   4269704661.7428088        258756345.50680590        1123673220.7890553     
   4271357393.3175569        209163918.93538022        1123916658.7792118     
   3815370221.3417797        655499085.68814838        1167284108.0273294     
   3797996312.9420056        537537922.95369232        1188950770.0937841     
   3784469752.4474936        432401253.23677623        1205696434.1007740     
   3774790539.8582435        340089076.53739762        1217521100.0483003     
   3768958675.1742554        260601392.85555613        1224424767.9363599     
   5653968611.2156372        17476016.215303898        734900807.76995981     
   5520264095.6972570        48927279.714674473        721820177.23918653     
   5381161969.6138344        62386507.997235060        710582784.65905786     
   5236662232.9653692        57853701.062989235        701188630.02957404     
   5086764885.7518587        35328858.911931276        693637713.35073268     
   5213862361.3382483        87601230.615254164        879154678.69601166     
   5077623422.4696846        85336118.647393942        855488233.39648092     
   4939255188.4674234        75973356.233873129        835809695.75398719     
   4798757659.3314638        59512943.374691248        820119065.76853144     
   4656130835.0618067        35954880.069851875        808416343.44011343     
   4752991955.3722210        151497198.18861222        1008826629.0324287     
   4620346220.8860273        117353999.07328653        978387403.63404334     
   4488839506.6974812        87007534.283448935        954080755.59908640     
   4358471812.8065834        60457803.819100380        935906684.92756236     
   4229243139.2133303        37704807.680241823        923865191.61947036     
   4271357393.3175569        209163918.93538022        1123916658.7792118     
   4148432490.9462895        144980920.99235606        1090517687.9518704     
   4029914924.3040118        95489042.145967245        1065395964.1943562     
   3915804693.3907280        60688282.396220446        1048551487.5066655     
   3806101798.2064304        40578641.743105173        1039984257.8887999     
   3768958675.1742554        260601392.85555613        1224424767.9363599     
   3661882232.6504650        168216884.40459836        1191879086.3499680     
   3562481441.2870111        101417879.82142782        1169755321.5397944     
   3470756301.0838933        60204379.106041431        1158053473.5058386     
   3386706812.0411105        44576382.258445263        1156773542.2481046     
   5086764885.7518587        35328858.911931276        693637713.35073268     
   4934940497.5594845        8623721.4463253021        676461437.49814022     
   4786138654.2040968       -8006266.5626506805        666289874.42689204     
   4640359355.6856918       -14561105.115021706        663123024.13699603     
   4497602602.0042753       -11040794.210759878        666960886.62844503     
   4656130835.0618067        35954880.069851875        808416343.44011343     
   4523197064.6044798        15430200.816385746        795152568.28327191     
   4392475315.3738260        2278925.6518344879        787989065.16923797     
   4263965587.3698444       -3498945.4238111973        786925834.09801352     
   4137667880.5925360       -1903412.4105489254        791962875.06960189     
   4229243139.2133303        37704807.680241823        923865191.61947036     
   4112615870.0952277        22585351.720170021        913568306.27967942     
   3997390098.5934844        12137554.481297970        908467252.24415731     
   3883565824.7080998        6361415.9636242390        908562029.51291084     
   3771143048.4390759        5256936.1671488285        913852638.08593416     
   3806101798.2064304        40578641.743105173        1039984257.8887999     
   3703196914.0317302        30089174.157681227        1031708651.4873616     
   3600883003.8630753        21569619.925744534        1027724435.6516573     
   3499160067.7004671        15019979.047294617        1028031610.3816859     
   3398028105.5439034        10440251.522329807        1032630175.6774464     
   3386706812.0411105        44576382.258445263        1156773542.2481046     
   3294940196.4139867        37941668.128918290        1149573603.9063203     
   3202954031.1825943        30575121.985166550        1145760615.3917310     
   3110748316.3469377        22476743.827199459        1145334576.7043366     
   3018323051.9070106        13646533.654997945        1148295487.8441372     
   4497602602.0042753       -11040794.210759878        666960886.62844503     
   4362036321.2396946       -2233828.5725705624        664026819.31766820     
   4225510910.7099056        3376037.8482663631        664351385.12080443     
   4088026370.4149194        5788805.0517778397        667934584.03786135     
   3949582700.3547335        5004473.0379550457        674776416.06883574     
   4137667880.5925360       -1903412.4105489254        791962875.06960189     
   4009756897.2903738        1878560.1654117107        786165035.46102846     
   3881394610.9066939        4156189.1363124847        784156866.87783659     
   3752581021.4414883        4929474.5021388531        785938369.32002306     
   3623316128.8947754        4198416.2629172802        791509542.78758991     
   3771143048.4390759        5256936.1671488285        913852638.08593416     
   3652404613.7749386        4469091.0335676670        905783490.64386714     
   3533722702.7129588        3869657.9071905613        902035052.13863838     
   3415097315.2531481        3458636.7880320549        902607322.57025146     
   3296528451.3954968        3236027.6760833263        907500301.93870640     
   3398028105.5439034        10440251.522329807        1032630175.6774464     
   3289979470.6933846        5537764.0318834782        1022882184.8661805     
   3182495186.1287141        2516444.1609228849        1017985940.9032127     
   3075575251.8498850        1376291.9094429016        1017941443.7885486     
   2969219667.8569093        2117307.2774565220        1022748693.5221800     
   3018323051.9070106        13646533.654997945        1148295487.8441372     
   2922481468.0457163        5084579.1603677273        1137461118.1279700     
   2827712061.1539507        96547.897497773170        1132009533.1715579     
   2734014831.2317104       -1317560.1336143017        1131940732.9749110     
   2641389778.2790027        842255.06703758240        1137254717.5380216     
   3949582700.3547335        5004473.0379550457        674776416.06883574     
   3799437558.5435896       -68304.040110349655        667801242.95500731     
   3649738577.1313081       -3653879.7886295319        665422472.82773328     
   3500485756.1178899       -5752254.2076179981        667640105.68701792     
   3351679095.5033312       -6363427.2970635891        674454141.53285635     
   3623316128.8947754        4198416.2629172802        791509542.78758991     
   3485499316.3522115        663799.42129325867        784751753.24238586     
   3347976895.2843776       -1889512.5045707226        782525930.86267090     
   3210748865.6912632       -3461519.5146981478        784832075.64843488     
   3073815227.5728765       -4052221.6090724468        791670187.59967923     
   3296528451.3954968        3236027.6760833263        907500301.93870640     
   3170855865.7755976        1184340.3671303988        900782832.21730542     
   3045325902.7062821       -391938.43986809254        898532893.84031475     
   2919938562.1875591       -1492808.7449047565        900750486.80773282     
   2794693844.2194176       -2118270.5479891300        907435611.11956131     
   2969219667.8569093        2117307.2774565220        1022748693.5221800     
   2855507206.8137431        1493318.7973901033        1015894479.8797537     
   2741785599.3970265        838842.40548467636        1013443361.7606685     
   2628054845.6067624        153878.10175919533        1015395339.1649132     
   2514314945.4429474       -561574.11380922794        1021750412.0925008     
   2641389778.2790027        842255.06703758240        1137254717.5380216     
   2539453339.4666500        1590734.7120831013        1130086696.2297430     
   2437355985.3566108        1802830.0314979553        1127257334.6237330     
   2335097715.9488902        1478541.0253086090        1128766632.7199795     
   2232678531.2434769        617867.69347715378        1134614590.5184944     
   3351679095.5033312       -6363427.2970635891        674454141.53285635     
   3226539539.9340897        391186.42117846012        668655275.69011569     
   3101128981.3027582        6242456.5991142988        666958018.25537074     
   2975447419.6093283        11190383.236717939        669362369.22861278     
   2849494854.8538008        15234966.334012866        675868328.60983717     
   3073815227.5728765       -4052221.6090724468        791670187.59967923     
   2958989994.6252084        2290433.2167971134        785130056.26275349     
   2844068723.1933928        8312959.7621834278        782517478.27882266     
   2729051413.2774153        14015358.027030349        783832453.64789355     
   2613938064.8772960        19397628.011401296        789074982.36995661     
   2794693844.2194176       -2118270.5479891300        907435611.11956131     
   2689685633.7362061        3663235.3383860588        900358339.62938046     
   2584756349.3467884        9707828.2040669918        897034566.43720436     
   2479905991.0511670        16015508.049068809        897464291.54303443     
   2375134558.8493290        22586274.873366356        901647514.94687569     
   2514314945.4429474       -561574.11380922794        1021750412.0925008     
   2418626457.2670832        4509592.7859356403        1014340125.7899966     
   2323191859.7629457        10427061.924789310        1010509282.7305113     
   2228011152.9305530        17190833.302777529        1010257882.9140403     
   2133084336.7698917        24800906.919889331        1013585926.3405862     
   2232678531.2434769        617867.69347715378        1134614590.5184944     
   2145812465.2178354        4829505.5594460964        1127075414.7446036     
   2059375254.4418690        10470660.924337268        1122941627.1587389     
   1973366898.9155955        17541333.788197279        1122213227.7609026     
   1887787398.6389937        26041524.150964141        1124890216.5510943     
   2849494854.8538008        15234966.334012866        675868328.60983717     
   2689486943.1367683        9791146.5535459518        666911251.90990531     
   2530230167.1482215        6851112.5347046852        660862483.25953567     
   2371724526.8881779        6414864.2775318623        657722022.65872943     
   2213970022.3566084        8482401.7819508314        657489870.10747325     
   2613938064.8772960        19397628.011401296        789074982.36995661     
   2462550046.1694431        14551024.768470645        780065222.69557703     
   2311688963.4391556        11460874.784097075        774640022.70080447     
   2161354816.6864433        10127178.058307290        772799382.38563716     
   2011547605.9113009        10549934.591074109        774543301.75008154     
   2375134558.8493290        22586274.873366356        901647514.94687569     
   2234298580.6650777        18916532.422283292        892323505.92196739     
   2093765338.7074778        16255910.726708889        887260308.20671844     
   1953534832.9765339        14604409.786636829        886457921.80112159     
   1813607063.4722300        13962029.602061629        889916346.70518887     
   2133084336.7698917        24800906.919889331        1013585926.3405862     
   2004732546.6236761        22887669.514991641        1003686101.5890759     
   1876459292.9531877        21236220.362528801        998723339.77727711     
   1748264575.7584305        19846559.462514758        998697640.90518570     
   1620148395.0394101        18718686.814924419        1003609004.9728066     
   1887787398.6389937        26041524.150964141        1124890216.5510943     
   1773851944.0452342        26464436.046578050        1114153009.6969140     
   1659770826.1762867        26401803.691568077        1109029117.4124925     
   1545544045.0321536        25853627.085933149        1109518539.6978312     
   1431171600.6128275        24819906.229665041        1115621276.5529242     
   3768287639.7992973        1130486291.9397893        800570203.82627690     
   3779144967.9934392        1008695099.7386153        884846378.85221493     
   3790611174.3152328        888933501.29628348        974057421.22770238     
   3802686258.7646799        771201496.61279488        1068203330.9527410     
   3815370221.3417797        655499085.68814838        1167284108.0273294     
   3207834191.7555022        962350257.52665067        756699170.51811206     
   3235897121.6493402        868194157.03334045        853055703.48002172     
   3263684801.8209620        773120557.46597719        951335118.46725607     
   3291197232.2703686        677129458.82456112        1051537415.4798150     
   3318434412.9975581        580220861.10909271        1153662594.5176988     
   2685642840.9352684        805692852.28058052        721987498.14722478     
   2722305700.1738725        736590141.78865492        829392906.55359304     
   2757809181.8403926        663622839.38978112        935709211.66106021     
   2792153285.9348273        586790945.08395910        1040936413.4696268     
   2825338012.4571781        506094458.87118900        1145074511.9792917     
   2201713587.3385954        660514076.20157874        696435186.71361566     
   2238370703.5670362        613883054.00455892        813857988.07292891     
   2272984314.3735228        560440347.06769502        927179700.80911553     
   2305554419.7580571        500185955.39098823        1036400324.9221755     
   2336081019.7206378        433119878.97443724        1141519860.4121094     
   1756046430.9654844        526813929.28964531        680042236.21728408     
   1784092131.8288300        500072893.68105185        806450948.03802884     
   1809210199.4203544        463573080.49971962        925746585.91142166     
   1831400633.7400570        417314489.74564815        1037929149.8374625     
   1850663434.7879381        361297121.41883826        1142998639.8161514     
   3815370221.3417797        655499085.68814838        1167284108.0273294     
   3797996312.9420056        537537922.95369232        1188950770.0937841     
   3784469752.4474936        432401253.23677623        1205696434.1007740     
   3774790539.8582435        340089076.53739762        1217521100.0483003     
   3768958675.1742554        260601392.85555613        1224424767.9363599     
   3318434412.9975581        580220861.10909271        1153662594.5176988     
   3293835129.6857810        473002916.92344952        1181996300.7082477     
   3272967091.3104067        378222455.85914707        1207213819.9762251     
   3255830297.8714347        295879477.91618538        1229315152.3216314     
   3242424749.3688636        225973983.09456432        1248300297.7444646     
   2825338012.4571781        506094458.87118900        1145074511.9792917     
   2798669957.4816628        411166714.20883721        1179939808.8302665     
   2775617044.4736900        328289442.77162898        1213493729.8955615     
   2756179273.4332604        257462644.55956376        1245736275.1751783     
   2740356644.3603735        198686319.57264125        1276667444.6691155     
   2336081019.7206378        433119878.97443724        1141519860.4121094     
   2312500796.3296494        352029314.80985725        1182781294.4598396     
   2292419611.9373446        282602213.97422194        1224536163.8587842     
   2275837466.5437241        224838576.46753311        1266784468.6089427     
   2262754360.1487870        178738402.28978956        1309526208.7103155     
   1850663434.7879381        361297121.41883826        1142998639.8161514     
   1835327646.2297425        295590718.72650915        1190520757.5969687     
   1823374793.7013707        241160769.46692640        1240341121.8658926     
   1814804877.2028244        198007273.64009470        1292459732.6229248     
   1809617896.7341018        166130231.24600935        1346876589.8680625     
   3768958675.1742554        260601392.85555613        1224424767.9363599     
   3661882232.6504650        168216884.40459836        1191879086.3499680     
   3562481441.2870111        101417879.82142782        1169755321.5397944     
   3470756301.0838933        60204379.106041431        1158053473.5058386     
   3386706812.0411105        44576382.258445263        1156773542.2481046     
   3242424749.3688636        225973983.09456432        1248300297.7444646     
   3164747219.8559971        151655020.63107002        1231137938.7052059     
   3093141605.8426981        97575776.499464035        1221999239.2087150     
   3027607907.3289618        63736250.699737310        1220884199.2549932     
   2968146124.3147917        50136443.231898308        1227792818.8440399     
   2740356644.3603735        198686319.57264125        1276667444.6691155     
   2685225864.3342891        140377254.03937101        1273017383.2394240     
   2634563264.1469994        96962121.302082658        1274992724.1190505     
   2588368843.7985048        68440921.360776901        1282593467.3079953     
   2546642603.2888031        54813654.215450168        1295819612.8062611     
   2262754360.1487870        178738402.28978956        1309526208.7103155     
   2223318166.0853400        134383584.62949967        1317517419.9526250     
   2186746416.1999173        99576914.229288578        1328735776.2708027     
   2153039110.4925179        74318391.089154363        1343181277.6648490     
   2122196248.9631419        58608015.209102273        1360853924.1347649     
   1809617896.7341018        166130231.24600935        1346876589.8680625     
   1779024125.1091495        133674012.40145415        1364638048.8448076     
   1749691062.0014510        105420155.28107733        1383228395.6639700     
   1721618707.4110050        81368659.884877622        1402647630.3255517     
   1694807061.3378115        61519526.212849319        1422895752.8295522     
   3386706812.0411105        44576382.258445263        1156773542.2481046     
   3294940196.4139867        37941668.128918290        1149573603.9063203     
   3202954031.1825943        30575121.985166550        1145760615.3917310     
   3110748316.3469377        22476743.827199459        1145334576.7043366     
   3018323051.9070106        13646533.654997945        1148295487.8441372     
   2968146124.3147917        50136443.231898308        1227792818.8440399     
   2884540745.9449749        38943299.714872122        1219882267.1830921     
   2801225919.6959252        28718663.267064691        1215914585.7515333     
   2718201645.5676455        19462533.888495445        1215889774.5493615     
   2635467923.5601320        11174911.579143047        1219807833.5765769     
   2546642603.2888031        54813654.215450168        1295819612.8062611     
   2472786806.1825590        39538584.512801766        1287793566.5053573     
   2399731662.9221168        26932360.962825894        1284266310.8360350     
   2327477173.5074782        16994983.565531254        1285237845.7982938     
   2256023337.9386420        9726452.3209079504        1290708171.3921311     
   2122196248.9631419        58608015.209102273        1360853924.1347649     
   2059678377.1267347        39727522.522710443        1353307501.8731129     
   1998471260.8611643        25216215.072443128        1350815790.6452343     
   1938574900.1664317        15074092.858301282        1353378790.4511294     
   1879989295.0425382        9301155.8802896738        1360996501.2907965     
   1694807061.3378115        61519526.212849319        1422895752.8295522     
   1645215458.7775059        39510113.744597793        1416424073.2863591     
   1597444713.5130701        23570225.595916510        1415563025.1791325     
   1551494825.5445094        13699861.766814888        1420312608.5078728     
   1507365794.8718188        9899022.2572835088        1430672823.2725756     
   3018323051.9070106        13646533.654997945        1148295487.8441372     
   2922481468.0457163        5084579.1603677273        1137461118.1279700     
   2827712061.1539507        96547.897497773170        1132009533.1715579     
   2734014831.2317104       -1317560.1336143017        1131940732.9749110     
   2641389778.2790027        842255.06703758240        1137254717.5380216     
   2635467923.5601320        11174911.579143047        1219807833.5765769     
   2553793133.7070150        4886236.2675563097        1211073423.6540196     
   2472936319.6571631        1324146.9668519497        1207329159.9357526     
   2392897481.4105711        488643.67701351643        1208575042.4217713     
   2313676618.9672403        2379726.3980463743        1214811071.1120856     
   2256023337.9386420        9726452.3209079504        1290708171.3921311     
   2187393517.6495008        5374508.8591034412        1283777153.2358744     
   2119327471.9973583        2901814.1872942448        1281443642.7284360     
   2051825200.9822118        2308368.3054718971        1283707639.8698165     
   1984886704.6040623        3594171.2136387825        1290569144.6600158     
   1879989295.0425382        9301155.8802896738        1360996501.2907965     
   1823282619.8731718        6549396.9350073338        1355572306.8735306     
   1766885518.1745400        4829549.5588390827        1354352981.5496140     
   1710797989.9466364        4141613.7517653704        1357338525.3190448     
   1655020035.1894670        4485589.5138051510        1364528938.1818252     
   1507365794.8718188        9899022.2572835088        1430672823.2725756     
   1461460440.3780265        8410900.4952632189        1426458884.5669925     
   1415610458.1887021        7107353.0814700723        1426057176.3992848     
   1369815848.3038449        5988380.0158979893        1429467698.7694588     
   1324076610.7234511        5053981.2985421419        1436690451.6775086     
   2641389778.2790027        842255.06703758240        1137254717.5380216     
   2539453339.4666500        1590734.7120831013        1130086696.2297430     
   2437355985.3566108        1802830.0314979553        1127257334.6237330     
   2335097715.9488902        1478541.0253086090        1128766632.7199795     
   2232678531.2434769        617867.69347715378        1134614590.5184944     
   2313676618.9672403        2379726.3980463743        1214811071.1120856     
   2222978971.3190894        2032165.5214093924        1207268811.9033041     
   2132257452.4591808        1605033.9389152527        1204286049.3928058     
   2041512062.3875067        1098331.6505345106        1205862783.5805843     
   1950742801.1040745        512058.65629589558        1211999014.4666409     
   1984886704.6040623        3594171.2136387825        1290569144.6600158     
   1906058810.9658689        2339858.6690487862        1282812532.3176520     
   1827344090.2018414        1462789.0383497477        1279836253.6695800     
   1748742542.3119779        962962.32153010368        1281640308.7158027     
   1670254167.2962830        840378.51860117912        1288224697.4563153     
   1655020035.1894670        4485589.5138051510        1364528938.1818252     
   1588692858.4069855        2513814.1549921036        1356717857.4727900     
   1522615898.5845964        1376095.3298175335        1353907947.4540579     
   1456789155.7222977        1072433.0382738113        1356099208.1256351     
   1391212629.8200948        1602827.2803874612        1363291639.4875190     
   1324076610.7234511        5053981.2985421419        1436690451.6775086     
   1270881113.6424336        2554031.9792149067        1428984787.3687105     
   1218072877.6074460        1344952.8133136630        1426501130.7462378     
   1165651902.6184683        1426743.8007826805        1429239481.8100843     
   1113618188.6755097        2799404.9416512847        1437199840.5602536     
   2232678531.2434769        617867.69347715378        1134614590.5184944     
   2145812465.2178354        4829505.5594460964        1127075414.7446036     
   2059375254.4418690        10470660.924337268        1122941627.1587389     
   1973366898.9155955        17541333.788197279        1122213227.7609026     
   1887787398.6389937        26041524.150964141        1124890216.5510943     
   1950742801.1040745        512058.65629589558        1211999014.4666409     
   1873022490.5779765        4266037.6595604420        1205559109.2445707     
   1795606644.7385566        9034898.9517524242        1202854625.9562829     
   1718495263.5858231        14818642.532904863        1203885564.6017787     
   1641688347.1197729        21617268.402995467        1208651925.1810577     
   1670254167.2962830        840378.51860117912        1288224697.4563153     
   1602622565.8290269        4419584.7269417644        1282738940.4625673     
   1535171038.4854550        8599038.0142314434        1281318639.1483576     
   1467899585.2655699        13378738.380478263        1283963793.5136888     
   1400808206.1693704        18758685.825670600        1290674403.5585594     
   1391212629.8200948        1602827.2803874612        1363291639.4875190     
   1334612690.9709837        5290146.7615945935        1358614908.3985970     
   1278068435.6825640        9163078.1117716432        1358333666.7349665     
   1221579863.9548292        13221621.330900371        1362447914.4966319     
   1165146975.7877829        17465776.418987751        1370957651.6835940     
   1113618188.6755097        2799404.9416512847        1437199840.5602536     
   1068992866.0038520        6877723.7635275126        1433187013.0526557     
   1024298836.3298866        10727019.244376838        1433899708.7161102     
   979536099.65360689        14347291.384182334        1439337927.5506194     
   934704655.97501731        17738540.182954788        1449501669.5561750     
   1887787398.6389937        26041524.150964141        1124890216.5510943     
   1773851944.0452342        26464436.046578050        1114153009.6969140     
   1659770826.1762867        26401803.691568077        1109029117.4124925     
   1545544045.0321536        25853627.085933149        1109518539.6978312     
   1431171600.6128275        24819906.229665041        1115621276.5529242     
   1641688347.1197729        21617268.402995467        1208651925.1810577     
   1542089841.9253106        22070368.508130133        1199565387.7310090     
   1442511235.2443128        22589796.991482854        1195886991.8161628     
   1342952527.0767863        23175553.853068233        1197616737.4365127     
   1243413717.4227219        23827639.092872679        1204754624.5920491     
   1400808206.1693704        18758685.825670600        1290674403.5585594     
   1314960441.7040238        19066111.539268255        1283431690.9327445     
   1229298137.5407972        19991738.259938896        1281391946.8075674     
   1143821293.6796987        21535565.987690747        1284555171.1830246     
   1058529910.1207154        23697594.722516775        1292921364.0591109     
   1165146975.7877829        17465776.418987751        1370957651.6835940     
   1092463743.3813739        17451665.139986694        1365751919.3021131     
   1020131533.0657475        18607627.496929586        1365543982.3867044     
   948150344.84090018        20933663.489798129        1370333840.9373722     
   876520178.70682406        24429773.118588746        1380121494.9541006     
   934704655.97501731        17738540.182954788        1449501669.5561750     
   874599746.95736992        17227029.310315490        1446526072.8391242     
   815011421.81915736        18437464.702458829        1448343098.5535829     
   755939680.56038034        21369846.359394461        1454952746.6995437     
   697384523.18103456        26024174.281097919        1466355017.2770238     
   1756046430.9654844        526813929.28964531        680042236.21728408     
   1784092131.8288300        500072893.68105185        806450948.03802884     
   1809210199.4203544        463573080.49971962        925746585.91142166     
   1831400633.7400570        417314489.74564815        1037929149.8374625     
   1850663434.7879381        361297121.41883826        1142998639.8161514     
   1326391448.2111032        397917434.46333092        669705624.94247615     
   1339615018.3275805        375518446.09538049        791853747.61522579     
   1350642863.4907210        345800374.54964119        908711294.29758763     
   1359474983.7005253        308763219.82611340        1020278264.9895622     
   1366111378.9569924        264406981.92479631        1126554659.6911488     
   890498715.47062123        267149614.64118639        662322331.17343807     
   894107291.86012852        250654814.61984843        781063757.73642480     
   896252051.61478436        229280625.81567204        896337106.26598835     
   896932994.73458850        203027048.22865695        1008142376.7621294     
   896150121.21954155        171894081.85880363        1116479569.2248471     
   448368232.74403858        134510469.82321158        657892354.91016960     
   447568952.42647463        125481999.25445580        774080978.40162611     
   446037763.79254425        114013834.29781182        888624021.81662416     
   443774666.84224731        100105974.95327942        1001521485.1551640     
   440779661.57558382        83758421.220858425        1112773368.4172451     
   3.1355184016966811E-002   9.4065552050900426E-003   656415696.15267086     
   2.6618588285945828E-002  -7.9750194543442426E-004   770905409.61082983     
   2.4000601757832422E-002  -3.9396585238610175E-003   885572040.94949496     
   2.3501125782143195E-002  -2.0048208743311639E-005   1000415590.1686659     
   2.5120410559379500E-002   1.0961924477111888E-002   1115436057.2683432     
   1850663434.7879381        361297121.41883826        1142998639.8161514     
   1835327646.2297425        295590718.72650915        1190520757.5969687     
   1823374793.7013707        241160769.46692640        1240341121.8658926     
   1814804877.2028244        198007273.64009470        1292459732.6229248     
   1809617896.7341018        166130231.24600935        1346876589.8680625     
   1366111378.9569924        264406981.92479631        1126554659.6911488     
   1360436027.0432858        216875126.75924644        1181957213.5593014     
   1357297877.1511488        177800611.66559458        1238298499.6981580     
   1356696929.2805805        147183436.64383972        1295578518.1077197     
   1358633183.4315810        125023601.69398016        1353797268.7879865     
   896150121.21954155        171894081.85880363        1116479569.2248471     
   896250879.61488891        141371476.31940287        1178775869.5040357     
   898043106.02355015        116487097.49104807        1240651387.8365278     
   901526800.44552588        97240945.373740286        1302106124.2223213     
   906701962.88081467        83633019.967477322        1363140078.6614180     
   440779661.57558382        83758421.220858425        1112773368.4172451     
   442772203.94455069        69079767.406976730        1180976725.4311726     
   445610480.31857586        57220226.943289459        1247399786.2810013     
   449294490.69765985        48179799.829797998        1312042550.9667294     
   453824235.08180231        41958486.066501573        1374905019.4883580     
   2.5120410559379500E-002   1.0961924477111888E-002   1115436057.2683432     
   3.2271398236844065E-002   2.1967841350945594E-002   1188559781.3407121     
   3.6225758542163984E-002   2.2318203546703105E-002   1258543695.0315790     
   3.6983385676270124E-002   1.2012940293385474E-002   1325387798.3409443     
   3.4543842145714404E-002  -8.9497319811525904E-003   1389092091.2688076     
   1809617896.7341018        166130231.24600935        1346876589.8680625     
   1779024125.1091495        133674012.40145415        1364638048.8448076     
   1749691062.0014510        105420155.28107733        1383228395.6639700     
   1721618707.4110050        81368659.884877622        1402647630.3255517     
   1694807061.3378115        61519526.212849319        1422895752.8295522     
   1358633183.4315810        125023601.69398016        1353797268.7879865     
   1333166603.5273879        99925062.204875112        1372808569.4789724     
   1308645555.0152366        77978294.022576332        1393237049.9537890     
   1285070037.8951287        59183297.147088885        1415082710.2124372     
   1262440052.1670625        43540071.578408003        1438345550.2549131     
   906701962.88081467        83633019.967477322        1363140078.6614180     
   888043408.81569815        66396410.069315284        1383033514.4205670     
   870015209.01741409        51260981.060593992        1404932421.9049594     
   852617363.48596239        38226732.941313326        1428836801.1145930     
   835849872.22134268        27293665.711474299        1454746652.0494685     
   453824235.08180231        41958486.066501573        1374905019.4883580     
   443654540.97408164        33088055.994777277        1395312883.6695929     
   433800024.00798392        25268216.395129278        1418314511.5174811     
   424260684.18350798        18498967.267554164        1443909903.0320227     
   415036521.50065345        12780308.612050340        1472099058.2132177     
   3.4543842145714404E-002  -8.9497319811525904E-003   1389092091.2688076     
   2.5389145913861785E-003  -1.8736895048319616E-002   1409646677.2260487     
  -1.3054346980690343E-002   2.6181495158685692E-002   1433383318.7913544     
  -1.2236211357339467E-002  0.12580436921143473        1460302015.9647255     
   4.9939905690652570E-003  0.28013447788572510        1490402768.7461615     
   1694807061.3378115        61519526.212849319        1422895752.8295522     
   1645215458.7775059        39510113.744597793        1416424073.2863591     
   1597444713.5130701        23570225.595916510        1415563025.1791325     
   1551494825.5445094        13699861.766814888        1420312608.5078728     
   1507365794.8718188        9899022.2572835088        1430672823.2725756     
   1262440052.1670625        43540071.578408003        1438345550.2549131     
   1228411553.8466873        27982573.344968557        1435385279.0057583     
   1195748698.4944463        16977218.338644266        1437297091.6817827     
   1164451486.1103396        10524006.559434950        1444080988.2829828     
   1134519916.6943684        8622938.0073441863        1455736968.8093641     
   835849872.22134268        27293665.711474299        1454746652.0494685     
   815274342.39579296        17555040.989318997        1454766705.7119911     
   795609241.21064019        10851178.401818991        1458920295.7889051     
   776854568.66588402        7182077.9489749372        1467207422.2802088     
   759010324.76152420        6547739.6307859719        1479628085.1859052     
   415036521.50065345        12780308.612050340        1472099058.2132177     
   405803824.42482358        8227516.6776457131        1474568353.4050560     
   397026341.66165370        5192105.7854405046        1480432637.5004983     
   388704073.21114063        3674075.9354257882        1489691910.4995451     
   380837019.07328802        3673427.1276113689        1502346172.4021962     
   4.9939905690652570E-003  0.28013447788572510        1490402768.7461615     
  -6.6221776231110530E-002  0.40994964977614845        1494790222.0849555     
 -0.15251634662165320       0.48950214303201545        1501834116.8165660     
 -0.25388933743836645       0.51879358181200907        1511534452.9409938     
 -0.37034203542668576       0.49781863613059241        1523891230.4582384     
   1507365794.8718188        9899022.2572835088        1430672823.2725756     
   1461460440.3780265        8410900.4952632189        1426458884.5669925     
   1415610458.1887021        7107353.0814700723        1426057176.3992848     
   1369815848.3038449        5988380.0158979893        1429467698.7694588     
   1324076610.7234511        5053981.2985421419        1436690451.6775086     
   1134519916.6943684        8622938.0073441863        1455736968.8093641     
   1098893430.9640765        7147605.7206704617        1450786960.9979413     
   1063308474.4588642        5810704.1842641234        1449928593.3570240     
   1027765047.1787364        4612233.3981386423        1453161865.8866105     
   992263149.12369037        3552193.3622835279        1460486778.5866961     
   759010324.76152420        6547739.6307859719        1479628085.1859052     
   734461021.03080142        5324690.7902676463        1473925858.0093644     
   709939403.44577801        4193929.1020784080        1472594680.6359525     
   685445472.00645459        3155454.5662238002        1475634553.0656700     
   660979226.71282995        2209267.1826966107        1483045475.2985179     
   380837019.07328802        3673427.1276113689        1502346172.4021962     
   368163210.57820791        2942155.7040698081        1495875575.6012549     
   355503245.14944518        2257027.8349196911        1494055438.2360702     
   342857122.78699994        1618043.5201605111        1496885760.3066418     
   330224843.49086863        1025202.7597819418        1504366541.8129659     
 -0.37034203542668576       0.49781863613059241        1523891230.4582384     
 -0.39370269864737506       0.46208757973855197        1516636113.7736182     
 -0.43013326417135245       0.38279018233555118        1514310866.1573799     
 -0.47962791019038109       0.25994515605965618        1516915487.6095226     
 -0.54219284739576279        9.3533880274698444E-002   1524449978.1300414     
   1324076610.7234511        5053981.2985421419        1436690451.6775086     
   1270881113.6424336        2554031.9792149067        1428984787.3687105     
   1218072877.6074460        1344952.8133136630        1426501130.7462378     
   1165651902.6184683        1426743.8007826805        1429239481.8100843     
   1113618188.6755097        2799404.9416512847        1437199840.5602536     
   992263149.12369037        3552193.3622835279        1460486778.5866961     
   952750461.94035757        1792412.0315565467        1453316989.4896691     
   913528220.54971278        1000783.3431214690        1451279623.0917823     
   874596424.95174861        1177307.2969562411        1454374679.3930366     
   835955075.14646971        2321983.8930721283        1462602158.3934371     
   660979226.71282995        2209267.1826966107        1483045475.2985179     
   634893392.32094896        1112866.7086884081        1476298610.2843690     
   609001188.46841860        661901.36584773660        1474594582.9821804     
   583302615.15524042        856371.15417990088        1477933393.3919556     
   557797672.38141489        1696276.0736885071        1486315041.5136948     
   330224843.49086863        1025202.7597819418        1504366541.8129659     
   317309904.78420967        515396.01061613858        1497929649.7528057     
   304491781.36357075        328306.88151615858        1496446010.4174294     
   291770473.22894853        463935.37247180939        1499915623.8068376     
   279145980.38034892        922281.48350322247        1508338489.9210279     
 -0.54219284739576279        9.3533880274698444E-002   1524449978.1300414     
 -0.66985149112501208       -6.2636091368529268E-002   1518210107.8949862     
 -0.76483457845443692      -0.10988684778961794        1516833905.3975327     
 -0.82712399200830555       -4.8159038570214752E-002   1520321370.6376829     
 -0.85673089501812949       0.12251047246267088        1528672503.6154327     
   1113618188.6755097        2799404.9416512847        1437199840.5602536     
   1068992866.0038520        6877723.7635275126        1433187013.0526557     
   1024298836.3298866        10727019.244376838        1433899708.7161102     
   979536099.65360689        14347291.384182334        1439337927.5506194     
   934704655.97501731        17738540.182954788        1449501669.5561750     
   835955075.14646971        2321983.8930721283        1462602158.3934371     
   803165332.27659774        5584497.8857602179        1458266945.5183673     
   770324059.20697391        8675244.5459407568        1458498764.2803564     
   737431255.93759215        11594223.873595357        1463297614.6794052     
   704486922.46845901        14341435.868742555        1472663496.7155089     
   557797672.38141489        1696276.0736885071        1486315041.5136948     
   536390676.35906196        4007135.3509016931        1481677482.8741364     
   514949326.93951339        6203483.3041298985        1481448464.3376431     
   493473624.12276566        8285319.9333580434        1485627985.9042144     
   471963567.90882355        10252645.238608867        1494216047.5738511     
   279145980.38034892        922281.48350322247        1508338489.9210279     
   268668898.25125009        2145636.1589670181        1503418625.1199615     
   258174639.52751079        3311735.5189632773        1502748808.8879688     
   247663204.20912996        4420579.5634879917        1506329041.2250488     
   237134592.29611009        5472168.2925475985        1514159322.1311996     
 -0.85673089501812949       0.12251047246267088        1528672503.6154327     
  -2.0468434639516668       0.30994117528903276        1523490372.2558446     
  -3.0290389244466303        1.1904275184651933        1522399797.9313359     
  -3.8033222862319147        2.7639559253970907        1525400780.6419070     
  -4.3696792521360166        5.0305702369314291        1532493320.3875537     
   934704655.97501731        17738540.182954788        1449501669.5561750     
   874599746.95736992        17227029.310315490        1446526072.8391242     
   815011421.81915736        18437464.702458829        1448343098.5535829     
   755939680.56038034        21369846.359394461        1454952746.6995437     
   697384523.18103456        26024174.281097919        1466355017.2770238     
   704486922.46845901        14341435.868742555        1472663496.7155089     
   657325510.65160930        13332982.936769575        1469651263.3070531     
   610551535.78871167        13615986.517972827        1471917622.7121651     
   564164997.87976527        15190446.612342656        1479462574.9308369     
   518165896.92476517        18056363.219880790        1492286119.9630837     
   471963567.90882355        10252645.238608867        1494216047.5738511     
   439134140.09865230        9163796.2890697420        1491016506.0609221     
   406563002.31694919        8935914.1010913104        1493581527.7436161     
   374250154.56371313        9568998.6746712923        1501911112.6219387     
   342195596.83894145        11063050.009797335        1516005260.6958814     
   237134592.29611009        5472168.2925475985        1514159322.1311996     
   220025635.29849368        4719469.3672002703        1510621801.1007338     
   203045821.40386710        4397247.4518174753        1513334813.6479523     
   186195150.61221981        4505502.5463617966        1522298359.7728515     
   169473622.92354900        5044234.6508399099        1537512439.4754312     
  -4.3696792521360166        5.0305702369314291        1532493320.3875537     
  -3.7488578633334826        2.1711862390389829        1528467148.4264843     
  -6.9505356140916135       -13.429860863499622        1531177480.4251571     
  -13.974713510931283       -41.772575119643356        1540624316.3835702     
  -24.821397501475840       -82.856977048692755        1556807656.3017268     
   3.1355184016966811E-002   9.4065552050900426E-003   656415696.15267086     
   2.6618588285945828E-002  -7.9750194543442426E-004   770905409.61082983     
   2.4000601757832422E-002  -3.9396585238610175E-003   885572040.94949496     
   2.3501125782143195E-002  -2.0048208743311639E-005   1000415590.1686659     
   2.5120410559379500E-002   1.0961924477111888E-002   1115436057.2683432     
  -448368232.68324178       -134510469.80497253        657892354.90201759     
  -447568952.37317753       -125481999.25254668        774080978.39655566     
  -446037763.74389946       -114013834.30274165        888624021.81521225     
  -443774666.79540759       -100105974.95555732        1001521485.1579875     
  -440779661.52770180       -83758421.210992962        1112773368.4248807     
  -890498715.41556537       -267149614.62466961        662322331.15928543     
  -894107291.80895030       -250654814.61508906        781063757.72681391     
  -896252051.56602657       -229280625.81781179        896337106.26207292     
  -896932994.68679357       -203027048.23283768        1008142376.7650635     
  -896150121.17125165       -171894081.86016682        1116479569.2357841     
  -1326391448.1656153       -397917434.44968456        669705624.92447460     
  -1339615018.2807000       -375518446.08842432        791853747.60160422     
  -1350642863.4423809       -345800374.54915005        908711294.29007721     
  -1359474983.6506569       -308763219.83186138        1020278264.9898934     
  -1366111378.9055288       -264406981.93655863        1126554659.7010531     
  -1756046430.9333920       -526813929.28001755        680042236.19758475     
  -1784092131.7884264       -500072893.67255282        806450948.02092695     
  -1809210199.3729618       -463573080.49675643        925746585.89922488     
  -1831400633.6869974       -417314489.75262827        1037929149.8324785     
  -1850663434.7305334       -361297121.44016826        1142998639.8206878     
   2.5120410559379500E-002   1.0961924477111888E-002   1115436057.2683432     
   3.2271398236844065E-002   2.1967841350945594E-002   1188559781.3407121     
   3.6225758542163984E-002   2.2318203546703105E-002   1258543695.0315790     
   3.6983385676270124E-002   1.2012940293385474E-002   1325387798.3409443     
   3.4543842145714404E-002  -8.9497319811525904E-003   1389092091.2688076     
  -440779661.52770180       -83758421.210992962        1112773368.4248807     
  -442772203.88537341       -69079767.382864684        1180976725.4337521     
  -445610480.25159216       -57220226.916559204        1247399786.2780025     
  -449294490.62635773       -48179799.812076852        1312042550.9576330     
  -453824235.00966990       -41958486.069416359        1374905019.4726412     
  -896150121.17125165       -171894081.86016682        1116479569.2357841     
  -896250879.55979943       -141371476.31473094        1178775869.5082490     
  -898043105.96224511       -116487097.48228666        1240651387.8329747     
  -901526800.37858713       -97240945.362831682        1302106124.2099605     
  -906701962.80882668       -83633019.956367582        1363140078.6392066     
  -1366111378.9055288       -264406981.93655863        1126554659.7010531     
  -1360436026.9910066       -216875126.77363229        1181957213.5642033     
  -1357297877.0957325       -177800611.67486429        1238298499.6964948     
  -1356696929.2197056       -147183436.64025432        1295578518.0979285     
  -1358633183.3629255       -125023601.66980010        1353797268.7685025     
  -1850663434.7305334       -361297121.44016826        1142998639.8206878     
  -1835327646.1789954       -295590718.75956732        1190520757.6016145     
  -1823374793.6520548       -241160769.49429309        1240341121.8685639     
  -1814804877.1497121       -198007273.64434248        1292459732.6215365     
  -1809617896.6719666       -166130231.20971704        1346876589.8605309     
   3.4543842145714404E-002  -8.9497319811525904E-003   1389092091.2688076     
   2.5389145913861785E-003  -1.8736895048319616E-002   1409646677.2260487     
  -1.3054346980690343E-002   2.6181495158685692E-002   1433383318.7913544     
  -1.2236211357339467E-002  0.12580436921143473        1460302015.9647255     
   4.9939905690652570E-003  0.28013447788572510        1490402768.7461615     
  -453824235.00966990       -41958486.069416359        1374905019.4726412     
  -443654540.95875794       -33088056.008604020        1395312883.6861038     
  -433800024.02816343       -25268216.348848373        1418314511.5697606     
  -424260684.21788889       -18498967.090160698        1443909903.1236119     
  -415036521.52793217       -12780308.232530951        1472099058.3476565     
  -906701962.80882668       -83633019.956367582        1363140078.6392066     
  -888043408.78320086       -66396410.057412416        1383033514.4493732     
  -870015209.01462317       -51260981.015285164        1404932421.9918616     
  -852617363.50309563       -38226732.829989463        1428836801.2666731     
  -835849872.24861598       -27293665.501523226        1454746652.2738066     
  -1358633183.3629255       -125023601.66980010        1353797268.7685025     
  -1333166603.4707897       -99925062.165163875        1372808569.5158544     
  -1308645554.9724338       -77978293.973127723        1393237050.0576568     
  -1285070037.8678565       -59183297.093686581        1415082710.3939090     
  -1262440052.1570578       -43540071.526839793        1438345550.5246134     
  -1809617896.6719666       -166130231.20971704        1346876589.8605309     
  -1779024125.0215256       -133674012.33186275        1364638048.8855481     
  -1749691061.9015939       -105420155.22237247        1383228395.7671449     
  -1721618707.3121727       -81368659.881249487        1402647630.5053217     
  -1694807061.2532604       -61519526.308490396        1422895753.1000767     
   4.9939905690652570E-003  0.28013447788572510        1490402768.7461615     
  -6.6221776231110530E-002  0.40994964977614845        1494790222.0849555     
 -0.15251634662165320       0.48950214303201545        1501834116.8165660     
 -0.25388933743836645       0.51879358181200907        1511534452.9409938     
 -0.37034203542668576       0.49781863613059241        1523891230.4582384     
  -415036521.52793217       -12780308.232530951        1472099058.3476565     
  -405803824.61027527       -8227516.1381618530        1474568353.5308197     
  -397026342.02168703       -5192105.1406882256        1480432637.6284792     
  -388704073.76216590       -3674075.2401050478        1489691910.6406326     
  -380837019.83171523       -3673426.4364231974        1502346172.5672839     
  -835849872.24861598       -27293665.501523226        1454746652.2738066     
  -815274342.56586504       -17555040.709736764        1454766705.9350202     
  -795609241.52617073       -10851178.061472625        1458920296.0324078     
  -776854569.12953484       -7182077.5567355752        1467207422.5659680     
  -759010325.37595582       -6547739.1955210865        1479628085.5357029     
  -1262440052.1570578       -43540071.526839793        1438345550.5246134     
  -1228411553.9329913       -27982573.304771304        1435385279.2975581     
  -1195748698.6659689       -16977218.272854567        1437297092.0283523     
  -1164451486.3559935       -10524006.431090951        1444080988.7169974     
  -1134519917.0030642       -8622937.7794813514        1455736969.3634939     
  -1694807061.2532604       -61519526.308490396        1422895753.1000767     
  -1645215458.7116530       -39510113.923268199        1416424073.6184289     
  -1597444713.4410806       -23570225.774828315        1415563025.6163111     
  -1551494825.4415441       -13699861.863176644        1420312609.0937226     
  -1507365794.7130418       -9899022.1883040667        1430672824.0506616     
 -0.37034203542668576       0.49781863613059241        1523891230.4582384     
 -0.39370269864737506       0.46208757973855197        1516636113.7736182     
 -0.43013326417135245       0.38279018233555118        1514310866.1573799     
 -0.47962791019038109       0.25994515605965618        1516915487.6095226     
 -0.54219284739576279        9.3533880274698444E-002   1524449978.1300414     
  -380837019.83171523       -3673426.4364231974        1502346172.5672839     
  -368163211.36584264       -2942155.0234599113        1495875575.7939496     
  -355503245.98937583       -2257027.2418505847        1494055438.4557920     
  -342857123.70231557       -1618043.0915951282        1496885760.5528107     
  -330224844.50466335       -1025202.5727007836        1504366542.0850084     
  -759010325.37595582       -6547739.1955210865        1479628085.5357029     
  -734461021.65857363       -5324690.3051826060        1473925858.4179251     
  -709939404.10693634       -4193928.6339898407        1472594681.1021202     
  -685445472.72104359       -3155454.1819474995        1475634553.5882902     
  -660979227.50089705       -2209266.9490594268        1483045475.8764322     
  -1134519917.0030642       -8622937.7794813514        1455736969.3634939     
  -1098893431.2718976       -7147605.3830842376        1450786961.6455455     
  -1063308474.7828133       -5810703.7936274409        1449928594.0963669     
  -1027765047.5358125       -4612233.0111171007        1453161866.7159564     
  -992263149.53089345       -3552193.0355460644        1460486779.5043204     
  -1507365794.7130418       -9899022.1883040667        1430672824.0506616     
  -1461460440.2058132       -8410900.2571625113        1426458885.4768124     
  -1415610458.0170033       -7107352.7207511067        1426057177.4385293     
  -1369815848.1466165       -5988379.5790854096        1429467699.9358144     
  -1324076610.5946560       -5053980.8321691155        1436690452.9686654     
 -0.54219284739576279        9.3533880274698444E-002   1524449978.1300414     
 -0.66985149112501208       -6.2636091368529268E-002   1518210107.8949862     
 -0.76483457845443692      -0.10988684778961794        1516833905.3975327     
 -0.82712399200830555       -4.8159038570214752E-002   1520321370.6376829     
 -0.85673089501812949       0.12251047246267088        1528672503.6154327     
  -330224844.50466335       -1025202.5727007836        1504366542.0850084     
  -317309906.01891702       -515396.06663316488        1497929650.1494968     
  -304491782.77294880       -328307.02649262547        1496446010.9492548     
  -291770474.76675808       -463935.45227716863        1499915624.4842815     
  -279145982.00034583       -922281.34399098158        1508338490.7545767     
  -660979227.50089705       -2209266.9490594268        1483045475.8764322     
  -634893393.26555073       -1112866.6398840249        1476298611.0892601     
  -609001189.54244733       -661901.37151664495        1474594584.0350235     
  -583302616.33158481       -856371.14395296574        1477933394.7137220     
  -557797673.63296366       -1696275.9571933150        1486315043.1253579     
  -992263149.53089345       -3552193.0355460644        1460486779.5043204     
  -952750462.40975881       -1792411.7824088931        1453316990.7142777     
  -913528221.07332814       -1000783.1449505091        1451279624.6548340     
  -874596425.52160645       -1177307.1231889129        1454374681.3259995     
  -835955075.75458527       -2321983.7170968056        1462602160.7277584     
  -1324076610.5946560       -5053980.8321691155        1436690452.9686654     
  -1270881113.4515445       -2554031.4942185879        1428984789.0245457     
  -1218072877.3655949       -1344952.3468084931        1426501132.8086944     
  -1165651902.3368206       -1426743.3899814487        1429239484.3211143     
  -1113618188.3652101       -2799404.6237012148        1437199843.5618000     
 -0.85673089501812949       0.12251047246267088        1528672503.6154327     
  -2.0468434639516668       0.30994117528903276        1523490372.2558446     
  -3.0290389244466303        1.1904275184651933        1522399797.9313359     
  -3.8033222862319147        2.7639559253970907        1525400780.6419070     
  -4.3696792521360166        5.0305702369314291        1532493320.3875537     
  -279145982.00034583       -922281.34399098158        1508338490.7545767     
  -268668902.16821748       -2145636.0651555806        1503418626.4995255     
  -258174645.52433738       -3311734.7471483350        1502748810.9746368     
  -247663212.06869975       -4420577.3899505138        1506329044.1799171     
  -237134601.80131254       -5472163.9935856611        1514159326.1153607     
  -557797673.63296366       -1696275.9571933150        1486315043.1253579     
  -536390679.36406040       -4007135.5625996590        1481677485.3459790     
  -514949331.67956609       -6203483.7827024460        1481448467.9918571     
  -493473630.57947785       -8285320.6174935699        1485627991.0629871     
  -471963576.06379771       -10252646.066977173        1494216054.5593731     
  -835955075.75458527       -2321983.7170968056        1462602160.7277584     
  -803165333.63437223       -5584498.1823877394        1458266948.7952096     
  -770324061.49472702       -8675245.9162399769        1458498768.9829962     
  -737431259.33564985       -11594226.918653280        1463297621.2911282     
  -704486927.15714562       -14341441.189640760        1472663505.7195988     
  -1113618188.3652101       -2799404.6237012148        1437199843.5618000     
  -1068992864.9791466       -6877723.9245029688        1433187016.8472128     
  -1024298834.9698162       -10727021.147749364        1433899713.9480553     
  -979536098.33721364       -14347296.293418825        1439337934.8643258     
  -934704655.08134747       -17738549.361547291        1449501679.5960300     
  -4.3696792521360166        5.0305702369314291        1532493320.3875537     
  -3.7488578633334826        2.1711862390389829        1528467148.4264843     
  -6.9505356140916135       -13.429860863499622        1531177480.4251571     
  -13.974713510931283       -41.772575119643356        1540624316.3835702     
  -24.821397501475840       -82.856977048692755        1556807656.3017268     
  -237134601.80131254       -5472163.9935856611        1514159326.1153607     
  -220025643.17429987       -4719468.9445976615        1510621798.4895675     
  -203045832.47241065       -4397266.9793577641        1513334804.3145576     
  -186195169.69564605       -4505558.0978613123        1522298343.5903242     
  -169473654.84400466       -5044342.3001162186        1537512416.3168833     
  -471963576.06379771       -10252646.066977173        1494216054.5593731     
  -439134146.59904927       -9163799.2601837814        1491016503.1491280     
  -406563009.16203749       -8935925.8791827112        1493581514.6807079     
  -374250163.75277650       -9569025.9240133464        1501911089.1541216     
  -342195610.37125748       -11063099.394655749        1516005226.5693514     
  -704486927.15714562       -14341441.189640760        1472663505.7195988     
  -657325514.02309966       -13332988.775548548        1469651262.4051783     
  -610551537.01941562       -13615990.129331797        1471917611.5236237     
  -564164996.14610124       -15190445.251007080        1479462553.0749421     
  -518165891.40315515       -18056354.140585393        1492286087.0591340     
  -934704655.08134747       -17738549.361547291        1449501679.5960300     
  -874599745.44645977       -17227037.490719497        1446526076.2577062     
  -815011416.04454589       -18437459.729808211        1448343094.8432975     
  -755939666.87563062       -21369816.078885972        1454952735.3528037     
  -697384497.93969595       -26024106.537908018        1466354997.7862251     
  -1756046430.9333920       -526813929.28001755        680042236.19758475     
  -1784092131.7884264       -500072893.67255282        806450948.02092695     
  -1809210199.3729618       -463573080.49675643        925746585.89922488     
  -1831400633.6869974       -417314489.75262827        1037929149.8324785     
  -1850663434.7305334       -361297121.44016826        1142998639.8206878     
  -2201713587.3201427       -660514076.19604290        696435186.69317687     
  -2238370703.5355220       -613883053.99901128        813857988.05422688     
  -2272984314.3300533       -560440347.06582451        927179700.79323339     
  -2305554419.7037382       -500185955.39648265        1036400324.9101967     
  -2336081019.6565771       -433119878.99098593        1141519860.4051170     
  -2685642840.9271173       -805692852.27813518        721987498.12581146     
  -2722305700.1514077       -736590141.78610694        829392906.53330719     
  -2757809181.8045049       -663622839.39010024        935709211.64176071     
  -2792153285.8864079       -586790945.09011531        1040936413.4511716     
  -2825338012.3971176       -506094458.88615209        1145074511.9615407     
  -3207834191.7543149       -962350257.52629435        756699170.49548876     
  -3235897121.6360855       -868194157.03384018        853055703.45816839     
  -3263684801.7963157       -773120557.46958399        951335118.44480669     
  -3291197232.2350059       -677129458.83352661        1051537415.4554042     
  -3318434412.9521551       -580220861.12566769        1153662594.4899602     
  -3768287639.8017344       -1130486291.9405203        800570203.80220842     
  -3779144967.9895544       -1008695099.7422107        884846378.82880986     
  -3790611174.3054867       -888933501.30427575        974057421.20237160     
  -3802686258.7495317       -771201496.62671661        1068203330.9228930     
  -3815370221.3216896       -655499085.70953214        1167284107.9903741     
  -1850663434.7305334       -361297121.44016826        1142998639.8206878     
  -1835327646.1789954       -295590718.75956732        1190520757.6016145     
  -1823374793.6520548       -241160769.49429309        1240341121.8685639     
  -1814804877.1497121       -198007273.64434248        1292459732.6215365     
  -1809617896.6719666       -166130231.20971704        1346876589.8605309     
  -2336081019.6565771       -433119878.99098593        1141519860.4051170     
  -2312500796.2762375       -352029314.83897024        1182781294.4553385     
  -2292419611.8904381       -282602214.00208837        1224536163.8559809     
  -2275837466.4991784       -224838576.48033834        1266784468.6070440     
  -2262754360.1024590       -178738402.27372169        1309526208.7085283     
  -2825338012.3971176       -506094458.88615209        1145074511.9615407     
  -2798669957.4325542       -411166714.23609483        1179939808.8161249     
  -2775617044.4324727       -328289442.80097830        1213493729.8855276     
  -2756179273.3968740       -257462644.58080220        1245736275.1697495     
  -2740356644.3257565       -198686319.57556677        1276667444.6687901     
  -3318434412.9521551       -580220861.12566769        1153662594.4899602     
  -3293835129.6479435       -473002916.95094156        1181996300.6839736     
  -3272967091.2781572       -378222455.89096367        1207213819.9572039     
  -3255830297.8427958       -295879477.94573498        1229315152.3096516     
  -3242424749.3418574       -225973983.11525214        1248300297.7413156     
  -3815370221.3216896       -655499085.70953214        1167284107.9903741     
  -3797996312.9224081       -537537922.98351085        1188950770.0588849     
  -3784469752.4274950       -432401253.27204502        1205696434.0710099     
  -3774790539.8369470       -340089076.57513463        1217521100.0267508     
  -3768958675.1507664       -260601392.89278197        1224424767.9261057     
  -1809617896.6719666       -166130231.20971704        1346876589.8605309     
  -1779024125.0215256       -133674012.33186275        1364638048.8855481     
  -1749691061.9015939       -105420155.22237247        1383228395.7671449     
  -1721618707.3121727       -81368659.881249487        1402647630.5053217     
  -1694807061.2532604       -61519526.308490396        1422895753.1000767     
  -2262754360.1024590       -178738402.27372169        1309526208.7085283     
  -2223318165.9846129       -134383584.58084500        1317517419.9827919     
  -2186746416.0568929       -99576914.188392639        1328735776.3411677     
  -2153039110.3192987       -74318391.096360207        1343181277.7836561     
  -2122196248.7718339       -58608015.304755569        1360853924.3102562     
  -2740356644.3257565       -198686319.57556677        1276667444.6687901     
  -2685225864.2332673       -140377254.01549661        1273017383.2560797     
  -2634563263.9905233       -96962121.287908554        1274992724.1550143     
  -2588368843.5975227       -68440921.392801881        1282593467.3655932     
  -2546642603.0542679       -54813654.330177426        1295819612.8878174     
  -3242424749.3418574       -225973983.11525214        1248300297.7413156     
  -3164747219.7674909       -151655020.63581729        1231137938.7054117     
  -3093141605.7024870       -97575776.520925164        1221999239.2086842     
  -3027607907.1468439       -63736250.770571113        1220884199.2511344     
  -2968146124.1005630       -50136443.384756804        1227792818.8327618     
  -3768958675.1507664       -260601392.89278197        1224424767.9261057     
  -3661882232.5872865       -168216884.44181299        1191879086.3307867     
  -3562481441.1927838       -101417879.88744414        1169755321.5021782     
  -3470756300.9672613       -60204379.229670048        1158053473.4402785     
  -3386706811.9107199       -44576382.468498707        1156773542.1450896     
  -1694807061.2532604       -61519526.308490396        1422895753.1000767     
  -1645215458.7116530       -39510113.923268199        1416424073.6184289     
  -1597444713.4410806       -23570225.774828315        1415563025.6163111     
  -1551494825.4415441       -13699861.863176644        1420312609.0937226     
  -1507365794.7130418       -9899022.1883040667        1430672824.0506616     
  -2122196248.7718339       -58608015.304755569        1360853924.3102562     
  -2059678376.8543572       -39727522.676182985        1353307502.1058755     
  -1998471260.4878788       -25216215.217607617        1350815790.9626300     
  -1938574899.6723948       -15074092.929014683        1353378790.8805215     
  -1879989294.4079120       -9301155.8104228973        1360996501.8595483     
  -2546642603.0542679       -54813654.330177426        1295819612.8878174     
  -2472786805.8134732       -39538584.674024820        1287793566.6340809     
  -2399731662.4036374       -26932361.121068358        1284266311.0230875     
  -2327477172.8247633       -16994983.671316266        1285237846.0548368     
  -2256023337.0768452       -9726452.3247567415        1290708171.7293315     
  -2968146124.1005630       -50136443.384756804        1227792818.8327618     
  -2884540745.5890031       -38943299.916790724        1219882267.2030475     
  -2801225919.1883626       -28718663.485228896        1215914585.7976820     
  -2718201644.8986425       -19462534.090065598        1215889774.6166675     
  -2635467922.7198458       -11174911.731312633        1219807833.6600037     
  -3386706811.9107199       -44576382.468498707        1156773542.1450896     
  -3294940196.1809416       -37941668.404478431        1149573603.8127732     
  -3202954030.8420463       -30575122.310065627        1145760615.2864156     
  -3110748315.8940387       -22476744.185278296        1145334576.5660160     
  -3018323051.3369083       -13646534.030087113        1148295487.6515725     
  -1507365794.7130418       -9899022.1883040667        1430672824.0506616     
  -1461460440.2058132       -8410900.2571625113        1426458885.4768124     
  -1415610458.0170033       -7107352.7207511067        1426057177.4385293     
  -1369815848.1466165       -5988379.5790854096        1429467699.9358144     
  -1324076610.5946560       -5053980.8321691155        1436690452.9686654     
  -1879989294.4079120       -9301155.8104228973        1360996501.8595483     
  -1823282619.2457991       -6549396.7462698221        1355572307.4761271     
  -1766885517.5593300       -4829549.2675968409        1354352982.1840467     
  -1710797989.3484988       -4141613.3743863106        1357338525.9833086     
  -1655020034.6133134       -4485589.0666561127        1364528938.8739114     
  -2256023337.0768452       -9726452.3247567415        1290708171.7293315     
  -2187393516.8147831       -5374508.7940835953        1283777153.5195804     
  -2119327471.1855793       -2901814.0396106243        1281443642.9569452     
  -2051825200.1892381       -2308368.0613442659        1283707640.0414255     
  -1984886703.8257556       -3594170.8592784405        1290569144.7730238     
  -2635467922.7198458       -11174911.731312633        1219807833.6600037     
  -2553793132.9127593       -4886236.4005881548        1211073423.6071696     
  -2472936318.8957553       -1324147.0368084908        1207329159.7572250     
  -2392897480.6688299       -488643.63995146751        1208575042.1101727     
  -2313676618.2319860       -2379726.2100390196        1214811070.6660070     
  -3018323051.3369083       -13646534.030087113        1148295487.6515725     
  -2922481467.5397329       -5084579.5657994747        1137461117.7388964     
  -2827712060.6898561       -96548.259176969528        1132009532.5848870     
  -2734014830.7872787        1317559.8897767067        1131940732.1895406     
  -2641389777.8320026       -842255.11893546581        1137254716.5528572     
  -1324076610.5946560       -5053980.8321691155        1436690452.9686654     
  -1270881113.4515445       -2554031.4942185879        1428984789.0245457     
  -1218072877.3655949       -1344952.3468084931        1426501132.8086944     
  -1165651902.3368206       -1426743.3899814487        1429239484.3211143     
  -1113618188.3652101       -2799404.6237012148        1437199843.5618000     
  -1655020034.6133134       -4485589.0666561127        1364528938.8739114     
  -1588692857.6535645       -2513813.6394935846        1356717858.4131639     
  -1522615897.6893454       -1376094.8640966415        1353907948.6778963     
  -1456789154.7206588       -1072432.7404729128        1356099209.6681073     
  -1391212628.7474992       -1602827.2686074376        1363291641.3838017     
  -1984886703.8257556       -3594170.8592784405        1290569144.7730238     
  -1906058809.9144883       -2339858.2024521828        1282812532.5342286     
  -1827344088.9371088       -1462788.6585919857        1279836254.0181227     
  -1748742540.8936217       -962962.22770512104        1281640309.2247066     
  -1670254165.7840233       -840378.90978085995        1288224698.1539831     
  -2313676618.2319860       -2379726.2100390196        1214811070.6660070     
  -2222978970.2343092       -2032165.1830819845        1207268811.3877430     
  -2132257451.1088829       -1605033.7302904129        1204286048.8293774     
  -2041512060.8557115       -1098331.8516801596        1205862782.9909127     
  -1950742799.4747839       -512059.54722678661        1211999013.8723502     
  -2641389777.8320026       -842255.11893546581        1137254716.5528572     
  -2539453338.6130261       -1590734.5813672543        1130086694.9737010     
  -2437355984.2046666       -1802830.0791893005        1127257333.1116567     
  -2335097714.6069179       -1478541.6123789549        1128766630.9667227     
  -2232678529.8197803       -617869.18094360828        1134614588.5389009     
  -1113618188.3652101       -2799404.6237012148        1437199843.5618000     
  -1068992864.9791466       -6877723.9245029688        1433187016.8472128     
  -1024298834.9698162       -10727021.147749364        1433899713.9480553     
  -979536098.33721364       -14347296.293418825        1439337934.8643258     
  -934704655.08134747       -17738549.361547291        1449501679.5960300     
  -1391212628.7474992       -1602827.2686074376        1363291641.3838017     
  -1334612687.7468855       -5290146.8342903852        1358614910.4748290     
  -1278068430.5501604       -9163079.0796041489        1358333669.3612092     
  -1221579857.1573255       -13221624.004557073        1362447918.0429382     
  -1165146967.5683851       -17465781.609146714        1370957656.5200205     
  -1670254165.7840233       -840378.90978085995        1288224698.1539831     
  -1602622561.5119410       -4419585.0432720184        1282738940.8856091     
  -1535171031.4709060       -8599038.6135861278        1281318639.3925080     
  -1467899575.6609206       -13378739.620733738        1283963793.6746800     
  -1400808194.0819786       -18758688.064696431        1290674403.7321229     
  -1950742799.4747839       -512059.54722678661        1211999013.8723502     
  -1873022486.2743161       -4266038.5514515638        1205559108.0795557     
  -1795606637.7320509       -9034899.7496877909        1202854624.0419583     
  -1718495253.8479946       -14818643.141957283        1203885561.7595525     
  -1641688334.6221414       -21617268.728231788        1208651921.2323422     
  -2232678529.8197803       -617869.18094360828        1134614588.5389009     
  -2145812462.0340059       -4829507.3588188887        1127075412.0566692     
  -2059375249.3335924       -10470662.487901807        1122941623.3095551     
  -1973366891.7185519       -17541334.568222523        1122213222.2975552     
  -1887787389.1888609       -26041523.599714160        1124890209.0206707     
  -934704655.08134747       -17738549.361547291        1449501679.5960300     
  -874599745.44645977       -17227037.490719497        1446526076.2577062     
  -815011416.04454589       -18437459.729808211        1448343094.8432975     
  -755939666.87563062       -21369816.078885972        1454952735.3528037     
  -697384497.93969595       -26024106.537908018        1466354997.7862251     
  -1165146967.5683851       -17465781.609146714        1370957656.5200205     
  -1092463735.6094711       -17451668.950461864        1365751920.3443110     
  -1020131522.5594530       -18607619.321423948        1365543979.2351975     
  -948150328.41833663       -20933632.722057939        1370333833.1926839     
  -876520153.18610966       -24429709.152331114        1380121482.2167699     
  -1400808194.0819786       -18758688.064696431        1290674403.7321229     
  -1314960430.8199534       -19066111.924452186        1283431689.5971334     
  -1229298125.1427298       -19991727.733549953        1281391943.6714232     
  -1143821277.0503118       -21535535.492003798        1284555165.9549932     
  -1058529886.5427012       -23697535.199807644        1292921356.4478569     
  -1641688334.6221414       -21617268.728231788        1208651921.2323422     
  -1542089831.0778995       -22070366.412681460        1199565384.0161762     
  -1442511223.7943716       -22589784.966179192        1195886988.1519759     
  -1342952512.7715638       -23175524.388736010        1197616733.6397407     
  -1243413698.0094635       -23827584.680332065        1204754620.4794729     
  -1887787389.1888609       -26041523.599714160        1124890209.0206707     
  -1773851936.3833137       -26464432.415151358        1114153003.6014347     
  -1659770818.5143874       -26401791.019327044        1109029112.6768494     
  -1545544035.5820861       -25853599.412247777        1109518536.2469130     
  -1431171587.5864091       -24819857.593917966        1115621274.3116298     
  -3768287639.8017344       -1130486291.9405203        800570203.80220842     
  -3779144967.9895544       -1008695099.7422107        884846378.82880986     
  -3790611174.3054867       -888933501.30427575        974057421.20237160     
  -3802686258.7495317       -771201496.62671661        1068203330.9228930     
  -3815370221.3216896       -655499085.70953214        1167284107.9903741     
  -4339829672.9205332       -1301948901.8761601        858753163.82329917     
  -4335273753.8204031       -1125728023.9637370        942353212.24970114     
  -4331855483.5851059       -953299308.93408751        1020314040.6935402     
  -4329574862.2146378       -784662756.78721118        1092635649.1548166     
  -4328431889.7090044       -619818367.52310801        1159318037.6335299     
  -4895286778.9618683       -1468586033.6885605        936400616.33608985     
  -4905529290.6581383       -1246998973.4873290        1018707638.9694531     
  -4917438221.9559603       -1030966645.2912693        1084801354.2907305     
  -4931013572.8553343       -820489049.10038221        1134681762.2999222     
  -4946255343.3562574       -615566184.91466522        1168348862.9970286     
  -5434658957.9257374       -1630397687.3777211        1033512561.3405803     
  -5489911578.5027580       -1372507948.3129869        1113909658.9880650     
  -5547359389.4180498       -1121935510.3758225        1167519361.9939411     
  -5607002390.6716146       -878680373.56622803        1194341670.3582096     
  -5668840582.2634478       -642742537.88420367        1194376584.0808687     
  -5957946209.8121414       -1787383862.9436424        1150088998.8367705     
  -6088420617.3542633       -1502254948.4407101        1227959272.3055375     
  -6221618985.9713783       -1226205904.1877465        1268468063.8031733     
  -6357541315.6634817       -959236730.18475080        1271615373.3296781     
  -6496187606.4305763       -701347426.43172288        1237401200.8850520     
  -3815370221.3216896       -655499085.70953214        1167284107.9903741     
  -3797996312.9224081       -537537922.98351085        1188950770.0588849     
  -3784469752.4274950       -432401253.27204502        1205696434.0710099     
  -3774790539.8369470       -340089076.57513463        1217521100.0267508     
  -3768958675.1507664       -260601392.89278197        1224424767.9261057     
  -4328431889.7090044       -619818367.52310801        1159318037.6335299     
  -4298241909.9344378       -464083569.81309938        1141373910.2002761     
  -4278666167.2740102       -343729562.48355842        1129492304.5773232     
  -4269704661.7277212       -258756345.53448200        1123673220.7646716     
  -4271357393.2955756       -209163918.96587348        1123916658.7623198     
  -4946255343.3562574       -615566184.91466522        1168348862.9970286     
  -4871867806.8730154       -412643306.62065387        1102899241.9839418     
  -4814861396.7136860       -267657516.07301927        1054495662.6478418     
  -4775236112.8782692       -180608813.27176118        1023138124.9887289     
  -4752991955.3667650       -151497198.21688032        1008826629.0066012     
  -5668840582.2634478       -642742537.88420367        1194376584.0808687     
  -5518874003.7381439       -383217133.40617299        1073526765.4098803     
  -5393055440.7465248       -204185114.04042935        980706508.28256476     
  -5291384893.2885914       -105646479.78697419        915915812.69892156     
  -5213862361.3643475       -87601230.645804167        879154678.65895104     
  -6496187606.4305763       -701347426.43172288        1237401200.8850520     
  -6239260500.5298204       -375805050.16965652        1053256480.4780927     
  -6013248299.3725243       -153312356.38578868        908124841.48149288     
  -5818151002.9586849       -33869345.080114841        802006283.89525092     
  -5653968611.2883091       -17476016.252642393        734900807.71936774     
  -3768958675.1507664       -260601392.89278197        1224424767.9261057     
  -3661882232.5872865       -168216884.44181299        1191879086.3307867     
  -3562481441.1927838       -101417879.88744414        1169755321.5021782     
  -3470756300.9672613       -60204379.229670048        1158053473.4402785     
  -3386706811.9107199       -44576382.468498707        1156773542.1450896     
  -4271357393.2955756       -209163918.96587348        1123916658.7623198     
  -4148432490.9073038       -144980921.03011751        1090517687.9144495     
  -4029914924.2530398       -95489042.207714558        1065395964.1301414     
  -3915804693.3327832       -60688282.498665571        1048551487.4093931     
  -3806101798.1465316       -40578641.902970791        1039984257.7522067     
  -4752991955.3667650       -151497198.21688032        1008826629.0066012     
  -4620346220.8769894       -117353999.11332035        978387403.58031642     
  -4488839506.6862469       -87007534.339869499        954080755.51444304     
  -4358471812.7945366       -60457803.896527290        935906684.80898190     
  -4229243139.2018600       -37704807.783297300        923865191.46393394     
  -5213862361.3643475       -87601230.645804167        879154678.65895104     
  -5077623422.4963446       -85336118.691421747        855488233.32838500     
  -4939255188.4924049       -75973356.283910751        835809695.65508246     
  -4798757659.3525229       -59512943.423261404        820119065.63904428     
  -4656130835.0767012       -35954880.109477758        808416343.28026950     
  -5653968611.2883091       -17476016.252642393        734900807.71936774     
  -5520264095.7653675       -48927279.764429569        721820177.15865803     
  -5381161969.6715107       -62386508.039835691        710582784.55206192     
  -5236662233.0067406       -57853701.078863144        701188629.89958179     
  -5086764885.7710600       -35328858.881515741        693637713.20121384     
  -3386706811.9107199       -44576382.468498707        1156773542.1450896     
  -3294940196.1809416       -37941668.404478431        1149573603.8127732     
  -3202954030.8420463       -30575122.310065627        1145760615.2864156     
  -3110748315.8940387       -22476744.185278296        1145334576.5660160     
  -3018323051.3369083       -13646534.030087113        1148295487.6515725     
  -3806101798.1465316       -40578641.902970791        1039984257.7522067     
  -3703196913.9159579       -30089174.358694553        1031708651.3741827     
  -3600883003.6863513       -21569620.150975466        1027724435.5415233     
  -3499160067.4577165       -15019979.279827118        1028031610.2542294     
  -3398028105.2300501       -10440251.745239973        1032630175.5122989     
  -4229243139.2018600       -37704807.783297300        923865191.46393394     
  -4112615870.0721827       -22585351.839269876        913568306.16176832     
  -3997390098.5535612       -12137554.598752975        908467252.14437449     
  -3883565824.6459966       -6361416.0617587566        908562029.41175187     
  -3771143048.3494864       -5256936.2282800674        913852637.96390033     
  -4656130835.0767012       -35954880.109477758        808416343.28026950     
  -4523197064.6496201       -15430200.846206903        795152568.17552912     
  -4392475315.4436760       -2278925.6534011364        787989065.09496880     
  -4263965587.4588766        3498945.4689297676        786925834.03858590     
  -4137667880.6952167        1903412.5207910538        791962875.00637841     
  -5086764885.7710600       -35328858.881515741        693637713.20121384     
  -4934940497.6482658       -8623721.3795123100        676461437.41546595     
  -4786138654.3566980        8006266.6850748062        666289874.39330447     
  -4640359355.8963594        14561105.312234879        663123024.13472557     
  -4497602602.2672443        11040794.501974821        666960886.63973153     
  -3018323051.3369083       -13646534.030087113        1148295487.6515725     
  -2922481467.5397329       -5084579.5657994747        1137461117.7388964     
  -2827712060.6898561       -96548.259176969528        1132009532.5848870     
  -2734014830.7872787        1317559.8897767067        1131940732.1895406     
  -2641389777.8320026       -842255.11893546581        1137254716.5528572     
  -3398028105.2300501       -10440251.745239973        1032630175.5122989     
  -3289979470.4351630       -5537764.2619225979        1022882184.5355889     
  -3182495185.9171753       -2516444.3682651520        1017985940.4094460     
  -3075575251.6760859       -1376292.0642721653        1017941443.1338694     
  -2969219667.7118964       -2117307.3499467373        1022748692.7088629     
  -3771143048.3494864       -5256936.2282800674        913852637.96390033     
  -3652404613.7228799       -4469091.0757277012        905783490.37195802     
  -3533722702.7027750       -3869657.9448375702        902035051.72248316     
  -3415097315.2891645       -3458636.8356039524        902607322.01548100     
  -3296528451.4820518       -3236027.7480347157        907500301.25094688     
  -4137667880.6952167        1903412.5207910538        791962875.00637841     
  -4009756897.4028840       -1878560.0072159767        786165035.24800205     
  -3881394611.0466528       -4156188.9888899326        784156866.52399826     
  -3752581021.6265173       -4929474.4242188931        785938368.83436608     
  -3623316129.1424785       -4198416.3132033348        791509542.17910933     
  -4497602602.2672443        11040794.501974821        666960886.63973153     
  -4362036321.4751778        2233828.9436051846        664026819.16372347     
  -4225510910.9488106       -3376037.5004267693        664351384.81399190     
  -4088026370.6881394       -5788804.8301138878        667934583.59053409     
  -3949582700.6931658       -5004473.0454535484        674776415.49335122     
  -2641389777.8320026       -842255.11893546581        1137254716.5528572     
  -2539453338.6130261       -1590734.5813672543        1130086694.9737010     
  -2437355984.2046666       -1802830.0791893005        1127257333.1116567     
  -2335097714.6069179       -1478541.6123789549        1128766630.9667227     
  -2232678529.8197803       -617869.18094360828        1134614588.5389009     
  -2969219667.7118964       -2117307.3499467373        1022748692.7088629     
  -2855507206.2672276       -1493318.7510401011        1015894478.7067430     
  -2741785598.5189967       -838842.47359836102        1013443360.2238904     
  -2628054844.4672003       -153878.51761198044        1015395337.2603048     
  -2514314944.1118541        561573.11689400673        1021750409.8159853     
  -3296528451.4820518       -3236027.7480347157        907500301.25094688     
  -3170855865.5198140       -1184340.4002150297        900782831.12573373     
  -3045325902.1398416        391938.34004509449        898532892.32194161     
  -2919938561.3421354        1492808.4727530479        900750484.83957326     
  -2794693843.1266966        2118269.9979010820        907435608.67862761     
  -3623316129.1424785       -4198416.3132033348        791509542.17910933     
  -3485499316.3707986       -663799.52891755104        784751752.23067236     
  -3347976895.0672126        1889512.3617208004        782525929.40580988     
  -3210748865.2317176        3461519.3587219715        784832073.70452917     
  -3073815226.8643169        4052221.4620761871        791670185.12682378     
  -3949582700.6931658       -5004473.0454535484        674776415.49335122     
  -3799437558.8201704        68303.862868309021        667801242.02155781     
  -3649738577.3010988        3653879.5914525986        665422471.47549701     
  -3500485756.1359453        5752254.1403067112        667640103.85516942     
  -3351679095.3247132        6363427.5094184875        674454139.16057444     
  -2232678529.8197803       -617869.18094360828        1134614588.5389009     
  -2145812462.0340059       -4829507.3588188887        1127075412.0566692     
  -2059375249.3335924       -10470662.487901807        1122941623.3095551     
  -1973366891.7185519       -17541334.568222523        1122213222.2975552     
  -1887787389.1888609       -26041523.599714160        1124890209.0206707     
  -2514314944.1118541        561573.11689400673        1021750409.8159853     
  -2418626455.2357345       -4509594.0819236040        1014340122.9843329     
  -2323191856.8760743       -10427063.002274513        1010509279.0303546     
  -2228011149.0328794       -17190833.644178391        1010257877.9540515     
  -2133084331.7061419       -24800906.007593274        1013585919.7554207     
  -2794693843.1266966        2118269.9979010820        907435608.67862761     
  -2689685632.7529263       -3663236.0996756554        900358336.82794058     
  -2584756348.3267131       -9707828.6891112328        897034562.99748588     
  -2479905989.8480577       -16015507.770395875        897464287.18726707     
  -2375134557.3169518       -22586273.343527436        901647509.39727807     
  -3073815226.8643169        4052221.4620761871        791670185.12682378     
  -2958989994.5855837       -2290433.4120630026        785130053.58749211     
  -2844068723.6855016       -8312959.5483793020        782517475.21094835     
  -2729051414.1640706       -14015356.946867347        783832449.99720061     
  -2613938066.0212879       -19397625.607521415        789074977.94624269     
  -3351679095.3247132        6363427.5094184875        674454139.16057444     
  -3226539540.7337031       -391186.01908755302        668655273.26298404     
  -3101128982.9524412       -6242455.5800936222        666958015.67074263     
  -2975447421.9809279       -11190381.173588157        669362366.38385594     
  -2849494857.8191576       -15234962.799568653        675868325.40231705     
  -1887787389.1888609       -26041523.599714160        1124890209.0206707     
  -1773851936.3833137       -26464432.415151358        1114153003.6014347     
  -1659770818.5143874       -26401791.019327044        1109029112.6768494     
  -1545544035.5820861       -25853599.412247777        1109518536.2469130     
  -1431171587.5864091       -24819857.593917966        1115621274.3116298     
  -2133084331.7061419       -24800906.007593274        1013585919.7554207     
  -2004732543.7029800       -22887666.763289690        1003686098.3795327     
  -1876459291.2900798       -21236212.819873929        998723340.03184080     
  -1748264574.4674559       -19846544.177361488        998697644.71233881     
  -1620148393.2350891       -18718660.835729599        1003609012.4210259     
  -2375134557.3169518       -22586273.343527436        901647509.39727807     
  -2234298581.1631937       -18916530.153592348        892323504.63548851     
  -2093765341.2533486       -16255907.776693702        887260311.43543386     
  -1953534837.5874209       -14604406.212842226        886457929.79711592     
  -1813607070.1653976       -13962025.462023139        889916359.72052383     
  -2613938066.0212879       -19397625.607521415        789074977.94624269     
  -2462550048.7639647       -14551022.586058617        780065222.36930096     
  -2311688968.4041958       -11460875.889786959        774640026.88763380     
  -2161354824.9419880       -10127185.518699408        772799391.50124264     
  -2011547618.3773274       -10549951.472809672        774543316.21012497     
  -2849494857.8191576       -15234962.799568653        675868325.40231705     
  -2689486946.5052924       -9791144.0607022047        666911251.58096838     
  -2530230172.7426248       -6851117.1591497660        660862486.38843858     
  -2371724536.5311594       -6414882.0949597359        657722029.82471931     
  -2213970037.8708935       -8482438.8680803776        657489881.88982272     
  -5957946209.8121414       -1787383862.9436424        1150088998.8367705     
  -6088420617.3542633       -1502254948.4407101        1227959272.3055375     
  -6221618985.9713783       -1226205904.1877465        1268468063.8031733     
  -6357541315.6634817       -959236730.18475080        1271615373.3296781     
  -6496187606.4305763       -701347426.43172288        1237401200.8850520     
  -6810552091.9514256       -2043165627.5854278        1353816581.5014484     
  -6828495976.5528851       -1395470385.3157940        1202790509.4295130     
  -6897804110.2600241       -918989306.73176217        1092018707.4907498     
  -7018476493.0728445       -613722391.83333278        1021501175.6851584     
  -7190513124.9913464       -479669640.62050414        991237914.01273930     
  -8337880161.6739368       -2501364048.5021811        1712381962.0114014     
  -8021534231.6081495       -1424574690.9478703        1275712541.6962919     
  -7805192838.6787367       -681133790.51479721        956913143.61865771     
  -7688855982.8856936       -271041347.20296001        755983767.77849865     
  -7672523664.2290211       -194297361.01235819        672924414.17581546     
  -10539930418.979673       -3161979125.6939020        2225785140.3666310     
  -9667535382.5200615       -1589567865.3369417        1446725369.1058750     
  -8943785171.2275124       -512639355.53685045        863151372.18689716     
  -8368679785.1020250        68806403.706368923        475063149.60969877     
  -7942219224.1435976        154769412.39271688        282460701.37427849     
  -13416702863.868637       -4025010859.1605911        2894026116.5671353     
  -11766499429.288618       -1890449908.4830053        1715828991.6582611     
  -10313581107.906355       -413506001.79792595        810733393.19546854     
  -9057947899.7218380        405820860.89465046        178739321.17875814     
  -7999599804.7350750        567530679.59472466       -180153224.39186954     
  -6496187606.4305763       -701347426.43172288        1237401200.8850520     
  -6239260500.5298204       -375805050.16965652        1053256480.4780927     
  -6013248299.3725243       -153312356.38578868        908124841.48149288     
  -5818151002.9586849       -33869345.080114841        802006283.89525092     
  -5653968611.2883091       -17476016.252642393        734900807.71936774     
  -7190513124.9913464       -479669640.62050414        991237914.01273930     
  -6900508098.7826843       -304343472.33873463        846935947.75933659     
  -6623318436.8985863       -171735185.13884902        723730732.94326317     
  -6358944139.3390570       -81844779.020846844        621622269.56452084     
  -6107385206.1040897       -34672253.984726191        540610557.62310839     
  -7672523664.2290211       -194297361.01235819        672924414.17581546     
  -7400630231.9211025       -184544254.97348166        589581332.56467688     
  -7123452623.5188589       -157177228.62017202        509418672.41784179     
  -6840990839.0222845       -112196281.95243192        432436433.73530769     
  -6553244878.4313803       -49601414.970258713        358634616.51707619     
  -7942219224.1435976        154769412.39271688        282460701.37427849     
  -7739626899.9450788       -16407398.073891640        281192634.89411706     
  -7513650859.2333374       -109638486.82975626        265188659.90522712     
  -7264291102.0083733       -124923853.87487411        234448776.40761405     
  -6991547628.2701864       -62263499.209249496        188972984.40127087     
  -7999599804.7350750        567530679.59472466       -180153224.39186954     
  -7917498102.8546076        200067098.36002874       -78230145.252345592     
  -7793913144.0420265       -29118959.767607689       -8959304.5945773218     
  -7628844928.2973242       -120027494.78817940        27659297.581437197     
  -7422293455.6205015       -72658506.701688290        31625661.275694754     
  -5653968611.2883091       -17476016.252642393        734900807.71936774     
  -5520264095.7653675       -48927279.764429569        721820177.15865803     
  -5381161969.6715107       -62386508.039835691        710582784.55206192     
  -5236662233.0067406       -57853701.078863144        701188629.89958179     
  -5086764885.7710600       -35328858.881515741        693637713.20121384     
  -6107385206.1040897       -34672253.984726191        540610557.62310839     
  -5959107807.3728819       -36396545.944679260        534241399.29562980     
  -5809825389.3577347       -34770773.624830246        530378842.81612647     
  -5659537952.0586433       -29794937.025170803        529022888.18459743     
  -5508245495.4756117       -21469036.145712137        530173535.40104383     
  -6553244878.4313803       -49601414.970258713        358634616.51707619     
  -6388499271.0808792       -21030137.755070210        353852240.58802992     
  -6227141235.7334089       -3750767.2166545391        352239830.40081835     
  -6069170772.3889675        2236696.6449983120        353797385.95544380     
  -5914587881.0475578       -3067746.1701216698        358524907.25190216     
  -6991547628.2701864       -62263499.209249496        188972984.40127087     
  -6808438486.8893566       -2828055.1956043243        180652701.03585568     
  -6633109508.7985420        30673511.184678078        176165747.30613881     
  -6465560693.9977207        38241199.931636810        175512123.21211311     
  -6305792042.4869061        19875011.045244932        178691828.75378320     
  -7422293455.6205015       -72658506.701688290        31625661.275694754     
  -7218925454.7983236        18209701.733707428        14642780.639115283     
  -7027730208.5531254        68502061.579183102        2156593.5320843845     
  -6848707716.8848972        78218572.834747314       -5832900.0453918949     
  -6681857979.7936459        47359235.500395775       -9325700.0933095925     
  -5086764885.7710600       -35328858.881515741        693637713.20121384     
  -4934940497.6482658       -8623721.3795123100        676461437.41546595     
  -4786138654.3566980        8006266.6850748062        666289874.39330447     
  -4640359355.8963594        14561105.312234879        663123024.13472557     
  -4497602602.2672443        11040794.501974821        666960886.63973153     
  -5508245495.4756117       -21469036.145712137        530173535.40104383     
  -5344601868.7653675       -9436754.2214097977        515180791.84662479     
  -5181962582.2137766       -752272.82596755028        505661101.11382371     
  -5020327635.8208456        4584408.0406053066        501614463.20263791     
  -4859697029.5865803        6573288.3783185482        503040878.11307448     
  -5914587881.0475578       -3067746.1701216698        358524907.25190216     
  -5743501187.0126200       -7021171.2023506165        348070268.04680437     
  -5571400628.4637766       -7595047.8548924923        341557021.72136015     
  -5398286205.4010201       -4789376.1277284622        338985168.27556455     
  -5224157917.8243589        1395843.9791219234        340354707.70942205     
  -6305792042.4869061        19875011.045244932        178691828.75378320     
  -6131638452.3900394       -1376972.3223497868        175129866.01600304     
  -5954452793.1066942       -12522058.401678801        173977636.21590900     
  -5774235064.6368780       -13560247.192776680        175235139.35349935     
  -5590985266.9805851       -4491538.6956083775        178902375.42877552     
  -6681857979.7936459        47359235.500395775       -9325700.0933095925     
  -6509013664.8976116        7495842.4186201096       -3640414.2457740614     
  -6331119076.1425371       -15533304.466366053        2922944.5974760600     
  -6148174213.5284100       -21728205.154507160        10364376.436446136     
  -5960179077.0552502       -11088859.645867109        18683881.271138649     
  -4497602602.2672443        11040794.501974821        666960886.63973153     
  -4362036321.4751778        2233828.9436051846        664026819.16372347     
  -4225510910.9488106       -3376037.5004267693        664351384.81399190     
  -4088026370.6881394       -5788804.8301138878        667934583.59053409     
  -3949582700.6931658       -5004473.0454535484        674776415.49335122     
  -4859697029.5865803        6573288.3783185482        503040878.11307448     
  -4713938333.9124527        2887330.1280803680        500027907.19217509     
  -4567975253.3015709       -117344.99966216087        500414851.36778861     
  -4421807787.7539463       -2440737.0049109459        504201710.63991600     
  -4275435937.2695723       -4082845.8876748085        511388485.00855297     
  -5224157917.8243589        1395843.9791219234        340354707.70942205     
  -5067803144.4960575        2951991.8686664104        336382297.74648160     
  -4911998731.0285635        2673606.8888432980        335951084.85029650     
  -4756744677.4218807        560689.03964424133        339061069.02085352     
  -4602040983.6760092       -3386761.6789078712        345712250.25816488     
  -5590985266.9805851       -4491538.6956083775        178902375.42877552     
  -5423630753.2260017        2427814.1653466225        173089990.82664740     
  -5257581344.1297846        4996818.1650702953        170960085.26150575     
  -5092837039.6919355        3215473.3035781384        172512658.73334739     
  -4929397839.9124565       -2916220.4191379547        177747711.24218151     
  -5960179077.0552502       -11088859.645867109        18683881.271138649     
  -5781421160.1022873        1314797.0181119442        10150986.432670813     
  -5604723092.6052437        6852288.8290278912        5441852.6014322368     
  -5430084874.5641212        5523615.7868647575        4556479.7774024270     
  -5257506505.9789295       -2671222.1083858013        7494867.9606121276     
  -3949582700.6931658       -5004473.0454535484        674776415.49335122     
  -3799437558.8201704        68303.862868309021        667801242.02155781     
  -3649738577.3010988        3653879.5914525986        665422471.47549701     
  -3500485756.1359453        5752254.1403067112        667640103.85516942     
  -3351679095.3247132        6363427.5094184875        674454139.16057444     
  -4275435937.2695723       -4082845.8876748085        511388485.00855297     
  -4113822837.8415923       -939308.33789515495        503889675.46070832     
  -3952273504.6144638        1991675.2090561390        501061177.88139844     
  -3790787937.5881772        4710104.7532007694        502902992.27061951     
  -3629366136.7627335        7215980.2945253849        509415118.62837893     
  -4602040983.6760092       -3386761.6789078712        345712250.25816488     
  -4428748757.9993248       -2109112.8795578480        338135931.14618778     
  -4255137904.3704152        230629.09388947487        335303833.04554802     
  -4081208422.7892733        3632464.2414383888        337215955.95623904     
  -3906960313.2559023        8096392.5630857944        343872299.87827295     
  -4929397839.9124565       -2916220.4191379547        177747711.24218151     
  -4744215319.2933540       -3441109.7621080875        170540009.07799333     
  -4558331776.5689459       -1629258.7540588379        168150436.96794763     
  -4371747211.7392302        2519332.6050262451        170578994.91203609     
  -4184461624.8042140        9004664.3151006699        177825682.91026521     
  -5257506505.9789295       -2671222.1083858013        7494867.9606121276     
  -5060222521.7236891       -4935298.9855496883        1101909.2561352747     
  -4861855121.2100611       -3587988.3347690105       -399010.35140249989     
  -4662404304.4380627        1370709.8439290524        2992109.1380008855     
  -4461870071.4076710        9940795.5505855083        11275267.724348154     
  -3351679095.3247132        6363427.5094184875        674454139.16057444     
  -3226539540.7337031       -391186.01908755302        668655273.26298404     
  -3101128982.9524412       -6242455.5800936222        666958015.67074263     
  -2975447421.9809279       -11190381.173588157        669362366.38385594     
  -2849494857.8191576       -15234962.799568653        675868325.40231705     
  -3629366136.7627335        7215980.2945253849        509415118.62837893     
  -3493611948.6862164        1937027.7745800018        503622195.04953200     
  -3357849737.8615675       -3315182.2515840530        501552228.69066840     
  -3222079504.2887774       -8540649.7839500904        503205219.55179310     
  -3086301247.9678493       -13739374.822522521        508581167.63290143     
  -3906960313.2559023        8096392.5630857944        343872299.87827295     
  -3761673351.9377813        3968542.9785349369        337778508.10237330     
  -3616641348.3136411       -1009165.5859651566        335029022.46108621     
  -3471864302.3834715       -6836733.1303620338        335623842.95442742     
  -3327342214.1472883       -13514159.654710531        339562969.58238262     
  -4184461624.8042140        9004664.3151006699        177825682.91026521     
  -4030723750.4883938        5703359.5927560329        171124212.42150399     
  -3877503814.3086600        675594.41678357124        167388396.98200610     
  -3724801816.2650342       -6078631.2128729820        166618236.59175554     
  -3572617756.3574796       -14559317.296112537        168813731.25075656     
  -4461870071.4076710        9940795.5505855083        11275267.724348154     
  -4300763144.3380489        7141477.6172907352        3659308.0069399122     
  -4140437135.8466358        1739097.7566204071       -1369647.7465941792     
  -3980892045.9334235       -6266344.0313796997       -3811599.5362224155     
  -3822127874.5984187       -16874847.746738911       -3666547.3619707385     
  -2849494857.8191576       -15234962.799568653        675868325.40231705     
  -2689486946.5052924       -9791144.0607022047        666911251.58096838     
  -2530230172.7426248       -6851117.1591497660        660862486.38843858     
  -2371724536.5311594       -6414882.0949597359        657722029.82471931     
  -2213970037.8708935       -8482438.8680803776        657489881.88982272     
  -3086301247.9678493       -13739374.822522521        508581167.63290143     
  -2917612931.1964035       -9312437.4107332230        498151653.20668519     
  -2749095728.8333998       -5455881.3604124784        491725730.04065305     
  -2580749640.8788395       -2169706.6715817451        489303398.13480783     
  -2412574667.3327260        546086.65577733517        490884657.48914599     
  -3327342214.1472883       -13514159.654710531        339562969.58238262     
  -3146844112.9714842       -9165289.8859467506        328337708.21784776     
  -2965937103.0613871       -3453391.0028448105        322211320.74486369     
  -2784621184.4169631        3621536.9946619272        321183807.16343915     
  -2602896357.0382242        12059494.106548786        325255167.47356743     
  -3572617756.3574796       -14559317.296112537        168813731.25075656     
  -3377180491.8305674       -9349701.4864017963        157469416.61445567     
  -3180754295.4265814       -843646.08643949032        152319258.50107592     
  -2983339167.1455145        10958848.903764606        153363256.91062397     
  -2784935106.9873924        26057783.484202385        160601411.84309304     
  -3822127874.5984187       -16874847.746738911       -3666547.3619707385     
  -3608622067.7736025       -9865672.2119758129       -14453221.603493843     
  -3393547305.9289846        2373353.3888132572       -17950456.690721903     
  -3176903589.0645213        19842229.055745006       -14158252.623660037     
  -2958690917.1802278        42540954.788775921       -3076609.4022928779     
 </DataArray>
 <DataArray  type="Float64" Name="VM" NumberOfComponents="1" format="ascii">
   12935703108.925751     
   11340746857.749792     
   10210194939.268707     
   9272694224.0599556     
   8303798647.1697168     
   10130328905.315058     
   9322006525.9420319     
   8826338250.0602360     
   8443483251.2163057     
   8035630934.7658014     
   7982339880.4729786     
   7734951667.3646479     
   7669135948.5986748     
   7669583184.4935427     
   7666361688.7606621     
   6491649840.2507114     
   6586869211.9108782     
   6757421789.7163467     
   6961225842.6843700     
   7171621080.6275930     
   5657812414.3821278     
   5890919068.0593262     
   6116385491.3072996     
   6331753036.4051132     
   6536799091.8046350     
   8303798647.1697168     
   8020548222.4936419     
   7779410014.4632244     
   7569696526.4957266     
   7386435350.4874668     
   8035630934.7658014     
   7746761549.5636425     
   7473564049.0945301     
   7214079749.2462883     
   6968316089.7219486     
   7666361688.7606621     
   7381087932.0807581     
   7101208317.5504093     
   6826801134.8292246     
   6558070210.1626797     
   7171621080.6275930     
   6910963310.0479231     
   6658208602.3846626     
   6409498068.8232212     
   6161686354.7148151     
   6536799091.8046350     
   6328736292.8431864     
   6142867954.3757782     
   5965284025.0478973     
   5786976344.5522079     
   7386435350.4874668     
   7228092004.4543161     
   7062231401.8289814     
   6888157499.8761892     
   6705682481.6828680     
   6968316089.7219486     
   6814212660.3755980     
   6655497463.5776024     
   6491887382.6887026     
   6323332056.0692949     
   6558070210.1626797     
   6407390140.0305538     
   6255091060.3807507     
   6101141821.8664351     
   5945572729.7892237     
   6161686354.7148151     
   6012623491.0123606     
   5864910322.2619390     
   5718586157.4658985     
   5573708331.8785639     
   5786976344.5522079     
   5636372163.3905888     
   5489978870.3516941     
   5347711153.9561443     
   5209617583.3136301     
   6705682481.6828680     
   6512767873.2926846     
   6323368759.3607597     
   6137365211.7542171     
   5954730326.7764206     
   6323332056.0692949     
   6138449341.3864021     
   5955829708.0642300     
   5775447728.5373344     
   5597324582.1476002     
   5945572729.7892237     
   5771567188.2787504     
   5598949114.5017519     
   5427743112.8062916     
   5258007605.8730764     
   5573708331.8785639     
   5413931680.1058760     
   5255084962.6132212     
   5097212671.9407988     
   4940424373.1879549     
   5209617583.3136301     
   5067933973.5325327     
   4927203365.9809141     
   4787474508.7001047     
   4648948122.1389799     
   5954730326.7764206     
   5782105402.1923132     
   5608160297.5563498     
   5432854520.9446049     
   5256187435.0473537     
   5597324582.1476002     
   5433122899.4525843     
   5268409606.9377375     
   5103200680.4732456     
   4937547883.8148060     
   5258007605.8730764     
   5102651926.7071085     
   4947672263.3844070     
   4793138274.4531031     
   4639154831.2078495     
   4940424373.1879549     
   4794258792.3492584     
   4649420067.7201958     
   4506024377.5840206     
   4364225901.9619198     
   4648948122.1389799     
   4512195114.2977867     
   4377759319.3473969     
   4245790639.3778229     
   4116483038.5420980     
   5256187435.0473537     
   5057757038.2019262     
   4860062168.8926363     
   4663092689.1285620     
   4466891454.9916811     
   4937547883.8148060     
   4751685716.9557610     
   4566813795.2150526     
   4382976783.7743950     
   4200279247.1724753     
   4639154831.2078495     
   4466260964.1378355     
   4294702082.1408935     
   4124590164.6590967     
   3956106823.0101361     
   4364225901.9619198     
   4204924433.2634439     
   4047410082.8615479     
   3891874180.9676080     
   3738589486.7064066     
   4116483038.5420980     
   3971632005.0011268     
   3829138537.6206050     
   3689281669.0105619     
   3552433896.0465941     
   4466891454.9916811     
   4304342991.0281897     
   4141307636.4047704     
   3977768052.9151301     
   3813723737.5775552     
   4200279247.1724753     
   4044453686.1323781     
   3888664618.0065975     
   3732938347.8486362     
   3577329860.4538488     
   3956106823.0101361     
   3808859864.2887940     
   3662400740.8668590     
   3516828447.4044971     
   3372288778.2896914     
   3738589486.7064066     
   3601805292.0972981     
   3466799369.3727469     
   3333766200.2364955     
   3202968107.2162199     
   3552433896.0465941     
   3427914090.2966280     
   3306384771.6519065     
   3188142738.1202192     
   3073570410.2408986     
   3813723737.5775552     
   3603786311.7200456     
   3394876983.4774036     
   3186965391.0195222     
   2980193900.4151998     
   3577329860.4538488     
   3383526223.7794776     
   3191256594.7063904     
   3000614528.2266316     
   2811848198.1834717     
   3372288778.2896914     
   3193319130.2691031     
   3016291214.0612669     
   2841423937.8158536     
   2669077986.0610704     
   3202968107.2162199     
   3038066331.4192162     
   2875402740.0444803     
   2715313497.0920348     
   2558268466.2028575     
   3073570410.2408986     
   2922569858.3287969     
   2773985293.7995043     
   2628250153.2871337     
   2485927234.5852590     
   5657812414.3821278     
   5890919068.0593262     
   6116385491.3072996     
   6331753036.4051132     
   6536799091.8046350     
   5151456478.9545279     
   5311341084.5114403     
   5467857018.8704033     
   5618108946.0090055     
   5760631285.5531664     
   4643486420.2449512     
   4755557783.5459824     
   4868753232.4202766     
   4980437993.0924969     
   5088686796.7538128     
   4134165822.1805639     
   4224406665.8286147     
   4320569278.3752241     
   4420997168.9574633     
   4524235933.5236340     
   3625014679.3374543     
   3719711927.7483883     
   3825663100.8074675     
   3942805126.5365496     
   4071045793.4230819     
   6536799091.8046350     
   6328736292.8431864     
   6142867954.3757782     
   5965284025.0478973     
   5786976344.5522079     
   5760631285.5531664     
   5652192292.6564150     
   5559758328.7088823     
   5474267476.8668461     
   5390179290.7743282     
   5088686796.7538128     
   5054125740.3171921     
   5030077562.1864634     
   5011335612.2296658     
   4994698436.0394516     
   4524235933.5236340     
   4539131727.0584965     
   4558693752.8278513     
   4580441473.4321966     
   4602650936.4188519     
   4071045793.4230819     
   4112537873.7963758     
   4151371383.1462646     
   4186646875.2629857     
   4217631413.2190495     
   5786976344.5522079     
   5636372163.3905888     
   5489978870.3516941     
   5347711153.9561443     
   5209617583.3136301     
   5390179290.7743282     
   5248982525.3253975     
   5111017072.5840349     
   4976325403.0141554     
   4845002315.1566458     
   4994698436.0394516     
   4867327890.1877422     
   4743152731.5965557     
   4622141497.6111126     
   4504335362.8217392     
   4602650936.4188519     
   4494079941.3657856     
   4389729538.3441906     
   4289282768.6243114     
   4192649860.5462260     
   4217631413.2190495     
   4133208832.7596307     
   4055273459.0894537     
   3982974100.2344928     
   3916015581.0805669     
   5209617583.3136301     
   5067933973.5325327     
   4927203365.9809141     
   4787474508.7001047     
   4648948122.1389799     
   4845002315.1566458     
   4720864196.0818291     
   4598544853.0462475     
   4478179424.8204393     
   4360021833.4230986     
   4504335362.8217392     
   4396027259.6824923     
   4290302393.2652445     
   4187346879.4976301     
   4087432299.2919726     
   4192649860.5462260     
   4098342937.1235814     
   4007219300.8531313     
   3919481655.0268497     
   3835388243.1867590     
   3916015581.0805669     
   3833746646.9607210     
   3755026074.0886292     
   3680042754.7019701     
   3609019009.1843734     
   4648948122.1389799     
   4512195114.2977867     
   4377759319.3473969     
   4245790639.3778229     
   4116483038.5420980     
   4360021833.4230986     
   4233767556.6474009     
   4110208700.9035277     
   3989547309.0123339     
   3872039162.5367575     
   4087432299.2919726     
   3973045142.2753439     
   3861934556.9006205     
   3754356135.1955891     
   3650631868.5246711     
   3835388243.1867590     
   3734252314.2907453     
   3637191155.0570383     
   3544509343.1364861     
   3456591939.8840327     
   3609019009.1843734     
   3522430635.4285660     
   3440932904.0300474     
   3364864117.7927737     
   3294656404.5364542     
   4116483038.5420980     
   3971632005.0011268     
   3829138537.6206050     
   3689281669.0105619     
   3552433896.0465941     
   3872039162.5367575     
   3740841909.9372921     
   3612799385.9667392     
   3488254361.6270819     
   3367645663.0780892     
   3650631868.5246711     
   3533383942.3472962     
   3420129774.0775738     
   3311262095.2895317     
   3207266164.9187570     
   3456591939.8840327     
   3353473458.7183933     
   3255194524.6298671     
   3162175039.3515821     
   3074916852.2521334     
   3294656404.5364542     
   3205631610.1783757     
   3122249286.3912988     
   3044925832.3920069     
   2974142752.5850186     
   3552433896.0465941     
   3427914090.2966280     
   3306384771.6519065     
   3188142738.1202192     
   3073570410.2408986     
   3367645663.0780892     
   3255478041.8774157     
   3146768849.1730142     
   3041849660.9983635     
   2941132819.1984191     
   3207266164.9187570     
   3107491704.7963223     
   3011640798.1327543     
   2920068446.1795492     
   2833202003.7539291     
   3074916852.2521334     
   2987561702.8203535     
   2904564013.2312250     
   2826285693.9764061     
   2753149239.8516479     
   2974142752.5850186     
   2899149568.1221857     
   2828880829.4730659     
   2763685350.0988488     
   2703958683.1502891     
   3073570410.2408986     
   2922569858.3287969     
   2773985293.7995043     
   2628250153.2871337     
   2485927234.5852590     
   2941132819.1984191     
   2802505502.3091087     
   2667910180.6277452     
   2537976641.8389707     
   2413496499.9261799     
   2833202003.7539291     
   2709041623.6893201     
   2590709178.8417573     
   2478992608.0116701     
   2374846773.1286573     
   2753149239.8516479     
   2644948041.9252543     
   2544414761.8591647     
   2452410408.1013961     
   2369936131.0744066     
   2703958683.1502891     
   2612339541.7688551     
   2530128861.7271218     
   2458151959.4163270     
   2397327497.7175918     
   3625014679.3374543     
   3719711927.7483883     
   3825663100.8074675     
   3942805126.5365496     
   4071045793.4230819     
   3137999213.4172020     
   3255536269.5180864     
   3382491329.1128922     
   3518395903.4483252     
   3662792715.1774588     
   2694775137.7444253     
   2830541927.0557547     
   2973620147.7352295     
   3122927980.3699012     
   3277554803.1034846     
   2298831150.2171884     
   2449520859.5420113     
   2604931006.9097705     
   2763139180.8557310     
   2922715690.3934069     
   1955375818.7638609     
   2119427024.8501472     
   2284832734.6249642     
   2448632353.7585258     
   2608867390.0693688     
   4071045793.4230819     
   4112537873.7963758     
   4151371383.1462646     
   4186646875.2629857     
   4217631413.2190495     
   3662792715.1774588     
   3702220112.5038319     
   3740260923.6683216     
   3776015023.3353577     
   3808732041.1001401     
   3277554803.1034846     
   3320792906.0087738     
   3364270984.9858990     
   3407165185.0020857     
   3448796704.4644542     
   2922715690.3934069     
   2975639640.8594012     
   3030787897.6663208     
   3087478125.1159430     
   3145177305.9107242     
   2608867390.0693688     
   2676810536.2114367     
   2749266444.4419351     
   2825727435.2217751     
   2905841288.0380640     
   4217631413.2190495     
   4133208832.7596307     
   4055273459.0894537     
   3982974100.2344928     
   3916015581.0805669     
   3808732041.1001401     
   3755765737.9431162     
   3708783729.7181072     
   3667312129.8225503     
   3631255761.6579638     
   3448796704.4644542     
   3422706364.3730779     
   3401718939.3942604     
   3385605572.1120052     
   3374351449.5836267     
   3145177305.9107242     
   3141652687.0690823     
   3141757832.7600913     
   3145393149.6601176     
   3152545688.3323698     
   2905841288.0380640     
   2920906930.9744263     
   2937352873.2262502     
   2955125572.6344166     
   2974187093.9958372     
   3916015581.0805669     
   3833746646.9607210     
   3755026074.0886292     
   3680042754.7019701     
   3609019009.1843734     
   3631255761.6579638     
   3560069746.2498765     
   3493220403.9257784     
   3430926947.0669999     
   3373449034.1951289     
   3374351449.5836267     
   3315675528.1805229     
   3262334568.7074213     
   3214559432.8256807     
   3172629123.1189475     
   3152545688.3323698     
   3107466968.1286244     
   3068914996.8075280     
   3037100601.7420297     
   3012290593.0647111     
   2974187093.9958372     
   2943138422.0136986     
   2919963881.7550263     
   2904811927.2891393     
   2897896196.2758541     
   3609019009.1843734     
   3522430635.4285660     
   3440932904.0300474     
   3364864117.7927737     
   3294656404.5364542     
   3373449034.1951289     
   3302953423.9658012     
   3238066145.8054442     
   3179111545.7913747     
   3126483177.3761697     
   3172629123.1189475     
   3117244690.1186309     
   3067849554.3344197     
   3024726686.7715530     
   2988203520.0049744     
   3012290593.0647111     
   2970722107.9085836     
   2935334817.9732447     
   2906349096.0024233     
   2884008558.6356544     
   2897896196.2758541     
   2868449060.3417764     
   2845146648.5101581     
   2828137557.9317055     
   2817578910.5520020     
   3294656404.5364542     
   3205631610.1783757     
   3122249286.3912988     
   3044925832.3920069     
   2974142752.5850186     
   3126483177.3761697     
   3051166355.3445420     
   2982283812.8538928     
   2920247525.1880932     
   2865523281.4845972     
   2988203520.0049744     
   2926675543.4759655     
   2872361059.0355597     
   2825636755.8809295     
   2786918487.7375045     
   2884008558.6356544     
   2835843379.5568190     
   2795615494.6937118     
   2763636856.0936575     
   2740244069.3777704     
   2817578910.5520020     
   2781706674.8095417     
   2754411284.0275469     
   2735920283.2217665     
   2726475010.6457448     
   2974142752.5850186     
   2899149568.1221857     
   2828880829.4730659     
   2763685350.0988488     
   2703958683.1502891     
   2865523281.4845972     
   2803633243.2138691     
   2747478749.8703799     
   2697406375.4090686     
   2653796817.1018543     
   2786918487.7375045     
   2738173344.2489853     
   2696100041.1386805     
   2661007066.4516459     
   2633222255.2848692     
   2740244069.3777704     
   2704008530.2227192     
   2675265014.5242033     
   2654255803.0552592     
   2641230202.0248723     
   2726475010.6457448     
   2701391466.6634526     
   2684496344.8825483     
   2675952939.5168262     
   2675924592.3135438     
   2703958683.1502891     
   2612339541.7688551     
   2530128861.7271218     
   2458151959.4163270     
   2397327497.7175918     
   2653796817.1018543     
   2580962039.4298940     
   2517776800.7425561     
   2464912265.5845528     
   2423080463.4154525     
   2633222255.2848692     
   2577984486.6243601     
   2532369194.6437516     
   2496878863.0945826     
   2472023360.4732614     
   2641230202.0248723     
   2602028284.8240047     
   2572190402.0675836     
   2552062605.2835970     
   2541982940.7173882     
   2675924592.3135438     
   2650937149.5098224     
   2634890890.8836865     
   2628004878.5217748     
   2630487537.4211054     
   1955375818.7638609     
   2119427024.8501472     
   2284832734.6249642     
   2448632353.7585258     
   2608867390.0693688     
   1653896958.2806361     
   1820337722.3677802     
   1988474260.5352442     
   2155609959.6204410     
   2319986674.3019743     
   1393726336.5863347     
   1571090439.4420271     
   1749458412.8590126     
   1926826478.0324490     
   2101944242.4419093     
   1207180172.5233958     
   1399108979.2178402     
   1590613819.2211802     
   1780917887.2566531     
   1969562612.1045878     
   1136945336.6221204     
   1335247337.2756541     
   1533855768.6869915     
   1732770630.8561327     
   1931991923.7830784     
   2608867390.0693688     
   2676810536.2114367     
   2749266444.4419351     
   2825727435.2217751     
   2905841288.0380640     
   2319986674.3019743     
   2407040679.4497480     
   2496535943.0863223     
   2588083711.0017467     
   2681409134.9627771     
   2101944242.4419093     
   2205693740.0959487     
   2309347922.6261888     
   2412671161.0237036     
   2515497034.4474292     
   1969562612.1045878     
   2086708105.1307962     
   2200991504.3386059     
   2312337968.4852109     
   2420695480.8275867     
   1931991923.7830784     
   2058645929.1150684     
   2179861623.3401651     
   2295639006.4583688     
   2405978078.4696789     
   2905841288.0380640     
   2920906930.9744263     
   2937352873.2262502     
   2955125572.6344166     
   2974187093.9958372     
   2681409134.9627771     
   2703314920.6733522     
   2727620994.0589805     
   2754311204.8706384     
   2783378820.5575166     
   2515497034.4474292     
   2544093510.6460872     
   2576133080.6672711     
   2611618021.0804501     
   2650554661.0153937     
   2420695480.8275867     
   2454371331.9066887     
   2492530391.2798104     
   2535176202.8794055     
   2582313162.1114931     
   2405978078.4696789     
   2441579665.6761622     
   2482692734.8683228     
   2529317286.0461621     
   2581453319.2096796     
   2974187093.9958372     
   2943138422.0136986     
   2919963881.7550263     
   2904811927.2891393     
   2897896196.2758541     
   2783378820.5575166     
   2767019434.5524635     
   2758128256.3419566     
   2756793975.8534265     
   2763139024.4794321     
   2650554661.0153937     
   2645695893.8016834     
   2647607184.4879718     
   2656326040.4204812     
   2671903358.1733408     
   2582313162.1114931     
   2585432490.8622699     
   2594347288.5680232     
   2609065386.6292577     
   2629597577.0678325     
   2581453319.2096796     
   2589052611.3083086     
   2601252994.8666248     
   2618054469.8846292     
   2639457036.3623219     
   2897896196.2758541     
   2868449060.3417764     
   2845146648.5101581     
   2828137557.9317055     
   2817578910.5520020     
   2763139024.4794321     
   2741188031.2220278     
   2726051885.5370836     
   2717833732.5937285     
   2716641116.5065999     
   2671903358.1733408     
   2655733960.8170562     
   2647009518.3798161     
   2645784300.0794849     
   2652114210.3430567     
   2629597577.0678325     
   2616753871.7759771     
   2611932278.6655579     
   2615148142.1118622     
   2626417146.4672699     
   2639457036.3623219     
   2626890805.6497192     
   2622863358.6382155     
   2627374695.3278108     
   2640424815.7184958     
   2817578910.5520020     
   2781706674.8095417     
   2754411284.0275469     
   2735920283.2217665     
   2726475010.6457448     
   2716641116.5065999     
   2691174418.3340011     
   2674370617.6754379     
   2666366019.1385312     
   2667302087.5528779     
   2652114210.3430567     
   2634531659.8112674     
   2625598472.6214490     
   2625377019.8952188     
   2633930931.0820189     
   2626417146.4672699     
   2613790735.2873235     
   2609725535.8061900     
   2614237077.4779902     
   2627341028.1743941     
   2640424815.7184958     
   2629617043.4387431     
   2627233390.7916503     
   2633273857.7772212     
   2647738444.3954477     
   2726475010.6457448     
   2701391466.6634526     
   2684496344.8825483     
   2675952939.5168262     
   2675924592.3135438     
   2667302087.5528779     
   2649575044.3537178     
   2639781733.9109268     
   2638012332.7170992     
   2644355776.0573668     
   2633930931.0820189     
   2621390111.0949187     
   2616502526.3571796     
   2619306743.1826615     
   2629840421.3225489     
   2627341028.1743941     
   2617711558.2149181     
   2615448728.9576368     
   2620561644.1247058     
   2633059148.1170106     
   2647738444.3954477     
   2638762729.5891452     
   2636873799.4496660     
   2642071653.9770107     
   2654356293.1711726     
   2675924592.3135438     
   2650937149.5098224     
   2634890890.8836865     
   2628004878.5217748     
   2630487537.4211054     
   2644355776.0573668     
   2627377969.1529012     
   2619975147.9002395     
   2622283643.7126818     
   2634429602.1812716     
   2629840421.3225489     
   2618833575.5441828     
   2618033165.0686302     
   2627505378.7471857     
   2647310019.9907222     
   2633059148.1170106     
   2625515154.6346669     
   2628859234.2022805     
   2643109327.9395084     
   2668281355.6808372     
   2654356293.1711726     
   2647382758.7745914     
   2652077191.5016723     
   2668439591.3524122     
   2696469958.3268180     
   1136945336.6221204     
   1335247337.2756541     
   1533855768.6869915     
   1732770630.8561327     
   1931991923.7830784     
   1207180172.4922285     
   1399108979.1948988     
   1590613819.2065785     
   1780917887.2509053     
   1969562612.1085167     
   1393726336.5383680     
   1571090439.4032450     
   1749458412.8309431     
   1926826478.0167916     
   2101944242.4405446     
   1653896958.2299488     
   1820337722.3214641     
   1988474260.4963980     
   2155609959.5920429     
   2319986674.2869086     
   1955375818.7205393     
   2119427024.8029528     
   2284832734.5779910     
   2448632353.7156038     
   2608867390.0339737     
   1931991923.7830784     
   2058645929.1150684     
   2179861623.3401651     
   2295639006.4583688     
   2405978078.4696789     
   1969562612.1085167     
   2086708105.1253588     
   2200991504.3228273     
   2312337968.4579678     
   2420695480.7876859     
   2101944242.4405446     
   2205693740.0827346     
   2309347922.5994296     
   2412671160.9816251     
   2515497034.3882022     
   2319986674.2869086     
   2407040679.4270077     
   2496535943.0538330     
   2588083710.9575982     
   2681409134.9050779     
   2608867390.0339737     
   2676810536.1779609     
   2749266444.4083314     
   2825727435.1865535     
   2905841287.9998984     
   2405978078.4696789     
   2441579665.6761622     
   2482692734.8683228     
   2529317286.0461621     
   2581453319.2096796     
   2420695480.7876859     
   2454371331.9311185     
   2492530391.3760238     
   2535176203.0550766     
   2582313162.3743486     
   2515497034.3882022     
   2544093510.6839137     
   2576133080.8152857     
   2611618021.3520732     
   2650554661.4241772     
   2681409134.9050779     
   2703314920.7109990     
   2727620994.2086687     
   2754311205.1492224     
   2783378820.9820580     
   2905841287.9998984     
   2920906930.9981723     
   2937352873.3296957     
   2955125572.8351388     
   2974187094.3115282     
   2581453319.2096796     
   2589052611.3083086     
   2601252994.8666248     
   2618054469.8846292     
   2639457036.3623219     
   2582313162.3743486     
   2585432491.1468873     
   2594347288.8898978     
   2609065387.0034480     
   2629597577.5091839     
   2650554661.4241772     
   2645695894.2626543     
   2647607185.0344195     
   2656326041.0852594     
   2671903358.9890122     
   2783378820.9820580     
   2767019435.0529690     
   2758128256.9714522     
   2756793976.6653805     
   2763139025.5275826     
   2974187094.3115282     
   2943138422.4092278     
   2919963882.3042545     
   2904811928.0684638     
   2897896197.3636489     
   2639457036.3623219     
   2626890805.6497192     
   2622863358.6382155     
   2627374695.3278108     
   2640424815.7184958     
   2629597577.5091839     
   2616753872.2639275     
   2611932279.1964140     
   2615148142.6821232     
   2626417147.0736904     
   2671903358.9890122     
   2655733961.7363963     
   2647009519.3966684     
   2645784301.1879506     
   2652114211.5375543     
   2763139025.5275826     
   2741188032.4400554     
   2726051886.9181700     
   2717833734.1312718     
   2716641118.1942754     
   2897896197.3636489     
   2868449061.6715846     
   2845146650.0764651     
   2828137559.7291641     
   2817578912.5754299     
   2640424815.7184958     
   2629617043.4387431     
   2627233390.7916503     
   2633273857.7772212     
   2647738444.3954477     
   2626417147.0736904     
   2613790736.1157198     
   2609725536.8769665     
   2614237078.8110952     
   2627341029.7891951     
   2652114211.5375543     
   2634531661.4000654     
   2625598474.6436763     
   2625377022.3897500     
   2633930934.0872836     
   2716641118.1942754     
   2691174420.5279412     
   2674370620.4325991     
   2666366022.5167623     
   2667302091.6106658     
   2817578912.5754299     
   2781706677.3846097     
   2754411287.2279954     
   2735920287.1244121     
   2726475015.3303623     
   2647738444.3954477     
   2638762729.5891452     
   2636873799.4496660     
   2642071653.9770107     
   2654356293.1711726     
   2627341029.7891951     
   2617711560.9970250     
   2615448733.1796989     
   2620561650.0553846     
   2633059156.0211859     
   2633930934.0872836     
   2621390115.8776197     
   2616502533.4454670     
   2619306753.1045189     
   2629840434.6061292     
   2667302091.6106658     
   2649575050.1300383     
   2639781742.1740613     
   2638012344.2498102     
   2644355791.6572108     
   2726475015.3303623     
   2701391472.2672749     
   2684496352.3945856     
   2675952949.9679523     
   2675924606.7773848     
   2654356293.1711726     
   2647382758.7745914     
   2652077191.5016723     
   2668439591.3524122     
   2696469958.3268180     
   2633059156.0211859     
   2625515150.7974534     
   2628859218.2078171     
   2643109299.4446321     
   2668281314.4298115     
   2629840434.6061292     
   2618833571.4106750     
   2618033142.8885450     
   2627505337.9545126     
   2647309960.0976825     
   2644355791.6572108     
   2627377967.7736645     
   2619975128.9244514     
   2622283606.4907317     
   2634429546.0289907     
   2675924606.7773848     
   2650937153.3161788     
   2634890883.7335849     
   2628004859.9040365     
   2630487506.5685735     
   1955375818.7205393     
   2119427024.8029528     
   2284832734.5779910     
   2448632353.7156038     
   2608867390.0339737     
   2298831150.1846509     
   2449520859.4996657     
   2604931006.8599710     
   2763139180.8005471     
   2922715690.3345966     
   2694775137.7207961     
   2830541927.0198016     
   2973620147.6876550     
   3122927980.3111095     
   3277554803.0336041     
   3137999213.3998771     
   3255536269.4893851     
   3382491329.0720711     
   3518395903.3942943     
   3662792715.1088276     
   3625014679.3235092     
   3719711927.7274141     
   3825663100.7774916     
   3942805126.4951711     
   4071045793.3675051     
   2608867390.0339737     
   2676810536.1779609     
   2749266444.4083314     
   2825727435.1865535     
   2905841287.9998984     
   2922715690.3345966     
   2975639640.8078160     
   3030787897.6216908     
   3087478125.0786052     
   3145177305.8813453     
   3277554803.0336041     
   3320792905.9472418     
   3364270984.9338040     
   3407165184.9610863     
   3448796704.4365902     
   3662792715.1088276     
   3702220112.4406176     
   3740260923.6126103     
   3776015023.2896614     
   3808732041.0672765     
   4071045793.3675051     
   4112537873.7394180     
   4151371383.0907388     
   4186646875.2119021     
   4217631413.1755219     
   2905841287.9998984     
   2920906930.9981723     
   2937352873.3296957     
   2955125572.8351388     
   2974187094.3115282     
   3145177305.8813453     
   3141652687.0530415     
   3141757832.7650228     
   3145393149.6935015     
   3152545688.4022098     
   3448796704.4365902     
   3422706364.3228645     
   3401718939.3208265     
   3385605572.0142479     
   3374351449.4610553     
   3808732041.0672765     
   3755765737.8687181     
   3708783729.5945997     
   3667312129.6419206     
   3631255761.4125323     
   4217631413.1755219     
   4133208832.6733780     
   4055273458.9479575     
   3982974100.0245605     
   3916015580.7888126     
   2974187094.3115282     
   2943138422.4092278     
   2919963882.3042545     
   2904811928.0684638     
   2897896197.3636489     
   3152545688.4022098     
   3107466968.2050352     
   3068914996.9390216     
   3037100601.9797268     
   3012290593.4621143     
   3374351449.4610553     
   3315675527.9992547     
   3262334568.4921885     
   3214559432.6031446     
   3172629122.9176435     
   3631255761.4125323     
   3560069745.9043183     
   3493220403.4833589     
   3430926946.5317230     
   3373449033.5716195     
   3916015580.7888126     
   3833746646.5617409     
   3755026073.5672116     
   3680042754.0422130     
   3609019008.3694215     
   2897896197.3636489     
   2868449061.6715846     
   2845146650.0764651     
   2828137559.7291641     
   2817578912.5754299     
   3012290593.4621143     
   2970722108.4066410     
   2935334818.5687842     
   2906349096.6919770     
   2884008559.4154291     
   3172629122.9176435     
   3117244689.9068398     
   3067849554.1112285     
   3024726686.5350518     
   2988203519.7521439     
   3373449033.5716195     
   3302953423.2495151     
   3238066144.9977274     
   3179111544.8916969     
   3126483176.3817859     
   3609019008.3694215     
   3522430634.4646063     
   3440932902.9210505     
   3364864116.5398250     
   3294656403.1371703     
   2817578912.5754299     
   2781706677.3846097     
   2754411287.2279954     
   2735920287.1244121     
   2726475015.3303623     
   2884008559.4154291     
   2835843380.6286860     
   2795615496.1110392     
   2763636857.9148784     
   2740244071.6667581     
   2988203519.7521439     
   2926675543.2280073     
   2872361058.8177857     
   2825636755.7248535     
   2786918487.6817727     
   3126483176.3817859     
   3051166354.0656071     
   2982283811.2807364     
   2920247523.3168044     
   2865523279.3184023     
   3294656403.1371703     
   3205631608.2256866     
   3122249283.8360281     
   3044925829.1885586     
   2974142748.6927910     
   2726475015.3303623     
   2701391472.2672749     
   2684496352.3945856     
   2675952949.9679523     
   2675924606.7773848     
   2740244071.6667581     
   2704008531.7463388     
   2675265015.8535237     
   2654255804.8028388     
   2641230204.8468838     
   2786918487.6817727     
   2738173342.2282062     
   2696100037.3351226     
   2661007061.0747404     
   2633222248.5733485     
   2865523279.3184023     
   2803633238.5425673     
   2747478742.5304070     
   2697406365.2357001     
   2653796803.9282990     
   2974142748.6927910     
   2899149561.9705210     
   2828880820.6165767     
   2763685338.0539312     
   2703958667.3869090     
   2675924606.7773848     
   2650937153.3161788     
   2634890883.7335849     
   2628004859.9040365     
   2630487506.5685735     
   2641230204.8468838     
   2602028282.4537544     
   2572190394.4815598     
   2552062592.2371101     
   2541982921.7071500     
   2633222248.5733485     
   2577984479.0227757     
   2532369186.3853636     
   2496878854.2014785     
   2472023350.7208533     
   2653796803.9282990     
   2580962028.4234953     
   2517776792.3496218     
   2464912260.0732188     
   2423080460.8405347     
   2703958667.3869090     
   2612339530.0020404     
   2530128854.5378380     
   2458151957.2602663     
   2397327500.8933058     
   3625014679.3235092     
   3719711927.7274141     
   3825663100.7774916     
   3942805126.4951711     
   4071045793.3675051     
   4134165822.1700783     
   4224406665.8151226     
   4320569278.3573885     
   4420997168.9336967     
   4524235933.4921799     
   4643486420.2411671     
   4755557783.5417814     
   4868753232.4151049     
   4980437993.0857687     
   5088686796.7449598     
   5151456478.9607458     
   5311341084.5182180     
   5467857018.8780737     
   5618108946.0180225     
   5760631285.5641003     
   5657812414.4016857     
   5890919068.0787334     
   6116385491.3278189     
   6331753036.4281673     
   6536799091.8317347     
   4071045793.3675051     
   4112537873.7394180     
   4151371383.0907388     
   4186646875.2119021     
   4217631413.1755219     
   4524235933.4921799     
   4539131727.0225000     
   4558693752.7879944     
   4580441473.3892775     
   4602650936.3738136     
   5088686796.7449598     
   5054125740.3040514     
   5030077562.1677170     
   5011335612.2041111     
   4994698436.0060997     
   5760631285.5641003     
   5652192292.6670284     
   5559758328.7162361     
   5474267476.8681116     
   5390179290.7669487     
   6536799091.8317347     
   6328736292.8778105     
   6142867954.4138699     
   5965284025.0855026     
   5786976344.5856981     
   4217631413.1755219     
   4133208832.6733780     
   4055273458.9479575     
   3982974100.0245605     
   3916015580.7888126     
   4602650936.3738136     
   4494079941.2869749     
   4389729538.2241964     
   4289282768.4551716     
   4192649860.3194776     
   4994698436.0060997     
   4867327890.1288366     
   4743152731.5092859     
   4622141497.4923077     
   4504335362.6677952     
   5390179290.7669487     
   5248982525.2970963     
   5111017072.5360346     
   4976325402.9474792     
   4845002315.0721455     
   5786976344.5856981     
   5636372163.4021292     
   5489978870.3459587     
   5347711153.9376993     
   5209617583.2872324     
   3916015580.7888126     
   3833746646.5617409     
   3755026073.5672116     
   3680042754.0422130     
   3609019008.3694215     
   4192649860.3194776     
   4098342936.8445816     
   4007219300.5100813     
   3919481654.6073995     
   3835388242.6775918     
   4504335362.6677952     
   4396027259.5323820     
   4290302393.1103306     
   4187346879.3288732     
   4087432299.0994000     
   4845002315.0721455     
   4720864196.0563745     
   4598544853.0740223     
   4478179424.8954344     
   4360021833.5384703     
   5209617583.2872324     
   5067933973.6182184     
   4927203366.1753035     
   4787474508.9998503     
   4648948122.5401163     
   3609019008.3694215     
   3522430634.4646063     
   3440932902.9210505     
   3364864116.5398250     
   3294656403.1371703     
   3835388242.6775918     
   3734252313.6907763     
   3637191154.3668604     
   3544509342.3545532     
   3456591939.0064788     
   4087432299.0994000     
   3973045142.0222130     
   3861934556.5825162     
   3754356134.8066149     
   3650631868.0574651     
   4360021833.5384703     
   4233767556.7101064     
   4110208700.9025645     
   3989547308.9357858     
   3872039162.3717904     
   4648948122.5401163     
   4512195114.6370535     
   4377759319.6058226     
   4245790639.5359993     
   4116483038.5800138     
   3294656403.1371703     
   3205631608.2256866     
   3122249283.8360281     
   3044925829.1885586     
   2974142748.6927910     
   3456591939.0064788     
   3353473457.2068176     
   3255194522.4264250     
   3162175036.3969975     
   3074916848.4864726     
   3650631868.0574651     
   3533383941.2681255     
   3420129772.3320069     
   3311262092.8175387     
   3207266161.6543641     
   3872039162.3717904     
   3740841909.2677789     
   3612799384.7525110     
   3488254359.8198342     
   3367645660.6196980     
   4116483038.5800138     
   3971632004.7100778     
   3829138536.9833946     
   3689281668.0011544     
   3552433894.6272855     
   2974142748.6927910     
   2899149561.9705210     
   2828880820.6165767     
   2763685338.0539312     
   2703958667.3869090     
   3074916848.4864726     
   2987561697.7969942     
   2904564006.6384282     
   2826285685.4643097     
   2753149229.0232739     
   3207266161.6543641     
   3107491701.1822057     
   3011640793.9787116     
   2920068441.2617464     
   2833201997.8060985     
   3367645660.6196980     
   3255478039.8172164     
   3146768847.4244933     
   3041849659.4492044     
   2941132817.7032366     
   3552433894.6272855     
   3427914089.8180890     
   3306384772.1094794     
   3188142739.4931378     
   3073570412.4876146     
   2703958667.3869090     
   2612339530.0020404     
   2530128854.5378380     
   2458151957.2602663     
   2397327500.8933058     
   2753149229.0232739     
   2644948037.0893641     
   2544414763.6576862     
   2452410417.1619997     
   2369936147.9852839     
   2833201997.8060985     
   2709041623.7468724     
   2590709185.3821516     
   2478992621.5965309     
   2374846794.4083996     
   2941132817.7032366     
   2802505505.2572227     
   2667910188.0919023     
   2537976654.0330291     
   2413496517.2491512     
   3073570412.4876146     
   2922569862.3365102     
   2773985299.0340366     
   2628250159.3613405     
   2485927241.3366556     
   5657812414.4016857     
   5890919068.0787334     
   6116385491.3278189     
   6331753036.4281673     
   6536799091.8317347     
   6491649840.2809830     
   6586869211.9462852     
   6757421789.7566051     
   6961225842.7289600     
   7171621080.6757755     
   7982339880.5056114     
   7734951667.4090004     
   7669135948.6532192     
   7669583184.5566139     
   7666361688.8304796     
   10130328905.342009     
   9322006525.9884357     
   8826338250.1239223     
   8443483251.2950830     
   8035630934.8579407     
   12935703108.939123     
   11340746857.791765     
   10210194939.337030     
   9272694224.1520538     
   8303798647.2843971     
   6536799091.8317347     
   6328736292.8778105     
   6142867954.4138699     
   5965284025.0855026     
   5786976344.5856981     
   7171621080.6757755     
   6910963310.1078281     
   6658208602.4546309     
   6409498068.9015760     
   6161686354.7999249     
   7666361688.8304796     
   7381087932.1621971     
   7101208317.6433086     
   6826801134.9333267     
   6558070210.2775955     
   8035630934.8579407     
   7746761549.6625633     
   7473564049.2007389     
   7214079749.3602896     
   6968316089.8441305     
   8303798647.2843971     
   8020548222.6055021     
   7779410014.5725622     
   7569696526.6032953     
   7386435350.5943127     
   5786976344.5856981     
   5636372163.4021292     
   5489978870.3459587     
   5347711153.9376993     
   5209617583.2872324     
   6161686354.7999249     
   6012623491.0821457     
   5864910322.3179808     
   5718586157.5096378     
   5573708331.9113045     
   6558070210.2775955     
   6407390140.1493759     
   6255091060.5032797     
   6101141821.9923077     
   5945572729.9177179     
   6968316089.8441305     
   6814212660.5346184     
   6655497463.7724228     
   6491887382.9182425     
   6323332056.3322306     
   7386435350.5943127     
   7228092004.6452570     
   7062231402.1027327     
   6888157500.2318964     
   6705682482.1200075     
   5209617583.2872324     
   5067933973.6182184     
   4927203366.1753035     
   4787474508.9998503     
   4648948122.5401163     
   5573708331.9113045     
   5413931680.2631350     
   5255084962.8984327     
   5097212672.3578987     
   4940424373.7413673     
   5945572729.9177179     
   5771567188.5043526     
   5598949114.8311052     
   5427743113.2466354     
   5258007606.4325762     
   6323332056.3322306     
   6138449341.6785355     
   5955829708.3922091     
   5775447728.9083853     
   5597324582.5700312     
   6705682482.1200075     
   6512767873.6507845     
   6323368759.6435804     
   6137365211.9663267     
   5954730326.9236116     
   4648948122.5401163     
   4512195114.6370535     
   4377759319.6058226     
   4245790639.5359993     
   4116483038.5800138     
   4940424373.7413673     
   4794258792.8365898     
   4649420068.1266890     
   4506024377.8944483     
   4364225902.1606817     
   5258007606.4325762     
   5102651927.1851454     
   4947672263.7702627     
   4793138274.7355938     
   4639154831.3756170     
   5597324582.5700312     
   5433122899.7661982     
   5268409607.1353331     
   5103200680.5471630     
   4937547883.7572622     
   5954730326.9236116     
   5782105402.1911516     
   5608160297.4024506     
   5432854520.6330023     
   5256187434.5728779     
   4116483038.5800138     
   3971632004.7100778     
   3829138536.9833946     
   3689281668.0011544     
   3552433894.6272855     
   4364225902.1606817     
   4204924433.3831606     
   4047410082.8981814     
   3891874180.9105611     
   3738589486.5360184     
   4639154831.3756170     
   4466260964.4520521     
   4294702082.6087575     
   4124590165.2836556     
   3956106823.7883101     
   4937547883.7572622     
   4751685717.2475471     
   4566813795.8722324     
   4382976784.8111610     
   4200279248.5996499     
   5256187434.5728779     
   5057757038.2601051     
   4860062169.5060987     
   4663092690.3199987     
   4466891456.7828465     
   3552433894.6272855     
   3427914089.8180890     
   3306384772.1094794     
   3188142739.4931378     
   3073570412.4876146     
   3738589486.5360184     
   3601805293.1130853     
   3466799371.6033878     
   3333766203.7081842     
   3202968111.9517727     
   3956106823.7883101     
   3808859866.1526217     
   3662400743.8339252     
   3516828451.4975753     
   3372288783.5392632     
   4200279248.5996499     
   4044453688.2328873     
   3888664620.7492161     
   3732938351.2082605     
   3577329864.4163013     
   4466891456.7828465     
   4304342992.8081808     
   4141307638.0653162     
   3977768054.3496985     
   3813723738.6870275     
   3073570412.4876146     
   2922569862.3365102     
   2773985299.0340366     
   2628250159.3613405     
   2485927241.3366556     
   3202968111.9517727     
   3038066335.4742842     
   2875402742.8411779     
   2715313498.1229358     
   2558268465.0702424     
   3372288783.5392632     
   3193319133.3272586     
   3016291214.4498453     
   2841423935.0757613     
   2669077979.7644353     
   3577329864.4163013     
   3383526224.7190008     
   3191256592.3521504     
   3000614522.3047099     
   2811848188.4170780     
   3813723738.6870275     
   3603786309.4108992     
   3394876977.7517738     
   3186965381.8827777     
   2980193887.8799624     
 </DataArray>
 <DataArray  type="Float64" Name="strain" NumberOfComponents="3" format="ascii">
  0.20348666010162547        0.0000000000000000       0.12540779838504570     
  0.18665607427829620       -2.7324998671502163E-002   7.4352589638700700E-002
  0.16982548845496695       -4.4676138842512043E-002   3.5131780371878758E-002
  0.15299490263163770       -5.2053420513029677E-002   7.7453705845798825E-003
  0.13616431680830843       -4.9456843683055016E-002  -7.8066397231959378E-003
  0.15985561135383161        0.0000000000000000        9.6450689416586133E-002
  0.15317775038107140       -2.1844879156802478E-002   6.2691432661746205E-002
  0.14649988940831118       -3.6174936596868192E-002   3.7403226128521289E-002
  0.13982202843555097       -4.2990172320197140E-002   2.0586069816911370E-002
  0.13314416746279076       -4.2290586326789337E-002   1.2239963726916540E-002
  0.12645784911788233        0.0000000000000000        7.4203218354703990E-002
  0.12656936373778313       -1.6364759642102791E-002   5.5280876807613635E-002
  0.12668087835768391       -2.7673734351224329E-002   4.1466236224230277E-002
  0.12679239297758468       -3.3926924127364616E-002   3.2759296604553845E-002
  0.12690390759748552       -3.5124328970523665E-002   2.9160057948584461E-002
  0.10329337339377762        0.0000000000000000        5.8665385199399303E-002
  0.10683091434843138       -1.0884640127403105E-002   5.2120922076303006E-002
  0.11036845530308516       -1.9172532105580467E-002   4.7320810659005626E-002
  0.11390599625773894       -2.4863675934532099E-002   4.4265050947507233E-002
  0.11744353721239267       -2.7958071614257989E-002   4.2953642941807792E-002
   9.0362184181517494E-002   0.0000000000000000        4.9837189950672052E-002
   9.3962402213016202E-002  -5.4045206127034178E-003   5.3211568467814274E-002
   9.7562620244514897E-002  -1.0671329859936605E-002   5.4966949432847433E-002
  0.10116283827601361       -1.5800427741699572E-002   5.5103332845771492E-002
  0.10476305630751230       -2.0791814257992314E-002   5.3620718706586482E-002
  0.13616431680830843       -4.9456843683055016E-002  -7.8066397231959378E-003
  0.13295863720418710       -4.2921942153037844E-002  -3.3899729604330922E-003
  0.12975295760006578       -3.8484249723427816E-002  -3.8823653210644238E-004
  0.12654727799594448       -3.6143766394225021E-002   1.1985695617839805E-003
  0.12334159839182315       -3.5900492165429426E-002   1.3704453212381451E-003
  0.13314416746279076       -4.2290586326789337E-002   1.2239963726916540E-002
  0.12891174467369887       -3.8424677864649190E-002   1.2185014179517926E-002
  0.12467932188460702       -3.5740946181781100E-002   1.1491508596614370E-002
  0.12044689909551515       -3.4239391278185156E-002   1.0159446978206010E-002
  0.11621447630642326       -3.3920013153861173E-002   8.1888293242927263E-003
  0.12690390759748552       -3.5124328970523665E-002   2.9160057948584461E-002
  0.12242111592235445       -3.3927413576260557E-002   2.5548524412159431E-002
  0.11793832424722338       -3.2997642640134398E-002   2.2074809139160802E-002
  0.11345553257209230       -3.2335016162145215E-002   1.8738912129588677E-002
  0.10897274089696127       -3.1939534142292961E-002   1.5540833383443135E-002
  0.11744353721239267       -2.7958071614257989E-002   4.2953642941807792E-002
  0.11348675095015377       -2.9430149287871923E-002   3.6700557737491465E-002
  0.10952996468791489       -3.0254339098487681E-002   3.1361665095532940E-002
  0.10557317842567600       -3.0430641046105291E-002   2.6936965015932204E-002
  0.10161639216343710       -2.9959055130724714E-002   2.3426457498689372E-002
  0.10476305630751230       -2.0791814257992314E-002   5.3620718706586482E-002
  0.10210864975709692       -2.4932884999483276E-002   4.5641114155513987E-002
   9.9454243206681531E-002  -2.7511035556840969E-002   3.9352076465730655E-002
   9.6799836656266153E-002  -2.8526265930065360E-002   3.4753605637236527E-002
   9.4145430105850761E-002  -2.7978576119156454E-002   3.1845701670031590E-002
  0.12334159839182315       -3.5900492165429426E-002   1.3704453212381451E-003
  0.12040647275217398       -3.6398122301732880E-002   6.3452049366208296E-004
  0.11747134711252481       -3.6280352067827308E-002   9.3452386647416286E-005
  0.11453622147287562       -3.5547181463712496E-002  -2.5275899980532757E-004
  0.11160109583322647       -3.4198610489388714E-002  -4.0411366569631513E-004
  0.11621447630642326       -3.3920013153861173E-002   8.1888293242927263E-003
  0.11345983450283163       -3.3995058180443460E-002   7.8282837119845045E-003
  0.11070519269923997       -3.3676772729565922E-002   7.6338490512295118E-003
  0.10795055089564831       -3.2965156801228704E-002   7.6055253420279356E-003
  0.10519590909205667       -3.1860210395431660E-002   7.7433125843796580E-003
  0.10897274089696127       -3.1939534142292961E-002   1.5540833383443135E-002
  0.10636983716041869       -3.1591994059153965E-002   1.5333597093653624E-002
  0.10376693342387606       -3.1073193391304595E-002   1.5263725986408978E-002
  0.10116402968733343       -3.0383132138744773E-002   1.5331220061709011E-002
   9.8561125950790904E-002  -2.9521810301474577E-002   1.5536079319553975E-002
  0.10161639216343710       -2.9959055130724714E-002   2.3426457498689372E-002
   9.9136480724935111E-002  -2.9188929937864493E-002   2.3150460638669289E-002
   9.6656569286433097E-002  -2.8469614053043268E-002   2.2983083192185401E-002
   9.4176657847931070E-002  -2.7801107476260911E-002   2.2924325159238045E-002
   9.1696746409429125E-002  -2.7183410207517564E-002   2.2974186539827045E-002
   9.4145430105850761E-002  -2.7978576119156454E-002   3.1845701670031590E-002
   9.1759765196380905E-002  -2.6785865816575043E-002   3.1278874347031416E-002
   8.9374100286911062E-002  -2.5866034714781921E-002   3.0791920668559174E-002
   8.6988435377441206E-002  -2.5219082813777025E-002   3.0384840634614874E-002
   8.4602770467971322E-002  -2.4845010113560440E-002   3.0057634245198417E-002
  0.11160109583322647       -3.4198610489388714E-002  -4.0411366569631513E-004
  0.10852104028764237       -3.2669999030144059E-002  -1.5775128147257900E-004
  0.10544098474205824       -3.1396706971267146E-002   1.2666093041263649E-004
  0.10236092919647412       -3.0378734312757498E-002   4.4912296995888723E-004
   9.9280873650890000E-002  -2.9616081054615717E-002   8.0963483716639528E-004
  0.10519590909205667       -3.1860210395431660E-002   7.7433125843796580E-003
  0.10218708933990842       -3.0635242721864367E-002   7.5889608631387190E-003
   9.9178269587760104E-002  -2.9563562990216542E-002   7.5390309011082596E-003
   9.6169449835611848E-002  -2.8645171200487977E-002   7.5935226982884740E-003
   9.3160630083463536E-002  -2.7880067352678672E-002   7.7524362546791403E-003
   9.8561125950790904E-002  -2.9521810301474577E-002   1.5536079319553975E-002
   9.5689913923627787E-002  -2.8600486413584730E-002   1.5083044951296525E-002
   9.2818701896464628E-002  -2.7730419009165938E-002   1.4800804273799005E-002
   8.9947489869301497E-002  -2.6911608088218183E-002   1.4689357287061236E-002
   8.7076277842138394E-002  -2.6144053650741544E-002   1.4748703991083176E-002
   9.1696746409429125E-002  -2.7183410207517564E-002   2.2974186539827045E-002
   8.9029514038800453E-002  -2.6565730105305038E-002   2.2324500983001282E-002
   8.6362281668171767E-002  -2.5897275028115306E-002   2.1911981048484637E-002
   8.3695049297543109E-002  -2.5178044975948499E-002   2.1736626736277173E-002
   8.1027816926914437E-002  -2.4408039948804458E-002   2.1798438046378720E-002
   8.4602770467971322E-002  -2.4845010113560440E-002   3.0057634245198417E-002
   8.2205889685426442E-002  -2.4530973797025332E-002   2.9313328958252741E-002
   7.9809008902881534E-002  -2.4064131047064660E-002   2.8872561225165322E-002
   7.7412128120336640E-002  -2.3444481863678823E-002   2.8735331045936494E-002
   7.5015247337791718E-002  -2.2672026246867372E-002   2.8901638420565950E-002
   9.9280873650890000E-002  -2.9616081054615717E-002   8.0963483716639528E-004
   9.6363593321145524E-002  -2.8929019080061069E-002   4.3987606309980887E-004
   9.3446312991401048E-002  -2.8137820272313110E-002   2.3581359850211037E-004
   9.0529032661656600E-002  -2.7242484631372205E-002   1.9744744337306386E-004
   8.7611752331912096E-002  -2.6243012157238121E-002   3.2477759771254444E-004
   9.3160630083463536E-002  -2.7880067352678672E-002   7.7524362546791403E-003
   9.0405984953871227E-002  -2.7158617330647672E-002   7.5005662591749733E-003
   8.7651339824279029E-002  -2.6371187018254472E-002   7.4082703545067241E-003
   8.4896694694686775E-002  -2.5517776415498628E-002   7.4755485406740041E-003
   8.2142049565094521E-002  -2.4598385522380584E-002   7.7024008176770908E-003
   8.7076277842138394E-002  -2.6144053650741544E-002   1.4748703991083176E-002
   8.4478145694065254E-002  -2.5388215581234552E-002   1.4576566231310983E-002
   8.1880013545992128E-002  -2.4604553764195826E-002   1.4557880343741426E-002
   7.9281881397918974E-002  -2.3793068199625268E-002   1.4692646328374744E-002
   7.6683749249845862E-002  -2.2953758887522935E-002   1.4980864185210357E-002
   8.1027816926914437E-002  -2.4408039948804458E-002   2.1798438046378720E-002
   7.8580075541727412E-002  -2.3617813831821294E-002   2.1667875979507839E-002
   7.6132334156540360E-002  -2.2837920510137128E-002   2.1684643566206419E-002
   7.3684592771353322E-002  -2.2068359983751801E-002   2.1848740806474528E-002
   7.1236851386166297E-002  -2.1309132252665342E-002   2.2160167700312337E-002
   7.5015247337791718E-002  -2.2672026246867372E-002   2.8901638420565950E-002
   7.2711774496857756E-002  -2.1847412082407980E-002   2.8774495503765624E-002
   7.0408301655923752E-002  -2.1071287256078416E-002   2.8788560021901527E-002
   6.8104828814989776E-002  -2.0343651767878303E-002   2.8943831974973994E-002
   6.5801355974055786E-002  -1.9664505617807748E-002   2.9240311362982885E-002
   8.7611752331912096E-002  -2.6243012157238121E-002   3.2477759771254444E-004
   8.4312365533803002E-002  -2.5218857621105095E-002   4.7749385142625833E-005
   8.1012978735693797E-002  -2.4249475794167391E-002  -1.7290463521280053E-005
   7.7713591937584647E-002  -2.3334866676424655E-002   1.2965805172140965E-004
   7.4414205139475498E-002  -2.2475030267877449E-002   4.8859493086994554E-004
   8.2142049565094521E-002  -2.4598385522380584E-002   7.7024008176770908E-003
   7.9053049768247008E-002  -2.3663724764175414E-002   7.3900670593398388E-003
   7.5964049971399550E-002  -2.2764504566158944E-002   7.2865189396198460E-003
   7.2875050174552092E-002  -2.1900724928331110E-002   7.3917564585174317E-003
   6.9786050377704634E-002  -2.1072385850691711E-002   7.7057796160317493E-003
   7.6683749249845862E-002  -2.2953758887522935E-002   1.4980864185210357E-002
   7.3801933728971272E-002  -2.2108591907245845E-002   1.4652557030112284E-002
   7.0920118208096655E-002  -2.1279533338150594E-002   1.4529832788342814E-002
   6.8038302687222080E-002  -2.0466583180237228E-002   1.4612691459902155E-002
   6.5156487166347449E-002  -1.9669741433505916E-002   1.4901133044789378E-002
   7.1236851386166297E-002  -2.1309132252665342E-002   2.2160167700312337E-002
   6.8559017415975712E-002  -2.0553459050316109E-002   2.1835219297460469E-002
   6.5881183445785141E-002  -1.9794562110142085E-002   2.1712651082648093E-002
   6.3203349475594583E-002  -1.9032441432143402E-002   2.1792463055875351E-002
   6.0525515505403991E-002  -1.8267097016320150E-002   2.2074655217142268E-002
   6.5801355974055786E-002  -1.9664505617807748E-002   2.9240311362982885E-002
   6.3324300829260383E-002  -1.8998326193386456E-002   2.8938053861383650E-002
   6.0847245684464951E-002  -1.8309590882133700E-002   2.8834973822535109E-002
   5.8370190539669589E-002  -1.7598299684049749E-002   2.8931071246437443E-002
   5.5893135394874172E-002  -1.6864452599134383E-002   2.9226346133090442E-002
   7.4414205139475498E-002  -2.2475030267877449E-002   4.8859493086994554E-004
   7.1715093099322336E-002  -2.1622840331645354E-002   1.5856999796182158E-004
   6.9015981059169174E-002  -2.0731170630848200E-002  -5.9351443254362923E-005
   6.6316869019015984E-002  -1.9800021165486188E-002  -1.6516939277985698E-004
   6.3617756978862849E-002  -1.8829391935558881E-002  -1.5888385061435528E-004
   6.9786050377704634E-002  -2.1072385850691711E-002   7.7057796160317493E-003
   6.7207245938324556E-002  -2.0248674730230010E-002   7.4153825478190383E-003
   6.4628441498944422E-002  -1.9398778963934632E-002   7.2534971894609446E-003
   6.2049637059564261E-002  -1.8522698551806584E-002   7.2201235409574821E-003
   5.9470832620184211E-002  -1.7620433493844567E-002   7.3152616023094419E-003
   6.5156487166347449E-002  -1.9669741433505916E-002   1.4901133044789378E-002
   6.2714398545904132E-002  -1.8874509128814693E-002   1.4637068722539365E-002
   6.0272309925460774E-002  -1.8066387297021716E-002   1.4517924328308202E-002
   5.7830221305017408E-002  -1.7245375938126976E-002   1.4543699862095770E-002
   5.5388132684574126E-002  -1.6411475052130475E-002   1.4714395323901730E-002
   6.0525515505403991E-002  -1.8267097016320150E-002   2.2074655217142268E-002
   5.8236550922061155E-002  -1.7500343527399584E-002   2.1823628522123793E-002
   5.5947586338718380E-002  -1.6733995630108474E-002   2.1733929973287814E-002
   5.3658621755375557E-002  -1.5968053324447590E-002   2.1805559570634223E-002
   5.1369657172032818E-002  -1.5202516610416272E-002   2.2038517314162787E-002
   5.5893135394874172E-002  -1.6864452599134383E-002   2.9226346133090442E-002
   5.3773703066795603E-002  -1.6126177925984142E-002   2.8975061946571679E-002
   5.1654270738717062E-002  -1.5401603963195218E-002   2.8901514124399397E-002
   4.9534838410638549E-002  -1.4690730710768009E-002   2.9005702666573221E-002
   4.7415406082559952E-002  -1.3993558168702125E-002   2.9287627573092945E-002
   6.3617756978862849E-002  -1.8829391935558881E-002  -1.5888385061435528E-004
   6.0094372797062201E-002  -1.7878682519888889E-002  -6.2630640928840187E-004
   5.6570988615261497E-002  -1.7007292497299042E-002  -7.7785327406776350E-004
   5.3047604433460682E-002  -1.6215221867788399E-002  -6.1352444495146874E-004
   4.9524220251660145E-002  -1.5502470631357568E-002  -1.3331992193998943E-004
   5.9470832620184211E-002  -1.7620433493844567E-002   7.3152616023094419E-003
   5.6239593005810384E-002  -1.6730074124864380E-002   6.8236746317967834E-003
   5.3008353391436558E-002  -1.5889710779681543E-002   6.6005011022427507E-003
   4.9777113777062731E-002  -1.5099343458295209E-002   6.6457410136464279E-003
   4.6545874162688849E-002  -1.4358972160705807E-002   6.9593943660093416E-003
   5.5388132684574126E-002  -1.6411475052130475E-002   1.4714395323901730E-002
   5.2401575384690202E-002  -1.5581465729839983E-002   1.4227967310833922E-002
   4.9415018084806306E-002  -1.4772129062064265E-002   1.3962490485787571E-002
   4.6428460784922354E-002  -1.3983465048801741E-002   1.3917964848762274E-002
   4.3441903485038458E-002  -1.3215473690054047E-002   1.4094390399758794E-002
   5.1369657172032818E-002  -1.5202516610416272E-002   2.2038517314162787E-002
   4.8580319933701842E-002  -1.4432857334815752E-002   2.1586571627822390E-002
   4.5790982695370852E-002  -1.3654547344446544E-002   2.1308114876566225E-002
   4.3001645457039953E-002  -1.2867586639308745E-002   2.1203147060394979E-002
   4.0212308218709011E-002  -1.2071975219402287E-002   2.1271668179308034E-002
   4.7415406082559952E-002  -1.3993558168702125E-002   2.9287627573092945E-002
   4.4775826652845074E-002  -1.3284248939791410E-002   2.8899487582762562E-002
   4.2136247223130169E-002  -1.2536965626829363E-002   2.8637374274579880E-002
   3.9496667793415305E-002  -1.1751708229815357E-002   2.8501287648544940E-002
   3.6857088363700385E-002  -1.0928476748750526E-002   2.8491227704657174E-002
   9.0362184181517494E-002   0.0000000000000000        4.9837189950672052E-002
   9.3962402213016202E-002  -5.4045206127034178E-003   5.3211568467814274E-002
   9.7562620244514897E-002  -1.0671329859936605E-002   5.4966949432847433E-002
  0.10116283827601361       -1.5800427741699572E-002   5.5103332845771492E-002
  0.10476305630751230       -2.0791814257992314E-002   5.3620718706586482E-002
   8.2425660861479011E-002   0.0000000000000000        4.4785544325872319E-002
   8.4635986566359012E-002  -4.5744254206084647E-003   4.8269418557391232E-002
   8.6846312271238998E-002  -9.0378717741119805E-003   5.0592505687781800E-002
   8.9056637976118985E-002  -1.3390339060510546E-002   5.1754805717044015E-002
   9.1266963680998986E-002  -1.7631827279804169E-002   5.1756318645177893E-002
   7.4245182814039273E-002   0.0000000000000000        4.0577360042350172E-002
   7.5523826643281292E-002  -3.7443302285135121E-003   4.4143997689880490E-002
   7.6802470472523296E-002  -7.4044136882873545E-003   4.7008058687263203E-002
   7.8081114301765286E-002  -1.0980250379321528E-002   4.9169543034498296E-002
   7.9359758131007305E-002  -1.4471840301616034E-002   5.0628450731585749E-002
   6.5820750039198281E-002   0.0000000000000000        3.7212637100105625E-002
   6.6625922443783028E-002  -2.9142350364185594E-003   4.0835305865282077E-002
   6.7431094848367776E-002  -5.7709556024627294E-003   4.4213608431291643E-002
   6.8236267252952523E-002  -8.5701616981325064E-003   4.7347544798134321E-002
   6.9041439657537271E-002  -1.1311853323427896E-002   5.0237114965810119E-002
   5.7152362536956013E-002   0.0000000000000000        3.4691375499138664E-002
   5.7942273967864243E-002  -2.0841398443236072E-003   3.8343343083595979E-002
   5.8732185398772466E-002  -4.1374975166381042E-003   4.2209154919867105E-002
   5.9522096829680696E-002  -6.1600730169434868E-003   4.6288811007952110E-002
   6.0312008260588919E-002  -8.1518663452397593E-003   5.0582311347850947E-002
  0.10476305630751230       -2.0791814257992314E-002   5.3620718706586482E-002
  0.10210864975709692       -2.4932884999483276E-002   4.5641114155513987E-002
   9.9454243206681531E-002  -2.7511035556840969E-002   3.9352076465730655E-002
   9.6799836656266153E-002  -2.8526265930065360E-002   3.4753605637236527E-002
   9.4145430105850761E-002  -2.7978576119156454E-002   3.1845701670031590E-002
   9.1266963680998986E-002  -1.7631827279804169E-002   5.1756318645177893E-002
   9.0065147728056197E-002  -2.1207417795149577E-002   4.6519493169272820E-002
   8.8863331775113422E-002  -2.3562191969703519E-002   4.2497282027023811E-002
   8.7661515822170633E-002  -2.4696149803465992E-002   3.9689685218430797E-002
   8.6459699869227857E-002  -2.4609291296437005E-002   3.8096702743493839E-002
   7.9359758131007305E-002  -1.4471840301616034E-002   5.0628450731585749E-002
   7.9134580247903971E-002  -1.7481950590815885E-002   4.7792300487506344E-002
   7.8909402364800610E-002  -1.9613348382566079E-002   4.5694812049449765E-002
   7.8684224481697276E-002  -2.0866033676866642E-002   4.4335985417416075E-002
   7.8459046598593943E-002  -2.1240006473717564E-002   4.3715820591405247E-002
   6.9041439657537271E-002  -1.1311853323427896E-002   5.0237114965810119E-002
   6.9316947316640232E-002  -1.3756483386482179E-002   4.9459536110214496E-002
   6.9592454975743179E-002  -1.5664504795428642E-002   4.8944666533008566E-002
   6.9867962634846112E-002  -1.7035917550267277E-002   4.8692506234192398E-002
   7.0143470293949059E-002  -1.7870721650998119E-002   4.8703055213765847E-002
   6.0312008260588919E-002  -8.1518663452397593E-003   5.0582311347850947E-002
   6.0612248934264971E-002  -1.0031016182148491E-002   5.1521200037397311E-002
   6.0912489607941017E-002  -1.1715661208291197E-002   5.2246845477700206E-002
   6.1212730281617070E-002  -1.3205801423667925E-002   5.2759247668759682E-002
   6.1512970955293136E-002  -1.4501436828278674E-002   5.3058406610575592E-002
   9.4145430105850761E-002  -2.7978576119156454E-002   3.1845701670031590E-002
   9.1759765196380905E-002  -2.6785865816575043E-002   3.1278874347031416E-002
   8.9374100286911062E-002  -2.5866034714781921E-002   3.0791920668559174E-002
   8.6988435377441206E-002  -2.5219082813777025E-002   3.0384840634614874E-002
   8.4602770467971322E-002  -2.4845010113560440E-002   3.0057634245198417E-002
   8.6459699869227857E-002  -2.4609291296437005E-002   3.8096702743493839E-002
   8.4200376447924441E-002  -2.3965848468225189E-002   3.7071156780514175E-002
   8.1941053026621025E-002  -2.3430053338439234E-002   3.6218420149339445E-002
   7.9681729605317608E-002  -2.3001905907079130E-002   3.5538492849969697E-002
   7.7422406184014192E-002  -2.2681406174144839E-002   3.5031374882404917E-002
   7.8459046598593943E-002  -2.1240006473717564E-002   4.3715820591405247E-002
   7.6419000352734023E-002  -2.1145831119875360E-002   4.2396787490808545E-002
   7.4378954106874118E-002  -2.0994071962096593E-002   4.1343499409293744E-002
   7.2338907861014212E-002  -2.0784729000381238E-002   4.0555956346861037E-002
   7.0298861615154307E-002  -2.0517802234729293E-002   4.0034158303510384E-002
   7.0143470293949059E-002  -1.7870721650998119E-002   4.8703055213765847E-002
   6.8415636910809707E-002  -1.8325813771525513E-002   4.7255766477914386E-002
   6.6687803527670370E-002  -1.8558090585753941E-002   4.6167158448422105E-002
   6.4959970144531032E-002  -1.8567552093683298E-002   4.5437231125288836E-002
   6.3232136761391652E-002  -1.8354198295313734E-002   4.5065984508514664E-002
   6.1512970955293136E-002  -1.4501436828278674E-002   5.3058406610575592E-002
   6.0190286122151423E-002  -1.5505796423175684E-002   5.1648093741831949E-002
   5.8867601289009718E-002  -1.6122109209411258E-002   5.0689397266724424E-002
   5.7544916455868012E-002  -1.6350375186985441E-002   5.0182317185253011E-002
   5.6222231622726285E-002  -1.6190594355898133E-002   5.0126853497417870E-002
   8.4602770467971322E-002  -2.4845010113560440E-002   3.0057634245198417E-002
   8.2205889685426442E-002  -2.4530973797025332E-002   2.9313328958252741E-002
   7.9809008902881534E-002  -2.4064131047064660E-002   2.8872561225165322E-002
   7.7412128120336640E-002  -2.3444481863678823E-002   2.8735331045936494E-002
   7.5015247337791718E-002  -2.2672026246867372E-002   2.8901638420565950E-002
   7.7422406184014192E-002  -2.2681406174144839E-002   3.5031374882404917E-002
   7.5309466739326064E-002  -2.2358815309415969E-002   3.4456611292275119E-002
   7.3196527294637936E-002  -2.1924394482671892E-002   3.4146192824000311E-002
   7.1083587849949795E-002  -2.1378143693912742E-002   3.4100119477580584E-002
   6.8970648405261681E-002  -2.0720062943138495E-002   3.4318391253016084E-002
   7.0298861615154307E-002  -2.0517802234729293E-002   4.0034158303510384E-002
   6.8430671076319616E-002  -2.0186656821806641E-002   3.9587959938786110E-002
   6.6562480537484925E-002  -1.9784657918279124E-002   3.9366914263913484E-002
   6.4694289998650206E-002  -1.9311805524146762E-002   3.9371021278892804E-002
   6.2826099459815515E-002  -1.8768099639409563E-002   3.9600280983723812E-002
   6.3232136761391652E-002  -1.8354198295313734E-002   4.5065984508514664E-002
   6.1569502696407097E-002  -1.8014498334197295E-002   4.4707374897785666E-002
   5.9906868631422527E-002  -1.7644921353886300E-002   4.4534725544905153E-002
   5.8244234566437979E-002  -1.7245467354380758E-002   4.4548036449873055E-002
   5.6581600501453402E-002  -1.6816136335680687E-002   4.4747307612689344E-002
   5.6222231622726285E-002  -1.6190594355898133E-002   5.0126853497417870E-002
   5.4725961599588521E-002  -1.5842339846587963E-002   4.9814856169273877E-002
   5.3229691576450737E-002  -1.5505184789493528E-002   4.9649626666975012E-002
   5.1733421553312967E-002  -1.5179129184614698E-002   4.9631164990521254E-002
   5.0237151530175189E-002  -1.4864173031951755E-002   4.9759471139912609E-002
   7.5015247337791718E-002  -2.2672026246867372E-002   2.8901638420565950E-002
   7.2711774496857756E-002  -2.1847412082407980E-002   2.8774495503765624E-002
   7.0408301655923752E-002  -2.1071287256078416E-002   2.8788560021901527E-002
   6.8104828814989776E-002  -2.0343651767878303E-002   2.8943831974973994E-002
   6.5801355974055786E-002  -1.9664505617807748E-002   2.9240311362982885E-002
   6.8970648405261681E-002  -2.0720062943138495E-002   3.4318391253016084E-002
   6.6819888820679171E-002  -2.0017475150361674E-002   3.4067151536644566E-002
   6.4669129236096676E-002  -1.9337703235594930E-002   3.3980130898039584E-002
   6.2518369651514111E-002  -1.8680747198838461E-002   3.4057329337201001E-002
   6.0367610066931671E-002  -1.8046607040091922E-002   3.4298746854128898E-002
   6.2826099459815515E-002  -1.8768099639409563E-002   3.9600280983723812E-002
   6.0851064774414466E-002  -1.8187538218315230E-002   3.9250617927900910E-002
   5.8876030089013362E-002  -1.7604119215111617E-002   3.9088185592674331E-002
   5.6900995403612306E-002  -1.7017842629798538E-002   3.9112983978044233E-002
   5.4925960718211195E-002  -1.6428708462376096E-002   3.9325013084010610E-002
   5.6581600501453402E-002  -1.6816136335680687E-002   4.4747307612689344E-002
   5.4805302358063662E-002  -1.6357601286268869E-002   4.4324894677534490E-002
   5.3029004214673957E-002  -1.5870535194628190E-002   4.4112724105805884E-002
   5.1252706071284196E-002  -1.5354938060758709E-002   4.4110795897503774E-002
   4.9476407927894539E-002  -1.4810809884660270E-002   4.4319110052627800E-002
   5.0237151530175189E-002  -1.4864173031951755E-002   4.9759471139912609E-002
   4.8682601571626766E-002  -1.4527664354222453E-002   4.9289981785545361E-002
   4.7128051613078356E-002  -1.4136951174144791E-002   4.9053746437434181E-002
   4.5573501654529912E-002  -1.3692033491718790E-002   4.9050765095579471E-002
   4.4018951695981523E-002  -1.3192911306944388E-002   4.9281037759980939E-002
   6.5801355974055786E-002  -1.9664505617807748E-002   2.9240311362982885E-002
   6.3324300829260383E-002  -1.8998326193386456E-002   2.8938053861383650E-002
   6.0847245684464951E-002  -1.8309590882133700E-002   2.8834973822535109E-002
   5.8370190539669589E-002  -1.7598299684049749E-002   2.8931071246437443E-002
   5.5893135394874172E-002  -1.6864452599134383E-002   2.9226346133090442E-002
   6.0367610066931671E-002  -1.8046607040091922E-002   3.4298746854128898E-002
   5.8088336275430391E-002  -1.7416433258072836E-002   3.4005909307170054E-002
   5.5809062483929153E-002  -1.6771376351498071E-002   3.3909457004049071E-002
   5.3529788692427874E-002  -1.6111436320367951E-002   3.4009389944765510E-002
   5.1250514900926636E-002  -1.5436613164682256E-002   3.4305708129319434E-002
   5.4925960718211195E-002  -1.6428708462376096E-002   3.9325013084010610E-002
   5.2841676061090970E-002  -1.5834540322759147E-002   3.9033922729416567E-002
   5.0757391403970710E-002  -1.5233161820862547E-002   3.8936425399746975E-002
   4.8673106746850506E-002  -1.4624572956686207E-002   3.9032521095001757E-002
   4.6588822089730239E-002  -1.4008773730230240E-002   3.9322209815180989E-002
   4.9476407927894539E-002  -1.4810809884660270E-002   4.4319110052627800E-002
   4.7584320186242104E-002  -1.4252647387445548E-002   4.4022094128122663E-002
   4.5692232444589684E-002  -1.3694947290227053E-002   4.3915879009628969E-002
   4.3800144702937242E-002  -1.3137709593004490E-002   4.4000464697146240E-002
   4.1908056961284836E-002  -1.2580934295778223E-002   4.4275851190675036E-002
   4.4018951695981523E-002  -1.3192911306944388E-002   4.9281037759980939E-002
   4.2316268650883754E-002  -1.2670754452131866E-002   4.8970423503288868E-002
   4.0613585605786026E-002  -1.2156732759591421E-002   4.8847817833695101E-002
   3.8910902560688299E-002  -1.1650846229322644E-002   4.8913220751199110E-002
   3.7208219515590557E-002  -1.1153094861326096E-002   4.9166632255801423E-002
   5.5893135394874172E-002  -1.6864452599134383E-002   2.9226346133090442E-002
   5.3773703066795603E-002  -1.6126177925984142E-002   2.8975061946571679E-002
   5.1654270738717062E-002  -1.5401603963195218E-002   2.8901514124399397E-002
   4.9534838410638549E-002  -1.4690730710768009E-002   2.9005702666573221E-002
   4.7415406082559952E-002  -1.3993558168702125E-002   2.9287627573092945E-002
   5.1250514900926636E-002  -1.5436613164682256E-002   3.4305708129319434E-002
   4.9305047744336153E-002  -1.4756776086179424E-002   3.4022302438052654E-002
   4.7359580587745628E-002  -1.4081794286597241E-002   3.3909090725415647E-002
   4.5414113431155097E-002  -1.3411667765936570E-002   3.3966072991408719E-002
   4.3468646274564593E-002  -1.2746396524196457E-002   3.4193249236031453E-002
   4.6588822089730239E-002  -1.4008773730230240E-002   3.9322209815180989E-002
   4.4809777718911502E-002  -1.3387374246374595E-002   3.9015528050606485E-002
   4.3030733348092806E-002  -1.2761984609999492E-002   3.8871497878945525E-002
   4.1251688977274104E-002  -1.2132604821104688E-002   3.8890119300198159E-002
   3.9472644606455318E-002  -1.1499234879690540E-002   3.9071392314364614E-002
   4.1908056961284836E-002  -1.2580934295778223E-002   4.4275851190675036E-002
   4.0287892990521705E-002  -1.2017972406569821E-002   4.3954738784233185E-002
   3.8667729019758484E-002  -1.1442174933401574E-002   4.3788735584988824E-002
   3.7047565048995326E-002  -1.0853541876273139E-002   4.3777841592941749E-002
   3.5427401078232085E-002  -1.0252073235184636E-002   4.3922056808092066E-002
   3.7208219515590557E-002  -1.1153094861326096E-002   4.9166632255801423E-002
   3.5739393559166693E-002  -1.0648570566765075E-002   4.8839934638932825E-002
   3.4270567602742802E-002  -1.0122365256803725E-002   4.8660803843545347E-002
   3.2801741646318938E-002  -9.5744789314413555E-003   4.8629239869639115E-002
   3.1332915689895074E-002  -9.0049115906788990E-003   4.8745242717214088E-002
   4.7415406082559952E-002  -1.3993558168702125E-002   2.9287627573092945E-002
   4.4775826652845074E-002  -1.3284248939791410E-002   2.8899487582762562E-002
   4.2136247223130169E-002  -1.2536965626829363E-002   2.8637374274579880E-002
   3.9496667793415305E-002  -1.1751708229815357E-002   2.8501287648544940E-002
   3.6857088363700385E-002  -1.0928476748750526E-002   2.8491227704657174E-002
   4.3468646274564593E-002  -1.2746396524196457E-002   3.4193249236031453E-002
   4.0969745645648370E-002  -1.2070233151372706E-002   3.3802826316808338E-002
   3.8470845016732105E-002  -1.1367430237460827E-002   3.3567734317034859E-002
   3.5971944387815848E-002  -1.0637987782460428E-002   3.3487973236710947E-002
   3.3473043758899645E-002  -9.8819057863719362E-003   3.3563543075836866E-002
   3.9472644606455318E-002  -1.1499234879690540E-002   3.9071392314364614E-002
   3.7143727015639880E-002  -1.0856217362954002E-002   3.8667351923285256E-002
   3.4814809424824421E-002  -1.0197894848092241E-002   3.8447946688957797E-002
   3.2485891834009045E-002  -9.5242673351053891E-003   3.8413176611381938E-002
   3.0156974243193524E-002  -8.8353348239934570E-003   3.8563041690558186E-002
   3.5427401078232085E-002  -1.0252073235184636E-002   4.3922056808092066E-002
   3.3297770762819645E-002  -9.6422015745351863E-003   4.3493064402193291E-002
   3.1168140447407150E-002  -9.0283594587237913E-003   4.3278011390348675E-002
   2.9038510131994599E-002  -8.4105468877502393E-003   4.3276897772558047E-002
   2.6908879816582215E-002  -7.7887638616149779E-003   4.3489723548821621E-002
   3.1332915689895074E-002  -9.0049115906788990E-003   4.8745242717214088E-002
   2.9431876887187680E-002  -8.4281857861165377E-003   4.8279963753532940E-002
   2.7530838084480272E-002  -7.8588240693552996E-003   4.8057928421208013E-002
   2.5629799281772898E-002  -7.2968264403952161E-003   4.8079136720239349E-002
   2.3728760479065469E-002  -6.7421928992363878E-003   4.8343588650626712E-002
   5.7152362536956013E-002   0.0000000000000000        3.4691375499138664E-002
   5.7942273967864243E-002  -2.0841398443236072E-003   3.8343343083595979E-002
   5.8732185398772466E-002  -4.1374975166381042E-003   4.2209154919867105E-002
   5.9522096829680696E-002  -6.1600730169434868E-003   4.6288811007952110E-002
   6.0312008260588919E-002  -8.1518663452397593E-003   5.0582311347850947E-002
   4.8652151908291787E-002   0.0000000000000000        3.2790297389118192E-002
   4.9590647908988969E-002  -1.7095829910243592E-003   3.6965747150800941E-002
   5.0529143909686144E-002  -3.4330813846718544E-003   4.1224521800247764E-002
   5.1467639910383334E-002  -5.1704951809424891E-003   4.5566621337458653E-002
   5.2406135911080509E-002  -6.9218243798362458E-003   4.9992045762433615E-002
   4.0732249754184907E-002   0.0000000000000000        3.1286124919713075E-002
   4.1688810960621263E-002  -1.3350261377251134E-003   3.5940359283989032E-002
   4.2645372167057632E-002  -2.7286652527056081E-003   4.0547399171979276E-002
   4.3601933373493995E-002  -4.1809173449414861E-003   4.5107244583683828E-002
   4.4558494579930358E-002  -5.6917824144327401E-003   4.9619895519102640E-002
   3.3392656074635367E-002   0.0000000000000000        3.0178858090923345E-002
   3.4236763122761145E-002  -9.6046928442586658E-004   3.5267179483160251E-002
   3.5080870170886902E-002  -2.0242491207393618E-003   4.0177787035061675E-002
   3.5924977219012673E-002  -3.1913395089404814E-003   4.4910680746627608E-002
   3.6769084267138444E-002  -4.4617404490292344E-003   4.9465860617858071E-002
   2.6633370869643180E-002   0.0000000000000000        2.9468496902748977E-002
   2.7234504395408577E-002  -5.8591243112661971E-004   3.4946207748314584E-002
   2.7835637921173974E-002  -1.3198329887731119E-003   4.0115685389494941E-002
   2.8436771446939377E-002  -2.2017616729394836E-003   4.4976929826290042E-002
   2.9037904972704778E-002  -3.2316984836257201E-003   4.9529941058699893E-002
   6.0312008260588919E-002  -8.1518663452397593E-003   5.0582311347850947E-002
   6.0612248934264971E-002  -1.0031016182148491E-002   5.1521200037397311E-002
   6.0912489607941017E-002  -1.1715661208291197E-002   5.2246845477700206E-002
   6.1212730281617070E-002  -1.3205801423667925E-002   5.2759247668759682E-002
   6.1512970955293136E-002  -1.4501436828278674E-002   5.3058406610575592E-002
   5.2406135911080509E-002  -6.9218243798362458E-003   4.9992045762433615E-002
   5.2532237576812441E-002  -8.5857936997047468E-003   5.1219839697357397E-002
   5.2658339242544379E-002  -1.0061127858899583E-002   5.2312598865636425E-002
   5.2784440908276317E-002  -1.1347826857420751E-002   5.3270323267270700E-002
   5.2910542574008242E-002  -1.2445890695268247E-002   5.4093012902260131E-002
   4.4558494579930358E-002  -5.6917824144327401E-003   4.9619895519102640E-002
   4.4588665720316854E-002  -7.1405712172610252E-003   5.1130725049311543E-002
   4.4618836860703358E-002  -8.4065945095079687E-003   5.2584728295474330E-002
   4.4649008001089854E-002  -9.4898522911735714E-003   5.3981905257591063E-002
   4.4679179141476358E-002  -1.0390344562257847E-002   5.5322255935661674E-002
   3.6769084267138444E-002  -4.4617404490292344E-003   4.9465860617858071E-002
   3.6781533364778206E-002  -5.6953487348172923E-003   5.1253856093259720E-002
   3.6793982462417968E-002  -6.7520611601163587E-003   5.3063233767213981E-002
   3.6806431560057737E-002  -7.6318777249264023E-003   5.4893993639720855E-002
   3.6818880657697499E-002  -8.3347984292474406E-003   5.6746135710780340E-002
   2.9037904972704778E-002  -3.2316984836257201E-003   4.9529941058699893E-002
   2.9110840510196495E-002  -4.2501262523735603E-003   5.1589232829201977E-002
   2.9183776047688216E-002  -5.0975278107247470E-003   5.3748115280855352E-002
   2.9256711585179934E-002  -5.7739031586792099E-003   5.6006588413660074E-002
   2.9329647122671651E-002  -6.2792522962370201E-003   5.8364652227616040E-002
   6.1512970955293136E-002  -1.4501436828278674E-002   5.3058406610575592E-002
   6.0190286122151423E-002  -1.5505796423175684E-002   5.1648093741831949E-002
   5.8867601289009718E-002  -1.6122109209411258E-002   5.0689397266724424E-002
   5.7544916455868012E-002  -1.6350375186985441E-002   5.0182317185253011E-002
   5.6222231622726285E-002  -1.6190594355898133E-002   5.0126853497417870E-002
   5.2910542574008242E-002  -1.2445890695268247E-002   5.4093012902260131E-002
   5.1987511894444602E-002  -1.3296152422095486E-002   5.3349310677225592E-002
   5.1064481214880983E-002  -1.3839445087555757E-002   5.2953300365710984E-002
   5.0141450535317343E-002  -1.4075768691649188E-002   5.2904981967716369E-002
   4.9218419855753703E-002  -1.4005123234375652E-002   5.3204355483241733E-002
   4.4679179141476358E-002  -1.0390344562257847E-002   5.5322255935661674E-002
   4.4051878135374631E-002  -1.1086508421015263E-002   5.5164086607041710E-002
   4.3424577129272904E-002  -1.1556780965700284E-002   5.5249684711825522E-002
   4.2797276123171191E-002  -1.1801162196312907E-002   5.5579050250013126E-002
   4.2169975117069464E-002  -1.1819652112853178E-002   5.6152183221604646E-002
   3.6818880657697499E-002  -8.3347984292474406E-003   5.6746135710780340E-002
   3.6383384844941503E-002  -8.8768644199350381E-003   5.7092421531280420E-002
   3.5947889032185515E-002  -9.2741168438447777E-003   5.7578550305068123E-002
   3.5512393219429526E-002  -9.5265557009766820E-003   5.8204522032143463E-002
   3.5076897406673524E-002  -9.6341809913306729E-003   5.8970336712506483E-002
   2.9329647122671651E-002  -6.2792522962370201E-003   5.8364652227616040E-002
   2.8982032023145220E-002  -6.6672204188548446E-003   5.9134315449941660E-002
   2.8634416923618799E-002  -6.9914527219893004E-003   5.9939897145438702E-002
   2.8286801824092364E-002  -7.2519492056403985E-003   6.0781397314107241E-002
   2.7939186724565947E-002  -7.4487098698082371E-003   6.1658815955947258E-002
   5.6222231622726285E-002  -1.6190594355898133E-002   5.0126853497417870E-002
   5.4725961599588521E-002  -1.5842339846587963E-002   4.9814856169273877E-002
   5.3229691576450737E-002  -1.5505184789493528E-002   4.9649626666975012E-002
   5.1733421553312967E-002  -1.5179129184614698E-002   4.9631164990521254E-002
   5.0237151530175189E-002  -1.4864173031951755E-002   4.9759471139912609E-002
   4.9218419855753703E-002  -1.4005123234375652E-002   5.3204355483241733E-002
   4.7880962600508559E-002  -1.3773648734477006E-002   5.2861564911267325E-002
   4.6543505345263428E-002  -1.3527485210695214E-002   5.2689632049233111E-002
   4.5206048090018283E-002  -1.3266632663029972E-002   5.2688556897138999E-002
   4.3868590834773152E-002  -1.2991091091481610E-002   5.2858339454984998E-002
   4.2169975117069464E-002  -1.1819652112853178E-002   5.6152183221604646E-002
   4.1015420513811976E-002  -1.1704957622366098E-002   5.5804387881898815E-002
   3.9860865910554481E-002  -1.1549785631896818E-002   5.5651540136228181E-002
   3.8706311307296980E-002  -1.1354136141445204E-002   5.5693639984592730E-002
   3.7551756704039492E-002  -1.1118009151011410E-002   5.5930687426992351E-002
   3.5076897406673524E-002  -9.6341809913306729E-003   5.8970336712506483E-002
   3.4129335339498690E-002  -9.6362665102551655E-003   5.8643325081168228E-002
   3.3181773272323856E-002  -9.5720860530984359E-003   5.8535350927960160E-002
   3.2234211205149021E-002  -9.4416396198604702E-003   5.8646414252882272E-002
   3.1286649137974187E-002  -9.2449272105411956E-003   5.8976515055934521E-002
   2.7939186724565947E-002  -7.4487098698082371E-003   6.1658815955947258E-002
   2.7222707077568777E-002  -7.5675753981442329E-003   6.1378376509075558E-002
   2.6506227430571589E-002  -7.5943864743000765E-003   6.1341064424429069E-002
   2.5789747783574415E-002  -7.5291430982756318E-003   6.1546879702007826E-002
   2.5073268136577231E-002  -7.3718452700710368E-003   6.1995822341811613E-002
   5.0237151530175189E-002  -1.4864173031951755E-002   4.9759471139912609E-002
   4.8682601571626766E-002  -1.4527664354222453E-002   4.9289981785545361E-002
   4.7128051613078356E-002  -1.4136951174144791E-002   4.9053746437434181E-002
   4.5573501654529912E-002  -1.3692033491718790E-002   4.9050765095579471E-002
   4.4018951695981523E-002  -1.3192911306944388E-002   4.9281037759980939E-002
   4.3868590834773152E-002  -1.2991091091481610E-002   5.2858339454984998E-002
   4.2538787713779135E-002  -1.2687528397409137E-002   5.2479848358340853E-002
   4.1208984592785131E-002  -1.2342612482171618E-002   5.2317596930549284E-002
   3.9879181471791120E-002  -1.1956343345769298E-002   5.2371585171610092E-002
   3.8549378350797109E-002  -1.1528720988202096E-002   5.2641813081523714E-002
   3.7551756704039492E-002  -1.1118009151011410E-002   5.5930687426992351E-002
   3.6429686083196161E-002  -1.0847392440595779E-002   5.5630343306887896E-002
   3.5307615462352837E-002  -1.0548273790198556E-002   5.5529224518232223E-002
   3.4185544841509506E-002  -1.0220653199819862E-002   5.5627331061025388E-002
   3.3063474220666175E-002  -9.8645306694596646E-003   5.5924662935267350E-002
   3.1286649137974187E-002  -9.2449272105411956E-003   5.8976515055934521E-002
   3.0355296679877825E-002  -9.0072564837824012E-003   5.8741466631186331E-002
   2.9423944221781472E-002  -8.7539350982253836E-003   5.8688629200483275E-002
   2.8492591763685113E-002  -8.4849630538704254E-003   5.8818002763825275E-002
   2.7561239305588757E-002  -8.2003403507172473E-003   5.9129587321212422E-002
   2.5073268136577231E-002  -7.3718452700710368E-003   6.1995822341811613E-002
   2.4315619503824125E-002  -7.1671205269690785E-003   6.1813218331236347E-002
   2.3557970871071018E-002  -6.9595964062523427E-003   6.1795810977302343E-002
   2.2800322238317926E-002  -6.7492729079209248E-003   6.1943600280009885E-002
   2.2042673605564805E-002  -6.5361500319748855E-003   6.2256586239358702E-002
   4.4018951695981523E-002  -1.3192911306944388E-002   4.9281037759980939E-002
   4.2316268650883754E-002  -1.2670754452131866E-002   4.8970423503288868E-002
   4.0613585605786026E-002  -1.2156732759591421E-002   4.8847817833695101E-002
   3.8910902560688299E-002  -1.1650846229322644E-002   4.8913220751199110E-002
   3.7208219515590557E-002  -1.1153094861326096E-002   4.9166632255801423E-002
   3.8549378350797109E-002  -1.1528720988202096E-002   5.2641813081523714E-002
   3.7039488694377773E-002  -1.1081025431238622E-002   5.2314981849143183E-002
   3.5529599037958437E-002  -1.0634536696647316E-002   5.2185728807021589E-002
   3.4019709381539108E-002  -1.0189254784428626E-002   5.2254053955158648E-002
   3.2509819725119765E-002  -9.7451796945821068E-003   5.2519957293554437E-002
   3.3063474220666175E-002  -9.8645306694596646E-003   5.5924662935267350E-002
   3.1755947556085906E-002  -9.4912964103451986E-003   5.5588543067098255E-002
   3.0448420891505609E-002  -9.1123406337033780E-003   5.5459570992348467E-002
   2.9140894226925312E-002  -8.7276633395343868E-003   5.5537746711018111E-002
   2.7833367562345043E-002  -8.3372645278380619E-003   5.5823070223106994E-002
   2.7561239305588757E-002  -8.2003403507172473E-003   5.9129587321212422E-002
   2.6465645236008133E-002  -7.9015673894517260E-003   5.8791107157154229E-002
   2.5370051166427519E-002  -7.5901445707593565E-003   5.8669344389675845E-002
   2.4274457096846926E-002  -7.2660718946402584E-003   5.8764299018777520E-002
   2.3178863027266312E-002  -6.9293493610940171E-003   5.9075971044459163E-002
   2.2042673605564805E-002  -6.5361500319748855E-003   6.2256586239358702E-002
   2.1168581734144487E-002  -6.3118383685585866E-003   6.1922674119310794E-002
   2.0294489862724197E-002  -6.0679485078153350E-003   6.1815048999003641E-002
   1.9420397991303892E-002  -5.8044804497459634E-003   6.1933710878436993E-002
   1.8546306119883574E-002  -5.5214341943500278E-003   6.2278659757610988E-002
   3.7208219515590557E-002  -1.1153094861326096E-002   4.9166632255801423E-002
   3.5739393559166693E-002  -1.0648570566765075E-002   4.8839934638932825E-002
   3.4270567602742802E-002  -1.0122365256803725E-002   4.8660803843545347E-002
   3.2801741646318938E-002  -9.5744789314413555E-003   4.8629239869639115E-002
   3.1332915689895074E-002  -9.0049115906788990E-003   4.8745242717214088E-002
   3.2509819725119765E-002  -9.7451796945821068E-003   5.2519957293554437E-002
   3.1195711321335140E-002  -9.2940118252305415E-003   5.2240894733931398E-002
   2.9881602917550515E-002  -8.8274515744969084E-003   5.2123700458105590E-002
   2.8567494513765862E-002  -8.3454989423807011E-003   5.2168374466077076E-002
   2.7253386109981237E-002  -7.8481539288822733E-003   5.2374916757845835E-002
   2.7833367562345043E-002  -8.3372645278380619E-003   5.5823070223106994E-002
   2.6688278173515739E-002  -7.9394530836961047E-003   5.5585354086711253E-002
   2.5543188784686428E-002  -7.5325378921900846E-003   5.5523807696428833E-002
   2.4398099395857107E-002  -7.1165189533198784E-003   5.5638431052259851E-002
   2.3253010007027820E-002  -6.6913962670856753E-003   5.5929224154204246E-002
   2.3178863027266312E-002  -6.9293493610940171E-003   5.9075971044459163E-002
   2.2217094115708422E-002  -6.5848943421616749E-003   5.8873312697272535E-002
   2.1255325204150542E-002  -6.2376242098832919E-003   5.8861125558515213E-002
   2.0293556292592652E-002  -5.8875389642591399E-003   5.9039409628187378E-002
   1.9331787381034776E-002  -5.5346386052891189E-003   5.9408164906289071E-002
   1.8546306119883574E-002  -5.5214341943500278E-003   6.2278659757610988E-002
   1.7782159147913229E-002  -5.2303356006271340E-003   6.2104770565615086E-002
   1.7018012175942891E-002  -4.9427105275764854E-003   6.2135654044364774E-002
   1.6253865203972536E-002  -4.6585589751983285E-003   6.2371310193860177E-002
   1.5489718232002181E-002  -4.3778809434925070E-003   6.2811739014100920E-002
   3.1332915689895074E-002  -9.0049115906788990E-003   4.8745242717214088E-002
   2.9431876887187680E-002  -8.4281857861165377E-003   4.8279963753532940E-002
   2.7530838084480272E-002  -7.8588240693552996E-003   4.8057928421208013E-002
   2.5629799281772898E-002  -7.2968264403952161E-003   4.8079136720239349E-002
   2.3728760479065469E-002  -6.7421928992363878E-003   4.8343588650626712E-002
   2.7253386109981237E-002  -7.8481539288822733E-003   5.2374916757845835E-002
   2.5591145522881192E-002  -7.3426097344910513E-003   5.1981166801677053E-002
   2.3928904935781134E-002  -6.8360595596968499E-003   5.1821769645367055E-002
   2.2266664348681096E-002  -6.3285034044994609E-003   5.1896725288915549E-002
   2.0604423761581003E-002  -5.8199412688990648E-003   5.2206033732322132E-002
   2.3253010007027820E-002  -6.6913962670856753E-003   5.5929224154204246E-002
   2.1820676804037389E-002  -6.2570336828656481E-003   5.5615373273752267E-002
   2.0388343601046927E-002  -5.8132950500383376E-003   5.5526984361661251E-002
   1.8956010398056528E-002  -5.3601803686036485E-003   5.5664057417931068E-002
   1.7523677195066006E-002  -4.8976896385616309E-003   5.6026592442561474E-002
   1.9331787381034776E-002  -5.5346386052891189E-003   5.9408164906289071E-002
   1.8120470730656299E-002  -5.1714576312404253E-003   5.9182583169758232E-002
   1.6909154080277811E-002  -4.7905305403799121E-003   5.9173572570090531E-002
   1.5697837429899344E-002  -4.3918573327078646E-003   5.9381133107286134E-002
   1.4486520779520791E-002  -3.9754380082243079E-003   5.9805264781344361E-002
   1.5489718232002181E-002  -4.3778809434925070E-003   6.2811739014100920E-002
   1.4490527302737921E-002  -4.0858815796149250E-003   6.2682796489695380E-002
   1.3491336373473661E-002  -3.7677660307214728E-003   6.2761534270655256E-002
   1.2492145444209367E-002  -3.4235342968119940E-003   6.3047952356980227E-002
   1.1492954514945086E-002  -3.0531863778868740E-003   6.3542050748671031E-002
   2.6633370869643180E-002   0.0000000000000000        2.9468496902748977E-002
   2.7234504395408577E-002  -5.8591243112661971E-004   3.4946207748314584E-002
   2.7835637921173974E-002  -1.3198329887731119E-003   4.0115685389494941E-002
   2.8436771446939377E-002  -2.2017616729394836E-003   4.4976929826290042E-002
   2.9037904972704778E-002  -3.2316984836257201E-003   4.9529941058699893E-002
   2.0116936964535065E-002   0.0000000000000000        2.9020577080840632E-002
   2.0449324741649441E-002  -4.3943432338156094E-004   3.4313662396659783E-002
   2.0781712518763810E-002  -9.8987474162625169E-004   3.9377489419562130E-002
   2.1114100295878187E-002  -1.6513212547340696E-003   4.4212058149547692E-002
   2.1446488072992560E-002  -2.4237738627050235E-003   4.8817368586616450E-002
   1.3505897184637756E-002   0.0000000000000000        2.8700634350848984E-002
   1.3648514124569567E-002  -2.9295621563650218E-004   3.3846096168578407E-002
   1.3791131064501380E-002  -6.5991649447938797E-004   3.8841274604859498E-002
   1.3933748004433191E-002  -1.1008808365286600E-003   4.3686169659692277E-002
   1.4076364944365007E-002  -1.6158492417843134E-003   4.8380781333076703E-002
   6.8002515299512515E-003   0.0000000000000000        2.8508668712774018E-002
   6.8320725441689649E-003  -1.4647810789144297E-004   3.3543509064070463E-002
   6.8638935583866783E-003  -3.2995824733252424E-004   3.8507040945387046E-002
   6.8957145726043917E-003  -5.5044041832324640E-004   4.3399264356723775E-002
   6.9275355868221042E-003  -8.0792462086361184E-004   4.8220179298080625E-002
   4.7555362425732994E-013   0.0000000000000000        2.8444680166615739E-002
   4.4763064782626927E-013  -1.4638464052030287E-013   3.3405901083135958E-002
   4.1970832191651208E-013  -1.8566398418684571E-013   3.8374788441144780E-002
   3.9178567074610315E-013  -1.1783976572310451E-013   4.3351342240642188E-002
   3.6386388693743221E-013   5.7096688488300629E-014   4.8335562481628208E-002
   2.9037904972704778E-002  -3.2316984836257201E-003   4.9529941058699893E-002
   2.9110840510196495E-002  -4.2501262523735603E-003   5.1589232829201977E-002
   2.9183776047688216E-002  -5.0975278107247470E-003   5.3748115280855352E-002
   2.9256711585179934E-002  -5.7739031586792099E-003   5.6006588413660074E-002
   2.9329647122671651E-002  -6.2792522962370201E-003   5.8364652227616040E-002
   2.1446488072992560E-002  -2.4237738627050235E-003   4.8817368586616450E-002
   2.1589558150258533E-002  -3.1875946892289887E-003   5.1218145920903062E-002
   2.1732628227524507E-002  -3.8231458579958341E-003   5.3659601653586853E-002
   2.1875698304790477E-002  -4.3304273690055739E-003   5.6141735784667857E-002
   2.2018768382056450E-002  -4.7094392222582354E-003   5.8664548314146081E-002
   1.4076364944365007E-002  -1.6158492417843134E-003   4.8380781333076703E-002
   1.4230657278651134E-002  -2.1250631260843968E-003   5.1080287678508210E-002
   1.4384949612937263E-002  -2.5487639052669498E-003   5.3761560139582873E-002
   1.4539241947223397E-002  -2.8869515793319583E-003   5.6424598716300588E-002
   1.4693534281509523E-002  -3.1396261482794507E-003   5.9069403408661444E-002
   6.9275355868221042E-003  -8.0792462086361184E-004   4.8220179298080625E-002
   7.0341378953742949E-003  -1.0625315629398081E-003   5.1175658102017484E-002
   7.1407402039264838E-003  -1.2743819525380547E-003   5.4053990738843392E-002
   7.2473425124786744E-003  -1.4434757896583325E-003   5.6855177208558275E-002
   7.3539448210308642E-003  -1.5698130743006522E-003   5.9579217511162186E-002
   3.6386388693743221E-013   5.7096688488300629E-014   4.8335562481628208E-002
   4.2801743052600649E-013   2.0477369799820622E-013   5.1504257191430855E-002
   4.9217162463588426E-013   1.9084126640089849E-013   5.4536893451368425E-002
   5.5632505980424130E-013   1.5298743175073959E-014   5.7433471261440917E-002
   6.2047936233433632E-013  -3.2188141041444851E-013   6.0193990621648333E-002
   2.9329647122671651E-002  -6.2792522962370201E-003   5.8364652227616040E-002
   2.8982032023145220E-002  -6.6672204188548446E-003   5.9134315449941660E-002
   2.8634416923618799E-002  -6.9914527219893004E-003   5.9939897145438702E-002
   2.8286801824092364E-002  -7.2519492056403985E-003   6.0781397314107241E-002
   2.7939186724565947E-002  -7.4487098698082371E-003   6.1658815955947258E-002
   2.2018768382056450E-002  -4.7094392222582354E-003   5.8664548314146081E-002
   2.1719818081098755E-002  -5.0004153142223541E-003   5.9488371344088811E-002
   2.1420867780141059E-002  -5.2435895413665765E-003   6.0373605497997529E-002
   2.1121917479183367E-002  -5.4389619036908279E-003   6.1320250775872276E-002
   2.0822967178225668E-002  -5.5865324011951795E-003   6.2328307177712899E-002
   1.4693534281509523E-002  -3.1396261482794507E-003   5.9069403408661444E-002
   1.4468741429915060E-002  -3.3336102095899035E-003   5.9931452291557906E-002
   1.4243948578320599E-002  -3.4957263607438369E-003   6.0880404949214907E-002
   1.4019155726726139E-002  -3.6259746017412568E-003   6.1916261381632365E-002
   1.3794362875131675E-002  -3.7243549325821426E-003   6.3039021588810307E-002
   7.3539448210308642E-003  -1.5698130743006522E-003   5.9579217511162186E-002
   7.2288020695941407E-003  -1.6668051049574537E-003   6.0463558292349028E-002
   7.1036593181574188E-003  -1.7478631801210983E-003   6.1460295499090850E-002
   6.9785165667206961E-003  -1.8129872997916373E-003   6.2569429131387647E-002
   6.8533738152839734E-003  -1.8621774639690954E-003   6.3790959189239438E-002
   6.2047936233433632E-013  -3.2188141041444851E-013   6.0193990621648333E-002
   1.3599971843136771E-013  -3.2497615709559113E-013   6.1084689346462107E-002
  -3.4847992547160089E-013   5.0162998754821331E-013   6.2113277147625358E-002
  -8.3295870201283151E-013   2.1579205436439430E-012   6.3279754025138107E-002
  -1.3174392132775381E-012   4.6439380119167595E-012   6.4584119979000335E-002
   2.7939186724565947E-002  -7.4487098698082371E-003   6.1658815955947258E-002
   2.7222707077568777E-002  -7.5675753981442329E-003   6.1378376509075558E-002
   2.6506227430571589E-002  -7.5943864743000765E-003   6.1341064424429069E-002
   2.5789747783574415E-002  -7.5291430982756318E-003   6.1546879702007826E-002
   2.5073268136577231E-002  -7.3718452700710368E-003   6.1995822341811613E-002
   2.0822967178225668E-002  -5.5865324011951795E-003   6.2328307177712899E-002
   2.0333613030719948E-002  -5.6756815468172947E-003   6.2200028756916194E-002
   1.9844258883214217E-002  -5.6957898534948266E-003   6.2282873972877253E-002
   1.9354904735708486E-002  -5.6468573212277830E-003   6.2576842825595919E-002
   1.8865550588202752E-002  -5.5288839500161058E-003   6.3081935315072446E-002
   1.3794362875131675E-002  -3.7243549325821426E-003   6.3039021588810307E-002
   1.3500130501649955E-002  -3.7837876954903149E-003   6.3039890580852950E-002
   1.3205898128168241E-002  -3.7971932326895507E-003   6.3219879484185892E-002
   1.2911665754686524E-002  -3.7645715441798375E-003   6.3578988298809050E-002
   1.2617433381204808E-002  -3.6859226299611886E-003   6.4117217024722561E-002
   6.8533738152839734E-003  -1.8621774639690954E-003   6.3790959189239438E-002
   6.7222594903588312E-003  -1.8918938441633559E-003   6.3897961980885765E-002
   6.5911451654336924E-003  -1.8985966118842601E-003   6.4152080958354923E-002
   6.4600308405085485E-003  -1.8822857671319403E-003   6.4553316121646956E-002
   6.3289165155834097E-003  -1.8429613099062506E-003   6.5101667470761834E-002
  -1.3174392132775381E-012   4.6439380119167595E-012   6.4584119979000335E-002
  -3.1534445193992511E-012   7.1636030440913601E-012   6.4774242957014741E-002
  -4.9894498255209641E-012   8.9209507836418567E-012   6.5079478395384527E-002
  -6.8254568663661530E-012   9.9160063840586510E-012   6.5499826294109734E-002
  -8.6614604377643900E-012   1.0148687445976634E-011   6.6035286653190334E-002
   2.5073268136577231E-002  -7.3718452700710368E-003   6.1995822341811613E-002
   2.4315619503824125E-002  -7.1671205269690785E-003   6.1813218331236347E-002
   2.3557970871071018E-002  -6.9595964062523427E-003   6.1795810977302343E-002
   2.2800322238317926E-002  -6.7492729079209248E-003   6.1943600280009885E-002
   2.2042673605564805E-002  -6.5361500319748855E-003   6.2256586239358702E-002
   1.8865550588202752E-002  -5.5288839500161058E-003   6.3081935315072446E-002
   1.8279152487464589E-002  -5.3753403928092081E-003   6.2867434976577458E-002
   1.7692754386726416E-002  -5.2196973025565863E-003   6.2830239045471040E-002
   1.7106356285988250E-002  -5.0619546792580392E-003   6.2970347521753123E-002
   1.6519958185250087E-002  -4.9021125229137263E-003   6.3287760405423499E-002
   1.2617433381204808E-002  -3.6859226299611886E-003   6.4117217024722561E-002
   1.2214393563228685E-002  -3.5835602586495457E-003   6.3870120513739123E-002
   1.1811353745252575E-002  -3.4797981988609165E-003   6.3812436160891273E-002
   1.1408313927276459E-002  -3.3746364505952099E-003   6.3944163966179038E-002
   1.1005274109300349E-002  -3.2680750138525394E-003   6.4265303929602446E-002
   6.3289165155834097E-003  -1.8429613099062506E-003   6.5101667470761834E-002
   6.1213427311164505E-003  -1.7917801244898765E-003   6.4821274942721052E-002
   5.9137689466494886E-003  -1.7398990951652312E-003   6.4742402323563042E-002
   5.7061951621825303E-003  -1.6873182219323247E-003   6.4865049613287817E-002
   5.4986213777155676E-003  -1.6340375047913108E-003   6.5189216811895184E-002
  -8.6614604377643900E-012   1.0148687445976634E-011   6.6035286653190334E-002
  -8.8721495428156771E-012   9.6699731555460744E-012   6.5720898263523453E-002
  -9.0828386478669643E-012   8.5305026931159489E-012   6.5620137533486458E-002
  -9.2935242834712994E-012   6.7305588186128418E-012   6.5733004463079309E-002
  -9.5042168579695385E-012   4.2698622415571208E-012   6.6059499052301796E-002
   2.2042673605564805E-002  -6.5361500319748855E-003   6.2256586239358702E-002
   2.1168581734144487E-002  -6.3118383685585866E-003   6.1922674119310794E-002
   2.0294489862724197E-002  -6.0679485078153350E-003   6.1815048999003641E-002
   1.9420397991303892E-002  -5.8044804497459634E-003   6.1933710878436993E-002
   1.8546306119883574E-002  -5.5214341943500278E-003   6.2278659757610988E-002
   1.6519958185250087E-002  -4.9021125229137263E-003   6.3287760405423499E-002
   1.5870212305514844E-002  -4.7338787758425122E-003   6.2977069544552330E-002
   1.5220466425779604E-002  -4.5509613803632054E-003   6.2888783667310572E-002
   1.4570720546044363E-002  -4.3533603364761392E-003   6.3022902773698250E-002
   1.3920974666309135E-002  -4.1410756441811469E-003   6.3379426863715616E-002
   1.1005274109300349E-002  -3.2680750138525394E-003   6.4265303929602446E-002
   1.0575992205139041E-002  -3.1559191831266042E-003   6.3972939778989324E-002
   1.0146710300977739E-002  -3.0339742529112979E-003   6.3899098595894488E-002
   9.7174283968164410E-003  -2.9022402232065370E-003   6.4043780380318077E-002
   9.2881464926551395E-003  -2.7607170940122661E-003   6.4406985132260106E-002
   5.4986213777155676E-003  -1.6340375047913108E-003   6.5189216811895184E-002
   5.2859214330170812E-003  -1.5779595904107796E-003   6.4910284822621581E-002
   5.0732214883185993E-003  -1.5169871254592515E-003   6.4845993784755279E-002
   4.8605215436201173E-003  -1.4511201099368792E-003   6.4996343698296294E-002
   4.6478215989216318E-003  -1.3803585438433574E-003   6.5361334563244541E-002
  -9.5042168579695385E-012   4.2698622415571208E-012   6.6059499052301796E-002
  -1.0851011061907556E-011   2.3053225994829063E-012   6.5789104675449406E-002
  -1.2197808735292526E-011   1.9927254291118857E-012   6.5729469233893084E-002
  -1.3544604673954019E-011   3.3329693172046149E-012   6.5880592727632928E-002
  -1.4891400612615513E-011   6.3254956828018294E-012   6.6242475156668756E-002
   1.8546306119883574E-002  -5.5214341943500278E-003   6.2278659757610988E-002
   1.7782159147913229E-002  -5.2303356006271340E-003   6.2104770565615086E-002
   1.7018012175942891E-002  -4.9427105275764854E-003   6.2135654044364774E-002
   1.6253865203972536E-002  -4.6585589751983285E-003   6.2371310193860177E-002
   1.5489718232002181E-002  -4.3778809434925070E-003   6.2811739014100920E-002
   1.3920974666309135E-002  -4.1410756441811469E-003   6.3379426863715616E-002
   1.3358166381847829E-002  -3.9227516966203191E-003   6.3191567639129254E-002
   1.2795358097386529E-002  -3.7070328869358571E-003   6.3201613118815447E-002
   1.2232549812925226E-002  -3.4939192151280385E-003   6.3409563302774224E-002
   1.1669741528463937E-002  -3.2834106811965857E-003   6.3815418191005391E-002
   9.2881464926551395E-003  -2.7607170940122661E-003   6.4406985132260106E-002
   8.9198089292298575E-003  -2.6151677926136152E-003   6.4206024257879246E-002
   8.5514713658045739E-003  -2.4713552462954022E-003   6.4196100121297867E-002
   8.1831338023793040E-003  -2.3292794550578613E-003   6.4377212722515953E-002
   7.8147962389540152E-003  -2.1889404189006367E-003   6.4749362061533547E-002
   4.6478215989216318E-003  -1.3803585438433574E-003   6.5361334563244541E-002
   4.4670867900593334E-003  -1.3075838886068003E-003   6.5148140421864995E-002
   4.2863519811970306E-003  -1.2356776056548328E-003   6.5119115051811977E-002
   4.1056171723347261E-003  -1.1646396949875166E-003   6.5274258453085446E-002
   3.9248823634724303E-003  -1.0944701566047571E-003   6.5613570625685319E-002
  -1.4891400612615513E-011   6.3254956828018294E-012   6.6242475156668756E-002
  -3.5663763608972943E-011   1.5399903574575546E-011   6.6017916131086596E-002
  -5.6436119666436468E-011   3.4985653263319705E-011   6.5970657910357888E-002
  -7.7208484397517374E-011   6.5082543521111091E-011   6.6100700494482634E-002
  -9.7980838720257424E-011   1.0569123354287058E-010   6.6408043883460666E-002
   1.5489718232002181E-002  -4.3778809434925070E-003   6.2811739014100920E-002
   1.4490527302737921E-002  -4.0858815796149250E-003   6.2682796489695380E-002
   1.3491336373473661E-002  -3.7677660307214728E-003   6.2761534270655256E-002
   1.2492145444209367E-002  -3.4235342968119940E-003   6.3047952356980227E-002
   1.1492954514945086E-002  -3.0531863778868740E-003   6.3542050748671031E-002
   1.1669741528463937E-002  -3.2834106811965857E-003   6.3815418191005391E-002
   1.0888760262842974E-002  -3.0644111709785538E-003   6.3684888076638968E-002
   1.0107778997221997E-002  -2.8258245703106782E-003   6.3783096984193821E-002
   9.3267977316010414E-003  -2.5676508791931153E-003   6.4110044913669603E-002
   8.5458164659800162E-003  -2.2898900976258130E-003   6.4665731865066967E-002
   7.8147962389540152E-003  -2.1889404189006367E-003   6.4749362061533547E-002
   7.2730833535321893E-003  -2.0429407623420992E-003   6.4610715262639964E-002
   6.7313704681103634E-003  -1.8838831098998907E-003   6.4721866202223366E-002
   6.1896575826885288E-003  -1.7117674615740441E-003   6.5082814880284015E-002
   5.6479446972667047E-003  -1.5265938173647520E-003   6.5693561296821523E-002
   3.9248823634724303E-003  -1.0944701566047571E-003   6.5613570625685319E-002
   3.6434965748055603E-003  -1.0214703537057973E-003   6.5460278047698467E-002
   3.3621107861386973E-003  -9.4194164948904410E-004   6.5577841924744598E-002
   3.0807249974718546E-003  -8.5588404395506908E-004   6.5966262256823560E-002
   2.7993392088049504E-003  -7.6329753710374648E-004   6.6625539043935353E-002
  -9.7980838720257424E-011   1.0569123354287058E-010   6.6408043883460666E-002
  -7.3336895584086292E-011   5.4930726633983795E-011   6.6233576431814323E-002
  -4.8692955917362113E-011  -1.8907833632120230E-010   6.6351024151756810E-002
  -2.4049016250637933E-011  -6.2633601777273284E-010   6.6760387043288044E-002
   5.9492688553319795E-013  -1.2568426299708335E-009   6.7461665106408164E-002
   4.7555362425732994E-013   0.0000000000000000        2.8444680166615739E-002
   4.4763064782626927E-013  -1.4638464052030287E-013   3.3405901083135958E-002
   4.1970832191651208E-013  -1.8566398418684571E-013   3.8374788441144780E-002
   3.9178567074610315E-013  -1.1783976572310451E-013   4.3351342240642188E-002
   3.6386388693743221E-013   5.7096688488300629E-014   4.8335562481628208E-002
  -6.8002515290291670E-003   0.0000000000000000        2.8508668712420762E-002
  -6.8320725432902251E-003   1.4647810765677609E-004   3.3543509063850743E-002
  -6.8638935575512832E-003   3.2995824700713695E-004   3.8507040945325866E-002
  -6.8957145718123404E-003   5.5044041805108260E-004   4.3399264356846122E-002
  -6.9275355860733984E-003   8.0792462078862603E-004   4.8220179298411499E-002
  -1.3505897183802741E-002   0.0000000000000000        2.8700634350235704E-002
  -1.3648514123740393E-002   2.9295621545993421E-004   3.3846096168161935E-002
  -1.3791131063678051E-002   6.5991649419993616E-004   3.8841274604689828E-002
  -1.3933748003615704E-002   1.1008808362200067E-003   4.3686169659819418E-002
  -1.4076364943553360E-002   1.6158492415201450E-003   4.8380781333550643E-002
  -2.0116936963845165E-002   0.0000000000000000        2.9020577080060565E-002
  -2.0449324740902879E-002   4.3943432326309408E-004   3.4313662396069519E-002
  -2.0781712517960595E-002   9.8987474139273623E-004   3.9377489419236682E-002
  -2.1114100295018309E-002   1.6513212543889282E-003   4.4212058149562049E-002
  -2.1446488072076022E-002   2.4237738622516674E-003   4.8817368587045641E-002
  -2.6633370869156445E-002   0.0000000000000000        2.9468496901895340E-002
  -2.7234504394777675E-002   5.8591243106625220E-004   3.4946207747573503E-002
  -2.7835637920398913E-002   1.3198329885855346E-003   4.0115685388966413E-002
  -2.8436771446020147E-002   2.2017616725578497E-003   4.4976929826074069E-002
  -2.9037904971641382E-002   3.2316984829831950E-003   4.9529941058896472E-002
   3.6386388693743221E-013   5.7096688488300629E-014   4.8335562481628208E-002
   4.2801743052600649E-013   2.0477369799820622E-013   5.1504257191430855E-002
   4.9217162463588426E-013   1.9084126640089849E-013   5.4536893451368425E-002
   5.5632505980424130E-013   1.5298743175073959E-014   5.7433471261440917E-002
   6.2047936233433632E-013  -3.2188141041444851E-013   6.0193990621648333E-002
  -6.9275355860733984E-003   8.0792462078862603E-004   4.8220179298411499E-002
  -7.0341378945085664E-003   1.0625315630457891E-003   5.1175658102129255E-002
  -7.1407402029437404E-003   1.2743819526486410E-003   5.4053990738713441E-002
  -7.2473425113789118E-003   1.4434757895971744E-003   5.6855177208164097E-002
  -7.3539448198140832E-003   1.5698130738914101E-003   5.9579217510481119E-002
  -1.4076364943553360E-002   1.6158492415201450E-003   4.8380781333550643E-002
  -1.4230657277756336E-002   2.1250631258868148E-003   5.1080287678690793E-002
  -1.4384949611959318E-002   2.5487639051064476E-003   5.3761560139428899E-002
  -1.4539241946162294E-002   2.8869515791790741E-003   5.6424598715764954E-002
  -1.4693534280365274E-002   3.1396261481046739E-003   5.9069403407698950E-002
  -2.1446488072076022E-002   2.4237738622516674E-003   4.8817368587045641E-002
  -2.1589558149315284E-002   3.1875946887278284E-003   5.1218145921115475E-002
  -2.1732628226554553E-002   3.8231458575642575E-003   5.3659601653514771E-002
  -2.1875698303793819E-002   4.3304273687609553E-003   5.6141735784243571E-002
  -2.2018768381033092E-002   4.7094392223179585E-003   5.8664548313301777E-002
  -2.9037904971641382E-002   3.2316984829831950E-003   4.9529941058896472E-002
  -2.9110840509185418E-002   4.2501262515688542E-003   5.1589232829403295E-002
  -2.9183776046729452E-002   5.0975278100220574E-003   5.3748115280971107E-002
  -2.9256711584273492E-002   5.7739031583428540E-003   5.6006588413599914E-002
  -2.9329647121817525E-002   6.2792522965312153E-003   5.8364652227289676E-002
   6.2047936233433632E-013  -3.2188141041444851E-013   6.0193990621648333E-002
   1.3599971843136771E-013  -3.2497615709559113E-013   6.1084689346462107E-002
  -3.4847992547160089E-013   5.0162998754821331E-013   6.2113277147625358E-002
  -8.3295870201283151E-013   2.1579205436439430E-012   6.3279754025138107E-002
  -1.3174392132775381E-012   4.6439380119167595E-012   6.4584119979000335E-002
  -7.3539448198140832E-003   1.5698130738914101E-003   5.9579217510481119E-002
  -7.2288020692696129E-003   1.6668051046503894E-003   6.0463558293064504E-002
  -7.1036593187251487E-003   1.7478631809933441E-003   6.1460295501356295E-002
  -6.9785165681806784E-003   1.8129873029200999E-003   6.2569429135356514E-002
  -6.8533738176362151E-003   1.8621774704308119E-003   6.3790959195065111E-002
  -1.4693534280365274E-002   3.1396261481046739E-003   5.9069403407698950E-002
  -1.4468741429432951E-002   3.3336102096257966E-003   5.9931452292806178E-002
  -1.4243948578500625E-002   3.4957263614850288E-003   6.0880404952980666E-002
  -1.4019155727568313E-002   3.6259746036823204E-003   6.1916261388222503E-002
  -1.3794362876635984E-002   3.7243549362176928E-003   6.3039021598531614E-002
  -2.2018768381033092E-002   4.7094392223179585E-003   5.8664548313301777E-002
  -2.1719818080354010E-002   5.0004153146012177E-003   5.9488371345687026E-002
  -2.1420867779674925E-002   5.2435895419767073E-003   6.0373605502498463E-002
  -2.1121917478995843E-002   5.4389619044445062E-003   6.1320250783736055E-002
  -2.0822967178316765E-002   5.5865324020046257E-003   6.2328307189399919E-002
  -2.9329647121817525E-002   6.2792522965312153E-003   5.8364652227289676E-002
  -2.8982032022032780E-002   6.6672204195765833E-003   5.9134315451707081E-002
  -2.8634416922248038E-002   6.9914527224684275E-003   5.9939897149909618E-002
  -2.8286801822463299E-002   7.2519492052067064E-003   6.0781397321897274E-002
  -2.7939186722678554E-002   7.4487098677914615E-003   6.1658815967669992E-002
  -1.3174392132775381E-012   4.6439380119167595E-012   6.4584119979000335E-002
  -3.1534445193992511E-012   7.1636030440913601E-012   6.4774242957014741E-002
  -4.9894498255209641E-012   8.9209507836418567E-012   6.5079478395384527E-002
  -6.8254568663661530E-012   9.9160063840586510E-012   6.5499826294109734E-002
  -8.6614604377643900E-012   1.0148687445976634E-011   6.6035286653190334E-002
  -6.8533738176362151E-003   1.8621774704308119E-003   6.3790959195065111E-002
  -6.7222594961471116E-003   1.8918938540820121E-003   6.3897961986335516E-002
  -6.5911451746580099E-003   1.8985966244302981E-003   6.4152080963900765E-002
  -6.4600308531689065E-003   1.8822857814757453E-003   6.4553316127760746E-002
  -6.3289165316798048E-003   1.8429613252181898E-003   6.5101667477915640E-002
  -1.3794362876635984E-002   3.7243549362176928E-003   6.3039021598531614E-002
  -1.3500130505882401E-002   3.7837877010003795E-003   6.3039890590517539E-002
  -1.3205898135128817E-002   3.7971932399396436E-003   6.3219879494737674E-002
  -1.2911665764375236E-002   3.7645715530354143E-003   6.3578988311191950E-002
  -1.2617433393621659E-002   3.6859226402877615E-003   6.4117217039880464E-002
  -2.0822967178316765E-002   5.5865324020046257E-003   6.2328307189399919E-002
  -2.0333613032359331E-002   5.6756815479187678E-003   6.2200028769560850E-002
  -1.9844258886401876E-002   5.6957898554489345E-003   6.2282873987895268E-002
  -1.9354904740444438E-002   5.6468573245951181E-003   6.2576842844403222E-002
  -1.8865550594486996E-002   5.5288839553572985E-003   6.3081935339084738E-002
  -2.7939186722678554E-002   7.4487098677914615E-003   6.1658815967669992E-002
  -2.7222707075577876E-002   7.5675753948371283E-003   6.1378376523465256E-002
  -2.6506227428477198E-002   7.5943864709582636E-003   6.1341064443373484E-002
  -2.5789747781376517E-002   7.5291430961547763E-003   6.1546879727394643E-002
  -2.5073268134275843E-002   7.3718452704268078E-003   6.1995822375528670E-002
  -8.6614604377643900E-012   1.0148687445976634E-011   6.6035286653190334E-002
  -8.8721495428156771E-012   9.6699731555460744E-012   6.5720898263523453E-002
  -9.0828386478669643E-012   8.5305026931159489E-012   6.5620137533486458E-002
  -9.2935242834712994E-012   6.7305588186128418E-012   6.5733004463079309E-002
  -9.5042168579695385E-012   4.2698622415571208E-012   6.6059499052301796E-002
  -6.3289165316798048E-003   1.8429613252181898E-003   6.5101667477915640E-002
  -6.1213427476467450E-003   1.7917801397715483E-003   6.4821274951071151E-002
  -5.9137689636136782E-003   1.7398991092493696E-003   6.4742402333084315E-002
  -5.7061951795806167E-003   1.6873182336516589E-003   6.4865049623955132E-002
  -5.4986213955475517E-003   1.6340375129783036E-003   6.5189216823683699E-002
  -1.2617433393621659E-002   3.6859226402877615E-003   6.4117217039880464E-002
  -1.2214393576116981E-002   3.5835602698731581E-003   6.3870120531443419E-002
  -1.1811353758612324E-002   3.4797982099681844E-003   6.3812436181091878E-002
  -1.1408313941107657E-002   3.3746364605727599E-003   6.3944163988825908E-002
  -1.1005274123602988E-002   3.2680750216868282E-003   6.4265303954645400E-002
  -1.8865550594486996E-002   5.5288839553572985E-003   6.3081935339084738E-002
  -1.8279152494282871E-002   5.3753403999747505E-003   6.2867435004640301E-002
  -1.7692754394078750E-002   5.2196973106869420E-003   6.2830239077509231E-002
  -1.7106356293874622E-002   5.0619546874937776E-003   6.2970347557691445E-002
  -1.6519958193670494E-002   4.9021125303953667E-003   6.3287760445187219E-002
  -2.5073268134275843E-002   7.3718452704268078E-003   6.1995822375528670E-002
  -2.4315619502144406E-002   7.1671205300763569E-003   6.1813218370661865E-002
  -2.3557970870012965E-002   6.9595964114058315E-003   6.1795811022336264E-002
  -2.2800322237881518E-002   6.7492729144149940E-003   6.1943600330551955E-002
  -2.2042673605750088E-002   6.5361500391037941E-003   6.2256586295308836E-002
  -9.5042168579695385E-012   4.2698622415571208E-012   6.6059499052301796E-002
  -1.0851011061907556E-011   2.3053225994829063E-012   6.5789104675449406E-002
  -1.2197808735292526E-011   1.9927254291118857E-012   6.5729469233893084E-002
  -1.3544604673954019E-011   3.3329693172046149E-012   6.5880592727632928E-002
  -1.4891400612615513E-011   6.3254956828018294E-012   6.6242475156668756E-002
  -5.4986213955475517E-003   1.6340375129783036E-003   6.5189216823683699E-002
  -5.2859214533154519E-003   1.5779595956506992E-003   6.4910284839811525E-002
  -5.0732215110833503E-003   1.5169871300898669E-003   6.4845993807801039E-002
  -4.8605215688512496E-003   1.4511201162958377E-003   6.4996343727652200E-002
  -4.6478216266191419E-003   1.3803585542685459E-003   6.5361334599364995E-002
  -1.1005274123602988E-002   3.2680750216868282E-003   6.4265303954645400E-002
  -1.0575992221226425E-002   3.1559191889963534E-003   6.3972939813867938E-002
  -1.0146710318849873E-002   3.0339742581869597E-003   6.3899098641517688E-002
  -9.7174284164733143E-003   2.9022402292587079E-003   6.4043780437594622E-002
  -9.2881465140967606E-003   2.7607171022115962E-003   6.4406985202098838E-002
  -1.6519958193670494E-002   4.9021125303953667E-003   6.3287760445187219E-002
  -1.5870212314583937E-002   4.7338787823419798E-003   6.2977069597618701E-002
  -1.5220466435497383E-002   4.5509613862841324E-003   6.2888783735042808E-002
  -1.4570720556410828E-002   4.3533603422215494E-003   6.3022902857459984E-002
  -1.3920974677324270E-002   4.1410756501546464E-003   6.3379426964869534E-002
  -2.2042673605750088E-002   6.5361500391037941E-003   6.2256586295308836E-002
  -2.1168581733387981E-002   6.3118383756874119E-003   6.1922674191063648E-002
  -2.0294489861025874E-002   6.0679485143811662E-003   6.1815049088376761E-002
  -1.9420397988663768E-002   5.8044804551844117E-003   6.1933710987248286E-002
  -1.8546306116301661E-002   5.5214341980976966E-003   6.2278659887678001E-002
  -1.4891400612615513E-011   6.3254956828018294E-012   6.6242475156668756E-002
  -3.5663763608972943E-011   1.5399903574575546E-011   6.6017916131086596E-002
  -5.6436119666436468E-011   3.4985653263319705E-011   6.5970657910357888E-002
  -7.7208484397517374E-011   6.5082543521111091E-011   6.6100700494482634E-002
  -9.7980838720257424E-011   1.0569123354287058E-010   6.6408043883460666E-002
  -4.6478216266191419E-003   1.3803585542685459E-003   6.5361334599364995E-002
  -4.4670868558111809E-003   1.3075839097551611E-003   6.5148140481646105E-002
  -4.2863520850032148E-003   1.2356776485025478E-003   6.5119115142234257E-002
  -4.1056173141952434E-003   1.1646397705109904E-003   6.5274258581129743E-002
  -3.9248825433872807E-003   1.0944702757801350E-003   6.5613570798332299E-002
  -9.2881465140967606E-003   2.7607171022115962E-003   6.4406985202098838E-002
  -8.9198089782546747E-003   2.6151678041103077E-003   6.4206024364992426E-002
  -8.5514714424125889E-003   2.4713552620194562E-003   6.4196100279647145E-002
  -8.1831339065704962E-003   2.3292794759391632E-003   6.4377212946062773E-002
  -7.8147963707284104E-003   2.1889404458693695E-003   6.4749362364239504E-002
  -1.3920974677324270E-002   4.1410756501546464E-003   6.3379426964869534E-002
  -1.3358166402994264E-002   3.9227516984653987E-003   6.3191567781125751E-002
  -1.2795358128664251E-002   3.7070328755363022E-003   6.3201613322596509E-002
  -1.2232549854334232E-002   3.4939191813673619E-003   6.3409563589282222E-002
  -1.1669741580004223E-002   3.2834106159583820E-003   6.3815418581182615E-002
  -1.8546306116301661E-002   5.5214341980976966E-003   6.2278659887678001E-002
  -1.7782159130029930E-002   5.2303355928206841E-003   6.2104770730045888E-002
  -1.7018012143758192E-002   4.9427104890532592E-003   6.2135654271082391E-002
  -1.6253865157486468E-002   4.6585588867957550E-003   6.2371310510787453E-002
  -1.5489718171214722E-002   4.3778807860476165E-003   6.2811739449161297E-002
  -9.7980838720257424E-011   1.0569123354287058E-010   6.6408043883460666E-002
  -7.3336895584086292E-011   5.4930726633983795E-011   6.6233576431814323E-002
  -4.8692955917362113E-011  -1.8907833632120230E-010   6.6351024151756810E-002
  -2.4049016250637933E-011  -6.2633601777273284E-010   6.6760387043288044E-002
   5.9492688553319795E-013  -1.2568426299708335E-009   6.7461665106408164E-002
  -3.9248825433872807E-003   1.0944702757801350E-003   6.5613570798332299E-002
  -3.6434967081820091E-003   1.0214704001282049E-003   6.5460277934547922E-002
  -3.3621108729767219E-003   9.4194137937275713E-004   6.5577841520297497E-002
  -3.0807250377714607E-003   8.5588321351387497E-004   6.5966261555580719E-002
  -2.7993392025661631E-003   7.6329590255141966E-004   6.6625538040398280E-002
  -7.8147963707284104E-003   2.1889404458693695E-003   6.4749362364239504E-002
  -7.2730834470165692E-003   2.0429407453255166E-003   6.4610715136462216E-002
  -6.7313705233047116E-003   1.8838829478238089E-003   6.4721865636164014E-002
  -6.1896575995928757E-003   1.7117670533636602E-003   6.5082813863345274E-002
  -5.6479446758810128E-003   1.5265930619453583E-003   6.5693559818005232E-002
  -1.1669741580004223E-002   3.2834106159583820E-003   6.3815418581182615E-002
  -1.0888760289840586E-002   3.0644110905230226E-003   6.3684888037557730E-002
  -1.0107778999676935E-002   2.8258245162748816E-003   6.3783096499357025E-002
  -9.3267977095133174E-003   2.5676508932137212E-003   6.4110043966580821E-002
  -8.5458164193496586E-003   2.2898902213393524E-003   6.4665730439229144E-002
  -1.5489718171214722E-002   4.3778807860476165E-003   6.2811739449161297E-002
  -1.4490527236654064E-002   4.0858814357203066E-003   6.2682796637833937E-002
  -1.3491336302093392E-002   3.7677660847259264E-003   6.2761534109876227E-002
  -1.2492145367532747E-002   3.4235347330633867E-003   6.3047951865288165E-002
  -1.1492954432972061E-002   3.0531873807333465E-003   6.3542049904069753E-002
  -2.6633370869156445E-002   0.0000000000000000        2.9468496901895340E-002
  -2.7234504394777675E-002   5.8591243106625220E-004   3.4946207747573503E-002
  -2.7835637920398913E-002   1.3198329885855346E-003   4.0115685388966413E-002
  -2.8436771446020147E-002   2.2017616725578497E-003   4.4976929826074069E-002
  -2.9037904971641382E-002   3.2316984829831950E-003   4.9529941058896472E-002
  -3.3392656074355501E-002   0.0000000000000000        3.0178858090037664E-002
  -3.4236763122263640E-002   9.6046928436075481E-004   3.5267179482349829E-002
  -3.5080870170171766E-002   2.0242491205531921E-003   4.0177787034373448E-002
  -3.5924977218079891E-002   3.1913395085773144E-003   4.4910680746108524E-002
  -3.6769084265988024E-002   4.4617404484331210E-003   4.9465860617555070E-002
  -4.0732249754061277E-002   0.0000000000000000        3.1286124918785164E-002
  -4.1688810960259594E-002   1.3350261376552570E-003   3.5940359283109978E-002
  -4.2645372166457911E-002   2.7286652525208522E-003   4.0547399171142966E-002
  -4.3601933372656221E-002   4.1809173445967827E-003   4.5107244582884107E-002
  -4.4558494578854531E-002   5.6917824138830531E-003   4.9619895518333436E-002
  -4.8652151908273773E-002   0.0000000000000000        3.2790297388137844E-002
  -4.9590647908765564E-002   1.7095829909497598E-003   3.6965747149853963E-002
  -5.0529143909257342E-002   3.4330813844885128E-003   4.1224521799274959E-002
  -5.1467639909749133E-002   5.1704951806162526E-003   4.5566621336400846E-002
  -5.2406135910240917E-002   6.9218243793329817E-003   4.9992045761231604E-002
  -5.7152362536992976E-002   0.0000000000000000        3.4691375498095700E-002
  -5.7942273967781524E-002   2.0841398442442618E-003   3.8343343082581763E-002
  -5.8732185398570065E-002   4.1374975164561699E-003   4.2209154918769434E-002
  -5.9522096829358613E-002   6.1600730166357157E-003   4.6288811006658701E-002
  -6.0312008260147161E-002   8.1518663447829112E-003   5.0582311346249548E-002
  -2.9037904971641382E-002   3.2316984829831950E-003   4.9529941058896472E-002
  -2.9110840509185418E-002   4.2501262515688542E-003   5.1589232829403295E-002
  -2.9183776046729452E-002   5.0975278100220574E-003   5.3748115280971107E-002
  -2.9256711584273492E-002   5.7739031583428540E-003   5.6006588413599914E-002
  -2.9329647121817525E-002   6.2792522965312153E-003   5.8364652227289676E-002
  -3.6769084265988024E-002   4.4617404484331210E-003   4.9465860617555070E-002
  -3.6781533363742444E-002   5.6953487340650182E-003   5.1253856093064667E-002
  -3.6793982461496864E-002   6.7520611594173857E-003   5.3063233767092502E-002
  -3.6806431559251285E-002   7.6318777244902547E-003   5.4893993639638573E-002
  -3.6818880657005705E-002   8.3347984292835992E-003   5.6746135710702889E-002
  -4.4558494578854531E-002   5.6917824138830531E-003   4.9619895518333436E-002
  -4.4588665719362097E-002   7.1405712165611901E-003   5.1130725048698748E-002
  -4.4618836859869657E-002   8.4065945088127262E-003   5.2584728295039532E-002
  -4.4649008000377223E-002   9.4898522906376685E-003   5.3981905257355814E-002
  -4.4679179140884775E-002   1.0390344562036004E-002   5.5322255935647574E-002
  -5.2406135910240917E-002   6.9218243793329817E-003   4.9992045761231604E-002
  -5.2532237576044354E-002   8.5857936990573584E-003   5.1219839696305523E-002
  -5.2658339241847804E-002   1.0061127858208058E-002   5.2312598864812168E-002
  -5.2784440907651262E-002   1.1347826856785063E-002   5.3270323266751567E-002
  -5.2910542573454698E-002   1.2445890694788419E-002   5.4093012902123677E-002
  -6.0312008260147161E-002   8.1518663447829112E-003   5.0582311346249548E-002
  -6.0612248933789248E-002   1.0031016181553526E-002   5.1521200035885006E-002
  -6.0912489607431355E-002   1.1715661207603392E-002   5.2246845476410432E-002
  -6.1212730281073442E-002   1.3205801422932491E-002   5.2759247667825873E-002
  -6.1512970954715529E-002   1.4501436827540799E-002   5.3058406610131247E-002
  -2.9329647121817525E-002   6.2792522965312153E-003   5.8364652227289676E-002
  -2.8982032022032780E-002   6.6672204195765833E-003   5.9134315451707081E-002
  -2.8634416922248038E-002   6.9914527224684275E-003   5.9939897149909618E-002
  -2.8286801822463299E-002   7.2519492052067064E-003   6.0781397321897274E-002
  -2.7939186722678554E-002   7.4487098677914615E-003   6.1658815967669992E-002
  -3.6818880657005705E-002   8.3347984292835992E-003   5.6746135710702889E-002
  -3.6383384843505992E-002   8.8768644202423148E-003   5.7092421532587645E-002
  -3.5947889030006258E-002   9.2741168438112559E-003   5.7578550308117267E-002
  -3.5512393216506517E-002   9.5265556999904917E-003   5.8204522037291762E-002
  -3.5076897403006790E-002   9.6341809887799112E-003   5.8970336720111108E-002
  -4.4679179140884775E-002   1.0390344562036004E-002   5.5322255935647574E-002
  -4.4051878133810306E-002   1.1086508420908060E-002   5.5164086607763452E-002
  -4.3424577126735843E-002   1.1556780965154140E-002   5.5249684713383956E-002
  -4.2797276119661366E-002   1.1801162194774249E-002   5.5579050252509039E-002
  -4.2169975112586910E-002   1.1819652109768382E-002   5.6152183225138749E-002
  -5.2910542573454698E-002   1.2445890694788419E-002   5.4093012902123677E-002
  -5.1987511892945766E-002   1.3296152421573833E-002   5.3349310677234502E-002
  -5.1064481212436827E-002   1.3839445086497017E-002   5.2953300365709645E-002
  -5.0141450531927874E-002   1.4075768689558035E-002   5.2904981967549156E-002
  -4.9218419851418935E-002   1.4005123230756870E-002   5.3204355482753013E-002
  -6.1512970954715529E-002   1.4501436827540799E-002   5.3058406610131247E-002
  -6.0190286120912373E-002   1.5505796422239548E-002   5.1648093741000760E-002
  -5.8867601287109182E-002   1.6122109207839852E-002   5.0689397265094388E-002
  -5.7544916453306005E-002   1.6350375184341806E-002   5.0182317182412069E-002
  -5.6222231619502835E-002   1.6190594351745288E-002   5.0126853492953885E-002
  -2.7939186722678554E-002   7.4487098677914615E-003   6.1658815967669992E-002
  -2.7222707075577876E-002   7.5675753948371283E-003   6.1378376523465256E-002
  -2.6506227428477198E-002   7.5943864709582636E-003   6.1341064443373484E-002
  -2.5789747781376517E-002   7.5291430961547763E-003   6.1546879727394643E-002
  -2.5073268134275843E-002   7.3718452704268078E-003   6.1995822375528670E-002
  -3.5076897403006790E-002   9.6341809887799112E-003   5.8970336720111108E-002
  -3.4129335334191706E-002   9.6362665063354017E-003   5.8643325091254604E-002
  -3.3181773265376607E-002   9.5720860488126003E-003   5.8535350941713971E-002
  -3.2234211196561509E-002   9.4416396162117291E-003   5.8646414271489263E-002
  -3.1286649127746417E-002   9.2449272085325107E-003   5.8976515080580424E-002
  -4.2169975112586910E-002   1.1819652109768382E-002   5.6152183225138749E-002
  -4.1015420506854430E-002   1.1704957617833620E-002   5.5804387887476839E-002
  -3.9860865901121950E-002   1.1549785626667050E-002   5.5651540144333787E-002
  -3.8706311295389470E-002   1.1354136136268544E-002   5.5693639995709594E-002
  -3.7551756689656976E-002   1.1118009146638283E-002   5.5930687441604364E-002
  -4.9218419851418935E-002   1.4005123230756870E-002   5.3204355482753013E-002
  -4.7880962593566098E-002   1.3773648729331837E-002   5.2861564912132064E-002
  -4.6543505335713234E-002   1.3527485204521333E-002   5.2689632051232886E-002
  -4.5206048077860383E-002   1.3266632656325454E-002   5.2688556900055590E-002
  -4.3868590820007540E-002   1.2991091084744021E-002   5.2858339458600155E-002
  -5.6222231619502835E-002   1.6190594351745288E-002   5.0126853492953885E-002
  -5.4725961594326640E-002   1.5842339840830069E-002   4.9814856165220175E-002
  -5.3229691569150445E-002   1.5505184782375805E-002   4.9649626662411343E-002
  -5.1733421543974249E-002   1.5179129176382221E-002   4.9631164984527354E-002
  -5.0237151518798040E-002   1.4864173022849758E-002   4.9759471131568145E-002
  -2.5073268134275843E-002   7.3718452704268078E-003   6.1995822375528670E-002
  -2.4315619502144406E-002   7.1671205300763569E-003   6.1813218370661865E-002
  -2.3557970870012965E-002   6.9595964114058315E-003   6.1795811022336264E-002
  -2.2800322237881518E-002   6.7492729144149940E-003   6.1943600330551955E-002
  -2.2042673605750088E-002   6.5361500391037941E-003   6.2256586295308836E-002
  -3.1286649127746417E-002   9.2449272085325107E-003   5.8976515080580424E-002
  -3.0355296670365302E-002   9.0072564837911651E-003   5.8741466657298846E-002
  -2.9423944212984183E-002   8.7539351000033711E-003   5.8688629227975360E-002
  -2.8492591755603050E-002   8.4849630571693889E-003   5.8818002792610041E-002
  -2.7561239298221941E-002   8.2003403552889653E-003   5.9129587351202828E-002
  -3.7551756689656976E-002   1.1118009146638283E-002   5.5930687441604364E-002
  -3.6429686069609300E-002   1.0847392437505855E-002   5.5630343319181819E-002
  -3.5307615449561604E-002   1.0548273788601053E-002   5.5529224528134288E-002
  -3.4185544829513914E-002   1.0220653199923786E-002   5.5627331068461773E-002
  -3.3063474209466197E-002   9.8645306714741365E-003   5.5924662940164363E-002
  -4.3868590820007540E-002   1.2991091084744021E-002   5.2858339458600155E-002
  -4.2538787699876381E-002   1.2687528391220660E-002   5.2479848356310685E-002
  -4.1208984579745214E-002   1.2342612477198636E-002   5.2317596922813084E-002
  -3.9879181459614076E-002   1.1956343342678291E-002   5.2371585158107484E-002
  -3.8549378339482902E-002   1.1528720987659280E-002   5.2641813062193642E-002
  -5.0237151518798040E-002   1.4864173022849758E-002   4.9759471131568145E-002
  -4.8682601561166550E-002   1.4527664344935340E-002   4.9289981768685515E-002
  -4.7128051603535046E-002   1.4136951165796330E-002   4.9053746412011767E-002
  -4.5573501645903527E-002   1.3692033485432673E-002   4.9050765061546764E-002
  -4.4018951688272037E-002   1.3192911303844423E-002   4.9281037717290477E-002
  -2.2042673605750088E-002   6.5361500391037941E-003   6.2256586295308836E-002
  -2.1168581733387981E-002   6.3118383756874119E-003   6.1922674191063648E-002
  -2.0294489861025874E-002   6.0679485143811662E-003   6.1815049088376761E-002
  -1.9420397988663768E-002   5.8044804551844117E-003   6.1933710987248286E-002
  -1.8546306116301661E-002   5.5214341980976966E-003   6.2278659887678001E-002
  -2.7561239298221941E-002   8.2003403552889653E-003   5.9129587351202828E-002
  -2.6465645226028605E-002   7.9015673942762626E-003   5.8791107197903772E-002
  -2.5370051153835275E-002   7.5901445740451171E-003   5.8669344442708840E-002
  -2.4274457081641949E-002   7.2660718945954123E-003   5.8764299085617984E-002
  -2.3178863009448616E-002   6.9293493559273722E-003   5.9075971126631405E-002
  -3.3063474209466197E-002   9.8645306714741365E-003   5.5924662940164363E-002
  -3.1755947540895876E-002   9.4912964128649052E-003   5.5588543076483234E-002
  -3.0448420872325521E-002   9.1123406337090124E-003   5.5459571007451983E-002
  -2.9140894203755170E-002   8.7276633340063574E-003   5.5537746733070624E-002
  -2.7833367535184818E-002   8.3372645137571033E-003   5.5823070253339269E-002
  -3.8549378339482902E-002   1.1528720987659280E-002   5.2641813062193642E-002
  -3.7039488677989743E-002   1.1081025431453513E-002   5.2314981826802193E-002
  -3.5529599016496598E-002   1.0634536693372908E-002   5.2185728782606355E-002
  -3.4019709355003452E-002   1.0189254773417219E-002   5.2254053929606213E-002
  -3.2509819693510265E-002   9.7451796715868066E-003   5.2519957267801842E-002
  -4.4018951688272037E-002   1.3192911303844423E-002   4.9281037717290477E-002
  -4.2316268637310264E-002   1.2670754450042343E-002   4.8970423448860378E-002
  -4.0613585586348498E-002   1.2156732753036845E-002   4.8847817768171792E-002
  -3.8910902535386732E-002   1.1650846212828272E-002   4.8913220675224647E-002
  -3.7208219484424959E-002   1.1153094829416510E-002   4.9166632170019042E-002
  -1.8546306116301661E-002   5.5214341980976966E-003   6.2278659887678001E-002
  -1.7782159130029930E-002   5.2303355928206841E-003   6.2104770730045888E-002
  -1.7018012143758192E-002   4.9427104890532592E-003   6.2135654271082391E-002
  -1.6253865157486468E-002   4.6585588867957550E-003   6.2371310510787453E-002
  -1.5489718171214722E-002   4.3778807860476165E-003   6.2811739449161297E-002
  -2.3178863009448616E-002   6.9293493559273722E-003   5.9075971126631405E-002
  -2.2217094061609974E-002   6.5848943248295877E-003   5.8873312787242588E-002
  -2.1255325113771321E-002   6.2376241680907329E-003   5.8861125672319062E-002
  -2.0293556165932640E-002   5.8875388857106761E-003   5.9039409781860654E-002
  -1.9331787218094018E-002   5.5346384776894797E-003   5.9408165115867551E-002
  -2.7833367535184818E-002   8.3372645137571033E-003   5.5823070253339269E-002
  -2.6688278099982657E-002   7.9394530568385052E-003   5.5585354105043061E-002
  -2.5543188664780506E-002   7.5325378471280957E-003   5.5523807707008682E-002
  -2.4398099229578342E-002   7.1165188846257083E-003   5.5638431059236132E-002
  -2.3253009794376164E-002   6.6913961693316204E-003   5.5929224161725327E-002
  -3.2509819693510265E-002   9.7451796715868066E-003   5.2519957267801842E-002
  -3.1195711245148010E-002   9.2940117888473880E-003   5.2240894683447413E-002
  -2.9881602796785745E-002   8.8274515261654585E-003   5.2123700375151530E-002
  -2.8567494348423459E-002   8.3454988835406849E-003   5.2168374342913937E-002
  -2.7253385900061197E-002   7.8481538609735113E-003   5.2374916586734828E-002
  -3.7208219484424959E-002   1.1153094829416510E-002   4.9166632170019042E-002
  -3.5739393497106003E-002   1.0648570520856382E-002   4.8839934522455664E-002
  -3.4270567509787034E-002   1.0122365205202932E-002   4.8660803676747383E-002
  -3.2801741522468085E-002   9.5744788824557170E-003   4.8629239632894061E-002
  -3.1332915535149108E-002   9.0049115526157353E-003   4.8745242390895727E-002
  -1.5489718171214722E-002   4.3778807860476165E-003   6.2811739449161297E-002
  -1.4490527236654064E-002   4.0858814357203066E-003   6.2682796637833937E-002
  -1.3491336302093392E-002   3.7677660847259264E-003   6.2761534109876227E-002
  -1.2492145367532747E-002   3.4235347330633867E-003   6.3047951865288165E-002
  -1.1492954432972061E-002   3.0531873807333465E-003   6.3542049904069753E-002
  -1.9331787218094018E-002   5.5346384776894797E-003   5.9408165115867551E-002
  -1.8120470582072210E-002   5.1714575288729914E-003   5.9182583214920148E-002
  -1.6909153946050429E-002   4.7905306241068646E-003   5.9173572433525223E-002
  -1.5697837310028655E-002   4.3918577633907177E-003   5.9381132771682971E-002
  -1.4486520674006839E-002   3.9754389467250295E-003   5.9805264229393362E-002
  -2.3253009794376164E-002   6.6913961693316204E-003   5.5929224161725327E-002
  -2.1820676620710300E-002   6.2570336220255651E-003   5.5615373215875785E-002
  -2.0388343447044412E-002   5.8132951634878166E-003   5.5526984225761675E-002
  -1.8956010273378513E-002   5.3601807937181632E-003   5.5664057191383044E-002
  -1.7523677099712649E-002   4.8976905127167125E-003   5.6026592112740470E-002
  -2.7253385900061197E-002   7.8481538609735113E-003   5.2374916586734828E-002
  -2.5591145352568248E-002   7.3426097151781389E-003   5.1981166640700967E-002
  -2.3928904805075299E-002   6.8360597028688727E-003   5.1821769486585623E-002
  -2.2266664257582381E-002   6.3285038240455515E-003   5.1896725124388761E-002
  -2.0604423710089401E-002   5.8199420787084510E-003   5.2206033554110493E-002
  -3.1332915535149108E-002   9.0049115526157353E-003   4.8745242390895727E-002
  -2.9431876777646138E-002   8.4281858083307126E-003   4.8279963489395505E-002
  -2.7530838020143153E-002   7.8588242422498178E-003   4.8057928215996804E-002
  -2.5629799262640196E-002   7.2968268543729675E-003   4.8079136570699565E-002
  -2.3728760505137225E-002   6.7421936447000785E-003   4.8343588553503958E-002
  -5.7152362536992976E-002   0.0000000000000000        3.4691375498095700E-002
  -5.7942273967781524E-002   2.0841398442442618E-003   3.8343343082581763E-002
  -5.8732185398570065E-002   4.1374975164561699E-003   4.2209154918769434E-002
  -5.9522096829358613E-002   6.1600730166357157E-003   4.6288811006658701E-002
  -6.0312008260147161E-002   8.1518663447829112E-003   5.0582311346249548E-002
  -6.5820750039294759E-002   0.0000000000000000        3.7212637099009634E-002
  -6.6625922443854707E-002   2.9142350363730663E-003   4.0835305864153716E-002
  -6.7431094848414655E-002   5.7709556023574013E-003   4.4213608430053411E-002
  -6.8236267252974589E-002   8.5701616979530076E-003   4.7347544796708725E-002
  -6.9041439657534537E-002   1.1311853323159888E-002   5.0237114964119631E-002
  -7.4245182814255004E-002   0.0000000000000000        4.0577360041230560E-002
  -7.5523826643532327E-002   3.7443302285018725E-003   4.4143997688676301E-002
  -7.6802470472809650E-002   7.4044136882586422E-003   4.7008058685931650E-002
  -7.8081114302086987E-002   1.0980250379270301E-002   4.9169543032996629E-002
  -7.9359758131364297E-002   1.4471840301536868E-002   5.0628450729871238E-002
  -8.2425660861873681E-002   0.0000000000000000        4.4785544324758481E-002
  -8.4635986566814370E-002   4.5744254206306770E-003   4.8269418556149482E-002
  -8.6846312271755058E-002   9.0378717741598762E-003   5.0592505686404117E-002
  -8.9056637976695760E-002   1.3390339060587602E-002   5.1754805715522420E-002
  -9.1266963681636448E-002   1.7631827279913848E-002   5.1756318643504315E-002
  -9.0362184182150806E-002   0.0000000000000000        4.9837189949593394E-002
  -9.3962402213700849E-002   5.4045206127594832E-003   5.3211568466573295E-002
  -9.7562620245250906E-002   1.0671329860061116E-002   5.4966949431470846E-002
 -0.10116283827680093        1.5800427741904891E-002   5.5103332844286049E-002
 -0.10476305630835099        2.0791814258290832E-002   5.3620718705018916E-002
  -6.0312008260147161E-002   8.1518663447829112E-003   5.0582311346249548E-002
  -6.0612248933789248E-002   1.0031016181553526E-002   5.1521200035885006E-002
  -6.0912489607431355E-002   1.1715661207603392E-002   5.2246845476410432E-002
  -6.1212730281073442E-002   1.3205801422932491E-002   5.2759247667825873E-002
  -6.1512970954715529E-002   1.4501436827540799E-002   5.3058406610131247E-002
  -6.9041439657534537E-002   1.1311853323159888E-002   5.0237114964119631E-002
  -6.9316947316508462E-002   1.3756483386120531E-002   4.9459536108678634E-002
  -6.9592454975482373E-002   1.5664504794977410E-002   4.8944666531684007E-002
  -6.9867962634456285E-002   1.7035917549730575E-002   4.8692506233135764E-002
  -7.0143470293430224E-002   1.7870721650379985E-002   4.8703055213033863E-002
  -7.9359758131364297E-002   1.4471840301536868E-002   5.0628450729871238E-002
  -7.9134580248113651E-002   1.7481950590687509E-002   4.7792300485970815E-002
  -7.8909402364862991E-002   1.9613348382351438E-002   4.5694812048073144E-002
  -7.8684224481612358E-002   2.0866033676528662E-002   4.4335985416178253E-002
  -7.8459046598361684E-002   2.1240006473219154E-002   4.3715820590286052E-002
  -9.1266963681636448E-002   1.7631827279913848E-002   5.1756318643504315E-002
  -9.0065147728604869E-002   2.1207417795254504E-002   4.6519493167761480E-002
  -8.8863331775573262E-002   2.3562191969725466E-002   4.2497282025577808E-002
  -8.7661515822541655E-002   2.4696149803326722E-002   3.9689685216953270E-002
  -8.6459699869510104E-002   2.4609291296058336E-002   3.8096702741887881E-002
 -0.10476305630835099        2.0791814258290832E-002   5.3620718705018916E-002
 -0.10210864975798206        2.4932884999821495E-002   4.5641114154050685E-002
  -9.9454243207613133E-002   2.7511035557099477E-002   3.9352076464198027E-002
  -9.6799836657244176E-002   2.8526265930124844E-002   3.4753605635460871E-002
  -9.4145430106875261E-002   2.7978576118897501E-002   3.1845701667839267E-002
  -6.1512970954715529E-002   1.4501436827540799E-002   5.3058406610131247E-002
  -6.0190286120912373E-002   1.5505796422239548E-002   5.1648093741000760E-002
  -5.8867601287109182E-002   1.6122109207839852E-002   5.0689397265094388E-002
  -5.7544916453306005E-002   1.6350375184341806E-002   5.0182317182412069E-002
  -5.6222231619502835E-002   1.6190594351745288E-002   5.0126853492953885E-002
  -7.0143470293430224E-002   1.7870721650379985E-002   4.8703055213033863E-002
  -6.8415636909971142E-002   1.8325813770701228E-002   4.7255766476292808E-002
  -6.6687803526512102E-002   1.8558090584469958E-002   4.6167158445639463E-002
  -6.4959970143053061E-002   1.8567552091686156E-002   4.5437231121073701E-002
  -6.3232136759594007E-002   1.8354198292349813E-002   4.5065984502595621E-002
  -7.8459046598361684E-002   2.1240006473219154E-002   4.3715820590286052E-002
  -7.6419000352383221E-002   2.1145831119162940E-002   4.2396787488480379E-002
  -7.4378954106404771E-002   2.0994071961100078E-002   4.1343499405625865E-002
  -7.2338907860426307E-002   2.0784728999030562E-002   4.0555956341722550E-002
  -7.0298861614447844E-002   2.0517802232954345E-002   4.0034158296770470E-002
  -8.6459699869510104E-002   2.4609291296058336E-002   3.8096702741887881E-002
  -8.4200376448148623E-002   2.3965848467624690E-002   3.7071156777563348E-002
  -8.1941053026787183E-002   2.3430053337730176E-002   3.6218420145053574E-002
  -7.9681729605425744E-002   2.3001905906374926E-002   3.5538492844358588E-002
  -7.7422406184064291E-002   2.2681406173558873E-002   3.5031374875478347E-002
  -9.4145430106875261E-002   2.7978576118897501E-002   3.1845701667839267E-002
  -9.1759765197267307E-002   2.6785865816086343E-002   3.1278874343541846E-002
  -8.9374100287659339E-002   2.5866034714360296E-002   3.0791920663922685E-002
  -8.6988435378051371E-002   2.5219082813719321E-002   3.0384840628981877E-002
  -8.4602770468443431E-002   2.4845010114163374E-002   3.0057634238719266E-002
  -5.6222231619502835E-002   1.6190594351745288E-002   5.0126853492953885E-002
  -5.4725961594326640E-002   1.5842339840830069E-002   4.9814856165220175E-002
  -5.3229691569150445E-002   1.5505184782375805E-002   4.9649626662411343E-002
  -5.1733421543974249E-002   1.5179129176382221E-002   4.9631164984527354E-002
  -5.0237151518798040E-002   1.4864173022849758E-002   4.9759471131568145E-002
  -6.3232136759594007E-002   1.8354198292349813E-002   4.5065984502595621E-002
  -6.1569502693472500E-002   1.8014498330268219E-002   4.4707374892881249E-002
  -5.9906868627350986E-002   1.7644921349248836E-002   4.4534725540132679E-002
  -5.8244234561229472E-002   1.7245467349291464E-002   4.4548036444349945E-002
  -5.6581600495107964E-002   1.6816136330396247E-002   4.4747307605532957E-002
  -7.0298861614447844E-002   2.0517802232954345E-002   4.0034158296770470E-002
  -6.8430671075340038E-002   2.0186656819706418E-002   3.9587959933676628E-002
  -6.6562480536232260E-002   1.9784657916121925E-002   3.9366914259589561E-002
  -6.4694289997124482E-002   1.9311805522200669E-002   3.9371021274509248E-002
  -6.2826099458016704E-002   1.8768099637942764E-002   3.9600280978435681E-002
  -7.7422406184064291E-002   2.2681406173558873E-002   3.5031374875478347E-002
  -7.5309466739929290E-002   2.2358815309144648E-002   3.4456611287606263E-002
  -7.3196527295794261E-002   2.1924394482995026E-002   3.4146192820781983E-002
  -7.1083587851659261E-002   2.1378143695109878E-002   3.4100119475005387E-002
  -6.8970648407524232E-002   2.0720062945489268E-002   3.4318391250276400E-002
  -8.4602770468443431E-002   2.4845010114163374E-002   3.0057634238719266E-002
  -8.2205889687240213E-002   2.4530973798582795E-002   2.9313328954670190E-002
  -7.9809008906037010E-002   2.4064131049868070E-002   2.8872561223709861E-002
  -7.7412128124833821E-002   2.3444481868019042E-002   2.8735331045838107E-002
  -7.5015247343630603E-002   2.2672026253035799E-002   2.8901638421055031E-002
  -5.0237151518798040E-002   1.4864173022849758E-002   4.9759471131568145E-002
  -4.8682601561166550E-002   1.4527664344935340E-002   4.9289981768685515E-002
  -4.7128051603535046E-002   1.4136951165796330E-002   4.9053746412011767E-002
  -4.5573501645903527E-002   1.3692033485432673E-002   4.9050765061546764E-002
  -4.4018951688272037E-002   1.3192911303844423E-002   4.9281037717290477E-002
  -5.6581600495107964E-002   1.6816136330396247E-002   4.4747307605532957E-002
  -5.4805302352609775E-002   1.6357601281143774E-002   4.4324894663208853E-002
  -5.3029004210111599E-002   1.5870535190114790E-002   4.4112724084409326E-002
  -5.1252706067613410E-002   1.5354938057309229E-002   4.4110795869134342E-002
  -4.9476407925115214E-002   1.4810809882727038E-002   4.4319110017384061E-002
  -6.2826099458016704E-002   1.8768099637942764E-002   3.9600280978435681E-002
  -6.0851064773336030E-002   1.8187538217352271E-002   3.9250617916118183E-002
  -5.8876030088655391E-002   1.7604119214433250E-002   3.9088185574640937E-002
  -5.6900995403974725E-002   1.7017842629185757E-002   3.9112983954004178E-002
  -5.4925960719294023E-002   1.6428708461609681E-002   3.9325013054207700E-002
  -6.8970648407524232E-002   2.0720062945489268E-002   3.4318391250276400E-002
  -6.6819888823345316E-002   2.0017475153560820E-002   3.4067151527413422E-002
  -6.4669129239166429E-002   1.9337703238751766E-002   3.3980130882706593E-002
  -6.2518369654987527E-002   1.8680747201062272E-002   3.4057329316155863E-002
  -6.0367610070808625E-002   1.8046607040492338E-002   3.4298746827761406E-002
  -7.5015247343630603E-002   2.2672026253035799E-002   2.8901638421055031E-002
  -7.2711774502637661E-002   2.1847412089769314E-002   2.8774495497094682E-002
  -7.0408301661644718E-002   2.1071287263070275E-002   2.8788560008606315E-002
  -6.8104828820651761E-002   2.0343651772938801E-002   2.8943831955589812E-002
  -6.5801355979658832E-002   1.9664505619374939E-002   2.9240311338045222E-002
  -4.4018951688272037E-002   1.3192911303844423E-002   4.9281037717290477E-002
  -4.2316268637310264E-002   1.2670754450042343E-002   4.8970423448860378E-002
  -4.0613585586348498E-002   1.2156732753036845E-002   4.8847817768171792E-002
  -3.8910902535386732E-002   1.1650846212828272E-002   4.8913220675224647E-002
  -3.7208219484424959E-002   1.1153094829416510E-002   4.9166632170019042E-002
  -4.9476407925115214E-002   1.4810809882727038E-002   4.4319110017384061E-002
  -4.7584320177365261E-002   1.4252647385485470E-002   4.4022094077292198E-002
  -4.5692232429615287E-002   1.3694947284701678E-002   4.3915878943035253E-002
  -4.3800144681865286E-002   1.3137709580375804E-002   4.4000464614613211E-002
  -4.1908056934115374E-002   1.2580934272507505E-002   4.4275851092026031E-002
  -5.4925960719294023E-002   1.6428708461609681E-002   3.9325013054207700E-002
  -5.2841676056662491E-002   1.5834540320928819E-002   3.9033922682115127E-002
  -5.0757391394030925E-002   1.5233161816366629E-002   3.8936425333950801E-002
  -4.8673106731399352E-002   1.4624572947923227E-002   3.9032521009714841E-002
  -4.6588822068767778E-002   1.4008773715598499E-002   3.9322209709407197E-002
  -6.0367610070808625E-002   1.8046607040492338E-002   3.4298746827761406E-002
  -5.8088336275202053E-002   1.7416433256372030E-002   3.4005909263329137E-002
  -5.5809062479595481E-002   1.6771376348031410E-002   3.3909456940918431E-002
  -5.3529788683988909E-002   1.6111436315470622E-002   3.4009389860529600E-002
  -5.1250514888382330E-002   1.5436613158689522E-002   3.4305708022162366E-002
  -6.5801355979658832E-002   1.9664505619374939E-002   2.9240311338045222E-002
  -6.3324300832983849E-002   1.8998326191815323E-002   2.8938053820934173E-002
  -6.0847245686308907E-002   1.8309590879696372E-002   2.8834973763938204E-002
  -5.8370190539633958E-002   1.7598299683018171E-002   2.8931071167057343E-002
  -5.5893135392958981E-002   1.6864452601780544E-002   2.9226346030291561E-002
  -3.7208219484424959E-002   1.1153094829416510E-002   4.9166632170019042E-002
  -3.5739393497106003E-002   1.0648570520856382E-002   4.8839934522455664E-002
  -3.4270567509787034E-002   1.0122365205202932E-002   4.8660803676747383E-002
  -3.2801741522468085E-002   9.5744788824557170E-003   4.8629239632894061E-002
  -3.1332915535149108E-002   9.0049115526157353E-003   4.8745242390895727E-002
  -4.1908056934115374E-002   1.2580934272507505E-002   4.4275851092026031E-002
  -4.0287892950185956E-002   1.2017972374813279E-002   4.3954738662654425E-002
  -3.8667728966256532E-002   1.1442174901009128E-002   4.3788735424648700E-002
  -3.7047564982327100E-002   1.0853541851094758E-002   4.3777841378008900E-002
  -3.5427400998397737E-002   1.0252073225070824E-002   4.3922056522734898E-002
  -4.6588822068767778E-002   1.4008773715598499E-002   3.9322209709407197E-002
  -4.4809777698717065E-002   1.3387374228770038E-002   3.9015527929210758E-002
  -4.3030733328666332E-002   1.2761984596815046E-002   3.8871497729891055E-002
  -4.1251688958615647E-002   1.2132604819733689E-002   3.8890119111448240E-002
  -3.9472644588564892E-002   1.1499234897525967E-002   3.9071392073882050E-002
  -5.1250514888382330E-002   1.5436613158689522E-002   3.4305708022162366E-002
  -4.9305047742699407E-002   1.4756776082726866E-002   3.4022302322124658E-002
  -4.7359580597016462E-002   1.4081794292621186E-002   3.3909090592474427E-002
  -4.5414113451333504E-002   1.3411667788372564E-002   3.3966072833212027E-002
  -4.3468646305650525E-002   1.2746396569981083E-002   3.4193249044337182E-002
  -5.5893135392958981E-002   1.6864452601780544E-002   2.9226346030291561E-002
  -5.3773703082132945E-002   1.6126177936683722E-002   2.8975061841395977E-002
  -5.1654270771306882E-002   1.5401603988427312E-002   2.8901514012398849E-002
  -4.9534838460480859E-002   1.4690730757011505E-002   2.9005702543300427E-002
  -4.7415406149654782E-002   1.3993558242436310E-002   2.9287627434100405E-002
  -3.1332915535149108E-002   9.0049115526157353E-003   4.8745242390895727E-002
  -2.9431876777646138E-002   8.4281858083307126E-003   4.8279963489395505E-002
  -2.7530838020143153E-002   7.8588242422498178E-003   4.8057928215996804E-002
  -2.5629799262640196E-002   7.2968268543729675E-003   4.8079136570699565E-002
  -2.3728760505137225E-002   6.7421936447000785E-003   4.8343588553503958E-002
  -3.5427400998397737E-002   1.0252073225070824E-002   4.3922056522734898E-002
  -3.3297770727899884E-002   9.6422016057934046E-003   4.3493064263113085E-002
  -3.1168140457401960E-002   9.0283595761191660E-003   4.3278011401379768E-002
  -2.9038510186904121E-002   8.4105471360479203E-003   4.3276897937534684E-002
  -2.6908879916406170E-002   7.7887642855799522E-003   4.3489723871577790E-002
  -3.9472644588564892E-002   1.1499234897525967E-002   3.9071392073882050E-002
  -3.7143727035285269E-002   1.0856217403256097E-002   3.8667351867537836E-002
  -3.4814809482005674E-002   1.0197894909988514E-002   3.8447946828868804E-002
  -3.2485891928726141E-002   9.5242674177230674E-003   3.8413176957875023E-002
  -3.0156974375446510E-002   8.8353349264599368E-003   3.8563042254556035E-002
  -4.3468646305650525E-002   1.2746396569981083E-002   3.4193249044337182E-002
  -4.0969745699802447E-002   1.2070233200718844E-002   3.3802826302669710E-002
  -3.8470845093954327E-002   1.1367430243857862E-002   3.3567734498464133E-002
  -3.5971944488106304E-002   1.0637987699398284E-002   3.3487973631720513E-002
  -3.3473043882258080E-002   9.8819055673398104E-003   3.3563543702438747E-002
  -4.7415406149654782E-002   1.3993558242436310E-002   2.9287627434100405E-002
  -4.4775826721451362E-002   1.3284248998181425E-002   2.8899487568508631E-002
  -4.2136247293247997E-002   1.2536965577727294E-002   2.8637374410165672E-002
  -3.9496667865044521E-002   1.1751707981073133E-002   2.8501287959071170E-002
  -3.6857088436841157E-002   1.0928476208219795E-002   2.8491228215225650E-002
  -9.0362184182150806E-002   0.0000000000000000        4.9837189949593394E-002
  -9.3962402213700849E-002   5.4045206127594832E-003   5.3211568466573295E-002
  -9.7562620245250906E-002   1.0671329860061116E-002   5.4966949431470846E-002
 -0.10116283827680093        1.5800427741904891E-002   5.5103332844286049E-002
 -0.10476305630835099        2.0791814258290832E-002   5.3620718705018916E-002
 -0.10329337339459663        0.0000000000000000        5.8665385198396099E-002
 -0.10683091434930245        1.0884640127501195E-002   5.2120922075278894E-002
 -0.11036845530400825        1.9172532105770749E-002   4.7320810657932491E-002
 -0.11390599625871409        2.4863675934808677E-002   4.4265050946356861E-002
 -0.11744353721341991        2.7958071614614988E-002   4.2953642940552039E-002
 -0.12645784911872138        0.0000000000000000        7.4203218353827399E-002
 -0.12656936373872982        1.6364759642242915E-002   5.5280876806839317E-002
 -0.12668087835873829        2.7673734351480392E-002   4.1466236223475166E-002
 -0.12679239297874675        3.3926924127712463E-002   3.2759296603734944E-002
 -0.12690390759875522        3.5124328970939138E-002   2.9160057947618671E-002
 -0.15985561135452506        0.0000000000000000        9.6450689415887345E-002
 -0.15317775038198300        2.1844879156984621E-002   6.2691432661254584E-002
 -0.14649988940944095        3.6174936597190052E-002   3.7403226128098876E-002
 -0.13982202843689892        4.2990172320616270E-002   2.0586069816420281E-002
 -0.13314416746435687        4.2290586327263263E-002   1.2239963726218734E-002
 -0.20348666010200767        0.0000000000000000       0.12540779838457586     
 -0.18665607427906195        2.7324998671726337E-002   7.4352589638524647E-002
 -0.16982548845611628        4.4676138842899671E-002   3.5131780371803638E-002
 -0.15299490263317056        5.2053420513520035E-002   7.7453705844128529E-003
 -0.13616431681022487        4.9456843683587451E-002  -7.8066397236476806E-003
 -0.10476305630835099        2.0791814258290832E-002   5.3620718705018916E-002
 -0.10210864975798206        2.4932884999821495E-002   4.5641114154050685E-002
  -9.9454243207613133E-002   2.7511035557099477E-002   3.9352076464198027E-002
  -9.6799836657244176E-002   2.8526265930124844E-002   3.4753605635460871E-002
  -9.4145430106875261E-002   2.7978576118897501E-002   3.1845701667839267E-002
 -0.11744353721341991        2.7958071614614988E-002   4.2953642940552039E-002
 -0.11348675095135106        2.9430149288267843E-002   3.6700557736237920E-002
 -0.10952996468928221        3.0254339098845451E-002   3.1361665094208069E-002
 -0.10557317842721338        3.0430641046347837E-002   2.6936965014462570E-002
 -0.10161639216514454        2.9959055130775014E-002   2.3426457497001361E-002
 -0.12690390759875522        3.5124328970939138E-002   2.9160057947618671E-002
 -0.12242111592381763        3.3927413576714152E-002   2.5548524411135996E-002
 -0.11793832424888012        3.2997642640591428E-002   2.2074809138106478E-002
 -0.11345553257394259        3.2335016162570888E-002   1.8738912128529999E-002
 -0.10897274089900505        3.1939534142652590E-002   1.5540833382406636E-002
 -0.13314416746435687        4.2290586327263263E-002   1.2239963726218734E-002
 -0.12891174467538186        3.8424677865160538E-002   1.2185014178745072E-002
 -0.12467932188640683        3.5740946182337419E-002   1.1491508595893176E-002
 -0.12044689909743185        3.4239391278793961E-002   1.0159446977663276E-002
 -0.11621447630845685        3.3920013154530103E-002   8.1888293240550709E-003
 -0.13616431681022487        4.9456843683587451E-002  -7.8066397236476806E-003
 -0.13295863720604362        4.2921942153606854E-002  -3.3899729609349755E-003
 -0.12975295760186240        3.8484249724083333E-002  -3.8823653243168395E-004
 -0.12654727799768117        3.6143766395016971E-002   1.1985695618622785E-003
 -0.12334159839349992        3.5900492166407699E-002   1.3704453219467727E-003
  -9.4145430106875261E-002   2.7978576118897501E-002   3.1845701667839267E-002
  -9.1759765197267307E-002   2.6785865816086343E-002   3.1278874343541846E-002
  -8.9374100287659339E-002   2.5866034714360296E-002   3.0791920663922685E-002
  -8.6988435378051371E-002   2.5219082813719321E-002   3.0384840628981877E-002
  -8.4602770468443431E-002   2.4845010114163374E-002   3.0057634238719266E-002
 -0.10161639216514454        2.9959055130775014E-002   2.3426457497001361E-002
  -9.9136480726491311E-002   2.9188929937786424E-002   2.3150460636143958E-002
  -9.6656569287838098E-002   2.8469614053041506E-002   2.2983083188698815E-002
  -9.4176657849184872E-002   2.7801107476540372E-002   2.2924325154665890E-002
  -9.1696746410531632E-002   2.7183410208282854E-002   2.2974186534045232E-002
 -0.10897274089900505        3.1939534142652590E-002   1.5540833382406636E-002
 -0.10636983716257263        3.1591994059486560E-002   1.5333597092147964E-002
 -0.10376693342614021        3.1073193391722802E-002   1.5263725984035463E-002
 -0.10116402968970779        3.0383132139361477E-002   1.5331220058069231E-002
  -9.8561125953275361E-002   2.9521810302402432E-002   1.5536079314249093E-002
 -0.11621447630845685        3.3920013154530103E-002   8.1888293240550709E-003
 -0.11345983450551127        3.3995058181186713E-002   7.8282837115537466E-003
 -0.11070519270256576        3.3676772730404016E-002   7.6338490499326820E-003
 -0.10795055089962019        3.2965156802182552E-002   7.6055253391915682E-003
 -0.10519590909667466        3.1860210396521947E-002   7.7433125793306048E-003
 -0.12334159839349992        3.5900492166407699E-002   1.3704453219467727E-003
 -0.12040647275530728        3.6398122302886748E-002   6.3452049436166225E-004
 -0.11747134711711467        3.6280352069085343E-002   9.3452386390323328E-005
 -0.11453622147892203        3.5547181465003609E-002  -2.5275900196698210E-004
 -0.11160109584072941        3.4198610490641490E-002  -4.0411367071008231E-004
  -8.4602770468443431E-002   2.4845010114163374E-002   3.0057634238719266E-002
  -8.2205889687240213E-002   2.4530973798582795E-002   2.9313328954670190E-002
  -7.9809008906037010E-002   2.4064131049868070E-002   2.8872561223709861E-002
  -7.7412128124833821E-002   2.3444481868019042E-002   2.8735331045838107E-002
  -7.5015247343630603E-002   2.2672026253035799E-002   2.8901638421055031E-002
  -9.1696746410531632E-002   2.7183410208282854E-002   2.2974186534045232E-002
  -8.9029514041649077E-002   2.6565730106803340E-002   2.2324500980020409E-002
  -8.6362281672766453E-002   2.5897275030636095E-002   2.1911981048265694E-002
  -8.3695049303883801E-002   2.5178044979780989E-002   2.1736626738780976E-002
  -8.1027816935001259E-002   2.4408039954238209E-002   2.1798438051566560E-002
  -9.8561125953275361E-002   2.9521810302402432E-002   1.5536079314249093E-002
  -9.5689913927531914E-002   2.8600486415023926E-002   1.5083044948694856E-002
  -9.2818701901788481E-002   2.7730419011404009E-002   1.4800804274592273E-002
  -8.9947489876045020E-002   2.6911608091542961E-002   1.4689357291941131E-002
  -8.7076277850301587E-002   2.6144053655440494E-002   1.4748704000741623E-002
 -0.10519590909667466        3.1860210396521947E-002   7.7433125793306048E-003
 -0.10218708934488890        3.0635242723244367E-002   7.5889608606934649E-003
  -9.9178269593103177E-002   2.9563562992172158E-002   7.5390309026893906E-003
  -9.6169449841317423E-002   2.8645171203304780E-002   7.5935227053183056E-003
  -9.3160630089531710E-002   2.7880067356642786E-002   7.7524362685802723E-003
 -0.11160109584072941        3.4198610490641490E-002  -4.0411367071008231E-004
 -0.10852104029371995        3.2669999031465058E-002  -1.5775128398354266E-004
 -0.10544098474671046        3.1396706972939920E-002   1.2666093255729594E-004
 -0.10236092919970095        3.0378734315066928E-002   4.4912297891266592E-004
  -9.9280873652691504E-002   2.9616081057845134E-002   8.0963485508267485E-004
  -7.5015247343630603E-002   2.2672026253035799E-002   2.8901638421055031E-002
  -7.2711774502637661E-002   2.1847412089769314E-002   2.8774495497094682E-002
  -7.0408301661644718E-002   2.1071287263070275E-002   2.8788560008606315E-002
  -6.8104828820651761E-002   2.0343651772938801E-002   2.8943831955589812E-002
  -6.5801355979658832E-002   1.9664505619374939E-002   2.9240311338045222E-002
  -8.1027816935001259E-002   2.4408039954238209E-002   2.1798438051566560E-002
  -7.8580075549181283E-002   2.3617813838363602E-002   2.1667875978327589E-002
  -7.6132334163361209E-002   2.2837920516513489E-002   2.1684643559270841E-002
  -7.3684592777541219E-002   2.2068359988687884E-002   2.1848740794396360E-002
  -7.1236851391721173E-002   2.1309132254886620E-002   2.2160167683703963E-002
  -8.7076277850301587E-002   2.6144053655440494E-002   1.4748704000741623E-002
  -8.4478145700944279E-002   2.5388215586958057E-002   1.4576566235680870E-002
  -8.1880013551586944E-002   2.4604553769956874E-002   1.4557880343512849E-002
  -7.9281881402229568E-002   2.3793068204436808E-002   1.4692646324236986E-002
  -7.6683749252872274E-002   2.2953758890398246E-002   1.4980864177853812E-002
  -9.3160630089531710E-002   2.7880067356642786E-002   7.7524362685802723E-003
  -9.0405984957926774E-002   2.7158617335552457E-002   7.5005662691547213E-003
  -8.7651339826321756E-002   2.6371187023400092E-002   7.4082703613319164E-003
  -8.4896694694716807E-002   2.5517776420185979E-002   7.4755485451117199E-003
  -8.2142049563111913E-002   2.4598385525909983E-002   7.7024008204945316E-003
  -9.9280873652691504E-002   2.9616081057845134E-002   8.0963485508267485E-004
  -9.6363593320128671E-002   2.8929019084146634E-002   4.3987607874906853E-004
  -9.3446312987565866E-002   2.8137820276843348E-002   2.3581361272873025E-004
  -9.0529032655003019E-002   2.7242484635935021E-002   1.9744745702077182E-004
  -8.7611752322440228E-002   2.6243012161421553E-002   3.2477761162652552E-004
  -6.5801355979658832E-002   1.9664505619374939E-002   2.9240311338045222E-002
  -6.3324300832983849E-002   1.8998326191815323E-002   2.8938053820934173E-002
  -6.0847245686308907E-002   1.8309590879696372E-002   2.8834973763938204E-002
  -5.8370190539633958E-002   1.7598299683018171E-002   2.8931071167057343E-002
  -5.5893135392958981E-002   1.6864452601780544E-002   2.9226346030291561E-002
  -7.1236851391721173E-002   2.1309132254886620E-002   2.2160167683703963E-002
  -6.8559017422337068E-002   2.0553459050243042E-002   2.1835219269964026E-002
  -6.5881183452953004E-002   1.9794562109889918E-002   2.1712651041527267E-002
  -6.3203349483568955E-002   1.9032441433827561E-002   2.1792462998393512E-002
  -6.0525515514184849E-002   1.8267097022055756E-002   2.2074655140563088E-002
  -7.6683749252872274E-002   2.2953758890398246E-002   1.4980864177853812E-002
  -7.3801933735590963E-002   2.2108591908670663E-002   1.4652557016334805E-002
  -7.0920118218309708E-002   2.1279533340083569E-002   1.4529832765307081E-002
  -6.8038302701028411E-002   2.0466583184637004E-002   1.4612691424770358E-002
  -6.5156487183747128E-002   1.9669741442330940E-002   1.4901132994725161E-002
  -8.2142049563111913E-002   2.4598385525909983E-002   7.7024008204945316E-003
  -7.9053049772745368E-002   2.3663724767098306E-002   7.3900670600463778E-003
  -7.5964049982378809E-002   2.2764504570277084E-002   7.2865189352777308E-003
  -7.2875050192012306E-002   2.1900724935446588E-002   7.3917564461882307E-003
  -6.9786050401645733E-002   2.1072385862606083E-002   7.7057795927781593E-003
  -8.7611752322440228E-002   2.6243012161421553E-002   3.2477761162652552E-004
  -8.4312365533800393E-002   2.5218857625525948E-002   4.7749401099195232E-005
  -8.1012978745160502E-002   2.4249475800470821E-002  -1.7290448560774996E-005
  -7.7713591956520695E-002   2.3334866686255798E-002   1.2965806264670504E-004
  -7.4414205167880776E-002   2.2475030282881447E-002   4.8859493472175330E-004
  -5.5893135392958981E-002   1.6864452601780544E-002   2.9226346030291561E-002
  -5.3773703082132945E-002   1.6126177936683722E-002   2.8975061841395977E-002
  -5.1654270771306882E-002   1.5401603988427312E-002   2.8901514012398849E-002
  -4.9534838460480859E-002   1.4690730757011505E-002   2.9005702543300427E-002
  -4.7415406149654782E-002   1.3993558242436310E-002   2.9287627434100405E-002
  -6.0525515514184849E-002   1.8267097022055756E-002   2.2074655140563088E-002
  -5.8236550950309843E-002   1.7500343539674085E-002   2.1823628452146387E-002
  -5.5947586386434871E-002   1.6733995651781436E-002   2.1733929909928965E-002
  -5.3658621822559871E-002   1.5968053358378052E-002   2.1805559513911034E-002
  -5.1369657258684878E-002   1.5202516659463872E-002   2.2038517264092394E-002
  -6.5156487183747128E-002   1.9669741442330940E-002   1.4901132994725161E-002
  -6.2714398580522357E-002   1.8874509142664489E-002   1.4637068684436177E-002
  -6.0272309977297524E-002   1.8066387315135456E-002   1.4517924306647070E-002
  -5.7830221374072718E-002   1.7245375959744659E-002   1.4543699861358523E-002
  -5.5388132770847920E-002   1.6411475076491266E-002   1.4714395348569914E-002
  -6.9786050401645733E-002   2.1072385862606083E-002   7.7057795927781593E-003
  -6.7207245972770335E-002   2.0248674745654567E-002   7.4153825382651736E-003
  -6.4628441543894924E-002   1.9398778978489694E-002   7.2534972025535983E-003
  -6.2049637115019540E-002   1.8522698561110624E-002   7.2201235856427402E-003
  -5.9470832686144101E-002   1.7620433493518856E-002   7.3152616875327842E-003
  -7.4414205167880776E-002   2.2475030282881447E-002   4.8859493472175330E-004
  -7.1715093127053930E-002   2.1622840348645089E-002   1.5857001363406287E-004
  -6.9015981086227030E-002   2.0731170641843516E-002  -5.9351402352414429E-005
  -6.6316869045400156E-002   1.9800021162477456E-002  -1.6516931323630468E-004
  -6.3617757004573283E-002   1.8829391910546445E-002  -1.5888371901873199E-004
  -4.7415406149654782E-002   1.3993558242436310E-002   2.9287627434100405E-002
  -4.4775826721451362E-002   1.3284248998181425E-002   2.8899487568508631E-002
  -4.2136247293247997E-002   1.2536965577727294E-002   2.8637374410165672E-002
  -3.9496667865044521E-002   1.1751707981073133E-002   2.8501287959071170E-002
  -3.6857088436841157E-002   1.0928476208219795E-002   2.8491228215225650E-002
  -5.1369657258684878E-002   1.5202516659463872E-002   2.2038517264092394E-002
  -4.8580319999553062E-002   1.4432857365803131E-002   2.1586571638956359E-002
  -4.5790982740421267E-002   1.3654547288160124E-002   2.1308114968428299E-002
  -4.3001645481289416E-002   1.2867586426534502E-002   2.1203147252508339E-002
  -4.0212308222157656E-002   1.2071974780926586E-002   2.1271668491196327E-002
  -5.5388132770847920E-002   1.6411475076491266E-002   1.4714395348569914E-002
  -5.2401575433428341E-002   1.5581465733424976E-002   1.4227967356106735E-002
  -4.9415018096008900E-002   1.4772128998592857E-002   1.3962490565610761E-002
  -4.6428460758589363E-002   1.3983464871995848E-002   1.3917964977082364E-002
  -4.3441903421169811E-002   1.3215473353633600E-002   1.4094390590521255E-002
  -5.9470832686144101E-002   1.7620433493518856E-002   7.3152616875327842E-003
  -5.6239593023077447E-002   1.6730074101046141E-002   6.8236747199597464E-003
  -5.3008353360010828E-002   1.5889710709025583E-002   6.6005012017132901E-003
  -4.9777113696944070E-002   1.5099343317456984E-002   6.6457411327937050E-003
  -4.6545874033877555E-002   1.4358971926340336E-002   6.9593945132006979E-003
  -6.3617757004573283E-002   1.8829391910546445E-002  -1.5888371901873199E-004
  -6.0094372768500159E-002   1.7878682468668416E-002  -6.2630626948473322E-004
  -5.6570988532427147E-002   1.7007292419458475E-002  -7.7785312326461575E-004
  -5.3047604296354078E-002   1.6215221762918355E-002  -6.1352428035860163E-004
  -4.9524220060281010E-002   1.5502470499047405E-002  -1.3331974076602471E-004
 </DataArray>
 </PointData>
 </Piece>
 <Piece  NumberOfPoints="          1600 "  NumberOfCells="         1024 ">
 <Points>
 <DataArray  type="Float64" NumberOfComponents="3"  format="ascii" >
  0.50000000000000000        0.0000000000000000        0.0000000000000000     
  0.53125000000000000        0.0000000000000000        0.0000000000000000     
  0.56250000000000000        0.0000000000000000        0.0000000000000000     
  0.59375000000000000        0.0000000000000000        0.0000000000000000     
  0.62500000000000000        0.0000000000000000        0.0000000000000000     
  0.50000000000000000        3.1250000000000000E-002   0.0000000000000000     
  0.53125000000000000        3.1250000000000000E-002   0.0000000000000000     
  0.56250000000000000        3.1250000000000000E-002   0.0000000000000000     
  0.59375000000000000        3.1250000000000000E-002   0.0000000000000000     
  0.62500000000000000        3.1250000000000000E-002   0.0000000000000000     
  0.50000000000000000        6.2500000000000000E-002   0.0000000000000000     
  0.53125000000000000        6.2500000000000000E-002   0.0000000000000000     
  0.56250000000000000        6.2500000000000000E-002   0.0000000000000000     
  0.59375000000000000        6.2500000000000000E-002   0.0000000000000000     
  0.62500000000000000        6.2500000000000000E-002   0.0000000000000000     
  0.50000000000000000        9.3750000000000000E-002   0.0000000000000000     
  0.53125000000000000        9.3750000000000000E-002   0.0000000000000000     
  0.56250000000000000        9.3750000000000000E-002   0.0000000000000000     
  0.59375000000000000        9.3750000000000000E-002   0.0000000000000000     
  0.62500000000000000        9.3750000000000000E-002   0.0000000000000000     
  0.50000000000000000       0.12500000000000000        0.0000000000000000     
  0.53125000000000000       0.12500000000000000        0.0000000000000000     
  0.56250000000000000       0.12500000000000000        0.0000000000000000     
  0.59375000000000000       0.12500000000000000        0.0000000000000000     
  0.62500000000000000       0.12500000000000000        0.0000000000000000     
  0.62500000000000000        0.0000000000000000        0.0000000000000000     
  0.65625000000000000        0.0000000000000000        0.0000000000000000     
  0.68750000000000000        0.0000000000000000        0.0000000000000000     
  0.71875000000000000        0.0000000000000000        0.0000000000000000     
  0.75000000000000000        0.0000000000000000        0.0000000000000000     
  0.62500000000000000        3.1250000000000000E-002   0.0000000000000000     
  0.65625000000000000        3.1250000000000000E-002   0.0000000000000000     
  0.68750000000000000        3.1250000000000000E-002   0.0000000000000000     
  0.71875000000000000        3.1250000000000000E-002   0.0000000000000000     
  0.75000000000000000        3.1250000000000000E-002   0.0000000000000000     
  0.62500000000000000        6.2500000000000000E-002   0.0000000000000000     
  0.65625000000000000        6.2500000000000000E-002   0.0000000000000000     
  0.68750000000000000        6.2500000000000000E-002   0.0000000000000000     
  0.71875000000000000        6.2500000000000000E-002   0.0000000000000000     
  0.75000000000000000        6.2500000000000000E-002   0.0000000000000000     
  0.62500000000000000        9.3750000000000000E-002   0.0000000000000000     
  0.65625000000000000        9.3750000000000000E-002   0.0000000000000000     
  0.68750000000000000        9.3750000000000000E-002   0.0000000000000000     
  0.71875000000000000        9.3750000000000000E-002   0.0000000000000000     
  0.75000000000000000        9.3750000000000000E-002   0.0000000000000000     
  0.62500000000000000       0.12500000000000000        0.0000000000000000     
  0.65625000000000000       0.12500000000000000        0.0000000000000000     
  0.68750000000000000       0.12500000000000000        0.0000000000000000     
  0.71875000000000000       0.12500000000000000        0.0000000000000000     
  0.75000000000000000       0.12500000000000000        0.0000000000000000     
  0.75000000000000000        0.0000000000000000        0.0000000000000000     
  0.78125000000000000        0.0000000000000000        0.0000000000000000     
  0.81250000000000000        0.0000000000000000        0.0000000000000000     
  0.84375000000000000        0.0000000000000000        0.0000000000000000     
  0.87500000000000000        0.0000000000000000        0.0000000000000000     
  0.75000000000000000        3.1250000000000000E-002   0.0000000000000000     
  0.78125000000000000        3.1250000000000000E-002   0.0000000000000000     
  0.81250000000000000        3.1250000000000000E-002   0.0000000000000000     
  0.84375000000000000        3.1250000000000000E-002   0.0000000000000000     
  0.87500000000000000        3.1250000000000000E-002   0.0000000000000000     
  0.75000000000000000        6.2500000000000000E-002   0.0000000000000000     
  0.78125000000000000        6.2500000000000000E-002   0.0000000000000000     
  0.81250000000000000        6.2500000000000000E-002   0.0000000000000000     
  0.84375000000000000        6.2500000000000000E-002   0.0000000000000000     
  0.87500000000000000        6.2500000000000000E-002   0.0000000000000000     
  0.75000000000000000        9.3750000000000000E-002   0.0000000000000000     
  0.78125000000000000        9.3750000000000000E-002   0.0000000000000000     
  0.81250000000000000        9.3750000000000000E-002   0.0000000000000000     
  0.84375000000000000        9.3750000000000000E-002   0.0000000000000000     
  0.87500000000000000        9.3750000000000000E-002   0.0000000000000000     
  0.75000000000000000       0.12500000000000000        0.0000000000000000     
  0.78125000000000000       0.12500000000000000        0.0000000000000000     
  0.81250000000000000       0.12500000000000000        0.0000000000000000     
  0.84375000000000000       0.12500000000000000        0.0000000000000000     
  0.87500000000000000       0.12500000000000000        0.0000000000000000     
  0.87500000000000000        0.0000000000000000        0.0000000000000000     
  0.90625000000000000        0.0000000000000000        0.0000000000000000     
  0.93750000000000000        0.0000000000000000        0.0000000000000000     
  0.96875000000000000        0.0000000000000000        0.0000000000000000     
   1.0000000000000000        0.0000000000000000        0.0000000000000000     
  0.87500000000000000        3.1250000000000000E-002   0.0000000000000000     
  0.90625000000000000        3.1250000000000000E-002   0.0000000000000000     
  0.93750000000000000        3.1250000000000000E-002   0.0000000000000000     
  0.96875000000000000        3.1250000000000000E-002   0.0000000000000000     
   1.0000000000000000        3.1250000000000000E-002   0.0000000000000000     
  0.87500000000000000        6.2500000000000000E-002   0.0000000000000000     
  0.90625000000000000        6.2500000000000000E-002   0.0000000000000000     
  0.93750000000000000        6.2500000000000000E-002   0.0000000000000000     
  0.96875000000000000        6.2500000000000000E-002   0.0000000000000000     
   1.0000000000000000        6.2500000000000000E-002   0.0000000000000000     
  0.87500000000000000        9.3750000000000000E-002   0.0000000000000000     
  0.90625000000000000        9.3750000000000000E-002   0.0000000000000000     
  0.93750000000000000        9.3750000000000000E-002   0.0000000000000000     
  0.96875000000000000        9.3750000000000000E-002   0.0000000000000000     
   1.0000000000000000        9.3750000000000000E-002   0.0000000000000000     
  0.87500000000000000       0.12500000000000000        0.0000000000000000     
  0.90625000000000000       0.12500000000000000        0.0000000000000000     
  0.93750000000000000       0.12500000000000000        0.0000000000000000     
  0.96875000000000000       0.12500000000000000        0.0000000000000000     
   1.0000000000000000       0.12500000000000000        0.0000000000000000     
   1.0000000000000000        0.0000000000000000        0.0000000000000000     
   1.0312500000000000        0.0000000000000000        0.0000000000000000     
   1.0625000000000000        0.0000000000000000        0.0000000000000000     
   1.0937500000000000        0.0000000000000000        0.0000000000000000     
   1.1250000000000000        0.0000000000000000        0.0000000000000000     
   1.0000000000000000        3.1250000000000000E-002   0.0000000000000000     
   1.0312500000000000        3.1250000000000000E-002   0.0000000000000000     
   1.0625000000000000        3.1250000000000000E-002   0.0000000000000000     
   1.0937500000000000        3.1250000000000000E-002   0.0000000000000000     
   1.1250000000000000        3.1250000000000000E-002   0.0000000000000000     
   1.0000000000000000        6.2500000000000000E-002   0.0000000000000000     
   1.0312500000000000        6.2500000000000000E-002   0.0000000000000000     
   1.0625000000000000        6.2500000000000000E-002   0.0000000000000000     
   1.0937500000000000        6.2500000000000000E-002   0.0000000000000000     
   1.1250000000000000        6.2500000000000000E-002   0.0000000000000000     
   1.0000000000000000        9.3750000000000000E-002   0.0000000000000000     
   1.0312500000000000        9.3750000000000000E-002   0.0000000000000000     
   1.0625000000000000        9.3750000000000000E-002   0.0000000000000000     
   1.0937500000000000        9.3750000000000000E-002   0.0000000000000000     
   1.1250000000000000        9.3750000000000000E-002   0.0000000000000000     
   1.0000000000000000       0.12500000000000000        0.0000000000000000     
   1.0312500000000000       0.12500000000000000        0.0000000000000000     
   1.0625000000000000       0.12500000000000000        0.0000000000000000     
   1.0937500000000000       0.12500000000000000        0.0000000000000000     
   1.1250000000000000       0.12500000000000000        0.0000000000000000     
   1.1250000000000000        0.0000000000000000        0.0000000000000000     
   1.1562500000000000        0.0000000000000000        0.0000000000000000     
   1.1875000000000000        0.0000000000000000        0.0000000000000000     
   1.2187500000000000        0.0000000000000000        0.0000000000000000     
   1.2500000000000000        0.0000000000000000        0.0000000000000000     
   1.1250000000000000        3.1250000000000000E-002   0.0000000000000000     
   1.1562500000000000        3.1250000000000000E-002   0.0000000000000000     
   1.1875000000000000        3.1250000000000000E-002   0.0000000000000000     
   1.2187500000000000        3.1250000000000000E-002   0.0000000000000000     
   1.2500000000000000        3.1250000000000000E-002   0.0000000000000000     
   1.1250000000000000        6.2500000000000000E-002   0.0000000000000000     
   1.1562500000000000        6.2500000000000000E-002   0.0000000000000000     
   1.1875000000000000        6.2500000000000000E-002   0.0000000000000000     
   1.2187500000000000        6.2500000000000000E-002   0.0000000000000000     
   1.2500000000000000        6.2500000000000000E-002   0.0000000000000000     
   1.1250000000000000        9.3750000000000000E-002   0.0000000000000000     
   1.1562500000000000        9.3750000000000000E-002   0.0000000000000000     
   1.1875000000000000        9.3750000000000000E-002   0.0000000000000000     
   1.2187500000000000        9.3750000000000000E-002   0.0000000000000000     
   1.2500000000000000        9.3750000000000000E-002   0.0000000000000000     
   1.1250000000000000       0.12500000000000000        0.0000000000000000     
   1.1562500000000000       0.12500000000000000        0.0000000000000000     
   1.1875000000000000       0.12500000000000000        0.0000000000000000     
   1.2187500000000000       0.12500000000000000        0.0000000000000000     
   1.2500000000000000       0.12500000000000000        0.0000000000000000     
   1.2500000000000000        0.0000000000000000        0.0000000000000000     
   1.2812500000000000        0.0000000000000000        0.0000000000000000     
   1.3125000000000000        0.0000000000000000        0.0000000000000000     
   1.3437500000000000        0.0000000000000000        0.0000000000000000     
   1.3750000000000000        0.0000000000000000        0.0000000000000000     
   1.2500000000000000        3.1250000000000000E-002   0.0000000000000000     
   1.2812500000000000        3.1250000000000000E-002   0.0000000000000000     
   1.3125000000000000        3.1250000000000000E-002   0.0000000000000000     
   1.3437500000000000        3.1250000000000000E-002   0.0000000000000000     
   1.3750000000000000        3.1250000000000000E-002   0.0000000000000000     
   1.2500000000000000        6.2500000000000000E-002   0.0000000000000000     
   1.2812500000000000        6.2500000000000000E-002   0.0000000000000000     
   1.3125000000000000        6.2500000000000000E-002   0.0000000000000000     
   1.3437500000000000        6.2500000000000000E-002   0.0000000000000000     
   1.3750000000000000        6.2500000000000000E-002   0.0000000000000000     
   1.2500000000000000        9.3750000000000000E-002   0.0000000000000000     
   1.2812500000000000        9.3750000000000000E-002   0.0000000000000000     
   1.3125000000000000        9.3750000000000000E-002   0.0000000000000000     
   1.3437500000000000        9.3750000000000000E-002   0.0000000000000000     
   1.3750000000000000        9.3750000000000000E-002   0.0000000000000000     
   1.2500000000000000       0.12500000000000000        0.0000000000000000     
   1.2812500000000000       0.12500000000000000        0.0000000000000000     
   1.3125000000000000       0.12500000000000000        0.0000000000000000     
   1.3437500000000000       0.12500000000000000        0.0000000000000000     
   1.3750000000000000       0.12500000000000000        0.0000000000000000     
   1.3750000000000000        0.0000000000000000        0.0000000000000000     
   1.4062500000000000        0.0000000000000000        0.0000000000000000     
   1.4375000000000000        0.0000000000000000        0.0000000000000000     
   1.4687500000000000        0.0000000000000000        0.0000000000000000     
   1.5000000000000000        0.0000000000000000        0.0000000000000000     
   1.3750000000000000        3.1250000000000000E-002   0.0000000000000000     
   1.4062500000000000        3.1250000000000000E-002   0.0000000000000000     
   1.4375000000000000        3.1250000000000000E-002   0.0000000000000000     
   1.4687500000000000        3.1250000000000000E-002   0.0000000000000000     
   1.5000000000000000        3.1250000000000000E-002   0.0000000000000000     
   1.3750000000000000        6.2500000000000000E-002   0.0000000000000000     
   1.4062500000000000        6.2500000000000000E-002   0.0000000000000000     
   1.4375000000000000        6.2500000000000000E-002   0.0000000000000000     
   1.4687500000000000        6.2500000000000000E-002   0.0000000000000000     
   1.5000000000000000        6.2500000000000000E-002   0.0000000000000000     
   1.3750000000000000        9.3750000000000000E-002   0.0000000000000000     
   1.4062500000000000        9.3750000000000000E-002   0.0000000000000000     
   1.4375000000000000        9.3750000000000000E-002   0.0000000000000000     
   1.4687500000000000        9.3750000000000000E-002   0.0000000000000000     
   1.5000000000000000        9.3750000000000000E-002   0.0000000000000000     
   1.3750000000000000       0.12500000000000000        0.0000000000000000     
   1.4062500000000000       0.12500000000000000        0.0000000000000000     
   1.4375000000000000       0.12500000000000000        0.0000000000000000     
   1.4687500000000000       0.12500000000000000        0.0000000000000000     
   1.5000000000000000       0.12500000000000000        0.0000000000000000     
  0.50000000000000000       0.12500000000000000        0.0000000000000000     
  0.53125000000000000       0.12500000000000000        0.0000000000000000     
  0.56250000000000000       0.12500000000000000        0.0000000000000000     
  0.59375000000000000       0.12500000000000000        0.0000000000000000     
  0.62500000000000000       0.12500000000000000        0.0000000000000000     
  0.50000000000000000       0.15625000000000000        0.0000000000000000     
  0.53125000000000000       0.15625000000000000        0.0000000000000000     
  0.56250000000000000       0.15625000000000000        0.0000000000000000     
  0.59375000000000000       0.15625000000000000        0.0000000000000000     
  0.62500000000000000       0.15625000000000000        0.0000000000000000     
  0.50000000000000000       0.18750000000000000        0.0000000000000000     
  0.53125000000000000       0.18750000000000000        0.0000000000000000     
  0.56250000000000000       0.18750000000000000        0.0000000000000000     
  0.59375000000000000       0.18750000000000000        0.0000000000000000     
  0.62500000000000000       0.18750000000000000        0.0000000000000000     
  0.50000000000000000       0.21875000000000000        0.0000000000000000     
  0.53125000000000000       0.21875000000000000        0.0000000000000000     
  0.56250000000000000       0.21875000000000000        0.0000000000000000     
  0.59375000000000000       0.21875000000000000        0.0000000000000000     
  0.62500000000000000       0.21875000000000000        0.0000000000000000     
  0.50000000000000000       0.25000000000000000        0.0000000000000000     
  0.53125000000000000       0.25000000000000000        0.0000000000000000     
  0.56250000000000000       0.25000000000000000        0.0000000000000000     
  0.59375000000000000       0.25000000000000000        0.0000000000000000     
  0.62500000000000000       0.25000000000000000        0.0000000000000000     
  0.62500000000000000       0.12500000000000000        0.0000000000000000     
  0.65625000000000000       0.12500000000000000        0.0000000000000000     
  0.68750000000000000       0.12500000000000000        0.0000000000000000     
  0.71875000000000000       0.12500000000000000        0.0000000000000000     
  0.75000000000000000       0.12500000000000000        0.0000000000000000     
  0.62500000000000000       0.15625000000000000        0.0000000000000000     
  0.65625000000000000       0.15625000000000000        0.0000000000000000     
  0.68750000000000000       0.15625000000000000        0.0000000000000000     
  0.71875000000000000       0.15625000000000000        0.0000000000000000     
  0.75000000000000000       0.15625000000000000        0.0000000000000000     
  0.62500000000000000       0.18750000000000000        0.0000000000000000     
  0.65625000000000000       0.18750000000000000        0.0000000000000000     
  0.68750000000000000       0.18750000000000000        0.0000000000000000     
  0.71875000000000000       0.18750000000000000        0.0000000000000000     
  0.75000000000000000       0.18750000000000000        0.0000000000000000     
  0.62500000000000000       0.21875000000000000        0.0000000000000000     
  0.65625000000000000       0.21875000000000000        0.0000000000000000     
  0.68750000000000000       0.21875000000000000        0.0000000000000000     
  0.71875000000000000       0.21875000000000000        0.0000000000000000     
  0.75000000000000000       0.21875000000000000        0.0000000000000000     
  0.62500000000000000       0.25000000000000000        0.0000000000000000     
  0.65625000000000000       0.25000000000000000        0.0000000000000000     
  0.68750000000000000       0.25000000000000000        0.0000000000000000     
  0.71875000000000000       0.25000000000000000        0.0000000000000000     
  0.75000000000000000       0.25000000000000000        0.0000000000000000     
  0.75000000000000000       0.12500000000000000        0.0000000000000000     
  0.78125000000000000       0.12500000000000000        0.0000000000000000     
  0.81250000000000000       0.12500000000000000        0.0000000000000000     
  0.84375000000000000       0.12500000000000000        0.0000000000000000     
  0.87500000000000000       0.12500000000000000        0.0000000000000000     
  0.75000000000000000       0.15625000000000000        0.0000000000000000     
  0.78125000000000000       0.15625000000000000        0.0000000000000000     
  0.81250000000000000       0.15625000000000000        0.0000000000000000     
  0.84375000000000000       0.15625000000000000        0.0000000000000000     
  0.87500000000000000       0.15625000000000000        0.0000000000000000     
  0.75000000000000000       0.18750000000000000        0.0000000000000000     
  0.78125000000000000       0.18750000000000000        0.0000000000000000     
  0.81250000000000000       0.18750000000000000        0.0000000000000000     
  0.84375000000000000       0.18750000000000000        0.0000000000000000     
  0.87500000000000000       0.18750000000000000        0.0000000000000000     
  0.75000000000000000       0.21875000000000000        0.0000000000000000     
  0.78125000000000000       0.21875000000000000        0.0000000000000000     
  0.81250000000000000       0.21875000000000000        0.0000000000000000     
  0.84375000000000000       0.21875000000000000        0.0000000000000000     
  0.87500000000000000       0.21875000000000000        0.0000000000000000     
  0.75000000000000000       0.25000000000000000        0.0000000000000000     
  0.78125000000000000       0.25000000000000000        0.0000000000000000     
  0.81250000000000000       0.25000000000000000        0.0000000000000000     
  0.84375000000000000       0.25000000000000000        0.0000000000000000     
  0.87500000000000000       0.25000000000000000        0.0000000000000000     
  0.87500000000000000       0.12500000000000000        0.0000000000000000     
  0.90625000000000000       0.12500000000000000        0.0000000000000000     
  0.93750000000000000       0.12500000000000000        0.0000000000000000     
  0.96875000000000000       0.12500000000000000        0.0000000000000000     
   1.0000000000000000       0.12500000000000000        0.0000000000000000     
  0.87500000000000000       0.15625000000000000        0.0000000000000000     
  0.90625000000000000       0.15625000000000000        0.0000000000000000     
  0.93750000000000000       0.15625000000000000        0.0000000000000000     
  0.96875000000000000       0.15625000000000000        0.0000000000000000     
   1.0000000000000000       0.15625000000000000        0.0000000000000000     
  0.87500000000000000       0.18750000000000000        0.0000000000000000     
  0.90625000000000000       0.18750000000000000        0.0000000000000000     
  0.93750000000000000       0.18750000000000000        0.0000000000000000     
  0.96875000000000000       0.18750000000000000        0.0000000000000000     
   1.0000000000000000       0.18750000000000000        0.0000000000000000     
  0.87500000000000000       0.21875000000000000        0.0000000000000000     
  0.90625000000000000       0.21875000000000000        0.0000000000000000     
  0.93750000000000000       0.21875000000000000        0.0000000000000000     
  0.96875000000000000       0.21875000000000000        0.0000000000000000     
   1.0000000000000000       0.21875000000000000        0.0000000000000000     
  0.87500000000000000       0.25000000000000000        0.0000000000000000     
  0.90625000000000000       0.25000000000000000        0.0000000000000000     
  0.93750000000000000       0.25000000000000000        0.0000000000000000     
  0.96875000000000000       0.25000000000000000        0.0000000000000000     
   1.0000000000000000       0.25000000000000000        0.0000000000000000     
   1.0000000000000000       0.12500000000000000        0.0000000000000000     
   1.0312500000000000       0.12500000000000000        0.0000000000000000     
   1.0625000000000000       0.12500000000000000        0.0000000000000000     
   1.0937500000000000       0.12500000000000000        0.0000000000000000     
   1.1250000000000000       0.12500000000000000        0.0000000000000000     
   1.0000000000000000       0.15625000000000000        0.0000000000000000     
   1.0312500000000000       0.15625000000000000        0.0000000000000000     
   1.0625000000000000       0.15625000000000000        0.0000000000000000     
   1.0937500000000000       0.15625000000000000        0.0000000000000000     
   1.1250000000000000       0.15625000000000000        0.0000000000000000     
   1.0000000000000000       0.18750000000000000        0.0000000000000000     
   1.0312500000000000       0.18750000000000000        0.0000000000000000     
   1.0625000000000000       0.18750000000000000        0.0000000000000000     
   1.0937500000000000       0.18750000000000000        0.0000000000000000     
   1.1250000000000000       0.18750000000000000        0.0000000000000000     
   1.0000000000000000       0.21875000000000000        0.0000000000000000     
   1.0312500000000000       0.21875000000000000        0.0000000000000000     
   1.0625000000000000       0.21875000000000000        0.0000000000000000     
   1.0937500000000000       0.21875000000000000        0.0000000000000000     
   1.1250000000000000       0.21875000000000000        0.0000000000000000     
   1.0000000000000000       0.25000000000000000        0.0000000000000000     
   1.0312500000000000       0.25000000000000000        0.0000000000000000     
   1.0625000000000000       0.25000000000000000        0.0000000000000000     
   1.0937500000000000       0.25000000000000000        0.0000000000000000     
   1.1250000000000000       0.25000000000000000        0.0000000000000000     
   1.1250000000000000       0.12500000000000000        0.0000000000000000     
   1.1562500000000000       0.12500000000000000        0.0000000000000000     
   1.1875000000000000       0.12500000000000000        0.0000000000000000     
   1.2187500000000000       0.12500000000000000        0.0000000000000000     
   1.2500000000000000       0.12500000000000000        0.0000000000000000     
   1.1250000000000000       0.15625000000000000        0.0000000000000000     
   1.1562500000000000       0.15625000000000000        0.0000000000000000     
   1.1875000000000000       0.15625000000000000        0.0000000000000000     
   1.2187500000000000       0.15625000000000000        0.0000000000000000     
   1.2500000000000000       0.15625000000000000        0.0000000000000000     
   1.1250000000000000       0.18750000000000000        0.0000000000000000     
   1.1562500000000000       0.18750000000000000        0.0000000000000000     
   1.1875000000000000       0.18750000000000000        0.0000000000000000     
   1.2187500000000000       0.18750000000000000        0.0000000000000000     
   1.2500000000000000       0.18750000000000000        0.0000000000000000     
   1.1250000000000000       0.21875000000000000        0.0000000000000000     
   1.1562500000000000       0.21875000000000000        0.0000000000000000     
   1.1875000000000000       0.21875000000000000        0.0000000000000000     
   1.2187500000000000       0.21875000000000000        0.0000000000000000     
   1.2500000000000000       0.21875000000000000        0.0000000000000000     
   1.1250000000000000       0.25000000000000000        0.0000000000000000     
   1.1562500000000000       0.25000000000000000        0.0000000000000000     
   1.1875000000000000       0.25000000000000000        0.0000000000000000     
   1.2187500000000000       0.25000000000000000        0.0000000000000000     
   1.2500000000000000       0.25000000000000000        0.0000000000000000     
   1.2500000000000000       0.12500000000000000        0.0000000000000000     
   1.2812500000000000       0.12500000000000000        0.0000000000000000     
   1.3125000000000000       0.12500000000000000        0.0000000000000000     
   1.3437500000000000       0.12500000000000000        0.0000000000000000     
   1.3750000000000000       0.12500000000000000        0.0000000000000000     
   1.2500000000000000       0.15625000000000000        0.0000000000000000     
   1.2812500000000000       0.15625000000000000        0.0000000000000000     
   1.3125000000000000       0.15625000000000000        0.0000000000000000     
   1.3437500000000000       0.15625000000000000        0.0000000000000000     
   1.3750000000000000       0.15625000000000000        0.0000000000000000     
   1.2500000000000000       0.18750000000000000        0.0000000000000000     
   1.2812500000000000       0.18750000000000000        0.0000000000000000     
   1.3125000000000000       0.18750000000000000        0.0000000000000000     
   1.3437500000000000       0.18750000000000000        0.0000000000000000     
   1.3750000000000000       0.18750000000000000        0.0000000000000000     
   1.2500000000000000       0.21875000000000000        0.0000000000000000     
   1.2812500000000000       0.21875000000000000        0.0000000000000000     
   1.3125000000000000       0.21875000000000000        0.0000000000000000     
   1.3437500000000000       0.21875000000000000        0.0000000000000000     
   1.3750000000000000       0.21875000000000000        0.0000000000000000     
   1.2500000000000000       0.25000000000000000        0.0000000000000000     
   1.2812500000000000       0.25000000000000000        0.0000000000000000     
   1.3125000000000000       0.25000000000000000        0.0000000000000000     
   1.3437500000000000       0.25000000000000000        0.0000000000000000     
   1.3750000000000000       0.25000000000000000        0.0000000000000000     
   1.3750000000000000       0.12500000000000000        0.0000000000000000     
   1.4062500000000000       0.12500000000000000        0.0000000000000000     
   1.4375000000000000       0.12500000000000000        0.0000000000000000     
   1.4687500000000000       0.12500000000000000        0.0000000000000000     
   1.5000000000000000       0.12500000000000000        0.0000000000000000     
   1.3750000000000000       0.15625000000000000        0.0000000000000000     
   1.4062500000000000       0.15625000000000000        0.0000000000000000     
   1.4375000000000000       0.15625000000000000        0.0000000000000000     
   1.4687500000000000       0.15625000000000000        0.0000000000000000     
   1.5000000000000000       0.15625000000000000        0.0000000000000000     
   1.3750000000000000       0.18750000000000000        0.0000000000000000     
   1.4062500000000000       0.18750000000000000        0.0000000000000000     
   1.4375000000000000       0.18750000000000000        0.0000000000000000     
   1.4687500000000000       0.18750000000000000        0.0000000000000000     
   1.5000000000000000       0.18750000000000000        0.0000000000000000     
   1.3750000000000000       0.21875000000000000        0.0000000000000000     
   1.4062500000000000       0.21875000000000000        0.0000000000000000     
   1.4375000000000000       0.21875000000000000        0.0000000000000000     
   1.4687500000000000       0.21875000000000000        0.0000000000000000     
   1.5000000000000000       0.21875000000000000        0.0000000000000000     
   1.3750000000000000       0.25000000000000000        0.0000000000000000     
   1.4062500000000000       0.25000000000000000        0.0000000000000000     
   1.4375000000000000       0.25000000000000000        0.0000000000000000     
   1.4687500000000000       0.25000000000000000        0.0000000000000000     
   1.5000000000000000       0.25000000000000000        0.0000000000000000     
  0.50000000000000000       0.25000000000000000        0.0000000000000000     
  0.53125000000000000       0.25000000000000000        0.0000000000000000     
  0.56250000000000000       0.25000000000000000        0.0000000000000000     
  0.59375000000000000       0.25000000000000000        0.0000000000000000     
  0.62500000000000000       0.25000000000000000        0.0000000000000000     
  0.50000000000000000       0.28125000000000000        0.0000000000000000     
  0.53125000000000000       0.28125000000000000        0.0000000000000000     
  0.56250000000000000       0.28125000000000000        0.0000000000000000     
  0.59375000000000000       0.28125000000000000        0.0000000000000000     
  0.62500000000000000       0.28125000000000000        0.0000000000000000     
  0.50000000000000000       0.31250000000000000        0.0000000000000000     
  0.53125000000000000       0.31250000000000000        0.0000000000000000     
  0.56250000000000000       0.31250000000000000        0.0000000000000000     
  0.59375000000000000       0.31250000000000000        0.0000000000000000     
  0.62500000000000000       0.31250000000000000        0.0000000000000000     
  0.50000000000000000       0.34375000000000000        0.0000000000000000     
  0.53125000000000000       0.34375000000000000        0.0000000000000000     
  0.56250000000000000       0.34375000000000000        0.0000000000000000     
  0.59375000000000000       0.34375000000000000        0.0000000000000000     
  0.62500000000000000       0.34375000000000000        0.0000000000000000     
  0.50000000000000000       0.37500000000000000        0.0000000000000000     
  0.53125000000000000       0.37500000000000000        0.0000000000000000     
  0.56250000000000000       0.37500000000000000        0.0000000000000000     
  0.59375000000000000       0.37500000000000000        0.0000000000000000     
  0.62500000000000000       0.37500000000000000        0.0000000000000000     
  0.62500000000000000       0.25000000000000000        0.0000000000000000     
  0.65625000000000000       0.25000000000000000        0.0000000000000000     
  0.68750000000000000       0.25000000000000000        0.0000000000000000     
  0.71875000000000000       0.25000000000000000        0.0000000000000000     
  0.75000000000000000       0.25000000000000000        0.0000000000000000     
  0.62500000000000000       0.28125000000000000        0.0000000000000000     
  0.65625000000000000       0.28125000000000000        0.0000000000000000     
  0.68750000000000000       0.28125000000000000        0.0000000000000000     
  0.71875000000000000       0.28125000000000000        0.0000000000000000     
  0.75000000000000000       0.28125000000000000        0.0000000000000000     
  0.62500000000000000       0.31250000000000000        0.0000000000000000     
  0.65625000000000000       0.31250000000000000        0.0000000000000000     
  0.68750000000000000       0.31250000000000000        0.0000000000000000     
  0.71875000000000000       0.31250000000000000        0.0000000000000000     
  0.75000000000000000       0.31250000000000000        0.0000000000000000     
  0.62500000000000000       0.34375000000000000        0.0000000000000000     
  0.65625000000000000       0.34375000000000000        0.0000000000000000     
  0.68750000000000000       0.34375000000000000        0.0000000000000000     
  0.71875000000000000       0.34375000000000000        0.0000000000000000     
  0.75000000000000000       0.34375000000000000        0.0000000000000000     
  0.62500000000000000       0.37500000000000000        0.0000000000000000     
  0.65625000000000000       0.37500000000000000        0.0000000000000000     
  0.68750000000000000       0.37500000000000000        0.0000000000000000     
  0.71875000000000000       0.37500000000000000        0.0000000000000000     
  0.75000000000000000       0.37500000000000000        0.0000000000000000     
  0.75000000000000000       0.25000000000000000        0.0000000000000000     
  0.78125000000000000       0.25000000000000000        0.0000000000000000     
  0.81250000000000000       0.25000000000000000        0.0000000000000000     
  0.84375000000000000       0.25000000000000000        0.0000000000000000     
  0.87500000000000000       0.25000000000000000        0.0000000000000000     
  0.75000000000000000       0.28125000000000000        0.0000000000000000     
  0.78125000000000000       0.28125000000000000        0.0000000000000000     
  0.81250000000000000       0.28125000000000000        0.0000000000000000     
  0.84375000000000000       0.28125000000000000        0.0000000000000000     
  0.87500000000000000       0.28125000000000000        0.0000000000000000     
  0.75000000000000000       0.31250000000000000        0.0000000000000000     
  0.78125000000000000       0.31250000000000000        0.0000000000000000     
  0.81250000000000000       0.31250000000000000        0.0000000000000000     
  0.84375000000000000       0.31250000000000000        0.0000000000000000     
  0.87500000000000000       0.31250000000000000        0.0000000000000000     
  0.75000000000000000       0.34375000000000000        0.0000000000000000     
  0.78125000000000000       0.34375000000000000        0.0000000000000000     
  0.81250000000000000       0.34375000000000000        0.0000000000000000     
  0.84375000000000000       0.34375000000000000        0.0000000000000000     
  0.87500000000000000       0.34375000000000000        0.0000000000000000     
  0.75000000000000000       0.37500000000000000        0.0000000000000000     
  0.78125000000000000       0.37500000000000000        0.0000000000000000     
  0.81250000000000000       0.37500000000000000        0.0000000000000000     
  0.84375000000000000       0.37500000000000000        0.0000000000000000     
  0.87500000000000000       0.37500000000000000        0.0000000000000000     
  0.87500000000000000       0.25000000000000000        0.0000000000000000     
  0.90625000000000000       0.25000000000000000        0.0000000000000000     
  0.93750000000000000       0.25000000000000000        0.0000000000000000     
  0.96875000000000000       0.25000000000000000        0.0000000000000000     
   1.0000000000000000       0.25000000000000000        0.0000000000000000     
  0.87500000000000000       0.28125000000000000        0.0000000000000000     
  0.90625000000000000       0.28125000000000000        0.0000000000000000     
  0.93750000000000000       0.28125000000000000        0.0000000000000000     
  0.96875000000000000       0.28125000000000000        0.0000000000000000     
   1.0000000000000000       0.28125000000000000        0.0000000000000000     
  0.87500000000000000       0.31250000000000000        0.0000000000000000     
  0.90625000000000000       0.31250000000000000        0.0000000000000000     
  0.93750000000000000       0.31250000000000000        0.0000000000000000     
  0.96875000000000000       0.31250000000000000        0.0000000000000000     
   1.0000000000000000       0.31250000000000000        0.0000000000000000     
  0.87500000000000000       0.34375000000000000        0.0000000000000000     
  0.90625000000000000       0.34375000000000000        0.0000000000000000     
  0.93750000000000000       0.34375000000000000        0.0000000000000000     
  0.96875000000000000       0.34375000000000000        0.0000000000000000     
   1.0000000000000000       0.34375000000000000        0.0000000000000000     
  0.87500000000000000       0.37500000000000000        0.0000000000000000     
  0.90625000000000000       0.37500000000000000        0.0000000000000000     
  0.93750000000000000       0.37500000000000000        0.0000000000000000     
  0.96875000000000000       0.37500000000000000        0.0000000000000000     
   1.0000000000000000       0.37500000000000000        0.0000000000000000     
   1.0000000000000000       0.25000000000000000        0.0000000000000000     
   1.0312500000000000       0.25000000000000000        0.0000000000000000     
   1.0625000000000000       0.25000000000000000        0.0000000000000000     
   1.0937500000000000       0.25000000000000000        0.0000000000000000     
   1.1250000000000000       0.25000000000000000        0.0000000000000000     
   1.0000000000000000       0.28125000000000000        0.0000000000000000     
   1.0312500000000000       0.28125000000000000        0.0000000000000000     
   1.0625000000000000       0.28125000000000000        0.0000000000000000     
   1.0937500000000000       0.28125000000000000        0.0000000000000000     
   1.1250000000000000       0.28125000000000000        0.0000000000000000     
   1.0000000000000000       0.31250000000000000        0.0000000000000000     
   1.0312500000000000       0.31250000000000000        0.0000000000000000     
   1.0625000000000000       0.31250000000000000        0.0000000000000000     
   1.0937500000000000       0.31250000000000000        0.0000000000000000     
   1.1250000000000000       0.31250000000000000        0.0000000000000000     
   1.0000000000000000       0.34375000000000000        0.0000000000000000     
   1.0312500000000000       0.34375000000000000        0.0000000000000000     
   1.0625000000000000       0.34375000000000000        0.0000000000000000     
   1.0937500000000000       0.34375000000000000        0.0000000000000000     
   1.1250000000000000       0.34375000000000000        0.0000000000000000     
   1.0000000000000000       0.37500000000000000        0.0000000000000000     
   1.0312500000000000       0.37500000000000000        0.0000000000000000     
   1.0625000000000000       0.37500000000000000        0.0000000000000000     
   1.0937500000000000       0.37500000000000000        0.0000000000000000     
   1.1250000000000000       0.37500000000000000        0.0000000000000000     
   1.1250000000000000       0.25000000000000000        0.0000000000000000     
   1.1562500000000000       0.25000000000000000        0.0000000000000000     
   1.1875000000000000       0.25000000000000000        0.0000000000000000     
   1.2187500000000000       0.25000000000000000        0.0000000000000000     
   1.2500000000000000       0.25000000000000000        0.0000000000000000     
   1.1250000000000000       0.28125000000000000        0.0000000000000000     
   1.1562500000000000       0.28125000000000000        0.0000000000000000     
   1.1875000000000000       0.28125000000000000        0.0000000000000000     
   1.2187500000000000       0.28125000000000000        0.0000000000000000     
   1.2500000000000000       0.28125000000000000        0.0000000000000000     
   1.1250000000000000       0.31250000000000000        0.0000000000000000     
   1.1562500000000000       0.31250000000000000        0.0000000000000000     
   1.1875000000000000       0.31250000000000000        0.0000000000000000     
   1.2187500000000000       0.31250000000000000        0.0000000000000000     
   1.2500000000000000       0.31250000000000000        0.0000000000000000     
   1.1250000000000000       0.34375000000000000        0.0000000000000000     
   1.1562500000000000       0.34375000000000000        0.0000000000000000     
   1.1875000000000000       0.34375000000000000        0.0000000000000000     
   1.2187500000000000       0.34375000000000000        0.0000000000000000     
   1.2500000000000000       0.34375000000000000        0.0000000000000000     
   1.1250000000000000       0.37500000000000000        0.0000000000000000     
   1.1562500000000000       0.37500000000000000        0.0000000000000000     
   1.1875000000000000       0.37500000000000000        0.0000000000000000     
   1.2187500000000000       0.37500000000000000        0.0000000000000000     
   1.2500000000000000       0.37500000000000000        0.0000000000000000     
   1.2500000000000000       0.25000000000000000        0.0000000000000000     
   1.2812500000000000       0.25000000000000000        0.0000000000000000     
   1.3125000000000000       0.25000000000000000        0.0000000000000000     
   1.3437500000000000       0.25000000000000000        0.0000000000000000     
   1.3750000000000000       0.25000000000000000        0.0000000000000000     
   1.2500000000000000       0.28125000000000000        0.0000000000000000     
   1.2812500000000000       0.28125000000000000        0.0000000000000000     
   1.3125000000000000       0.28125000000000000        0.0000000000000000     
   1.3437500000000000       0.28125000000000000        0.0000000000000000     
   1.3750000000000000       0.28125000000000000        0.0000000000000000     
   1.2500000000000000       0.31250000000000000        0.0000000000000000     
   1.2812500000000000       0.31250000000000000        0.0000000000000000     
   1.3125000000000000       0.31250000000000000        0.0000000000000000     
   1.3437500000000000       0.31250000000000000        0.0000000000000000     
   1.3750000000000000       0.31250000000000000        0.0000000000000000     
   1.2500000000000000       0.34375000000000000        0.0000000000000000     
   1.2812500000000000       0.34375000000000000        0.0000000000000000     
   1.3125000000000000       0.34375000000000000        0.0000000000000000     
   1.3437500000000000       0.34375000000000000        0.0000000000000000     
   1.3750000000000000       0.34375000000000000        0.0000000000000000     
   1.2500000000000000       0.37500000000000000        0.0000000000000000     
   1.2812500000000000       0.37500000000000000        0.0000000000000000     
   1.3125000000000000       0.37500000000000000        0.0000000000000000     
   1.3437500000000000       0.37500000000000000        0.0000000000000000     
   1.3750000000000000       0.37500000000000000        0.0000000000000000     
   1.3750000000000000       0.25000000000000000        0.0000000000000000     
   1.4062500000000000       0.25000000000000000        0.0000000000000000     
   1.4375000000000000       0.25000000000000000        0.0000000000000000     
   1.4687500000000000       0.25000000000000000        0.0000000000000000     
   1.5000000000000000       0.25000000000000000        0.0000000000000000     
   1.3750000000000000       0.28125000000000000        0.0000000000000000     
   1.4062500000000000       0.28125000000000000        0.0000000000000000     
   1.4375000000000000       0.28125000000000000        0.0000000000000000     
   1.4687500000000000       0.28125000000000000        0.0000000000000000     
   1.5000000000000000       0.28125000000000000        0.0000000000000000     
   1.3750000000000000       0.31250000000000000        0.0000000000000000     
   1.4062500000000000       0.31250000000000000        0.0000000000000000     
   1.4375000000000000       0.31250000000000000        0.0000000000000000     
   1.4687500000000000       0.31250000000000000        0.0000000000000000     
   1.5000000000000000       0.31250000000000000        0.0000000000000000     
   1.3750000000000000       0.34375000000000000        0.0000000000000000     
   1.4062500000000000       0.34375000000000000        0.0000000000000000     
   1.4375000000000000       0.34375000000000000        0.0000000000000000     
   1.4687500000000000       0.34375000000000000        0.0000000000000000     
   1.5000000000000000       0.34375000000000000        0.0000000000000000     
   1.3750000000000000       0.37500000000000000        0.0000000000000000     
   1.4062500000000000       0.37500000000000000        0.0000000000000000     
   1.4375000000000000       0.37500000000000000        0.0000000000000000     
   1.4687500000000000       0.37500000000000000        0.0000000000000000     
   1.5000000000000000       0.37500000000000000        0.0000000000000000     
  0.50000000000000000       0.37500000000000000        0.0000000000000000     
  0.53125000000000000       0.37500000000000000        0.0000000000000000     
  0.56250000000000000       0.37500000000000000        0.0000000000000000     
  0.59375000000000000       0.37500000000000000        0.0000000000000000     
  0.62500000000000000       0.37500000000000000        0.0000000000000000     
  0.50000000000000000       0.40625000000000000        0.0000000000000000     
  0.53125000000000000       0.40625000000000000        0.0000000000000000     
  0.56250000000000000       0.40625000000000000        0.0000000000000000     
  0.59375000000000000       0.40625000000000000        0.0000000000000000     
  0.62500000000000000       0.40625000000000000        0.0000000000000000     
  0.50000000000000000       0.43750000000000000        0.0000000000000000     
  0.53125000000000000       0.43750000000000000        0.0000000000000000     
  0.56250000000000000       0.43750000000000000        0.0000000000000000     
  0.59375000000000000       0.43750000000000000        0.0000000000000000     
  0.62500000000000000       0.43750000000000000        0.0000000000000000     
  0.50000000000000000       0.46875000000000000        0.0000000000000000     
  0.53125000000000000       0.46875000000000000        0.0000000000000000     
  0.56250000000000000       0.46875000000000000        0.0000000000000000     
  0.59375000000000000       0.46875000000000000        0.0000000000000000     
  0.62500000000000000       0.46875000000000000        0.0000000000000000     
  0.50000000000000000       0.50000000000000000        0.0000000000000000     
  0.53125000000000000       0.50000000000000000        0.0000000000000000     
  0.56250000000000000       0.50000000000000000        0.0000000000000000     
  0.59375000000000000       0.50000000000000000        0.0000000000000000     
  0.62500000000000000       0.50000000000000000        0.0000000000000000     
  0.62500000000000000       0.37500000000000000        0.0000000000000000     
  0.65625000000000000       0.37500000000000000        0.0000000000000000     
  0.68750000000000000       0.37500000000000000        0.0000000000000000     
  0.71875000000000000       0.37500000000000000        0.0000000000000000     
  0.75000000000000000       0.37500000000000000        0.0000000000000000     
  0.62500000000000000       0.40625000000000000        0.0000000000000000     
  0.65625000000000000       0.40625000000000000        0.0000000000000000     
  0.68750000000000000       0.40625000000000000        0.0000000000000000     
  0.71875000000000000       0.40625000000000000        0.0000000000000000     
  0.75000000000000000       0.40625000000000000        0.0000000000000000     
  0.62500000000000000       0.43750000000000000        0.0000000000000000     
  0.65625000000000000       0.43750000000000000        0.0000000000000000     
  0.68750000000000000       0.43750000000000000        0.0000000000000000     
  0.71875000000000000       0.43750000000000000        0.0000000000000000     
  0.75000000000000000       0.43750000000000000        0.0000000000000000     
  0.62500000000000000       0.46875000000000000        0.0000000000000000     
  0.65625000000000000       0.46875000000000000        0.0000000000000000     
  0.68750000000000000       0.46875000000000000        0.0000000000000000     
  0.71875000000000000       0.46875000000000000        0.0000000000000000     
  0.75000000000000000       0.46875000000000000        0.0000000000000000     
  0.62500000000000000       0.50000000000000000        0.0000000000000000     
  0.65625000000000000       0.50000000000000000        0.0000000000000000     
  0.68750000000000000       0.50000000000000000        0.0000000000000000     
  0.71875000000000000       0.50000000000000000        0.0000000000000000     
  0.75000000000000000       0.50000000000000000        0.0000000000000000     
  0.75000000000000000       0.37500000000000000        0.0000000000000000     
  0.78125000000000000       0.37500000000000000        0.0000000000000000     
  0.81250000000000000       0.37500000000000000        0.0000000000000000     
  0.84375000000000000       0.37500000000000000        0.0000000000000000     
  0.87500000000000000       0.37500000000000000        0.0000000000000000     
  0.75000000000000000       0.40625000000000000        0.0000000000000000     
  0.78125000000000000       0.40625000000000000        0.0000000000000000     
  0.81250000000000000       0.40625000000000000        0.0000000000000000     
  0.84375000000000000       0.40625000000000000        0.0000000000000000     
  0.87500000000000000       0.40625000000000000        0.0000000000000000     
  0.75000000000000000       0.43750000000000000        0.0000000000000000     
  0.78125000000000000       0.43750000000000000        0.0000000000000000     
  0.81250000000000000       0.43750000000000000        0.0000000000000000     
  0.84375000000000000       0.43750000000000000        0.0000000000000000     
  0.87500000000000000       0.43750000000000000        0.0000000000000000     
  0.75000000000000000       0.46875000000000000        0.0000000000000000     
  0.78125000000000000       0.46875000000000000        0.0000000000000000     
  0.81250000000000000       0.46875000000000000        0.0000000000000000     
  0.84375000000000000       0.46875000000000000        0.0000000000000000     
  0.87500000000000000       0.46875000000000000        0.0000000000000000     
  0.75000000000000000       0.50000000000000000        0.0000000000000000     
  0.78125000000000000       0.50000000000000000        0.0000000000000000     
  0.81250000000000000       0.50000000000000000        0.0000000000000000     
  0.84375000000000000       0.50000000000000000        0.0000000000000000     
  0.87500000000000000       0.50000000000000000        0.0000000000000000     
  0.87500000000000000       0.37500000000000000        0.0000000000000000     
  0.90625000000000000       0.37500000000000000        0.0000000000000000     
  0.93750000000000000       0.37500000000000000        0.0000000000000000     
  0.96875000000000000       0.37500000000000000        0.0000000000000000     
   1.0000000000000000       0.37500000000000000        0.0000000000000000     
  0.87500000000000000       0.40625000000000000        0.0000000000000000     
  0.90625000000000000       0.40625000000000000        0.0000000000000000     
  0.93750000000000000       0.40625000000000000        0.0000000000000000     
  0.96875000000000000       0.40625000000000000        0.0000000000000000     
   1.0000000000000000       0.40625000000000000        0.0000000000000000     
  0.87500000000000000       0.43750000000000000        0.0000000000000000     
  0.90625000000000000       0.43750000000000000        0.0000000000000000     
  0.93750000000000000       0.43750000000000000        0.0000000000000000     
  0.96875000000000000       0.43750000000000000        0.0000000000000000     
   1.0000000000000000       0.43750000000000000        0.0000000000000000     
  0.87500000000000000       0.46875000000000000        0.0000000000000000     
  0.90625000000000000       0.46875000000000000        0.0000000000000000     
  0.93750000000000000       0.46875000000000000        0.0000000000000000     
  0.96875000000000000       0.46875000000000000        0.0000000000000000     
   1.0000000000000000       0.46875000000000000        0.0000000000000000     
  0.87500000000000000       0.50000000000000000        0.0000000000000000     
  0.90625000000000000       0.50000000000000000        0.0000000000000000     
  0.93750000000000000       0.50000000000000000        0.0000000000000000     
  0.96875000000000000       0.50000000000000000        0.0000000000000000     
   1.0000000000000000       0.50000000000000000        0.0000000000000000     
   1.0000000000000000       0.37500000000000000        0.0000000000000000     
   1.0312500000000000       0.37500000000000000        0.0000000000000000     
   1.0625000000000000       0.37500000000000000        0.0000000000000000     
   1.0937500000000000       0.37500000000000000        0.0000000000000000     
   1.1250000000000000       0.37500000000000000        0.0000000000000000     
   1.0000000000000000       0.40625000000000000        0.0000000000000000     
   1.0312500000000000       0.40625000000000000        0.0000000000000000     
   1.0625000000000000       0.40625000000000000        0.0000000000000000     
   1.0937500000000000       0.40625000000000000        0.0000000000000000     
   1.1250000000000000       0.40625000000000000        0.0000000000000000     
   1.0000000000000000       0.43750000000000000        0.0000000000000000     
   1.0312500000000000       0.43750000000000000        0.0000000000000000     
   1.0625000000000000       0.43750000000000000        0.0000000000000000     
   1.0937500000000000       0.43750000000000000        0.0000000000000000     
   1.1250000000000000       0.43750000000000000        0.0000000000000000     
   1.0000000000000000       0.46875000000000000        0.0000000000000000     
   1.0312500000000000       0.46875000000000000        0.0000000000000000     
   1.0625000000000000       0.46875000000000000        0.0000000000000000     
   1.0937500000000000       0.46875000000000000        0.0000000000000000     
   1.1250000000000000       0.46875000000000000        0.0000000000000000     
   1.0000000000000000       0.50000000000000000        0.0000000000000000     
   1.0312500000000000       0.50000000000000000        0.0000000000000000     
   1.0625000000000000       0.50000000000000000        0.0000000000000000     
   1.0937500000000000       0.50000000000000000        0.0000000000000000     
   1.1250000000000000       0.50000000000000000        0.0000000000000000     
   1.1250000000000000       0.37500000000000000        0.0000000000000000     
   1.1562500000000000       0.37500000000000000        0.0000000000000000     
   1.1875000000000000       0.37500000000000000        0.0000000000000000     
   1.2187500000000000       0.37500000000000000        0.0000000000000000     
   1.2500000000000000       0.37500000000000000        0.0000000000000000     
   1.1250000000000000       0.40625000000000000        0.0000000000000000     
   1.1562500000000000       0.40625000000000000        0.0000000000000000     
   1.1875000000000000       0.40625000000000000        0.0000000000000000     
   1.2187500000000000       0.40625000000000000        0.0000000000000000     
   1.2500000000000000       0.40625000000000000        0.0000000000000000     
   1.1250000000000000       0.43750000000000000        0.0000000000000000     
   1.1562500000000000       0.43750000000000000        0.0000000000000000     
   1.1875000000000000       0.43750000000000000        0.0000000000000000     
   1.2187500000000000       0.43750000000000000        0.0000000000000000     
   1.2500000000000000       0.43750000000000000        0.0000000000000000     
   1.1250000000000000       0.46875000000000000        0.0000000000000000     
   1.1562500000000000       0.46875000000000000        0.0000000000000000     
   1.1875000000000000       0.46875000000000000        0.0000000000000000     
   1.2187500000000000       0.46875000000000000        0.0000000000000000     
   1.2500000000000000       0.46875000000000000        0.0000000000000000     
   1.1250000000000000       0.50000000000000000        0.0000000000000000     
   1.1562500000000000       0.50000000000000000        0.0000000000000000     
   1.1875000000000000       0.50000000000000000        0.0000000000000000     
   1.2187500000000000       0.50000000000000000        0.0000000000000000     
   1.2500000000000000       0.50000000000000000        0.0000000000000000     
   1.2500000000000000       0.37500000000000000        0.0000000000000000     
   1.2812500000000000       0.37500000000000000        0.0000000000000000     
   1.3125000000000000       0.37500000000000000        0.0000000000000000     
   1.3437500000000000       0.37500000000000000        0.0000000000000000     
   1.3750000000000000       0.37500000000000000        0.0000000000000000     
   1.2500000000000000       0.40625000000000000        0.0000000000000000     
   1.2812500000000000       0.40625000000000000        0.0000000000000000     
   1.3125000000000000       0.40625000000000000        0.0000000000000000     
   1.3437500000000000       0.40625000000000000        0.0000000000000000     
   1.3750000000000000       0.40625000000000000        0.0000000000000000     
   1.2500000000000000       0.43750000000000000        0.0000000000000000     
   1.2812500000000000       0.43750000000000000        0.0000000000000000     
   1.3125000000000000       0.43750000000000000        0.0000000000000000     
   1.3437500000000000       0.43750000000000000        0.0000000000000000     
   1.3750000000000000       0.43750000000000000        0.0000000000000000     
   1.2500000000000000       0.46875000000000000        0.0000000000000000     
   1.2812500000000000       0.46875000000000000        0.0000000000000000     
   1.3125000000000000       0.46875000000000000        0.0000000000000000     
   1.3437500000000000       0.46875000000000000        0.0000000000000000     
   1.3750000000000000       0.46875000000000000        0.0000000000000000     
   1.2500000000000000       0.50000000000000000        0.0000000000000000     
   1.2812500000000000       0.50000000000000000        0.0000000000000000     
   1.3125000000000000       0.50000000000000000        0.0000000000000000     
   1.3437500000000000       0.50000000000000000        0.0000000000000000     
   1.3750000000000000       0.50000000000000000        0.0000000000000000     
   1.3750000000000000       0.37500000000000000        0.0000000000000000     
   1.4062500000000000       0.37500000000000000        0.0000000000000000     
   1.4375000000000000       0.37500000000000000        0.0000000000000000     
   1.4687500000000000       0.37500000000000000        0.0000000000000000     
   1.5000000000000000       0.37500000000000000        0.0000000000000000     
   1.3750000000000000       0.40625000000000000        0.0000000000000000     
   1.4062500000000000       0.40625000000000000        0.0000000000000000     
   1.4375000000000000       0.40625000000000000        0.0000000000000000     
   1.4687500000000000       0.40625000000000000        0.0000000000000000     
   1.5000000000000000       0.40625000000000000        0.0000000000000000     
   1.3750000000000000       0.43750000000000000        0.0000000000000000     
   1.4062500000000000       0.43750000000000000        0.0000000000000000     
   1.4375000000000000       0.43750000000000000        0.0000000000000000     
   1.4687500000000000       0.43750000000000000        0.0000000000000000     
   1.5000000000000000       0.43750000000000000        0.0000000000000000     
   1.3750000000000000       0.46875000000000000        0.0000000000000000     
   1.4062500000000000       0.46875000000000000        0.0000000000000000     
   1.4375000000000000       0.46875000000000000        0.0000000000000000     
   1.4687500000000000       0.46875000000000000        0.0000000000000000     
   1.5000000000000000       0.46875000000000000        0.0000000000000000     
   1.3750000000000000       0.50000000000000000        0.0000000000000000     
   1.4062500000000000       0.50000000000000000        0.0000000000000000     
   1.4375000000000000       0.50000000000000000        0.0000000000000000     
   1.4687500000000000       0.50000000000000000        0.0000000000000000     
   1.5000000000000000       0.50000000000000000        0.0000000000000000     
  0.50000000000000000       0.50000000000000000        0.0000000000000000     
  0.53125000000000000       0.50000000000000000        0.0000000000000000     
  0.56250000000000000       0.50000000000000000        0.0000000000000000     
  0.59375000000000000       0.50000000000000000        0.0000000000000000     
  0.62500000000000000       0.50000000000000000        0.0000000000000000     
  0.50000000000000000       0.53125000000000000        0.0000000000000000     
  0.53125000000000000       0.53125000000000000        0.0000000000000000     
  0.56250000000000000       0.53125000000000000        0.0000000000000000     
  0.59375000000000000       0.53125000000000000        0.0000000000000000     
  0.62500000000000000       0.53125000000000000        0.0000000000000000     
  0.50000000000000000       0.56250000000000000        0.0000000000000000     
  0.53125000000000000       0.56250000000000000        0.0000000000000000     
  0.56250000000000000       0.56250000000000000        0.0000000000000000     
  0.59375000000000000       0.56250000000000000        0.0000000000000000     
  0.62500000000000000       0.56250000000000000        0.0000000000000000     
  0.50000000000000000       0.59375000000000000        0.0000000000000000     
  0.53125000000000000       0.59375000000000000        0.0000000000000000     
  0.56250000000000000       0.59375000000000000        0.0000000000000000     
  0.59375000000000000       0.59375000000000000        0.0000000000000000     
  0.62500000000000000       0.59375000000000000        0.0000000000000000     
  0.50000000000000000       0.62500000000000000        0.0000000000000000     
  0.53125000000000000       0.62500000000000000        0.0000000000000000     
  0.56250000000000000       0.62500000000000000        0.0000000000000000     
  0.59375000000000000       0.62500000000000000        0.0000000000000000     
  0.62500000000000000       0.62500000000000000        0.0000000000000000     
  0.62500000000000000       0.50000000000000000        0.0000000000000000     
  0.65625000000000000       0.50000000000000000        0.0000000000000000     
  0.68750000000000000       0.50000000000000000        0.0000000000000000     
  0.71875000000000000       0.50000000000000000        0.0000000000000000     
  0.75000000000000000       0.50000000000000000        0.0000000000000000     
  0.62500000000000000       0.53125000000000000        0.0000000000000000     
  0.65625000000000000       0.53125000000000000        0.0000000000000000     
  0.68750000000000000       0.53125000000000000        0.0000000000000000     
  0.71875000000000000       0.53125000000000000        0.0000000000000000     
  0.75000000000000000       0.53125000000000000        0.0000000000000000     
  0.62500000000000000       0.56250000000000000        0.0000000000000000     
  0.65625000000000000       0.56250000000000000        0.0000000000000000     
  0.68750000000000000       0.56250000000000000        0.0000000000000000     
  0.71875000000000000       0.56250000000000000        0.0000000000000000     
  0.75000000000000000       0.56250000000000000        0.0000000000000000     
  0.62500000000000000       0.59375000000000000        0.0000000000000000     
  0.65625000000000000       0.59375000000000000        0.0000000000000000     
  0.68750000000000000       0.59375000000000000        0.0000000000000000     
  0.71875000000000000       0.59375000000000000        0.0000000000000000     
  0.75000000000000000       0.59375000000000000        0.0000000000000000     
  0.62500000000000000       0.62500000000000000        0.0000000000000000     
  0.65625000000000000       0.62500000000000000        0.0000000000000000     
  0.68750000000000000       0.62500000000000000        0.0000000000000000     
  0.71875000000000000       0.62500000000000000        0.0000000000000000     
  0.75000000000000000       0.62500000000000000        0.0000000000000000     
  0.75000000000000000       0.50000000000000000        0.0000000000000000     
  0.78125000000000000       0.50000000000000000        0.0000000000000000     
  0.81250000000000000       0.50000000000000000        0.0000000000000000     
  0.84375000000000000       0.50000000000000000        0.0000000000000000     
  0.87500000000000000       0.50000000000000000        0.0000000000000000     
  0.75000000000000000       0.53125000000000000        0.0000000000000000     
  0.78125000000000000       0.53125000000000000        0.0000000000000000     
  0.81250000000000000       0.53125000000000000        0.0000000000000000     
  0.84375000000000000       0.53125000000000000        0.0000000000000000     
  0.87500000000000000       0.53125000000000000        0.0000000000000000     
  0.75000000000000000       0.56250000000000000        0.0000000000000000     
  0.78125000000000000       0.56250000000000000        0.0000000000000000     
  0.81250000000000000       0.56250000000000000        0.0000000000000000     
  0.84375000000000000       0.56250000000000000        0.0000000000000000     
  0.87500000000000000       0.56250000000000000        0.0000000000000000     
  0.75000000000000000       0.59375000000000000        0.0000000000000000     
  0.78125000000000000       0.59375000000000000        0.0000000000000000     
  0.81250000000000000       0.59375000000000000        0.0000000000000000     
  0.84375000000000000       0.59375000000000000        0.0000000000000000     
  0.87500000000000000       0.59375000000000000        0.0000000000000000     
  0.75000000000000000       0.62500000000000000        0.0000000000000000     
  0.78125000000000000       0.62500000000000000        0.0000000000000000     
  0.81250000000000000       0.62500000000000000        0.0000000000000000     
  0.84375000000000000       0.62500000000000000        0.0000000000000000     
  0.87500000000000000       0.62500000000000000        0.0000000000000000     
  0.87500000000000000       0.50000000000000000        0.0000000000000000     
  0.90625000000000000       0.50000000000000000        0.0000000000000000     
  0.93750000000000000       0.50000000000000000        0.0000000000000000     
  0.96875000000000000       0.50000000000000000        0.0000000000000000     
   1.0000000000000000       0.50000000000000000        0.0000000000000000     
  0.87500000000000000       0.53125000000000000        0.0000000000000000     
  0.90625000000000000       0.53125000000000000        0.0000000000000000     
  0.93750000000000000       0.53125000000000000        0.0000000000000000     
  0.96875000000000000       0.53125000000000000        0.0000000000000000     
   1.0000000000000000       0.53125000000000000        0.0000000000000000     
  0.87500000000000000       0.56250000000000000        0.0000000000000000     
  0.90625000000000000       0.56250000000000000        0.0000000000000000     
  0.93750000000000000       0.56250000000000000        0.0000000000000000     
  0.96875000000000000       0.56250000000000000        0.0000000000000000     
   1.0000000000000000       0.56250000000000000        0.0000000000000000     
  0.87500000000000000       0.59375000000000000        0.0000000000000000     
  0.90625000000000000       0.59375000000000000        0.0000000000000000     
  0.93750000000000000       0.59375000000000000        0.0000000000000000     
  0.96875000000000000       0.59375000000000000        0.0000000000000000     
   1.0000000000000000       0.59375000000000000        0.0000000000000000     
  0.87500000000000000       0.62500000000000000        0.0000000000000000     
  0.90625000000000000       0.62500000000000000        0.0000000000000000     
  0.93750000000000000       0.62500000000000000        0.0000000000000000     
  0.96875000000000000       0.62500000000000000        0.0000000000000000     
   1.0000000000000000       0.62500000000000000        0.0000000000000000     
   1.0000000000000000       0.50000000000000000        0.0000000000000000     
   1.0312500000000000       0.50000000000000000        0.0000000000000000     
   1.0625000000000000       0.50000000000000000        0.0000000000000000     
   1.0937500000000000       0.50000000000000000        0.0000000000000000     
   1.1250000000000000       0.50000000000000000        0.0000000000000000     
   1.0000000000000000       0.53125000000000000        0.0000000000000000     
   1.0312500000000000       0.53125000000000000        0.0000000000000000     
   1.0625000000000000       0.53125000000000000        0.0000000000000000     
   1.0937500000000000       0.53125000000000000        0.0000000000000000     
   1.1250000000000000       0.53125000000000000        0.0000000000000000     
   1.0000000000000000       0.56250000000000000        0.0000000000000000     
   1.0312500000000000       0.56250000000000000        0.0000000000000000     
   1.0625000000000000       0.56250000000000000        0.0000000000000000     
   1.0937500000000000       0.56250000000000000        0.0000000000000000     
   1.1250000000000000       0.56250000000000000        0.0000000000000000     
   1.0000000000000000       0.59375000000000000        0.0000000000000000     
   1.0312500000000000       0.59375000000000000        0.0000000000000000     
   1.0625000000000000       0.59375000000000000        0.0000000000000000     
   1.0937500000000000       0.59375000000000000        0.0000000000000000     
   1.1250000000000000       0.59375000000000000        0.0000000000000000     
   1.0000000000000000       0.62500000000000000        0.0000000000000000     
   1.0312500000000000       0.62500000000000000        0.0000000000000000     
   1.0625000000000000       0.62500000000000000        0.0000000000000000     
   1.0937500000000000       0.62500000000000000        0.0000000000000000     
   1.1250000000000000       0.62500000000000000        0.0000000000000000     
   1.1250000000000000       0.50000000000000000        0.0000000000000000     
   1.1562500000000000       0.50000000000000000        0.0000000000000000     
   1.1875000000000000       0.50000000000000000        0.0000000000000000     
   1.2187500000000000       0.50000000000000000        0.0000000000000000     
   1.2500000000000000       0.50000000000000000        0.0000000000000000     
   1.1250000000000000       0.53125000000000000        0.0000000000000000     
   1.1562500000000000       0.53125000000000000        0.0000000000000000     
   1.1875000000000000       0.53125000000000000        0.0000000000000000     
   1.2187500000000000       0.53125000000000000        0.0000000000000000     
   1.2500000000000000       0.53125000000000000        0.0000000000000000     
   1.1250000000000000       0.56250000000000000        0.0000000000000000     
   1.1562500000000000       0.56250000000000000        0.0000000000000000     
   1.1875000000000000       0.56250000000000000        0.0000000000000000     
   1.2187500000000000       0.56250000000000000        0.0000000000000000     
   1.2500000000000000       0.56250000000000000        0.0000000000000000     
   1.1250000000000000       0.59375000000000000        0.0000000000000000     
   1.1562500000000000       0.59375000000000000        0.0000000000000000     
   1.1875000000000000       0.59375000000000000        0.0000000000000000     
   1.2187500000000000       0.59375000000000000        0.0000000000000000     
   1.2500000000000000       0.59375000000000000        0.0000000000000000     
   1.1250000000000000       0.62500000000000000        0.0000000000000000     
   1.1562500000000000       0.62500000000000000        0.0000000000000000     
   1.1875000000000000       0.62500000000000000        0.0000000000000000     
   1.2187500000000000       0.62500000000000000        0.0000000000000000     
   1.2500000000000000       0.62500000000000000        0.0000000000000000     
   1.2500000000000000       0.50000000000000000        0.0000000000000000     
   1.2812500000000000       0.50000000000000000        0.0000000000000000     
   1.3125000000000000       0.50000000000000000        0.0000000000000000     
   1.3437500000000000       0.50000000000000000        0.0000000000000000     
   1.3750000000000000       0.50000000000000000        0.0000000000000000     
   1.2500000000000000       0.53125000000000000        0.0000000000000000     
   1.2812500000000000       0.53125000000000000        0.0000000000000000     
   1.3125000000000000       0.53125000000000000        0.0000000000000000     
   1.3437500000000000       0.53125000000000000        0.0000000000000000     
   1.3750000000000000       0.53125000000000000        0.0000000000000000     
   1.2500000000000000       0.56250000000000000        0.0000000000000000     
   1.2812500000000000       0.56250000000000000        0.0000000000000000     
   1.3125000000000000       0.56250000000000000        0.0000000000000000     
   1.3437500000000000       0.56250000000000000        0.0000000000000000     
   1.3750000000000000       0.56250000000000000        0.0000000000000000     
   1.2500000000000000       0.59375000000000000        0.0000000000000000     
   1.2812500000000000       0.59375000000000000        0.0000000000000000     
   1.3125000000000000       0.59375000000000000        0.0000000000000000     
   1.3437500000000000       0.59375000000000000        0.0000000000000000     
   1.3750000000000000       0.59375000000000000        0.0000000000000000     
   1.2500000000000000       0.62500000000000000        0.0000000000000000     
   1.2812500000000000       0.62500000000000000        0.0000000000000000     
   1.3125000000000000       0.62500000000000000        0.0000000000000000     
   1.3437500000000000       0.62500000000000000        0.0000000000000000     
   1.3750000000000000       0.62500000000000000        0.0000000000000000     
   1.3750000000000000       0.50000000000000000        0.0000000000000000     
   1.4062500000000000       0.50000000000000000        0.0000000000000000     
   1.4375000000000000       0.50000000000000000        0.0000000000000000     
   1.4687500000000000       0.50000000000000000        0.0000000000000000     
   1.5000000000000000       0.50000000000000000        0.0000000000000000     
   1.3750000000000000       0.53125000000000000        0.0000000000000000     
   1.4062500000000000       0.53125000000000000        0.0000000000000000     
   1.4375000000000000       0.53125000000000000        0.0000000000000000     
   1.4687500000000000       0.53125000000000000        0.0000000000000000     
   1.5000000000000000       0.53125000000000000        0.0000000000000000     
   1.3750000000000000       0.56250000000000000        0.0000000000000000     
   1.4062500000000000       0.56250000000000000        0.0000000000000000     
   1.4375000000000000       0.56250000000000000        0.0000000000000000     
   1.4687500000000000       0.56250000000000000        0.0000000000000000     
   1.5000000000000000       0.56250000000000000        0.0000000000000000     
   1.3750000000000000       0.59375000000000000        0.0000000000000000     
   1.4062500000000000       0.59375000000000000        0.0000000000000000     
   1.4375000000000000       0.59375000000000000        0.0000000000000000     
   1.4687500000000000       0.59375000000000000        0.0000000000000000     
   1.5000000000000000       0.59375000000000000        0.0000000000000000     
   1.3750000000000000       0.62500000000000000        0.0000000000000000     
   1.4062500000000000       0.62500000000000000        0.0000000000000000     
   1.4375000000000000       0.62500000000000000        0.0000000000000000     
   1.4687500000000000       0.62500000000000000        0.0000000000000000     
   1.5000000000000000       0.62500000000000000        0.0000000000000000     
  0.50000000000000000       0.62500000000000000        0.0000000000000000     
  0.53125000000000000       0.62500000000000000        0.0000000000000000     
  0.56250000000000000       0.62500000000000000        0.0000000000000000     
  0.59375000000000000       0.62500000000000000        0.0000000000000000     
  0.62500000000000000       0.62500000000000000        0.0000000000000000     
  0.50000000000000000       0.65625000000000000        0.0000000000000000     
  0.53125000000000000       0.65625000000000000        0.0000000000000000     
  0.56250000000000000       0.65625000000000000        0.0000000000000000     
  0.59375000000000000       0.65625000000000000        0.0000000000000000     
  0.62500000000000000       0.65625000000000000        0.0000000000000000     
  0.50000000000000000       0.68750000000000000        0.0000000000000000     
  0.53125000000000000       0.68750000000000000        0.0000000000000000     
  0.56250000000000000       0.68750000000000000        0.0000000000000000     
  0.59375000000000000       0.68750000000000000        0.0000000000000000     
  0.62500000000000000       0.68750000000000000        0.0000000000000000     
  0.50000000000000000       0.71875000000000000        0.0000000000000000     
  0.53125000000000000       0.71875000000000000        0.0000000000000000     
  0.56250000000000000       0.71875000000000000        0.0000000000000000     
  0.59375000000000000       0.71875000000000000        0.0000000000000000     
  0.62500000000000000       0.71875000000000000        0.0000000000000000     
  0.50000000000000000       0.75000000000000000        0.0000000000000000     
  0.53125000000000000       0.75000000000000000        0.0000000000000000     
  0.56250000000000000       0.75000000000000000        0.0000000000000000     
  0.59375000000000000       0.75000000000000000        0.0000000000000000     
  0.62500000000000000       0.75000000000000000        0.0000000000000000     
  0.62500000000000000       0.62500000000000000        0.0000000000000000     
  0.65625000000000000       0.62500000000000000        0.0000000000000000     
  0.68750000000000000       0.62500000000000000        0.0000000000000000     
  0.71875000000000000       0.62500000000000000        0.0000000000000000     
  0.75000000000000000       0.62500000000000000        0.0000000000000000     
  0.62500000000000000       0.65625000000000000        0.0000000000000000     
  0.65625000000000000       0.65625000000000000        0.0000000000000000     
  0.68750000000000000       0.65625000000000000        0.0000000000000000     
  0.71875000000000000       0.65625000000000000        0.0000000000000000     
  0.75000000000000000       0.65625000000000000        0.0000000000000000     
  0.62500000000000000       0.68750000000000000        0.0000000000000000     
  0.65625000000000000       0.68750000000000000        0.0000000000000000     
  0.68750000000000000       0.68750000000000000        0.0000000000000000     
  0.71875000000000000       0.68750000000000000        0.0000000000000000     
  0.75000000000000000       0.68750000000000000        0.0000000000000000     
  0.62500000000000000       0.71875000000000000        0.0000000000000000     
  0.65625000000000000       0.71875000000000000        0.0000000000000000     
  0.68750000000000000       0.71875000000000000        0.0000000000000000     
  0.71875000000000000       0.71875000000000000        0.0000000000000000     
  0.75000000000000000       0.71875000000000000        0.0000000000000000     
  0.62500000000000000       0.75000000000000000        0.0000000000000000     
  0.65625000000000000       0.75000000000000000        0.0000000000000000     
  0.68750000000000000       0.75000000000000000        0.0000000000000000     
  0.71875000000000000       0.75000000000000000        0.0000000000000000     
  0.75000000000000000       0.75000000000000000        0.0000000000000000     
  0.75000000000000000       0.62500000000000000        0.0000000000000000     
  0.78125000000000000       0.62500000000000000        0.0000000000000000     
  0.81250000000000000       0.62500000000000000        0.0000000000000000     
  0.84375000000000000       0.62500000000000000        0.0000000000000000     
  0.87500000000000000       0.62500000000000000        0.0000000000000000     
  0.75000000000000000       0.65625000000000000        0.0000000000000000     
  0.78125000000000000       0.65625000000000000        0.0000000000000000     
  0.81250000000000000       0.65625000000000000        0.0000000000000000     
  0.84375000000000000       0.65625000000000000        0.0000000000000000     
  0.87500000000000000       0.65625000000000000        0.0000000000000000     
  0.75000000000000000       0.68750000000000000        0.0000000000000000     
  0.78125000000000000       0.68750000000000000        0.0000000000000000     
  0.81250000000000000       0.68750000000000000        0.0000000000000000     
  0.84375000000000000       0.68750000000000000        0.0000000000000000     
  0.87500000000000000       0.68750000000000000        0.0000000000000000     
  0.75000000000000000       0.71875000000000000        0.0000000000000000     
  0.78125000000000000       0.71875000000000000        0.0000000000000000     
  0.81250000000000000       0.71875000000000000        0.0000000000000000     
  0.84375000000000000       0.71875000000000000        0.0000000000000000     
  0.87500000000000000       0.71875000000000000        0.0000000000000000     
  0.75000000000000000       0.75000000000000000        0.0000000000000000     
  0.78125000000000000       0.75000000000000000        0.0000000000000000     
  0.81250000000000000       0.75000000000000000        0.0000000000000000     
  0.84375000000000000       0.75000000000000000        0.0000000000000000     
  0.87500000000000000       0.75000000000000000        0.0000000000000000     
  0.87500000000000000       0.62500000000000000        0.0000000000000000     
  0.90625000000000000       0.62500000000000000        0.0000000000000000     
  0.93750000000000000       0.62500000000000000        0.0000000000000000     
  0.96875000000000000       0.62500000000000000        0.0000000000000000     
   1.0000000000000000       0.62500000000000000        0.0000000000000000     
  0.87500000000000000       0.65625000000000000        0.0000000000000000     
  0.90625000000000000       0.65625000000000000        0.0000000000000000     
  0.93750000000000000       0.65625000000000000        0.0000000000000000     
  0.96875000000000000       0.65625000000000000        0.0000000000000000     
   1.0000000000000000       0.65625000000000000        0.0000000000000000     
  0.87500000000000000       0.68750000000000000        0.0000000000000000     
  0.90625000000000000       0.68750000000000000        0.0000000000000000     
  0.93750000000000000       0.68750000000000000        0.0000000000000000     
  0.96875000000000000       0.68750000000000000        0.0000000000000000     
   1.0000000000000000       0.68750000000000000        0.0000000000000000     
  0.87500000000000000       0.71875000000000000        0.0000000000000000     
  0.90625000000000000       0.71875000000000000        0.0000000000000000     
  0.93750000000000000       0.71875000000000000        0.0000000000000000     
  0.96875000000000000       0.71875000000000000        0.0000000000000000     
   1.0000000000000000       0.71875000000000000        0.0000000000000000     
  0.87500000000000000       0.75000000000000000        0.0000000000000000     
  0.90625000000000000       0.75000000000000000        0.0000000000000000     
  0.93750000000000000       0.75000000000000000        0.0000000000000000     
  0.96875000000000000       0.75000000000000000        0.0000000000000000     
   1.0000000000000000       0.75000000000000000        0.0000000000000000     
   1.0000000000000000       0.62500000000000000        0.0000000000000000     
   1.0312500000000000       0.62500000000000000        0.0000000000000000     
   1.0625000000000000       0.62500000000000000        0.0000000000000000     
   1.0937500000000000       0.62500000000000000        0.0000000000000000     
   1.1250000000000000       0.62500000000000000        0.0000000000000000     
   1.0000000000000000       0.65625000000000000        0.0000000000000000     
   1.0312500000000000       0.65625000000000000        0.0000000000000000     
   1.0625000000000000       0.65625000000000000        0.0000000000000000     
   1.0937500000000000       0.65625000000000000        0.0000000000000000     
   1.1250000000000000       0.65625000000000000        0.0000000000000000     
   1.0000000000000000       0.68750000000000000        0.0000000000000000     
   1.0312500000000000       0.68750000000000000        0.0000000000000000     
   1.0625000000000000       0.68750000000000000        0.0000000000000000     
   1.0937500000000000       0.68750000000000000        0.0000000000000000     
   1.1250000000000000       0.68750000000000000        0.0000000000000000     
   1.0000000000000000       0.71875000000000000        0.0000000000000000     
   1.0312500000000000       0.71875000000000000        0.0000000000000000     
   1.0625000000000000       0.71875000000000000        0.0000000000000000     
   1.0937500000000000       0.71875000000000000        0.0000000000000000     
   1.1250000000000000       0.71875000000000000        0.0000000000000000     
   1.0000000000000000       0.75000000000000000        0.0000000000000000     
   1.0312500000000000       0.75000000000000000        0.0000000000000000     
   1.0625000000000000       0.75000000000000000        0.0000000000000000     
   1.0937500000000000       0.75000000000000000        0.0000000000000000     
   1.1250000000000000       0.75000000000000000        0.0000000000000000     
   1.1250000000000000       0.62500000000000000        0.0000000000000000     
   1.1562500000000000       0.62500000000000000        0.0000000000000000     
   1.1875000000000000       0.62500000000000000        0.0000000000000000     
   1.2187500000000000       0.62500000000000000        0.0000000000000000     
   1.2500000000000000       0.62500000000000000        0.0000000000000000     
   1.1250000000000000       0.65625000000000000        0.0000000000000000     
   1.1562500000000000       0.65625000000000000        0.0000000000000000     
   1.1875000000000000       0.65625000000000000        0.0000000000000000     
   1.2187500000000000       0.65625000000000000        0.0000000000000000     
   1.2500000000000000       0.65625000000000000        0.0000000000000000     
   1.1250000000000000       0.68750000000000000        0.0000000000000000     
   1.1562500000000000       0.68750000000000000        0.0000000000000000     
   1.1875000000000000       0.68750000000000000        0.0000000000000000     
   1.2187500000000000       0.68750000000000000        0.0000000000000000     
   1.2500000000000000       0.68750000000000000        0.0000000000000000     
   1.1250000000000000       0.71875000000000000        0.0000000000000000     
   1.1562500000000000       0.71875000000000000        0.0000000000000000     
   1.1875000000000000       0.71875000000000000        0.0000000000000000     
   1.2187500000000000       0.71875000000000000        0.0000000000000000     
   1.2500000000000000       0.71875000000000000        0.0000000000000000     
   1.1250000000000000       0.75000000000000000        0.0000000000000000     
   1.1562500000000000       0.75000000000000000        0.0000000000000000     
   1.1875000000000000       0.75000000000000000        0.0000000000000000     
   1.2187500000000000       0.75000000000000000        0.0000000000000000     
   1.2500000000000000       0.75000000000000000        0.0000000000000000     
   1.2500000000000000       0.62500000000000000        0.0000000000000000     
   1.2812500000000000       0.62500000000000000        0.0000000000000000     
   1.3125000000000000       0.62500000000000000        0.0000000000000000     
   1.3437500000000000       0.62500000000000000        0.0000000000000000     
   1.3750000000000000       0.62500000000000000        0.0000000000000000     
   1.2500000000000000       0.65625000000000000        0.0000000000000000     
   1.2812500000000000       0.65625000000000000        0.0000000000000000     
   1.3125000000000000       0.65625000000000000        0.0000000000000000     
   1.3437500000000000       0.65625000000000000        0.0000000000000000     
   1.3750000000000000       0.65625000000000000        0.0000000000000000     
   1.2500000000000000       0.68750000000000000        0.0000000000000000     
   1.2812500000000000       0.68750000000000000        0.0000000000000000     
   1.3125000000000000       0.68750000000000000        0.0000000000000000     
   1.3437500000000000       0.68750000000000000        0.0000000000000000     
   1.3750000000000000       0.68750000000000000        0.0000000000000000     
   1.2500000000000000       0.71875000000000000        0.0000000000000000     
   1.2812500000000000       0.71875000000000000        0.0000000000000000     
   1.3125000000000000       0.71875000000000000        0.0000000000000000     
   1.3437500000000000       0.71875000000000000        0.0000000000000000     
   1.3750000000000000       0.71875000000000000        0.0000000000000000     
   1.2500000000000000       0.75000000000000000        0.0000000000000000     
   1.2812500000000000       0.75000000000000000        0.0000000000000000     
   1.3125000000000000       0.75000000000000000        0.0000000000000000     
   1.3437500000000000       0.75000000000000000        0.0000000000000000     
   1.3750000000000000       0.75000000000000000        0.0000000000000000     
   1.3750000000000000       0.62500000000000000        0.0000000000000000     
   1.4062500000000000       0.62500000000000000        0.0000000000000000     
   1.4375000000000000       0.62500000000000000        0.0000000000000000     
   1.4687500000000000       0.62500000000000000        0.0000000000000000     
   1.5000000000000000       0.62500000000000000        0.0000000000000000     
   1.3750000000000000       0.65625000000000000        0.0000000000000000     
   1.4062500000000000       0.65625000000000000        0.0000000000000000     
   1.4375000000000000       0.65625000000000000        0.0000000000000000     
   1.4687500000000000       0.65625000000000000        0.0000000000000000     
   1.5000000000000000       0.65625000000000000        0.0000000000000000     
   1.3750000000000000       0.68750000000000000        0.0000000000000000     
   1.4062500000000000       0.68750000000000000        0.0000000000000000     
   1.4375000000000000       0.68750000000000000        0.0000000000000000     
   1.4687500000000000       0.68750000000000000        0.0000000000000000     
   1.5000000000000000       0.68750000000000000        0.0000000000000000     
   1.3750000000000000       0.71875000000000000        0.0000000000000000     
   1.4062500000000000       0.71875000000000000        0.0000000000000000     
   1.4375000000000000       0.71875000000000000        0.0000000000000000     
   1.4687500000000000       0.71875000000000000        0.0000000000000000     
   1.5000000000000000       0.71875000000000000        0.0000000000000000     
   1.3750000000000000       0.75000000000000000        0.0000000000000000     
   1.4062500000000000       0.75000000000000000        0.0000000000000000     
   1.4375000000000000       0.75000000000000000        0.0000000000000000     
   1.4687500000000000       0.75000000000000000        0.0000000000000000     
   1.5000000000000000       0.75000000000000000        0.0000000000000000     
  0.50000000000000000       0.75000000000000000        0.0000000000000000     
  0.53125000000000000       0.75000000000000000        0.0000000000000000     
  0.56250000000000000       0.75000000000000000        0.0000000000000000     
  0.59375000000000000       0.75000000000000000        0.0000000000000000     
  0.62500000000000000       0.75000000000000000        0.0000000000000000     
  0.50000000000000000       0.78125000000000000        0.0000000000000000     
  0.53125000000000000       0.78125000000000000        0.0000000000000000     
  0.56250000000000000       0.78125000000000000        0.0000000000000000     
  0.59375000000000000       0.78125000000000000        0.0000000000000000     
  0.62500000000000000       0.78125000000000000        0.0000000000000000     
  0.50000000000000000       0.81250000000000000        0.0000000000000000     
  0.53125000000000000       0.81250000000000000        0.0000000000000000     
  0.56250000000000000       0.81250000000000000        0.0000000000000000     
  0.59375000000000000       0.81250000000000000        0.0000000000000000     
  0.62500000000000000       0.81250000000000000        0.0000000000000000     
  0.50000000000000000       0.84375000000000000        0.0000000000000000     
  0.53125000000000000       0.84375000000000000        0.0000000000000000     
  0.56250000000000000       0.84375000000000000        0.0000000000000000     
  0.59375000000000000       0.84375000000000000        0.0000000000000000     
  0.62500000000000000       0.84375000000000000        0.0000000000000000     
  0.50000000000000000       0.87500000000000000        0.0000000000000000     
  0.53125000000000000       0.87500000000000000        0.0000000000000000     
  0.56250000000000000       0.87500000000000000        0.0000000000000000     
  0.59375000000000000       0.87500000000000000        0.0000000000000000     
  0.62500000000000000       0.87500000000000000        0.0000000000000000     
  0.62500000000000000       0.75000000000000000        0.0000000000000000     
  0.65625000000000000       0.75000000000000000        0.0000000000000000     
  0.68750000000000000       0.75000000000000000        0.0000000000000000     
  0.71875000000000000       0.75000000000000000        0.0000000000000000     
  0.75000000000000000       0.75000000000000000        0.0000000000000000     
  0.62500000000000000       0.78125000000000000        0.0000000000000000     
  0.65625000000000000       0.78125000000000000        0.0000000000000000     
  0.68750000000000000       0.78125000000000000        0.0000000000000000     
  0.71875000000000000       0.78125000000000000        0.0000000000000000     
  0.75000000000000000       0.78125000000000000        0.0000000000000000     
  0.62500000000000000       0.81250000000000000        0.0000000000000000     
  0.65625000000000000       0.81250000000000000        0.0000000000000000     
  0.68750000000000000       0.81250000000000000        0.0000000000000000     
  0.71875000000000000       0.81250000000000000        0.0000000000000000     
  0.75000000000000000       0.81250000000000000        0.0000000000000000     
  0.62500000000000000       0.84375000000000000        0.0000000000000000     
  0.65625000000000000       0.84375000000000000        0.0000000000000000     
  0.68750000000000000       0.84375000000000000        0.0000000000000000     
  0.71875000000000000       0.84375000000000000        0.0000000000000000     
  0.75000000000000000       0.84375000000000000        0.0000000000000000     
  0.62500000000000000       0.87500000000000000        0.0000000000000000     
  0.65625000000000000       0.87500000000000000        0.0000000000000000     
  0.68750000000000000       0.87500000000000000        0.0000000000000000     
  0.71875000000000000       0.87500000000000000        0.0000000000000000     
  0.75000000000000000       0.87500000000000000        0.0000000000000000     
  0.75000000000000000       0.75000000000000000        0.0000000000000000     
  0.78125000000000000       0.75000000000000000        0.0000000000000000     
  0.81250000000000000       0.75000000000000000        0.0000000000000000     
  0.84375000000000000       0.75000000000000000        0.0000000000000000     
  0.87500000000000000       0.75000000000000000        0.0000000000000000     
  0.75000000000000000       0.78125000000000000        0.0000000000000000     
  0.78125000000000000       0.78125000000000000        0.0000000000000000     
  0.81250000000000000       0.78125000000000000        0.0000000000000000     
  0.84375000000000000       0.78125000000000000        0.0000000000000000     
  0.87500000000000000       0.78125000000000000        0.0000000000000000     
  0.75000000000000000       0.81250000000000000        0.0000000000000000     
  0.78125000000000000       0.81250000000000000        0.0000000000000000     
  0.81250000000000000       0.81250000000000000        0.0000000000000000     
  0.84375000000000000       0.81250000000000000        0.0000000000000000     
  0.87500000000000000       0.81250000000000000        0.0000000000000000     
  0.75000000000000000       0.84375000000000000        0.0000000000000000     
  0.78125000000000000       0.84375000000000000        0.0000000000000000     
  0.81250000000000000       0.84375000000000000        0.0000000000000000     
  0.84375000000000000       0.84375000000000000        0.0000000000000000     
  0.87500000000000000       0.84375000000000000        0.0000000000000000     
  0.75000000000000000       0.87500000000000000        0.0000000000000000     
  0.78125000000000000       0.87500000000000000        0.0000000000000000     
  0.81250000000000000       0.87500000000000000        0.0000000000000000     
  0.84375000000000000       0.87500000000000000        0.0000000000000000     
  0.87500000000000000       0.87500000000000000        0.0000000000000000     
  0.87500000000000000       0.75000000000000000        0.0000000000000000     
  0.90625000000000000       0.75000000000000000        0.0000000000000000     
  0.93750000000000000       0.75000000000000000        0.0000000000000000     
  0.96875000000000000       0.75000000000000000        0.0000000000000000     
   1.0000000000000000       0.75000000000000000        0.0000000000000000     
  0.87500000000000000       0.78125000000000000        0.0000000000000000     
  0.90625000000000000       0.78125000000000000        0.0000000000000000     
  0.93750000000000000       0.78125000000000000        0.0000000000000000     
  0.96875000000000000       0.78125000000000000        0.0000000000000000     
   1.0000000000000000       0.78125000000000000        0.0000000000000000     
  0.87500000000000000       0.81250000000000000        0.0000000000000000     
  0.90625000000000000       0.81250000000000000        0.0000000000000000     
  0.93750000000000000       0.81250000000000000        0.0000000000000000     
  0.96875000000000000       0.81250000000000000        0.0000000000000000     
   1.0000000000000000       0.81250000000000000        0.0000000000000000     
  0.87500000000000000       0.84375000000000000        0.0000000000000000     
  0.90625000000000000       0.84375000000000000        0.0000000000000000     
  0.93750000000000000       0.84375000000000000        0.0000000000000000     
  0.96875000000000000       0.84375000000000000        0.0000000000000000     
   1.0000000000000000       0.84375000000000000        0.0000000000000000     
  0.87500000000000000       0.87500000000000000        0.0000000000000000     
  0.90625000000000000       0.87500000000000000        0.0000000000000000     
  0.93750000000000000       0.87500000000000000        0.0000000000000000     
  0.96875000000000000       0.87500000000000000        0.0000000000000000     
   1.0000000000000000       0.87500000000000000        0.0000000000000000     
   1.0000000000000000       0.75000000000000000        0.0000000000000000     
   1.0312500000000000       0.75000000000000000        0.0000000000000000     
   1.0625000000000000       0.75000000000000000        0.0000000000000000     
   1.0937500000000000       0.75000000000000000        0.0000000000000000     
   1.1250000000000000       0.75000000000000000        0.0000000000000000     
   1.0000000000000000       0.78125000000000000        0.0000000000000000     
   1.0312500000000000       0.78125000000000000        0.0000000000000000     
   1.0625000000000000       0.78125000000000000        0.0000000000000000     
   1.0937500000000000       0.78125000000000000        0.0000000000000000     
   1.1250000000000000       0.78125000000000000        0.0000000000000000     
   1.0000000000000000       0.81250000000000000        0.0000000000000000     
   1.0312500000000000       0.81250000000000000        0.0000000000000000     
   1.0625000000000000       0.81250000000000000        0.0000000000000000     
   1.0937500000000000       0.81250000000000000        0.0000000000000000     
   1.1250000000000000       0.81250000000000000        0.0000000000000000     
   1.0000000000000000       0.84375000000000000        0.0000000000000000     
   1.0312500000000000       0.84375000000000000        0.0000000000000000     
   1.0625000000000000       0.84375000000000000        0.0000000000000000     
   1.0937500000000000       0.84375000000000000        0.0000000000000000     
   1.1250000000000000       0.84375000000000000        0.0000000000000000     
   1.0000000000000000       0.87500000000000000        0.0000000000000000     
   1.0312500000000000       0.87500000000000000        0.0000000000000000     
   1.0625000000000000       0.87500000000000000        0.0000000000000000     
   1.0937500000000000       0.87500000000000000        0.0000000000000000     
   1.1250000000000000       0.87500000000000000        0.0000000000000000     
   1.1250000000000000       0.75000000000000000        0.0000000000000000     
   1.1562500000000000       0.75000000000000000        0.0000000000000000     
   1.1875000000000000       0.75000000000000000        0.0000000000000000     
   1.2187500000000000       0.75000000000000000        0.0000000000000000     
   1.2500000000000000       0.75000000000000000        0.0000000000000000     
   1.1250000000000000       0.78125000000000000        0.0000000000000000     
   1.1562500000000000       0.78125000000000000        0.0000000000000000     
   1.1875000000000000       0.78125000000000000        0.0000000000000000     
   1.2187500000000000       0.78125000000000000        0.0000000000000000     
   1.2500000000000000       0.78125000000000000        0.0000000000000000     
   1.1250000000000000       0.81250000000000000        0.0000000000000000     
   1.1562500000000000       0.81250000000000000        0.0000000000000000     
   1.1875000000000000       0.81250000000000000        0.0000000000000000     
   1.2187500000000000       0.81250000000000000        0.0000000000000000     
   1.2500000000000000       0.81250000000000000        0.0000000000000000     
   1.1250000000000000       0.84375000000000000        0.0000000000000000     
   1.1562500000000000       0.84375000000000000        0.0000000000000000     
   1.1875000000000000       0.84375000000000000        0.0000000000000000     
   1.2187500000000000       0.84375000000000000        0.0000000000000000     
   1.2500000000000000       0.84375000000000000        0.0000000000000000     
   1.1250000000000000       0.87500000000000000        0.0000000000000000     
   1.1562500000000000       0.87500000000000000        0.0000000000000000     
   1.1875000000000000       0.87500000000000000        0.0000000000000000     
   1.2187500000000000       0.87500000000000000        0.0000000000000000     
   1.2500000000000000       0.87500000000000000        0.0000000000000000     
   1.2500000000000000       0.75000000000000000        0.0000000000000000     
   1.2812500000000000       0.75000000000000000        0.0000000000000000     
   1.3125000000000000       0.75000000000000000        0.0000000000000000     
   1.3437500000000000       0.75000000000000000        0.0000000000000000     
   1.3750000000000000       0.75000000000000000        0.0000000000000000     
   1.2500000000000000       0.78125000000000000        0.0000000000000000     
   1.2812500000000000       0.78125000000000000        0.0000000000000000     
   1.3125000000000000       0.78125000000000000        0.0000000000000000     
   1.3437500000000000       0.78125000000000000        0.0000000000000000     
   1.3750000000000000       0.78125000000000000        0.0000000000000000     
   1.2500000000000000       0.81250000000000000        0.0000000000000000     
   1.2812500000000000       0.81250000000000000        0.0000000000000000     
   1.3125000000000000       0.81250000000000000        0.0000000000000000     
   1.3437500000000000       0.81250000000000000        0.0000000000000000     
   1.3750000000000000       0.81250000000000000        0.0000000000000000     
   1.2500000000000000       0.84375000000000000        0.0000000000000000     
   1.2812500000000000       0.84375000000000000        0.0000000000000000     
   1.3125000000000000       0.84375000000000000        0.0000000000000000     
   1.3437500000000000       0.84375000000000000        0.0000000000000000     
   1.3750000000000000       0.84375000000000000        0.0000000000000000     
   1.2500000000000000       0.87500000000000000        0.0000000000000000     
   1.2812500000000000       0.87500000000000000        0.0000000000000000     
   1.3125000000000000       0.87500000000000000        0.0000000000000000     
   1.3437500000000000       0.87500000000000000        0.0000000000000000     
   1.3750000000000000       0.87500000000000000        0.0000000000000000     
   1.3750000000000000       0.75000000000000000        0.0000000000000000     
   1.4062500000000000       0.75000000000000000        0.0000000000000000     
   1.4375000000000000       0.75000000000000000        0.0000000000000000     
   1.4687500000000000       0.75000000000000000        0.0000000000000000     
   1.5000000000000000       0.75000000000000000        0.0000000000000000     
   1.3750000000000000       0.78125000000000000        0.0000000000000000     
   1.4062500000000000       0.78125000000000000        0.0000000000000000     
   1.4375000000000000       0.78125000000000000        0.0000000000000000     
   1.4687500000000000       0.78125000000000000        0.0000000000000000     
   1.5000000000000000       0.78125000000000000        0.0000000000000000     
   1.3750000000000000       0.81250000000000000        0.0000000000000000     
   1.4062500000000000       0.81250000000000000        0.0000000000000000     
   1.4375000000000000       0.81250000000000000        0.0000000000000000     
   1.4687500000000000       0.81250000000000000        0.0000000000000000     
   1.5000000000000000       0.81250000000000000        0.0000000000000000     
   1.3750000000000000       0.84375000000000000        0.0000000000000000     
   1.4062500000000000       0.84375000000000000        0.0000000000000000     
   1.4375000000000000       0.84375000000000000        0.0000000000000000     
   1.4687500000000000       0.84375000000000000        0.0000000000000000     
   1.5000000000000000       0.84375000000000000        0.0000000000000000     
   1.3750000000000000       0.87500000000000000        0.0000000000000000     
   1.4062500000000000       0.87500000000000000        0.0000000000000000     
   1.4375000000000000       0.87500000000000000        0.0000000000000000     
   1.4687500000000000       0.87500000000000000        0.0000000000000000     
   1.5000000000000000       0.87500000000000000        0.0000000000000000     
  0.50000000000000000       0.87500000000000000        0.0000000000000000     
  0.53125000000000000       0.87500000000000000        0.0000000000000000     
  0.56250000000000000       0.87500000000000000        0.0000000000000000     
  0.59375000000000000       0.87500000000000000        0.0000000000000000     
  0.62500000000000000       0.87500000000000000        0.0000000000000000     
  0.50000000000000000       0.90625000000000000        0.0000000000000000     
  0.53125000000000000       0.90625000000000000        0.0000000000000000     
  0.56250000000000000       0.90625000000000000        0.0000000000000000     
  0.59375000000000000       0.90625000000000000        0.0000000000000000     
  0.62500000000000000       0.90625000000000000        0.0000000000000000     
  0.50000000000000000       0.93750000000000000        0.0000000000000000     
  0.53125000000000000       0.93750000000000000        0.0000000000000000     
  0.56250000000000000       0.93750000000000000        0.0000000000000000     
  0.59375000000000000       0.93750000000000000        0.0000000000000000     
  0.62500000000000000       0.93750000000000000        0.0000000000000000     
  0.50000000000000000       0.96875000000000000        0.0000000000000000     
  0.53125000000000000       0.96875000000000000        0.0000000000000000     
  0.56250000000000000       0.96875000000000000        0.0000000000000000     
  0.59375000000000000       0.96875000000000000        0.0000000000000000     
  0.62500000000000000       0.96875000000000000        0.0000000000000000     
  0.50000000000000000        1.0000000000000000        0.0000000000000000     
  0.53125000000000000        1.0000000000000000        0.0000000000000000     
  0.56250000000000000        1.0000000000000000        0.0000000000000000     
  0.59375000000000000        1.0000000000000000        0.0000000000000000     
  0.62500000000000000        1.0000000000000000        0.0000000000000000     
  0.62500000000000000       0.87500000000000000        0.0000000000000000     
  0.65625000000000000       0.87500000000000000        0.0000000000000000     
  0.68750000000000000       0.87500000000000000        0.0000000000000000     
  0.71875000000000000       0.87500000000000000        0.0000000000000000     
  0.75000000000000000       0.87500000000000000        0.0000000000000000     
  0.62500000000000000       0.90625000000000000        0.0000000000000000     
  0.65625000000000000       0.90625000000000000        0.0000000000000000     
  0.68750000000000000       0.90625000000000000        0.0000000000000000     
  0.71875000000000000       0.90625000000000000        0.0000000000000000     
  0.75000000000000000       0.90625000000000000        0.0000000000000000     
  0.62500000000000000       0.93750000000000000        0.0000000000000000     
  0.65625000000000000       0.93750000000000000        0.0000000000000000     
  0.68750000000000000       0.93750000000000000        0.0000000000000000     
  0.71875000000000000       0.93750000000000000        0.0000000000000000     
  0.75000000000000000       0.93750000000000000        0.0000000000000000     
  0.62500000000000000       0.96875000000000000        0.0000000000000000     
  0.65625000000000000       0.96875000000000000        0.0000000000000000     
  0.68750000000000000       0.96875000000000000        0.0000000000000000     
  0.71875000000000000       0.96875000000000000        0.0000000000000000     
  0.75000000000000000       0.96875000000000000        0.0000000000000000     
  0.62500000000000000        1.0000000000000000        0.0000000000000000     
  0.65625000000000000        1.0000000000000000        0.0000000000000000     
  0.68750000000000000        1.0000000000000000        0.0000000000000000     
  0.71875000000000000        1.0000000000000000        0.0000000000000000     
  0.75000000000000000        1.0000000000000000        0.0000000000000000     
  0.75000000000000000       0.87500000000000000        0.0000000000000000     
  0.78125000000000000       0.87500000000000000        0.0000000000000000     
  0.81250000000000000       0.87500000000000000        0.0000000000000000     
  0.84375000000000000       0.87500000000000000        0.0000000000000000     
  0.87500000000000000       0.87500000000000000        0.0000000000000000     
  0.75000000000000000       0.90625000000000000        0.0000000000000000     
  0.78125000000000000       0.90625000000000000        0.0000000000000000     
  0.81250000000000000       0.90625000000000000        0.0000000000000000     
  0.84375000000000000       0.90625000000000000        0.0000000000000000     
  0.87500000000000000       0.90625000000000000        0.0000000000000000     
  0.75000000000000000       0.93750000000000000        0.0000000000000000     
  0.78125000000000000       0.93750000000000000        0.0000000000000000     
  0.81250000000000000       0.93750000000000000        0.0000000000000000     
  0.84375000000000000       0.93750000000000000        0.0000000000000000     
  0.87500000000000000       0.93750000000000000        0.0000000000000000     
  0.75000000000000000       0.96875000000000000        0.0000000000000000     
  0.78125000000000000       0.96875000000000000        0.0000000000000000     
  0.81250000000000000       0.96875000000000000        0.0000000000000000     
  0.84375000000000000       0.96875000000000000        0.0000000000000000     
  0.87500000000000000       0.96875000000000000        0.0000000000000000     
  0.75000000000000000        1.0000000000000000        0.0000000000000000     
  0.78125000000000000        1.0000000000000000        0.0000000000000000     
  0.81250000000000000        1.0000000000000000        0.0000000000000000     
  0.84375000000000000        1.0000000000000000        0.0000000000000000     
  0.87500000000000000        1.0000000000000000        0.0000000000000000     
  0.87500000000000000       0.87500000000000000        0.0000000000000000     
  0.90625000000000000       0.87500000000000000        0.0000000000000000     
  0.93750000000000000       0.87500000000000000        0.0000000000000000     
  0.96875000000000000       0.87500000000000000        0.0000000000000000     
   1.0000000000000000       0.87500000000000000        0.0000000000000000     
  0.87500000000000000       0.90625000000000000        0.0000000000000000     
  0.90625000000000000       0.90625000000000000        0.0000000000000000     
  0.93750000000000000       0.90625000000000000        0.0000000000000000     
  0.96875000000000000       0.90625000000000000        0.0000000000000000     
   1.0000000000000000       0.90625000000000000        0.0000000000000000     
  0.87500000000000000       0.93750000000000000        0.0000000000000000     
  0.90625000000000000       0.93750000000000000        0.0000000000000000     
  0.93750000000000000       0.93750000000000000        0.0000000000000000     
  0.96875000000000000       0.93750000000000000        0.0000000000000000     
   1.0000000000000000       0.93750000000000000        0.0000000000000000     
  0.87500000000000000       0.96875000000000000        0.0000000000000000     
  0.90625000000000000       0.96875000000000000        0.0000000000000000     
  0.93750000000000000       0.96875000000000000        0.0000000000000000     
  0.96875000000000000       0.96875000000000000        0.0000000000000000     
   1.0000000000000000       0.96875000000000000        0.0000000000000000     
  0.87500000000000000        1.0000000000000000        0.0000000000000000     
  0.90625000000000000        1.0000000000000000        0.0000000000000000     
  0.93750000000000000        1.0000000000000000        0.0000000000000000     
  0.96875000000000000        1.0000000000000000        0.0000000000000000     
   1.0000000000000000        1.0000000000000000        0.0000000000000000     
   1.0000000000000000       0.87500000000000000        0.0000000000000000     
   1.0312500000000000       0.87500000000000000        0.0000000000000000     
   1.0625000000000000       0.87500000000000000        0.0000000000000000     
   1.0937500000000000       0.87500000000000000        0.0000000000000000     
   1.1250000000000000       0.87500000000000000        0.0000000000000000     
   1.0000000000000000       0.90625000000000000        0.0000000000000000     
   1.0312500000000000       0.90625000000000000        0.0000000000000000     
   1.0625000000000000       0.90625000000000000        0.0000000000000000     
   1.0937500000000000       0.90625000000000000        0.0000000000000000     
   1.1250000000000000       0.90625000000000000        0.0000000000000000     
   1.0000000000000000       0.93750000000000000        0.0000000000000000     
   1.0312500000000000       0.93750000000000000        0.0000000000000000     
   1.0625000000000000       0.93750000000000000        0.0000000000000000     
   1.0937500000000000       0.93750000000000000        0.0000000000000000     
   1.1250000000000000       0.93750000000000000        0.0000000000000000     
   1.0000000000000000       0.96875000000000000        0.0000000000000000     
   1.0312500000000000       0.96875000000000000        0.0000000000000000     
   1.0625000000000000       0.96875000000000000        0.0000000000000000     
   1.0937500000000000       0.96875000000000000        0.0000000000000000     
   1.1250000000000000       0.96875000000000000        0.0000000000000000     
   1.0000000000000000        1.0000000000000000        0.0000000000000000     
   1.0312500000000000        1.0000000000000000        0.0000000000000000     
   1.0625000000000000        1.0000000000000000        0.0000000000000000     
   1.0937500000000000        1.0000000000000000        0.0000000000000000     
   1.1250000000000000        1.0000000000000000        0.0000000000000000     
   1.1250000000000000       0.87500000000000000        0.0000000000000000     
   1.1562500000000000       0.87500000000000000        0.0000000000000000     
   1.1875000000000000       0.87500000000000000        0.0000000000000000     
   1.2187500000000000       0.87500000000000000        0.0000000000000000     
   1.2500000000000000       0.87500000000000000        0.0000000000000000     
   1.1250000000000000       0.90625000000000000        0.0000000000000000     
   1.1562500000000000       0.90625000000000000        0.0000000000000000     
   1.1875000000000000       0.90625000000000000        0.0000000000000000     
   1.2187500000000000       0.90625000000000000        0.0000000000000000     
   1.2500000000000000       0.90625000000000000        0.0000000000000000     
   1.1250000000000000       0.93750000000000000        0.0000000000000000     
   1.1562500000000000       0.93750000000000000        0.0000000000000000     
   1.1875000000000000       0.93750000000000000        0.0000000000000000     
   1.2187500000000000       0.93750000000000000        0.0000000000000000     
   1.2500000000000000       0.93750000000000000        0.0000000000000000     
   1.1250000000000000       0.96875000000000000        0.0000000000000000     
   1.1562500000000000       0.96875000000000000        0.0000000000000000     
   1.1875000000000000       0.96875000000000000        0.0000000000000000     
   1.2187500000000000       0.96875000000000000        0.0000000000000000     
   1.2500000000000000       0.96875000000000000        0.0000000000000000     
   1.1250000000000000        1.0000000000000000        0.0000000000000000     
   1.1562500000000000        1.0000000000000000        0.0000000000000000     
   1.1875000000000000        1.0000000000000000        0.0000000000000000     
   1.2187500000000000        1.0000000000000000        0.0000000000000000     
   1.2500000000000000        1.0000000000000000        0.0000000000000000     
   1.2500000000000000       0.87500000000000000        0.0000000000000000     
   1.2812500000000000       0.87500000000000000        0.0000000000000000     
   1.3125000000000000       0.87500000000000000        0.0000000000000000     
   1.3437500000000000       0.87500000000000000        0.0000000000000000     
   1.3750000000000000       0.87500000000000000        0.0000000000000000     
   1.2500000000000000       0.90625000000000000        0.0000000000000000     
   1.2812500000000000       0.90625000000000000        0.0000000000000000     
   1.3125000000000000       0.90625000000000000        0.0000000000000000     
   1.3437500000000000       0.90625000000000000        0.0000000000000000     
   1.3750000000000000       0.90625000000000000        0.0000000000000000     
   1.2500000000000000       0.93750000000000000        0.0000000000000000     
   1.2812500000000000       0.93750000000000000        0.0000000000000000     
   1.3125000000000000       0.93750000000000000        0.0000000000000000     
   1.3437500000000000       0.93750000000000000        0.0000000000000000     
   1.3750000000000000       0.93750000000000000        0.0000000000000000     
   1.2500000000000000       0.96875000000000000        0.0000000000000000     
   1.2812500000000000       0.96875000000000000        0.0000000000000000     
   1.3125000000000000       0.96875000000000000        0.0000000000000000     
   1.3437500000000000       0.96875000000000000        0.0000000000000000     
   1.3750000000000000       0.96875000000000000        0.0000000000000000     
   1.2500000000000000        1.0000000000000000        0.0000000000000000     
   1.2812500000000000        1.0000000000000000        0.0000000000000000     
   1.3125000000000000        1.0000000000000000        0.0000000000000000     
   1.3437500000000000        1.0000000000000000        0.0000000000000000     
   1.3750000000000000        1.0000000000000000        0.0000000000000000     
   1.3750000000000000       0.87500000000000000        0.0000000000000000     
   1.4062500000000000       0.87500000000000000        0.0000000000000000     
   1.4375000000000000       0.87500000000000000        0.0000000000000000     
   1.4687500000000000       0.87500000000000000        0.0000000000000000     
   1.5000000000000000       0.87500000000000000        0.0000000000000000     
   1.3750000000000000       0.90625000000000000        0.0000000000000000     
   1.4062500000000000       0.90625000000000000        0.0000000000000000     
   1.4375000000000000       0.90625000000000000        0.0000000000000000     
   1.4687500000000000       0.90625000000000000        0.0000000000000000     
   1.5000000000000000       0.90625000000000000        0.0000000000000000     
   1.3750000000000000       0.93750000000000000        0.0000000000000000     
   1.4062500000000000       0.93750000000000000        0.0000000000000000     
   1.4375000000000000       0.93750000000000000        0.0000000000000000     
   1.4687500000000000       0.93750000000000000        0.0000000000000000     
   1.5000000000000000       0.93750000000000000        0.0000000000000000     
   1.3750000000000000       0.96875000000000000        0.0000000000000000     
   1.4062500000000000       0.96875000000000000        0.0000000000000000     
   1.4375000000000000       0.96875000000000000        0.0000000000000000     
   1.4687500000000000       0.96875000000000000        0.0000000000000000     
   1.5000000000000000       0.96875000000000000        0.0000000000000000     
   1.3750000000000000        1.0000000000000000        0.0000000000000000     
   1.4062500000000000        1.0000000000000000        0.0000000000000000     
   1.4375000000000000        1.0000000000000000        0.0000000000000000     
   1.4687500000000000        1.0000000000000000        0.0000000000000000     
   1.5000000000000000        1.0000000000000000        0.0000000000000000     
 </DataArray>
 </Points>
 <Cells>
 <DataArray  type="Int32"  Name="connectivity"  format="ascii">
           0           1           6           5
           1           2           7           6
           2           3           8           7
           3           4           9           8
           5           6          11          10
           6           7          12          11
           7           8          13          12
           8           9          14          13
          10          11          16          15
          11          12          17          16
          12          13          18          17
          13          14          19          18
          15          16          21          20
          16          17          22          21
          17          18          23          22
          18          19          24          23
          25          26          31          30
          26          27          32          31
          27          28          33          32
          28          29          34          33
          30          31          36          35
          31          32          37          36
          32          33          38          37
          33          34          39          38
          35          36          41          40
          36          37          42          41
          37          38          43          42
          38          39          44          43
          40          41          46          45
          41          42          47          46
          42          43          48          47
          43          44          49          48
          50          51          56          55
          51          52          57          56
          52          53          58          57
          53          54          59          58
          55          56          61          60
          56          57          62          61
          57          58          63          62
          58          59          64          63
          60          61          66          65
          61          62          67          66
          62          63          68          67
          63          64          69          68
          65          66          71          70
          66          67          72          71
          67          68          73          72
          68          69          74          73
          75          76          81          80
          76          77          82          81
          77          78          83          82
          78          79          84          83
          80          81          86          85
          81          82          87          86
          82          83          88          87
          83          84          89          88
          85          86          91          90
          86          87          92          91
          87          88          93          92
          88          89          94          93
          90          91          96          95
          91          92          97          96
          92          93          98          97
          93          94          99          98
         100         101         106         105
         101         102         107         106
         102         103         108         107
         103         104         109         108
         105         106         111         110
         106         107         112         111
         107         108         113         112
         108         109         114         113
         110         111         116         115
         111         112         117         116
         112         113         118         117
         113         114         119         118
         115         116         121         120
         116         117         122         121
         117         118         123         122
         118         119         124         123
         125         126         131         130
         126         127         132         131
         127         128         133         132
         128         129         134         133
         130         131         136         135
         131         132         137         136
         132         133         138         137
         133         134         139         138
         135         136         141         140
         136         137         142         141
         137         138         143         142
         138         139         144         143
         140         141         146         145
         141         142         147         146
         142         143         148         147
         143         144         149         148
         150         151         156         155
         151         152         157         156
         152         153         158         157
         153         154         159         158
         155         156         161         160
         156         157         162         161
         157         158         163         162
         158         159         164         163
         160         161         166         165
         161         162         167         166
         162         163         168         167
         163         164         169         168
         165         166         171         170
         166         167         172         171
         167         168         173         172
         168         169         174         173
         175         176         181         180
         176         177         182         181
         177         178         183         182
         178         179         184         183
         180         181         186         185
         181         182         187         186
         182         183         188         187
         183         184         189         188
         185         186         191         190
         186         187         192         191
         187         188         193         192
         188         189         194         193
         190         191         196         195
         191         192         197         196
         192         193         198         197
         193         194         199         198
         200         201         206         205
         201         202         207         206
         202         203         208         207
         203         204         209         208
         205         206         211         210
         206         207         212         211
         207         208         213         212
         208         209         214         213
         210         211         216         215
         211         212         217         216
         212         213         218         217
         213         214         219         218
         215         216         221         220
         216         217         222         221
         217         218         223         222
         218         219         224         223
         225         226         231         230
         226         227         232         231
         227         228         233         232
         228         229         234         233
         230         231         236         235
         231         232         237         236
         232         233         238         237
         233         234         239         238
         235         236         241         240
         236         237         242         241
         237         238         243         242
         238         239         244         243
         240         241         246         245
         241         242         247         246
         242         243         248         247
         243         244         249         248
         250         251         256         255
         251         252         257         256
         252         253         258         257
         253         254         259         258
         255         256         261         260
         256         257         262         261
         257         258         263         262
         258         259         264         263
         260         261         266         265
         261         262         267         266
         262         263         268         267
         263         264         269         268
         265         266         271         270
         266         267         272         271
         267         268         273         272
         268         269         274         273
         275         276         281         280
         276         277         282         281
         277         278         283         282
         278         279         284         283
         280         281         286         285
         281         282         287         286
         282         283         288         287
         283         284         289         288
         285         286         291         290
         286         287         292         291
         287         288         293         292
         288         289         294         293
         290         291         296         295
         291         292         297         296
         292         293         298         297
         293         294         299         298
         300         301         306         305
         301         302         307         306
         302         303         308         307
         303         304         309         308
         305         306         311         310
         306         307         312         311
         307         308         313         312
         308         309         314         313
         310         311         316         315
         311         312         317         316
         312         313         318         317
         313         314         319         318
         315         316         321         320
         316         317         322         321
         317         318         323         322
         318         319         324         323
         325         326         331         330
         326         327         332         331
         327         328         333         332
         328         329         334         333
         330         331         336         335
         331         332         337         336
         332         333         338         337
         333         334         339         338
         335         336         341         340
         336         337         342         341
         337         338         343         342
         338         339         344         343
         340         341         346         345
         341         342         347         346
         342         343         348         347
         343         344         349         348
         350         351         356         355
         351         352         357         356
         352         353         358         357
         353         354         359         358
         355         356         361         360
         356         357         362         361
         357         358         363         362
         358         359         364         363
         360         361         366         365
         361         362         367         366
         362         363         368         367
         363         364         369         368
         365         366         371         370
         366         367         372         371
         367         368         373         372
         368         369         374         373
         375         376         381         380
         376         377         382         381
         377         378         383         382
         378         379         384         383
         380         381         386         385
         381         382         387         386
         382         383         388         387
         383         384         389         388
         385         386         391         390
         386         387         392         391
         387         388         393         392
         388         389         394         393
         390         391         396         395
         391         392         397         396
         392         393         398         397
         393         394         399         398
         400         401         406         405
         401         402         407         406
         402         403         408         407
         403         404         409         408
         405         406         411         410
         406         407         412         411
         407         408         413         412
         408         409         414         413
         410         411         416         415
         411         412         417         416
         412         413         418         417
         413         414         419         418
         415         416         421         420
         416         417         422         421
         417         418         423         422
         418         419         424         423
         425         426         431         430
         426         427         432         431
         427         428         433         432
         428         429         434         433
         430         431         436         435
         431         432         437         436
         432         433         438         437
         433         434         439         438
         435         436         441         440
         436         437         442         441
         437         438         443         442
         438         439         444         443
         440         441         446         445
         441         442         447         446
         442         443         448         447
         443         444         449         448
         450         451         456         455
         451         452         457         456
         452         453         458         457
         453         454         459         458
         455         456         461         460
         456         457         462         461
         457         458         463         462
         458         459         464         463
         460         461         466         465
         461         462         467         466
         462         463         468         467
         463         464         469         468
         465         466         471         470
         466         467         472         471
         467         468         473         472
         468         469         474         473
         475         476         481         480
         476         477         482         481
         477         478         483         482
         478         479         484         483
         480         481         486         485
         481         482         487         486
         482         483         488         487
         483         484         489         488
         485         486         491         490
         486         487         492         491
         487         488         493         492
         488         489         494         493
         490         491         496         495
         491         492         497         496
         492         493         498         497
         493         494         499         498
         500         501         506         505
         501         502         507         506
         502         503         508         507
         503         504         509         508
         505         506         511         510
         506         507         512         511
         507         508         513         512
         508         509         514         513
         510         511         516         515
         511         512         517         516
         512         513         518         517
         513         514         519         518
         515         516         521         520
         516         517         522         521
         517         518         523         522
         518         519         524         523
         525         526         531         530
         526         527         532         531
         527         528         533         532
         528         529         534         533
         530         531         536         535
         531         532         537         536
         532         533         538         537
         533         534         539         538
         535         536         541         540
         536         537         542         541
         537         538         543         542
         538         539         544         543
         540         541         546         545
         541         542         547         546
         542         543         548         547
         543         544         549         548
         550         551         556         555
         551         552         557         556
         552         553         558         557
         553         554         559         558
         555         556         561         560
         556         557         562         561
         557         558         563         562
         558         559         564         563
         560         561         566         565
         561         562         567         566
         562         563         568         567
         563         564         569         568
         565         566         571         570
         566         567         572         571
         567         568         573         572
         568         569         574         573
         575         576         581         580
         576         577         582         581
         577         578         583         582
         578         579         584         583
         580         581         586         585
         581         582         587         586
         582         583         588         587
         583         584         589         588
         585         586         591         590
         586         587         592         591
         587         588         593         592
         588         589         594         593
         590         591         596         595
         591         592         597         596
         592         593         598         597
         593         594         599         598
         600         601         606         605
         601         602         607         606
         602         603         608         607
         603         604         609         608
         605         606         611         610
         606         607         612         611
         607         608         613         612
         608         609         614         613
         610         611         616         615
         611         612         617         616
         612         613         618         617
         613         614         619         618
         615         616         621         620
         616         617         622         621
         617         618         623         622
         618         619         624         623
         625         626         631         630
         626         627         632         631
         627         628         633         632
         628         629         634         633
         630         631         636         635
         631         632         637         636
         632         633         638         637
         633         634         639         638
         635         636         641         640
         636         637         642         641
         637         638         643         642
         638         639         644         643
         640         641         646         645
         641         642         647         646
         642         643         648         647
         643         644         649         648
         650         651         656         655
         651         652         657         656
         652         653         658         657
         653         654         659         658
         655         656         661         660
         656         657         662         661
         657         658         663         662
         658         659         664         663
         660         661         666         665
         661         662         667         666
         662         663         668         667
         663         664         669         668
         665         666         671         670
         666         667         672         671
         667         668         673         672
         668         669         674         673
         675         676         681         680
         676         677         682         681
         677         678         683         682
         678         679         684         683
         680         681         686         685
         681         682         687         686
         682         683         688         687
         683         684         689         688
         685         686         691         690
         686         687         692         691
         687         688         693         692
         688         689         694         693
         690         691         696         695
         691         692         697         696
         692         693         698         697
         693         694         699         698
         700         701         706         705
         701         702         707         706
         702         703         708         707
         703         704         709         708
         705         706         711         710
         706         707         712         711
         707         708         713         712
         708         709         714         713
         710         711         716         715
         711         712         717         716
         712         713         718         717
         713         714         719         718
         715         716         721         720
         716         717         722         721
         717         718         723         722
         718         719         724         723
         725         726         731         730
         726         727         732         731
         727         728         733         732
         728         729         734         733
         730         731         736         735
         731         732         737         736
         732         733         738         737
         733         734         739         738
         735         736         741         740
         736         737         742         741
         737         738         743         742
         738         739         744         743
         740         741         746         745
         741         742         747         746
         742         743         748         747
         743         744         749         748
         750         751         756         755
         751         752         757         756
         752         753         758         757
         753         754         759         758
         755         756         761         760
         756         757         762         761
         757         758         763         762
         758         759         764         763
         760         761         766         765
         761         762         767         766
         762         763         768         767
         763         764         769         768
         765         766         771         770
         766         767         772         771
         767         768         773         772
         768         769         774         773
         775         776         781         780
         776         777         782         781
         777         778         783         782
         778         779         784         783
         780         781         786         785
         781         782         787         786
         782         783         788         787
         783         784         789         788
         785         786         791         790
         786         787         792         791
         787         788         793         792
         788         789         794         793
         790         791         796         795
         791         792         797         796
         792         793         798         797
         793         794         799         798
         800         801         806         805
         801         802         807         806
         802         803         808         807
         803         804         809         808
         805         806         811         810
         806         807         812         811
         807         808         813         812
         808         809         814         813
         810         811         816         815
         811         812         817         816
         812         813         818         817
         813         814         819         818
         815         816         821         820
         816         817         822         821
         817         818         823         822
         818         819         824         823
         825         826         831         830
         826         827         832         831
         827         828         833         832
         828         829         834         833
         830         831         836         835
         831         832         837         836
         832         833         838         837
         833         834         839         838
         835         836         841         840
         836         837         842         841
         837         838         843         842
         838         839         844         843
         840         841         846         845
         841         842         847         846
         842         843         848         847
         843         844         849         848
         850         851         856         855
         851         852         857         856
         852         853         858         857
         853         854         859         858
         855         856         861         860
         856         857         862         861
         857         858         863         862
         858         859         864         863
         860         861         866         865
         861         862         867         866
         862         863         868         867
         863         864         869         868
         865         866         871         870
         866         867         872         871
         867         868         873         872
         868         869         874         873
         875         876         881         880
         876         877         882         881
         877         878         883         882
         878         879         884         883
         880         881         886         885
         881         882         887         886
         882         883         888         887
         883         884         889         888
         885         886         891         890
         886         887         892         891
         887         888         893         892
         888         889         894         893
         890         891         896         895
         891         892         897         896
         892         893         898         897
         893         894         899         898
         900         901         906         905
         901         902         907         906
         902         903         908         907
         903         904         909         908
         905         906         911         910
         906         907         912         911
         907         908         913         912
         908         909         914         913
         910         911         916         915
         911         912         917         916
         912         913         918         917
         913         914         919         918
         915         916         921         920
         916         917         922         921
         917         918         923         922
         918         919         924         923
         925         926         931         930
         926         927         932         931
         927         928         933         932
         928         929         934         933
         930         931         936         935
         931         932         937         936
         932         933         938         937
         933         934         939         938
         935         936         941         940
         936         937         942         941
         937         938         943         942
         938         939         944         943
         940         941         946         945
         941         942         947         946
         942         943         948         947
         943         944         949         948
         950         951         956         955
         951         952         957         956
         952         953         958         957
         953         954         959         958
         955         956         961         960
         956         957         962         961
         957         958         963         962
         958         959         964         963
         960         961         966         965
         961         962         967         966
         962         963         968         967
         963         964         969         968
         965         966         971         970
         966         967         972         971
         967         968         973         972
         968         969         974         973
         975         976         981         980
         976         977         982         981
         977         978         983         982
         978         979         984         983
         980         981         986         985
         981         982         987         986
         982         983         988         987
         983         984         989         988
         985         986         991         990
         986         987         992         991
         987         988         993         992
         988         989         994         993
         990         991         996         995
         991         992         997         996
         992         993         998         997
         993         994         999         998
        1000        1001        1006        1005
        1001        1002        1007        1006
        1002        1003        1008        1007
        1003        1004        1009        1008
        1005        1006        1011        1010
        1006        1007        1012        1011
        1007        1008        1013        1012
        1008        1009        1014        1013
        1010        1011        1016        1015
        1011        1012        1017        1016
        1012        1013        1018        1017
        1013        1014        1019        1018
        1015        1016        1021        1020
        1016        1017        1022        1021
        1017        1018        1023        1022
        1018        1019        1024        1023
        1025        1026        1031        1030
        1026        1027        1032        1031
        1027        1028        1033        1032
        1028        1029        1034        1033
        1030        1031        1036        1035
        1031        1032        1037        1036
        1032        1033        1038        1037
        1033        1034        1039        1038
        1035        1036        1041        1040
        1036        1037        1042        1041
        1037        1038        1043        1042
        1038        1039        1044        1043
        1040        1041        1046        1045
        1041        1042        1047        1046
        1042        1043        1048        1047
        1043        1044        1049        1048
        1050        1051        1056        1055
        1051        1052        1057        1056
        1052        1053        1058        1057
        1053        1054        1059        1058
        1055        1056        1061        1060
        1056        1057        1062        1061
        1057        1058        1063        1062
        1058        1059        1064        1063
        1060        1061        1066        1065
        1061        1062        1067        1066
        1062        1063        1068        1067
        1063        1064        1069        1068
        1065        1066        1071        1070
        1066        1067        1072        1071
        1067        1068        1073        1072
        1068        1069        1074        1073
        1075        1076        1081        1080
        1076        1077        1082        1081
        1077        1078        1083        1082
        1078        1079        1084        1083
        1080        1081        1086        1085
        1081        1082        1087        1086
        1082        1083        1088        1087
        1083        1084        1089        1088
        1085        1086        1091        1090
        1086        1087        1092        1091
        1087        1088        1093        1092
        1088        1089        1094        1093
        1090        1091        1096        1095
        1091        1092        1097        1096
        1092        1093        1098        1097
        1093        1094        1099        1098
        1100        1101        1106        1105
        1101        1102        1107        1106
        1102        1103        1108        1107
        1103        1104        1109        1108
        1105        1106        1111        1110
        1106        1107        1112        1111
        1107        1108        1113        1112
        1108        1109        1114        1113
        1110        1111        1116        1115
        1111        1112        1117        1116
        1112        1113        1118        1117
        1113        1114        1119        1118
        1115        1116        1121        1120
        1116        1117        1122        1121
        1117        1118        1123        1122
        1118        1119        1124        1123
        1125        1126        1131        1130
        1126        1127        1132        1131
        1127        1128        1133        1132
        1128        1129        1134        1133
        1130        1131        1136        1135
        1131        1132        1137        1136
        1132        1133        1138        1137
        1133        1134        1139        1138
        1135        1136        1141        1140
        1136        1137        1142        1141
        1137        1138        1143        1142
        1138        1139        1144        1143
        1140        1141        1146        1145
        1141        1142        1147        1146
        1142        1143        1148        1147
        1143        1144        1149        1148
        1150        1151        1156        1155
        1151        1152        1157        1156
        1152        1153        1158        1157
        1153        1154        1159        1158
        1155        1156        1161        1160
        1156        1157        1162        1161
        1157        1158        1163        1162
        1158        1159        1164        1163
        1160        1161        1166        1165
        1161        1162        1167        1166
        1162        1163        1168        1167
        1163        1164        1169        1168
        1165        1166        1171        1170
        1166        1167        1172        1171
        1167        1168        1173        1172
        1168        1169        1174        1173
        1175        1176        1181        1180
        1176        1177        1182        1181
        1177        1178        1183        1182
        1178        1179        1184        1183
        1180        1181        1186        1185
        1181        1182        1187        1186
        1182        1183        1188        1187
        1183        1184        1189        1188
        1185        1186        1191        1190
        1186        1187        1192        1191
        1187        1188        1193        1192
        1188        1189        1194        1193
        1190        1191        1196        1195
        1191        1192        1197        1196
        1192        1193        1198        1197
        1193        1194        1199        1198
        1200        1201        1206        1205
        1201        1202        1207        1206
        1202        1203        1208        1207
        1203        1204        1209        1208
        1205        1206        1211        1210
        1206        1207        1212        1211
        1207        1208        1213        1212
        1208        1209        1214        1213
        1210        1211        1216        1215
        1211        1212        1217        1216
        1212        1213        1218        1217
        1213        1214        1219        1218
        1215        1216        1221        1220
        1216        1217        1222        1221
        1217        1218        1223        1222
        1218        1219        1224        1223
        1225        1226        1231        1230
        1226        1227        1232        1231
        1227        1228        1233        1232
        1228        1229        1234        1233
        1230        1231        1236        1235
        1231        1232        1237        1236
        1232        1233        1238        1237
        1233        1234        1239        1238
        1235        1236        1241        1240
        1236        1237        1242        1241
        1237        1238        1243        1242
        1238        1239        1244        1243
        1240        1241        1246        1245
        1241        1242        1247        1246
        1242        1243        1248        1247
        1243        1244        1249        1248
        1250        1251        1256        1255
        1251        1252        1257        1256
        1252        1253        1258        1257
        1253        1254        1259        1258
        1255        1256        1261        1260
        1256        1257        1262        1261
        1257        1258        1263        1262
        1258        1259        1264        1263
        1260        1261        1266        1265
        1261        1262        1267        1266
        1262        1263        1268        1267
        1263        1264        1269        1268
        1265        1266        1271        1270
        1266        1267        1272        1271
        1267        1268        1273        1272
        1268        1269        1274        1273
        1275        1276        1281        1280
        1276        1277        1282        1281
        1277        1278        1283        1282
        1278        1279        1284        1283
        1280        1281        1286        1285
        1281        1282        1287        1286
        1282        1283        1288        1287
        1283        1284        1289        1288
        1285        1286        1291        1290
        1286        1287        1292        1291
        1287        1288        1293        1292
        1288        1289        1294        1293
        1290        1291        1296        1295
        1291        1292        1297        1296
        1292        1293        1298        1297
        1293        1294        1299        1298
        1300        1301        1306        1305
        1301        1302        1307        1306
        1302        1303        1308        1307
        1303        1304        1309        1308
        1305        1306        1311        1310
        1306        1307        1312        1311
        1307        1308        1313        1312
        1308        1309        1314        1313
        1310        1311        1316        1315
        1311        1312        1317        1316
        1312        1313        1318        1317
        1313        1314        1319        1318
        1315        1316        1321        1320
        1316        1317        1322        1321
        1317        1318        1323        1322
        1318        1319        1324        1323
        1325        1326        1331        1330
        1326        1327        1332        1331
        1327        1328        1333        1332
        1328        1329        1334        1333
        1330        1331        1336        1335
        1331        1332        1337        1336
        1332        1333        1338        1337
        1333        1334        1339        1338
        1335        1336        1341        1340
        1336        1337        1342        1341
        1337        1338        1343        1342
        1338        1339        1344        1343
        1340        1341        1346        1345
        1341        1342        1347        1346
        1342        1343        1348        1347
        1343        1344        1349        1348
        1350        1351        1356        1355
        1351        1352        1357        1356
        1352        1353        1358        1357
        1353        1354        1359        1358
        1355        1356        1361        1360
        1356        1357        1362        1361
        1357        1358        1363        1362
        1358        1359        1364        1363
        1360        1361        1366        1365
        1361        1362        1367        1366
        1362        1363        1368        1367
        1363        1364        1369        1368
        1365        1366        1371        1370
        1366        1367        1372        1371
        1367        1368        1373        1372
        1368        1369        1374        1373
        1375        1376        1381        1380
        1376        1377        1382        1381
        1377        1378        1383        1382
        1378        1379        1384        1383
        1380        1381        1386        1385
        1381        1382        1387        1386
        1382        1383        1388        1387
        1383        1384        1389        1388
        1385        1386        1391        1390
        1386        1387        1392        1391
        1387        1388        1393        1392
        1388        1389        1394        1393
        1390        1391        1396        1395
        1391        1392        1397        1396
        1392        1393        1398        1397
        1393        1394        1399        1398
        1400        1401        1406        1405
        1401        1402        1407        1406
        1402        1403        1408        1407
        1403        1404        1409        1408
        1405        1406        1411        1410
        1406        1407        1412        1411
        1407        1408        1413        1412
        1408        1409        1414        1413
        1410        1411        1416        1415
        1411        1412        1417        1416
        1412        1413        1418        1417
        1413        1414        1419        1418
        1415        1416        1421        1420
        1416        1417        1422        1421
        1417        1418        1423        1422
        1418        1419        1424        1423
        1425        1426        1431        1430
        1426        1427        1432        1431
        1427        1428        1433        1432
        1428        1429        1434        1433
        1430        1431        1436        1435
        1431        1432        1437        1436
        1432        1433        1438        1437
        1433        1434        1439        1438
        1435        1436        1441        1440
        1436        1437        1442        1441
        1437        1438        1443        1442
        1438        1439        1444        1443
        1440        1441        1446        1445
        1441        1442        1447        1446
        1442        1443        1448        1447
        1443        1444        1449        1448
        1450        1451        1456        1455
        1451        1452        1457        1456
        1452        1453        1458        1457
        1453        1454        1459        1458
        1455        1456        1461        1460
        1456        1457        1462        1461
        1457        1458        1463        1462
        1458        1459        1464        1463
        1460        1461        1466        1465
        1461        1462        1467        1466
        1462        1463        1468        1467
        1463        1464        1469        1468
        1465        1466        1471        1470
        1466        1467        1472        1471
        1467        1468        1473        1472
        1468        1469        1474        1473
        1475        1476        1481        1480
        1476        1477        1482        1481
        1477        1478        1483        1482
        1478        1479        1484        1483
        1480        1481        1486        1485
        1481        1482        1487        1486
        1482        1483        1488        1487
        1483        1484        1489        1488
        1485        1486        1491        1490
        1486        1487        1492        1491
        1487        1488        1493        1492
        1488        1489        1494        1493
        1490        1491        1496        1495
        1491        1492        1497        1496
        1492        1493        1498        1497
        1493        1494        1499        1498
        1500        1501        1506        1505
        1501        1502        1507        1506
        1502        1503        1508        1507
        1503        1504        1509        1508
        1505        1506        1511        1510
        1506        1507        1512        1511
        1507        1508        1513        1512
        1508        1509        1514        1513
        1510        1511        1516        1515
        1511        1512        1517        1516
        1512        1513        1518        1517
        1513        1514        1519        1518
        1515        1516        1521        1520
        1516        1517        1522        1521
        1517        1518        1523        1522
        1518        1519        1524        1523
        1525        1526        1531        1530
        1526        1527        1532        1531
        1527        1528        1533        1532
        1528        1529        1534        1533
        1530        1531        1536        1535
        1531        1532        1537        1536
        1532        1533        1538        1537
        1533        1534        1539        1538
        1535        1536        1541        1540
        1536        1537        1542        1541
        1537        1538        1543        1542
        1538        1539        1544        1543
        1540        1541        1546        1545
        1541        1542        1547        1546
        1542        1543        1548        1547
        1543        1544        1549        1548
        1550        1551        1556        1555
        1551        1552        1557        1556
        1552        1553        1558        1557
        1553        1554        1559        1558
        1555        1556        1561        1560
        1556        1557        1562        1561
        1557        1558        1563        1562
        1558        1559        1564        1563
        1560        1561        1566        1565
        1561        1562        1567        1566
        1562        1563        1568        1567
        1563        1564        1569        1568
        1565        1566        1571        1570
        1566        1567        1572        1571
        1567        1568        1573        1572
        1568        1569        1574        1573
        1575        1576        1581        1580
        1576        1577        1582        1581
        1577        1578        1583        1582
        1578        1579        1584        1583
        1580        1581        1586        1585
        1581        1582        1587        1586
        1582        1583        1588        1587
        1583        1584        1589        1588
        1585        1586        1591        1590
        1586        1587        1592        1591
        1587        1588        1593        1592
        1588        1589        1594        1593
        1590        1591        1596        1595
        1591        1592        1597        1596
        1592        1593        1598        1597
        1593        1594        1599        1598
 </DataArray>
 <DataArray  type="Int32"  Name="offsets"  format="ascii"> 
           4
           8
          12
          16
          20
          24
          28
          32
          36
          40
          44
          48
          52
          56
          60
          64
          68
          72
          76
          80
          84
          88
          92
          96
         100
         104
         108
         112
         116
         120
         124
         128
         132
         136
         140
         144
         148
         152
         156
         160
         164
         168
         172
         176
         180
         184
         188
         192
         196
         200
         204
         208
         212
         216
         220
         224
         228
         232
         236
         240
         244
         248
         252
         256
         260
         264
         268
         272
         276
         280
         284
         288
         292
         296
         300
         304
         308
         312
         316
         320
         324
         328
         332
         336
         340
         344
         348
         352
         356
         360
         364
         368
         372
         376
         380
         384
         388
         392
         396
         400
         404
         408
         412
         416
         420
         424
         428
         432
         436
         440
         444
         448
         452
         456
         460
         464
         468
         472
         476
         480
         484
         488
         492
         496
         500
         504
         508
         512
         516
         520
         524
         528
         532
         536
         540
         544
         548
         552
         556
         560
         564
         568
         572
         576
         580
         584
         588
         592
         596
         600
         604
         608
         612
         616
         620
         624
         628
         632
         636
         640
         644
         648
         652
         656
         660
         664
         668
         672
         676
         680
         684
         688
         692
         696
         700
         704
         708
         712
         716
         720
         724
         728
         732
         736
         740
         744
         748
         752
         756
         760
         764
         768
         772
         776
         780
         784
         788
         792
         796
         800
         804
         808
         812
         816
         820
         824
         828
         832
         836
         840
         844
         848
         852
         856
         860
         864
         868
         872
         876
         880
         884
         888
         892
         896
         900
         904
         908
         912
         916
         920
         924
         928
         932
         936
         940
         944
         948
         952
         956
         960
         964
         968
         972
         976
         980
         984
         988
         992
         996
        1000
        1004
        1008
        1012
        1016
        1020
        1024
        1028
        1032
        1036
        1040
        1044
        1048
        1052
        1056
        1060
        1064
        1068
        1072
        1076
        1080
        1084
        1088
        1092
        1096
        1100
        1104
        1108
        1112
        1116
        1120
        1124
        1128
        1132
        1136
        1140
        1144
        1148
        1152
        1156
        1160
        1164
        1168
        1172
        1176
        1180
        1184
        1188
        1192
        1196
        1200
        1204
        1208
        1212
        1216
        1220
        1224
        1228
        1232
        1236
        1240
        1244
        1248
        1252
        1256
        1260
        1264
        1268
        1272
        1276
        1280
        1284
        1288
        1292
        1296
        1300
        1304
        1308
        1312
        1316
        1320
        1324
        1328
        1332
        1336
        1340
        1344
        1348
        1352
        1356
        1360
        1364
        1368
        1372
        1376
        1380
        1384
        1388
        1392
        1396
        1400
        1404
        1408
        1412
        1416
        1420
        1424
        1428
        1432
        1436
        1440
        1444
        1448
        1452
        1456
        1460
        1464
        1468
        1472
        1476
        1480
        1484
        1488
        1492
        1496
        1500
        1504
        1508
        1512
        1516
        1520
        1524
        1528
        1532
        1536
        1540
        1544
        1548
        1552
        1556
        1560
        1564
        1568
        1572
        1576
        1580
        1584
        1588
        1592
        1596
        1600
        1604
        1608
        1612
        1616
        1620
        1624
        1628
        1632
        1636
        1640
        1644
        1648
        1652
        1656
        1660
        1664
        1668
        1672
        1676
        1680
        1684
        1688
        1692
        1696
        1700
        1704
        1708
        1712
        1716
        1720
        1724
        1728
        1732
        1736
        1740
        1744
        1748
        1752
        1756
        1760
        1764
        1768
        1772
        1776
        1780
        1784
        1788
        1792
        1796
        1800
        1804
        1808
        1812
        1816
        1820
        1824
        1828
        1832
        1836
        1840
        1844
        1848
        1852
        1856
        1860
        1864
        1868
        1872
        1876
        1880
        1884
        1888
        1892
        1896
        1900
        1904
        1908
        1912
        1916
        1920
        1924
        1928
        1932
        1936
        1940
        1944
        1948
        1952
        1956
        1960
        1964
        1968
        1972
        1976
        1980
        1984
        1988
        1992
        1996
        2000
        2004
        2008
        2012
        2016
        2020
        2024
        2028
        2032
        2036
        2040
        2044
        2048
        2052
        2056
        2060
        2064
        2068
        2072
        2076
        2080
        2084
        2088
        2092
        2096
        2100
        2104
        2108
        2112
        2116
        2120
        2124
        2128
        2132
        2136
        2140
        2144
        2148
        2152
        2156
        2160
        2164
        2168
        2172
        2176
        2180
        2184
        2188
        2192
        2196
        2200
        2204
        2208
        2212
        2216
        2220
        2224
        2228
        2232
        2236
        2240
        2244
        2248
        2252
        2256
        2260
        2264
        2268
        2272
        2276
        2280
        2284
        2288
        2292
        2296
        2300
        2304
        2308
        2312
        2316
        2320
        2324
        2328
        2332
        2336
        2340
        2344
        2348
        2352
        2356
        2360
        2364
        2368
        2372
        2376
        2380
        2384
        2388
        2392
        2396
        2400
        2404
        2408
        2412
        2416
        2420
        2424
        2428
        2432
        2436
        2440
        2444
        2448
        2452
        2456
        2460
        2464
        2468
        2472
        2476
        2480
        2484
        2488
        2492
        2496
        2500
        2504
        2508
        2512
        2516
        2520
        2524
        2528
        2532
        2536
        2540
        2544
        2548
        2552
        2556
        2560
        2564
        2568
        2572
        2576
        2580
        2584
        2588
        2592
        2596
        2600
        2604
        2608
        2612
        2616
        2620
        2624
        2628
        2632
        2636
        2640
        2644
        2648
        2652
        2656
        2660
        2664
        2668
        2672
        2676
        2680
        2684
        2688
        2692
        2696
        2700
        2704
        2708
        2712
        2716
        2720
        2724
        2728
        2732
        2736
        2740
        2744
        2748
        2752
        2756
        2760
        2764
        2768
        2772
        2776
        2780
        2784
        2788
        2792
        2796
        2800
        2804
        2808
        2812
        2816
        2820
        2824
        2828
        2832
        2836
        2840
        2844
        2848
        2852
        2856
        2860
        2864
        2868
        2872
        2876
        2880
        2884
        2888
        2892
        2896
        2900
        2904
        2908
        2912
        2916
        2920
        2924
        2928
        2932
        2936
        2940
        2944
        2948
        2952
        2956
        2960
        2964
        2968
        2972
        2976
        2980
        2984
        2988
        2992
        2996
        3000
        3004
        3008
        3012
        3016
        3020
        3024
        3028
        3032
        3036
        3040
        3044
        3048
        3052
        3056
        3060
        3064
        3068
        3072
        3076
        3080
        3084
        3088
        3092
        3096
        3100
        3104
        3108
        3112
        3116
        3120
        3124
        3128
        3132
        3136
        3140
        3144
        3148
        3152
        3156
        3160
        3164
        3168
        3172
        3176
        3180
        3184
        3188
        3192
        3196
        3200
        3204
        3208
        3212
        3216
        3220
        3224
        3228
        3232
        3236
        3240
        3244
        3248
        3252
        3256
        3260
        3264
        3268
        3272
        3276
        3280
        3284
        3288
        3292
        3296
        3300
        3304
        3308
        3312
        3316
        3320
        3324
        3328
        3332
        3336
        3340
        3344
        3348
        3352
        3356
        3360
        3364
        3368
        3372
        3376
        3380
        3384
        3388
        3392
        3396
        3400
        3404
        3408
        3412
        3416
        3420
        3424
        3428
        3432
        3436
        3440
        3444
        3448
        3452
        3456
        3460
        3464
        3468
        3472
        3476
        3480
        3484
        3488
        3492
        3496
        3500
        3504
        3508
        3512
        3516
        3520
        3524
        3528
        3532
        3536
        3540
        3544
        3548
        3552
        3556
        3560
        3564
        3568
        3572
        3576
        3580
        3584
        3588
        3592
        3596
        3600
        3604
        3608
        3612
        3616
        3620
        3624
        3628
        3632
        3636
        3640
        3644
        3648
        3652
        3656
        3660
        3664
        3668
        3672
        3676
        3680
        3684
        3688
        3692
        3696
        3700
        3704
        3708
        3712
        3716
        3720
        3724
        3728
        3732
        3736
        3740
        3744
        3748
        3752
        3756
        3760
        3764
        3768
        3772
        3776
        3780
        3784
        3788
        3792
        3796
        3800
        3804
        3808
        3812
        3816
        3820
        3824
        3828
        3832
        3836
        3840
        3844
        3848
        3852
        3856
        3860
        3864
        3868
        3872
        3876
        3880
        3884
        3888
        3892
        3896
        3900
        3904
        3908
        3912
        3916
        3920
        3924
        3928
        3932
        3936
        3940
        3944
        3948
        3952
        3956
        3960
        3964
        3968
        3972
        3976
        3980
        3984
        3988
        3992
        3996
        4000
        4004
        4008
        4012
        4016
        4020
        4024
        4028
        4032
        4036
        4040
        4044
        4048
        4052
        4056
        4060
        4064
        4068
        4072
        4076
        4080
        4084
        4088
        4092
        4096
 </DataArray>
 <DataArray  type="UInt8"  Name="types"  format="ascii">
 9
 9
 9
 9
 9
 9
 9
 9
 9
 9
 9
 9
 9
 9
 9
 9
 9
 9
 9
 9
 9
 9
 9
 9
 9
 9
 9
 9
 9
 9
 9
 9
 9
 9
 9
 9
 9
 9
 9
 9
 9
 9
 9
 9
 9
 9
 9
 9
 9
 9
 9
 9
 9
 9
 9
 9
 9
 9
 9
 9
 9
 9
 9
 9
 9
 9
 9
 9
 9
 9
 9
 9
 9
 9
 9
 9
 9
 9
 9
 9
 9
 9
 9
 9
 9
 9
 9
 9
 9
 9
 9
 9
 9
 9
 9
 9
 9
 9
 9
 9
 9
 9
 9
 9
 9
 9
 9
 9
 9
 9
 9
 9
 9
 9
 9
 9
 9
 9
 9
 9
 9
 9
 9
 9
 9
 9
 9
 9
 9
 9
 9
 9
 9
 9
 9
 9
 9
 9
 9
 9
 9
 9
 9
 9
 9
 9
 9
 9
 9
 9
 9
 9
 9
 9
 9
 9
 9
 9
 9
 9
 9
 9
 9
 9
 9
 9
 9
 9
 9
 9
 9
 9
 9
 9
 9
 9
 9
 9
 9
 9
 9
 9
 9
 9
 9
 9
 9
 9
 9
 9
 9
 9
 9
 9
 9
 9
 9
 9
 9
 9
 9
 9
 9
 9
 9
 9
 9
 9
 9
 9
 9
 9
 9
 9
 9
 9
 9
 9
 9
 9
 9
 9
 9
 9
 9
 9
 9
 9
 9
 9
 9
 9
 9
 9
 9
 9
 9
 9
 9
 9
 9
 9
 9
 9
 9
 9
 9
 9
 9
 9
 9
 9
 9
 9
 9
 9
 9
 9
 9
 9
 9
 9
 9
 9
 9
 9
 9
 9
 9
 9
 9
 9
 9
 9
 9
 9
 9
 9
 9
 9
 9
 9
 9
 9
 9
 9
 9
 9
 9
 9
 9
 9
 9
 9
 9
 9
 9
 9
 9
 9
 9
 9
 9
 9
 9
 9
 9
 9
 9
 9
 9
 9
 9
 9
 9
 9
 9
 9
 9
 9
 9
 9
 9
 9
 9
 9
 9
 9
 9
 9
 9
 9
 9
 9
 9
 9
 9
 9
 9
 9
 9
 9
 9
 9
 9
 9
 9
 9
 9
 9
 9
 9
 9
 9
 9
 9
 9
 9
 9
 9
 9
 9
 9
 9
 9
 9
 9
 9
 9
 9
 9
 9
 9
 9
 9
 9
 9
 9
 9
 9
 9
 9
 9
 9
 9
 9
 9
 9
 9
 9
 9
 9
 9
 9
 9
 9
 9
 9
 9
 9
 9
 9
 9
 9
 9
 9
 9
 9
 9
 9
 9
 9
 9
 9
 9
 9
 9
 9
 9
 9
 9
 9
 9
 9
 9
 9
 9
 9
 9
 9
 9
 9
 9
 9
 9
 9
 9
 9
 9
 9
 9
 9
 9
 9
 9
 9
 9
 9
 9
 9
 9
 9
 9
 9
 9
 9
 9
 9
 9
 9
 9
 9
 9
 9
 9
 9
 9
 9
 9
 9
 9
 9
 9
 9
 9
 9
 9
 9
 9
 9
 9
 9
 9
 9
 9
 9
 9
 9
 9
 9
 9
 9
 9
 9
 9
 9
 9
 9
 9
 9
 9
 9
 9
 9
 9
 9
 9
 9
 9
 9
 9
 9
 9
 9
 9
 9
 9
 9
 9
 9
 9
 9
 9
 9
 9
 9
 9
 9
 9
 9
 9
 9
 9
 9
 9
 9
 9
 9
 9
 9
 9
 9
 9
 9
 9
 9
 9
 9
 9
 9
 9
 9
 9
 9
 9
 9
 9
 9
 9
 9
 9
 9
 9
 9
 9
 9
 9
 9
 9
 9
 9
 9
 9
 9
 9
 9
 9
 9
 9
 9
 9
 9
 9
 9
 9
 9
 9
 9
 9
 9
 9
 9
 9
 9
 9
 9
 9
 9
 9
 9
 9
 9
 9
 9
 9
 9
 9
 9
 9
 9
 9
 9
 9
 9
 9
 9
 9
 9
 9
 9
 9
 9
 9
 9
 9
 9
 9
 9
 9
 9
 9
 9
 9
 9
 9
 9
 9
 9
 9
 9
 9
 9
 9
 9
 9
 9
 9
 9
 9
 9
 9
 9
 9
 9
 9
 9
 9
 9
 9
 9
 9
 9
 9
 9
 9
 9
 9
 9
 9
 9
 9
 9
 9
 9
 9
 9
 9
 9
 9
 9
 9
 9
 9
 9
 9
 9
 9
 9
 9
 9
 9
 9
 9
 9
 9
 9
 9
 9
 9
 9
 9
 9
 9
 9
 9
 9
 9
 9
 9
 9
 9
 9
 9
 9
 9
 9
 9
 9
 9
 9
 9
 9
 9
 9
 9
 9
 9
 9
 9
 9
 9
 9
 9
 9
 9
 9
 9
 9
 9
 9
 9
 9
 9
 9
 9
 9
 9
 9
 9
 9
 9
 9
 9
 9
 9
 9
 9
 9
 9
 9
 9
 9
 9
 9
 9
 9
 9
 9
 9
 9
 9
 9
 9
 9
 9
 9
 9
 9
 9
 9
 9
 9
 9
 9
 9
 9
 9
 9
 9
 9
 9
 9
 9
 9
 9
 9
 9
 9
 9
 9
 9
 9
 9
 9
 9
 9
 9
 9
 9
 9
 9
 9
 9
 9
 9
 9
 9
 9
 9
 9
 9
 9
 9
 9
 9
 9
 9
 9
 9
 9
 9
 9
 9
 9
 9
 9
 9
 9
 9
 9
 9
 9
 9
 9
 9
 9
 9
 9
 9
 9
 9
 9
 9
 9
 9
 9
 9
 9
 9
 9
 9
 9
 9
 9
 9
 9
 9
 9
 9
 9
 9
 9
 9
 9
 9
 9
 9
 9
 9
 9
 9
 9
 9
 9
 9
 9
 9
 9
 9
 9
 9
 9
 9
 9
 9
 9
 9
 9
 9
 9
 9
 9
 9
 9
 9
 9
 9
 9
 9
 9
 9
 9
 9
 9
 9
 9
 9
 9
 9
 9
 9
 9
 9
 9
 9
 9
 9
 9
 9
 9
 9
 9
 9
 9
 9
 9
 9
 9
 9
 9
 9
 9
 9
 9
 9
 9
 9
 9
 9
 9
 9
 9
 9
 9
 9
 9
 9
 9
 9
 9
 9
 9
 9
 9
 9
 9
 9
 9
 9
 9
 9
 9
 9
 9
 9
 9
 9
 9
 9
 9
 9
 9
 9
 9
 9
 9
 9
 9
 9
 9
 9
 9
 9
 9
 9
 9
 9
 9
 9
 9
 9
 9
 9
 9
 9
 9
 9
 9
 9
 9
 9
 9
 9
 9
 9
 9
 9
 9
 9
 9
 9
 9
 9
 9
 </DataArray>
 </Cells> 
 <PointData>
 <DataArray  type="Float64" Name="disp" NumberOfComponents="3" format="ascii">
   6.5239434354218598E-002   6.2788886080818618E-002   0.0000000000000000     
   6.8340583478564088E-002   6.8176892693207258E-002   0.0000000000000000     
   7.1329750192576771E-002   7.3743672329029564E-002   0.0000000000000000     
   7.4206934496256663E-002   7.9489224988285562E-002   0.0000000000000000     
   7.6972136389603790E-002   8.5413550670975252E-002   0.0000000000000000     
   6.0136596829552136E-002   6.1887378011072171E-002   0.0000000000000000     
   6.3032618510920860E-002   6.7300102727269301E-002   0.0000000000000000     
   6.5825774848031399E-002   7.2893063187594753E-002   0.0000000000000000     
   6.8516065840883725E-002   7.8666259392048549E-002   0.0000000000000000     
   7.1103491489477894E-002   8.4619691340630659E-002   0.0000000000000000     
   5.5190096660622370E-002   6.1041442868380022E-002   0.0000000000000000     
   5.7888724433928798E-002   6.6478820376351944E-002   0.0000000000000000     
   6.0492274954146941E-002   7.2097206316237492E-002   0.0000000000000000     
   6.3000748221276798E-002   7.7896600688036666E-002   0.0000000000000000     
   6.5414144235318369E-002   8.3877003491749480E-002   0.0000000000000000     
   5.0399933847429315E-002   6.0251080652742137E-002   0.0000000000000000     
   5.2908901247587868E-002   6.5713045640455187E-002   0.0000000000000000     
   5.5329250510923370E-002   7.1356101714957779E-002   0.0000000000000000     
   5.7660981637435833E-002   7.7180248876249927E-002   0.0000000000000000     
   5.9904094627125239E-002   8.3185487124331631E-002   0.0000000000000000     
   4.5766108389972956E-002   5.9516291364158549E-002   0.0000000000000000     
   4.8093148951898076E-002   6.5002778519579002E-002   0.0000000000000000     
   5.0336701518360706E-002   7.0669749383755601E-002   0.0000000000000000     
   5.2496766089360845E-002   7.6517203956688318E-002   0.0000000000000000     
   5.4573342664898487E-002   8.2545142238377167E-002   0.0000000000000000     
   7.6972136389603790E-002   8.5413550670975252E-002   0.0000000000000000     
   7.9637689865727251E-002   9.1506621372194119E-002   0.0000000000000000     
   8.2215928917736242E-002   9.7758409087037743E-002   0.0000000000000000     
   8.4706853545630734E-002  0.10416891381550607        0.0000000000000000     
   8.7110463749410727E-002  0.11073813555759915        0.0000000000000000     
   7.1103491489477894E-002   8.4619691340630659E-002   0.0000000000000000     
   7.3598901370525077E-002   9.0742229695365467E-002   0.0000000000000000     
   7.6013145060736559E-002   9.7022745118277298E-002   0.0000000000000000     
   7.8346222560112339E-002  0.10346123760936612        0.0000000000000000     
   8.0598133868652388E-002  0.11005770716863200        0.0000000000000000     
   6.5414144235318369E-002   8.3877003491749480E-002   0.0000000000000000     
   6.7742204085933705E-002   9.0026690502133744E-002   0.0000000000000000     
   6.9994668862784742E-002   9.6333937493947308E-002   0.0000000000000000     
   7.2171538565871565E-002  0.10279874446719019        0.0000000000000000     
   7.4272813195194118E-002  0.10942111142186238        0.0000000000000000     
   5.9904094627125239E-002   8.3185487124331631E-002   0.0000000000000000     
   6.2067598011953072E-002   8.9360003792498921E-002   0.0000000000000000     
   6.4160500323880806E-002   9.5691986214047800E-002   0.0000000000000000     
   6.6182801562908428E-002  0.10218143438897827        0.0000000000000000     
   6.8134501729035929E-002  0.10882834831729034        0.0000000000000000     
   5.4573342664898487E-002   8.2545142238377167E-002   0.0000000000000000     
   5.6575083148583241E-002   8.8742169566461027E-002   0.0000000000000000     
   5.8510639444024723E-002   9.5096891278578746E-002   0.0000000000000000     
   6.0380011551222912E-002  0.10160930737473037        0.0000000000000000     
   6.2183199470177829E-002  0.10827941785491585        0.0000000000000000     
   8.7110463749410727E-002  0.11073813555759915        0.0000000000000000     
   8.9419442590425557E-002  0.11745319722627162        0.0000000000000000     
   9.1626473130024505E-002  0.12430122173447812        0.0000000000000000     
   9.3731555368207570E-002  0.13128220908221869        0.0000000000000000     
   9.5734689304974779E-002  0.13839615926949328        0.0000000000000000     
   8.0598133868652388E-002  0.11005770716863200        0.0000000000000000     
   8.2761753733504112E-002  0.11679982486928867        0.0000000000000000     
   8.4829956901814885E-002  0.12367526178454998        0.0000000000000000     
   8.6802743373584748E-002  0.13068401791441592        0.0000000000000000     
   8.8680113148813633E-002  0.13782609325888653        0.0000000000000000     
   7.4272813195194118E-002  0.10942111142186238        0.0000000000000000     
   7.6291707939957293E-002  0.11618902906029564        0.0000000000000000     
   7.8221437989365927E-002  0.12309048808482173        0.0000000000000000     
   8.0062003343420035E-002  0.13012548849544070        0.0000000000000000     
   8.1813404002119616E-002  0.13729403029215242        0.0000000000000000     
   6.8134501729035929E-002  0.10882834831729034        0.0000000000000000     
   7.0009305209785072E-002  0.11562080979929253        0.0000000000000000     
   7.1800916392677591E-002  0.12254690063529336        0.0000000000000000     
   7.3509335277713472E-002  0.12960662082529284        0.0000000000000000     
   7.5134561864892715E-002  0.13679997036929098        0.0000000000000000     
   6.2183199470177829E-002  0.10827941785491585        0.0000000000000000     
   6.3914545542987478E-002  0.11509516708627932        0.0000000000000000     
   6.5568392111749876E-002  0.12204449943596488        0.0000000000000000     
   6.7144739176465060E-002  0.12912741490397250        0.0000000000000000     
   6.8643586737132958E-002  0.13634391349030225        0.0000000000000000     
   9.5734689304974779E-002  0.13839615926949328        0.0000000000000000     
   9.7641715524589903E-002  0.14563156779989581        0.0000000000000000     
   9.9458474611316738E-002  0.15297693017702010        0.0000000000000000     
  0.10118496656515531       0.16043224640086617        0.0000000000000000     
  0.10282119138610560       0.16799751647143402        0.0000000000000000     
   8.8680113148813633E-002  0.13782609325888653        0.0000000000000000     
   9.0467270838848104E-002  0.14508939251987105        0.0000000000000000     
   9.2169421055034645E-002  0.15246182039927886        0.0000000000000000     
   9.3786563797373296E-002  0.15994337689710991        0.0000000000000000     
   9.5318699065864015E-002  0.16753406201336418        0.0000000000000000     
   8.1813404002119616E-002  0.13729403029215242        0.0000000000000000     
   8.3480188000502720E-002  0.14458370148112545        0.0000000000000000     
   8.5066903373607367E-002  0.15198209006852811        0.0000000000000000     
   8.6573550121433557E-002  0.15948919605436049        0.0000000000000000     
   8.8000128243981318E-002  0.16710501943862252        0.0000000000000000     
   7.5134561864892715E-002  0.13679997036929098        0.0000000000000000     
   7.6680467009553749E-002  0.14411449468365897        0.0000000000000000     
   7.8150921567034848E-002  0.15153773918476796        0.0000000000000000     
   7.9545925537336123E-002  0.15906970387261796        0.0000000000000000     
   8.0865478920457479E-002  0.16671038874720903        0.0000000000000000     
   6.8643586737132958E-002  0.13634391349030225        0.0000000000000000     
   7.0068107866001150E-002  0.14368177212747163        0.0000000000000000     
   7.1421475635317130E-002  0.15112876774799835        0.0000000000000000     
   7.2703690045080926E-002  0.15868490035188235        0.0000000000000000     
   7.3914751095292525E-002  0.16635016993912366        0.0000000000000000     
  0.10282119138610560       0.16799751647143402        0.0000000000000000     
  0.10436906038301924       0.17566263483298702        0.0000000000000000     
  0.10583048486474789       0.18341749592978857        0.0000000000000000     
  0.10720546483129154       0.19126209976183864        0.0000000000000000     
  0.10849400028265022       0.19919644632913730        0.0000000000000000     
   9.5318699065864015E-002  0.16753406201336418        0.0000000000000000     
   9.6766321070199834E-002  0.17522449879693228        0.0000000000000000     
   9.8129924020073755E-002  0.18300531029670461        0.0000000000000000     
   9.9409507915485765E-002  0.19087649651268118        0.0000000000000000     
  0.10060507275643589       0.19883805744486205        0.0000000000000000     
   8.8000128243981318E-002  0.16710501943862252        0.0000000000000000     
   8.9346045552776809E-002  0.17482049166730840        0.0000000000000000     
   9.0610709859346272E-002  0.18262654418641217        0.0000000000000000     
   9.1794121163689665E-002  0.19052317699593385        0.0000000000000000     
   9.2896279465806975E-002  0.19851039009587348        0.0000000000000000     
   8.0865478920457479E-002  0.16671038874720903        0.0000000000000000     
   8.2108233830750194E-002  0.17445061344411536        0.0000000000000000     
   8.3272842382565423E-002  0.18228119759891123        0.0000000000000000     
   8.4359304575903182E-002  0.19020214121159662        0.0000000000000000     
   8.5367620410763456E-002  0.19821344428217161        0.0000000000000000     
   7.3914751095292525E-002  0.16635016993912366        0.0000000000000000     
   7.5052885904119945E-002  0.17411486412735319        0.0000000000000000     
   7.6116321589731237E-002  0.18196927053420181        0.0000000000000000     
   7.7105058152126371E-002  0.18991338915966957        0.0000000000000000     
   7.8019095591305349E-002  0.19794722000375636        0.0000000000000000     
  0.10849400028265022       0.19919644632913730        0.0000000000000000     
  0.10970168054786568       0.20721640807084027        0.0000000000000000     
  0.11083409495597972       0.21531785742610329        0.0000000000000000     
  0.11189124350699237       0.22350079439492643        0.0000000000000000     
  0.11287312620090359       0.23176521897730964        0.0000000000000000     
  0.10060507275643589       0.19883805744486205        0.0000000000000000     
  0.10172205002411588       0.20688347787149630        0.0000000000000000     
  0.10276587119971749       0.21500624257083298        0.0000000000000000     
  0.10373653628324069       0.22320635154287211        0.0000000000000000     
  0.10463404527468552       0.23148380478761371        0.0000000000000000     
   9.2896279465806975E-002  0.19851039009587348        0.0000000000000000     
   9.3921752708386819E-002  0.20658035591168689        0.0000000000000000     
   9.4875108834117802E-002  0.21472524686882971        0.0000000000000000     
   9.5756347842999898E-002  0.22294506296730210        0.0000000000000000     
   9.6565469735033105E-002  0.23123980420710394        0.0000000000000000     
   8.5367620410763456E-002  0.19821344428217161        0.0000000000000000     
   8.6300788600678552E-002  0.20630704219141194        0.0000000000000000     
   8.7161807859180748E-002  0.21447487032009352        0.0000000000000000     
   8.7950678186269976E-002  0.22271692866821632        0.0000000000000000     
   8.8667399581946332E-002  0.23103321723578041        0.0000000000000000     
   7.8019095591305349E-002  0.19794722000375636        0.0000000000000000     
   7.8859157700991056E-002  0.20606353671067160        0.0000000000000000     
   7.9625968274906256E-002  0.21425511292462440        0.0000000000000000     
   8.0319527313050948E-002  0.22252194864561489        0.0000000000000000     
   8.0939834815425202E-002  0.23086404387364298        0.0000000000000000     
  0.11287312620090359       0.23176521897730964        0.0000000000000000     
  0.11380785942096815       0.24012787771688210        0.0000000000000000     
  0.11472355955044078       0.24860551715727280        0.0000000000000000     
  0.11562022658932151       0.25719813729848190        0.0000000000000000     
  0.11649786053761033       0.26590573814050933        0.0000000000000000     
  0.10463404527468552       0.23148380478761371        0.0000000000000000     
  0.10546341246734017       0.23986222100836285        0.0000000000000000     
  0.10622965215449280       0.24836521890842467        0.0000000000000000     
  0.10693276433614342       0.25699279848779916        0.0000000000000000     
  0.10757274901229202       0.26574495974648621        0.0000000000000000     
   9.6565469735033105E-002  0.23123980420710394        0.0000000000000000     
   9.7293332904169985E-002  0.23963602966742281        0.0000000000000000     
   9.7930795744363017E-002  0.24816029842744611        0.0000000000000000     
   9.8477858255612255E-002  0.25681261048717385        0.0000000000000000     
   9.8934520437917658E-002  0.26559296584660608        0.0000000000000000     
   8.8667399581946332E-002  0.23103321723578041        0.0000000000000000     
   8.9297620731457555E-002  0.23944930369406195        0.0000000000000000     
   8.9826990320051439E-002  0.24799075571433718        0.0000000000000000     
   9.0255508347727997E-002  0.25665757329660616        0.0000000000000000     
   9.0583174814487216E-002  0.26544975644086893        0.0000000000000000     
   8.0939834815425202E-002  0.23086404387364298        0.0000000000000000     
   8.1476275949202898E-002  0.23930204308828015        0.0000000000000000     
   8.1918235881558082E-002  0.24785659076909786        0.0000000000000000     
   8.2265714612490645E-002  0.25652768691609601        0.0000000000000000     
   8.2518712142000669E-002  0.26531533152927472        0.0000000000000000     
  0.11649786053761033       0.26590573814050933        0.0000000000000000     
  0.11729681432298469       0.27489282481820404        0.0000000000000000     
  0.11795744087312214       0.28432390246641509        0.0000000000000000     
  0.11847974018802265       0.29419897108514248        0.0000000000000000     
  0.11886371226768622       0.30451803067438615        0.0000000000000000     
  0.10757274901229202       0.26574495974648621        0.0000000000000000     
  0.10813062764994608       0.27475378501208708        0.0000000000000000     
  0.10858742171611298       0.28415135661220298        0.0000000000000000     
  0.10894313121079276       0.29393767454683367        0.0000000000000000     
  0.10919775613398541       0.30411273881597928        0.0000000000000000     
   9.8934520437917658E-002  0.26559296584660608        0.0000000000000000     
   9.9311799731558084E-002  0.27459962122144382        0.0000000000000000     
   9.9620713576812403E-002  0.28393083332738805        0.0000000000000000     
   9.9861261973680532E-002  0.29358660216443888        0.0000000000000000     
  0.10003344492216253       0.30356692773259619        0.0000000000000000     
   9.0583174814487216E-002  0.26544975644086893        0.0000000000000000     
   9.0840330567820760E-002  0.27443033344627416        0.0000000000000000     
   9.1057316455220333E-002  0.28366233261197049        0.0000000000000000     
   9.1234132476685950E-002  0.29314575393795811        0.0000000000000000     
   9.1370778632217570E-002  0.30288059742423695        0.0000000000000000     
   8.2518712142000669E-002  0.26531533152927472        0.0000000000000000     
   8.2716220158734088E-002  0.27424592168657813        0.0000000000000000     
   8.2897230351336879E-002  0.28334585446595034        0.0000000000000000     
   8.3061742719809026E-002  0.29261512986739147        0.0000000000000000     
   8.3209757264150558E-002  0.30205374789090145        0.0000000000000000     
   4.5766108389972956E-002   5.9516291364158549E-002   0.0000000000000000     
   4.8093148951898076E-002   6.5002778519579002E-002   0.0000000000000000     
   5.0336701518360706E-002   7.0669749383755601E-002   0.0000000000000000     
   5.2496766089360845E-002   7.6517203956688318E-002   0.0000000000000000     
   5.4573342664898487E-002   8.2545142238377167E-002   0.0000000000000000     
   4.1298386613142342E-002   5.8839431839608179E-002   0.0000000000000000     
   4.3443674200951590E-002   6.4348788089409609E-002   0.0000000000000000     
   4.5510578073035476E-002   7.0037956824682668E-002   0.0000000000000000     
   4.7499098229393952E-002   7.5906938045427391E-002   0.0000000000000000     
   4.9409234670027072E-002   8.1955731751643779E-002   0.0000000000000000     
   3.7006534841826512E-002   5.8222858916069924E-002   0.0000000000000000     
   3.8962683648840576E-002   6.3751843425633073E-002   0.0000000000000000     
   4.0846830271524179E-002   6.9460531539790676E-002   0.0000000000000000     
   4.2658974709877305E-002   7.5348923258542699E-002   0.0000000000000000     
   4.4399116963899948E-002   8.1417018581889156E-002   0.0000000000000000     
   3.2890553076025481E-002   5.7666572593543818E-002   0.0000000000000000     
   3.4650177295565035E-002   6.3211944528249492E-002   0.0000000000000000     
   3.6345458113826834E-002   6.8937473529079640E-002   0.0000000000000000     
   3.7976395530810864E-002   7.4843159596034242E-002   0.0000000000000000     
   3.9542989546517110E-002   8.0929002729113297E-002   0.0000000000000000     
   2.8950441315739227E-002   5.7170572872029840E-002   0.0000000000000000     
   3.0506155141124962E-002   6.2729091397258796E-002   0.0000000000000000     
   3.2006461599943428E-002   6.8468782792549504E-002   0.0000000000000000     
   3.3451360692194641E-002   7.4389647057901978E-002   0.0000000000000000     
   3.4840852417878571E-002   8.0491684193316218E-002   0.0000000000000000     
   5.4573342664898487E-002   8.2545142238377167E-002   0.0000000000000000     
   5.6575083148583241E-002   8.8742169566461027E-002   0.0000000000000000     
   5.8510639444024723E-002   9.5096891278578746E-002   0.0000000000000000     
   6.0380011551222912E-002  0.10160930737473037        0.0000000000000000     
   6.2183199470177829E-002  0.10827941785491585        0.0000000000000000     
   4.9409234670027072E-002   8.1955731751643779E-002   0.0000000000000000     
   5.1249281854807864E-002   8.8173443085477587E-002   0.0000000000000000     
   5.3027534243609419E-002   9.4549177189074587E-002   0.0000000000000000     
   5.4743991836431728E-002  0.10108293406243476        0.0000000000000000     
   5.6398654633274793E-002  0.10777471370555816        0.0000000000000000     
   4.4399116963899948E-002   8.1417018581889156E-002   0.0000000000000000     
   4.6074816489610620E-002   8.7654079611006117E-002   0.0000000000000000     
   4.7693632743027826E-002   9.4049368447069667E-002   0.0000000000000000     
   4.9255565724151566E-002  0.10060288509007982        0.0000000000000000     
   5.0760615432981826E-002  0.10731462954003657        0.0000000000000000     
   3.9542989546517110E-002   8.0929002729113297E-002   0.0000000000000000     
   4.1051687052991510E-002   8.7184079143046628E-002   0.0000000000000000     
   4.2508934942279947E-002   9.3597465052564013E-002   0.0000000000000000     
   4.3914733214382419E-002  0.10016916045766548        0.0000000000000000     
   4.5269081869298948E-002  0.10689916535835099        0.0000000000000000     
   3.4840852417878571E-002   8.0491684193316218E-002   0.0000000000000000     
   3.6179893544950527E-002   8.6763441681599135E-002   0.0000000000000000     
   3.7473440841365765E-002   9.3193467005557626E-002   0.0000000000000000     
   3.8721494307124293E-002   9.9781760165191746E-002   0.0000000000000000     
   3.9924053942226125E-002  0.10652832116050147        0.0000000000000000     
   6.2183199470177829E-002  0.10827941785491585        0.0000000000000000     
   6.3914545542987478E-002  0.11509516708627932        0.0000000000000000     
   6.5568392111749876E-002  0.12204449943596488        0.0000000000000000     
   6.7144739176465060E-002  0.12912741490397250        0.0000000000000000     
   6.8643586737132958E-002  0.13634391349030225        0.0000000000000000     
   5.6398654633274793E-002  0.10777471370555816        0.0000000000000000     
   5.7986490434073182E-002  0.11461227962253789        0.0000000000000000     
   5.9502467038761428E-002  0.12158339531746709        0.0000000000000000     
   6.0946584447339559E-002  0.12868806079034573        0.0000000000000000     
   6.2318842659807534E-002  0.13592627604117385        0.0000000000000000     
   5.0760615432981826E-002  0.10731462954003657        0.0000000000000000     
   5.2204201377550843E-002  0.11417232610935013        0.0000000000000000     
   5.3581743065890843E-002  0.12116369911043083        0.0000000000000000     
   5.4893240498001795E-002  0.12828874854327862        0.0000000000000000     
   5.6138693673883709E-002  0.13554747440789353        0.0000000000000000     
   4.5269081869298948E-002  0.10689916535835099        0.0000000000000000     
   4.6567678373420504E-002  0.11377530654671603        0.0000000000000000     
   4.7806220193138120E-002  0.12078541081485611        0.0000000000000000     
   4.8984707328451775E-002  0.12792947816277120        0.0000000000000000     
   5.0103139779361476E-002  0.13520750859046132        0.0000000000000000     
   3.9924053942226125E-002  0.10652832116050147        0.0000000000000000     
   4.1076921421682143E-002  0.11342122093463559        0.0000000000000000     
   4.2175898420503261E-002  0.12044853043074290        0.0000000000000000     
   4.3220984938689498E-002  0.12761024964882345        0.0000000000000000     
   4.4212180976240835E-002  0.13490637858887716        0.0000000000000000     
   6.8643586737132958E-002  0.13634391349030225        0.0000000000000000     
   7.0068107866001150E-002  0.14368177212747163        0.0000000000000000     
   7.1421475635317130E-002  0.15112876774799835        0.0000000000000000     
   7.2703690045080926E-002  0.15868490035188235        0.0000000000000000     
   7.3914751095292525E-002  0.16635016993912366        0.0000000000000000     
   6.2318842659807534E-002  0.13592627604117385        0.0000000000000000     
   6.3621753711303769E-002  0.14328611801029079        0.0000000000000000     
   6.4857829636966596E-002  0.15075566363803586        0.0000000000000000     
   6.6027070436796023E-002  0.15833491292440913        0.0000000000000000     
   6.7129476110792050E-002  0.16602386586941056        0.0000000000000000     
   5.6138693673883709E-002  0.13554747440789353        0.0000000000000000     
   5.7320047686920395E-002  0.14292811652984366        0.0000000000000000     
   5.8439247630495607E-002  0.15041891473469707        0.0000000000000000     
   5.9496293504609381E-002  0.15801986902245380        0.0000000000000000     
   6.0491185309261668E-002  0.16573097939311382        0.0000000000000000     
   5.0103139779361476E-002  0.13520750859046132        0.0000000000000000     
   5.1162989792851020E-002  0.14260776768613029        0.0000000000000000     
   5.2165729615904190E-002  0.15011852103798198        0.0000000000000000     
   5.3111359248520978E-002  0.15773976864601633        0.0000000000000000     
   5.3999878690701414E-002  0.16547151051023343        0.0000000000000000     
   4.4212180976240835E-002  0.13490637858887716        0.0000000000000000     
   4.5150580029095652E-002  0.14232507147915066        0.0000000000000000     
   4.6037275593192331E-002  0.14985448254789052        0.0000000000000000     
   4.6872267668530865E-002  0.15749461179509675        0.0000000000000000     
   4.7655556255111253E-002  0.16524545922076933        0.0000000000000000     
   7.3914751095292525E-002  0.16635016993912366        0.0000000000000000     
   7.5052885904119945E-002  0.17411486412735319        0.0000000000000000     
   7.6116321589731237E-002  0.18196927053420181        0.0000000000000000     
   7.7105058152126371E-002  0.18991338915966957        0.0000000000000000     
   7.8019095591305349E-002  0.19794722000375636        0.0000000000000000     
   6.7129476110792050E-002  0.16602386586941056        0.0000000000000000     
   6.8163052082571438E-002  0.17381216799652277        0.0000000000000000     
   6.9125803775750963E-002  0.18168946482922840        0.0000000000000000     
   7.0017731190330598E-002  0.18965575636752741        0.0000000000000000     
   7.0838834326310399E-002  0.19771104261141981        0.0000000000000000     
   6.0491185309261668E-002  0.16573097939311382        0.0000000000000000     
   6.1421782675790015E-002  0.17354144933112506        0.0000000000000000     
   6.2285945235531909E-002  0.18144048232093554        0.0000000000000000     
   6.3083672988487355E-002  0.18942807836254516        0.0000000000000000     
   6.3814965934656326E-002  0.19750423745595397        0.0000000000000000     
   5.3999878690701414E-002  0.16547151051023343        0.0000000000000000     
   5.4829077683775700E-002  0.17330270813116005        0.0000000000000000     
   5.5596745969074088E-002  0.18122232300932314        0.0000000000000000     
   5.6302883546596572E-002  0.18923035514472275        0.0000000000000000     
   5.6947490416343158E-002  0.19732680453735885        0.0000000000000000     
   4.7655556255111253E-002  0.16524545922076933        0.0000000000000000     
   4.8384937106528463E-002  0.17309594439662768        0.0000000000000000     
   4.9058205976377472E-002  0.18103498689439132        0.0000000000000000     
   4.9675362864658276E-002  0.18906258671406020        0.0000000000000000     
   5.0236407771370867E-002  0.19717874385563436        0.0000000000000000     
   7.8019095591305349E-002  0.19794722000375636        0.0000000000000000     
   7.8859157700991056E-002  0.20606353671067160        0.0000000000000000     
   7.9625968274906256E-002  0.21425511292462440        0.0000000000000000     
   8.0319527313050948E-002  0.22252194864561489        0.0000000000000000     
   8.0939834815425202E-002  0.23086404387364298        0.0000000000000000     
   7.0838834326310399E-002  0.19771104261141981        0.0000000000000000     
   7.1587679162363277E-002  0.20584905273200840        0.0000000000000000     
   7.2262831677162256E-002  0.21406351590039591        0.0000000000000000     
   7.2864291870707351E-002  0.22235443211658240        0.0000000000000000     
   7.3392059742998492E-002  0.23072180138056780        0.0000000000000000     
   6.3814965934656326E-002  0.19750423745595397        0.0000000000000000     
   6.4477172137834299E-002  0.20566280351796506        0.0000000000000000     
   6.5067639661816751E-002  0.21389762046538163        0.0000000000000000     
   6.5586368506603654E-002  0.22220868829820345        0.0000000000000000     
   6.6033358672195022E-002  0.23059600701643077        0.0000000000000000     
   5.6947490416343158E-002  0.19732680453735885        0.0000000000000000     
   5.7527636627404101E-002  0.20550478906854164        0.0000000000000000     
   5.8040392228869676E-002  0.21375742661958141        0.0000000000000000     
   5.8485757220739898E-002  0.22208471719047815        0.0000000000000000     
   5.8863731603014759E-002  0.23048666078123195        0.0000000000000000     
   5.0236407771370867E-002  0.19717874385563436        0.0000000000000000     
   5.0739072631072663E-002  0.20537500938373801        0.0000000000000000     
   5.1181089378321075E-002  0.21364293436299539        0.0000000000000000     
   5.1562458013116097E-002  0.22198251879340647        0.0000000000000000     
   5.1883178535457722E-002  0.23039376267497130        0.0000000000000000     
   8.0939834815425202E-002  0.23086404387364298        0.0000000000000000     
   8.1476275949202898E-002  0.23930204308828015        0.0000000000000000     
   8.1918235881558082E-002  0.24785659076909786        0.0000000000000000     
   8.2265714612490645E-002  0.25652768691609601        0.0000000000000000     
   8.2518712142000669E-002  0.26531533152927472        0.0000000000000000     
   7.3392059742998492E-002  0.23072180138056780        0.0000000000000000     
   7.3842847572318362E-002  0.23917928686779033        0.0000000000000000     
   7.4213367636949579E-002  0.24774055175368831        0.0000000000000000     
   7.4503619936892113E-002  0.25640559603826157        0.0000000000000000     
   7.4713604472146020E-002  0.26517441972151035        0.0000000000000000     
   6.6033358672195022E-002  0.23059600701643077        0.0000000000000000     
   6.6410884615716231E-002  0.23906607405030528        0.0000000000000000     
   6.6721220794292657E-002  0.24762538683006871        0.0000000000000000     
   6.6964367207924341E-002  0.25627394535572107        0.0000000000000000     
   6.7140323856611242E-002  0.26501174962726248        0.0000000000000000     
   5.8863731603014759E-002  0.23048666078123195        0.0000000000000000     
   5.9180387079396483E-002  0.23896240463582485        0.0000000000000000     
   5.9441795353587318E-002  0.24751109599823903        0.0000000000000000     
   5.9647956425587255E-002  0.25613273486847449        0.0000000000000000     
   5.9798870295396309E-002  0.26482732124653124        0.0000000000000000     
   5.1883178535457722E-002  0.23039376267497130        0.0000000000000000     
   5.2151354963359153E-002  0.23886827862434915        0.0000000000000000     
   5.2375091314833547E-002  0.24739767925819930        0.0000000000000000     
   5.2554387589880902E-002  0.25598196457652178        0.0000000000000000     
   5.2689243788501247E-002  0.26462113457931657        0.0000000000000000     
   8.2518712142000669E-002  0.26531533152927472        0.0000000000000000     
   8.2716220158734088E-002  0.27424592168657813        0.0000000000000000     
   8.2897230351336879E-002  0.28334585446595034        0.0000000000000000     
   8.3061742719809026E-002  0.29261512986739147        0.0000000000000000     
   8.3209757264150558E-002  0.30205374789090145        0.0000000000000000     
   7.4713604472146020E-002  0.26517441972151035        0.0000000000000000     
   7.4884288900654974E-002  0.27404069475224663        0.0000000000000000     
   7.5056640880362749E-002  0.28299809307928275        0.0000000000000000     
   7.5230660411269329E-002  0.29204661470261861        0.0000000000000000     
   7.5406347493374687E-002  0.30118625962225443        0.0000000000000000     
   6.7140323856611242E-002  0.26501174962726248        0.0000000000000000     
   6.7289357189940377E-002  0.27380896145317052        0.0000000000000000     
   6.7451733657498750E-002  0.28263574264192287        0.0000000000000000     
   6.7627453259286388E-002  0.29149209319351954        0.0000000000000000     
   6.7816515995303250E-002  0.30037801310796053        0.0000000000000000     
   5.9798870295396309E-002  0.26482732124653124        0.0000000000000000     
   5.9931425026590254E-002  0.27355072178934975        0.0000000000000000     
   6.0082508682744888E-002  0.28225880315387070        0.0000000000000000     
   6.0252121263860196E-002  0.29095156534009392        0.0000000000000000     
   6.0440262769936207E-002  0.29962900834801959        0.0000000000000000     
   5.2689243788501247E-002  0.26462113457931657        0.0000000000000000     
   5.2810492410604634E-002  0.27326597576078449        0.0000000000000000     
   5.2948965956101150E-002  0.28186727461512628        0.0000000000000000     
   5.3104664424990788E-002  0.29042503114234203        0.0000000000000000     
   5.3277587817273563E-002  0.29893924534243177        0.0000000000000000     
   2.8950441315739227E-002   5.7170572872029840E-002   0.0000000000000000     
   3.0506155141124962E-002   6.2729091397258796E-002   0.0000000000000000     
   3.2006461599943428E-002   6.8468782792549504E-002   0.0000000000000000     
   3.3451360692194641E-002   7.4389647057901978E-002   0.0000000000000000     
   3.4840852417878571E-002   8.0491684193316218E-002   0.0000000000000000     
   2.5128612041233428E-002   5.6734313109306989E-002   0.0000000000000000     
   2.6479765207987699E-002   6.2303562122267425E-002   0.0000000000000000     
   2.7784474846442593E-002   6.8055202575425772E-002   0.0000000000000000     
   2.9042740956598097E-002   7.3989234468782028E-002   0.0000000000000000     
   3.0254563538454220E-002   8.0105657802336208E-002   0.0000000000000000     
   2.1367477732773726E-002   5.6357246663154281E-002   0.0000000000000000     
   2.2520155518620598E-002   6.1935634792881777E-002   0.0000000000000000     
   2.3634131969892922E-002   6.7697476122933822E-002   0.0000000000000000     
   2.4709407086590703E-002   7.3642770653310416E-002   0.0000000000000000     
   2.5745980868713939E-002   7.9771518384011558E-002   0.0000000000000000     
   1.7667038390360129E-002   5.6039373533571697E-002   0.0000000000000000     
   1.8627326073023653E-002   6.1625309409101874E-002   0.0000000000000000     
   1.9555432970294426E-002   6.7395603435073712E-002   0.0000000000000000     
   2.0451359082172455E-002   7.3350255611487156E-002   0.0000000000000000     
   2.1315104408657734E-002   7.9489265938342296E-002   0.0000000000000000     
   1.4027294013992640E-002   5.5780693720559243E-002   0.0000000000000000     
   1.4801276871196865E-002   6.1372585970927693E-002   0.0000000000000000     
   1.5548377847647099E-002   6.7149584511845384E-002   0.0000000000000000     
   1.6268596943343344E-002   7.3111689343312275E-002   0.0000000000000000     
   1.6961934158285601E-002   7.9258900465328422E-002   0.0000000000000000     
   3.4840852417878571E-002   8.0491684193316218E-002   0.0000000000000000     
   3.6179893544950527E-002   8.6763441681599135E-002   0.0000000000000000     
   3.7473440841365765E-002   9.3193467005557626E-002   0.0000000000000000     
   3.8721494307124293E-002   9.9781760165191746E-002   0.0000000000000000     
   3.9924053942226125E-002  0.10652832116050147        0.0000000000000000     
   3.0254563538454220E-002   8.0105657802336208E-002   0.0000000000000000     
   3.1423458954051249E-002   8.6392380081651787E-002   0.0000000000000000     
   3.2552943565429489E-002   9.2837308812292296E-002   0.0000000000000000     
   3.3643017372588915E-002   9.9440443994257707E-002   0.0000000000000000     
   3.4693680375529556E-002  0.10620178562754803        0.0000000000000000     
   2.5745980868713939E-002   7.9771518384011558E-002   0.0000000000000000     
   2.6746406268857253E-002   8.6071107198192817E-002   0.0000000000000000     
   2.7713236239615278E-002   9.2528924979009761E-002   0.0000000000000000     
   2.8646470780988014E-002   9.9144971726462389E-002   0.0000000000000000     
   2.9546109892975455E-002  0.10591924744055070        0.0000000000000000     
   2.1315104408657734E-002   7.9489265938342296E-002   0.0000000000000000     
   2.2148735489368545E-002   8.5799623031222225E-002   0.0000000000000000     
   2.2954318863923160E-002   9.2268315505710047E-002   0.0000000000000000     
   2.3731854532321576E-002   9.8895343361805818E-002   0.0000000000000000     
   2.4481342494563803E-002  0.10568070659950948        0.0000000000000000     
   1.6961934158285601E-002   7.9258900465328422E-002   0.0000000000000000     
   1.7630446615585108E-002   8.5577927580739996E-002   0.0000000000000000     
   1.8276191438353115E-002   9.2055480392393169E-002   0.0000000000000000     
   1.8899168626589614E-002   9.8691558900287954E-002   0.0000000000000000     
   1.9499378180294607E-002  0.10548616310442438        0.0000000000000000     
   3.9924053942226125E-002  0.10652832116050147        0.0000000000000000     
   4.1076921421682143E-002  0.11342122093463559        0.0000000000000000     
   4.2175898420503261E-002  0.12044853043074290        0.0000000000000000     
   4.3220984938689498E-002  0.12761024964882345        0.0000000000000000     
   4.4212180976240835E-002  0.13490637858887716        0.0000000000000000     
   3.4693680375529556E-002  0.10620178562754803        0.0000000000000000     
   3.5700846006084551E-002  0.11310968269026994        0.0000000000000000     
   3.6660427696087010E-002  0.12015248416053012        0.0000000000000000     
   3.7572425445536954E-002  0.12733019003832854        0.0000000000000000     
   3.8436839254434377E-002  0.13464280032366521        0.0000000000000000     
   2.9546109892975455E-002  0.10591924744055070        0.0000000000000000     
   3.0408367610376505E-002  0.11284030523078026        0.0000000000000000     
   3.1229457967990065E-002  0.11989669820665656        0.0000000000000000     
   3.2009380965816139E-002  0.12708842636817966        0.0000000000000000     
   3.2748136603854713E-002  0.13441548971534953        0.0000000000000000     
   2.4481342494563803E-002  0.10568070659950948        0.0000000000000000     
   2.5199486234558029E-002  0.11261308855616650        0.0000000000000000     
   2.5882989236212444E-002  0.11968117256912231        0.0000000000000000     
   2.6531851499527043E-002  0.12688495863837682        0.0000000000000000     
   2.7146073024501834E-002  0.13422444676393011        0.0000000000000000     
   1.9499378180294607E-002  0.10548616310442438        0.0000000000000000     
   2.0074201878629110E-002  0.11242803266642871        0.0000000000000000     
   2.0621021500754136E-002  0.11950590724792727        0.0000000000000000     
   2.1139837046669677E-002  0.12671978684892002        0.0000000000000000     
   2.1630648516375743E-002  0.13406967146940701        0.0000000000000000     
   4.4212180976240835E-002  0.13490637858887716        0.0000000000000000     
   4.5150580029095652E-002  0.14232507147915066        0.0000000000000000     
   4.6037275593192331E-002  0.14985448254789052        0.0000000000000000     
   4.6872267668530865E-002  0.15749461179509675        0.0000000000000000     
   4.7655556255111253E-002  0.16524545922076933        0.0000000000000000     
   3.8436839254434377E-002  0.13464280032366521        0.0000000000000000     
   3.9254469482491991E-002  0.14207830949217784        0.0000000000000000     
   4.0026116489422489E-002  0.14962471201950406        0.0000000000000000     
   4.0751780275225892E-002  0.15728200790564395        0.0000000000000000     
   4.1431460839902165E-002  0.16505019715059746        0.0000000000000000     
   3.2748136603854713E-002  0.13441548971534953        0.0000000000000000     
   3.3446309239877736E-002  0.14186576330848472        0.0000000000000000     
   3.4104483231657150E-002  0.14942712220790386        0.0000000000000000     
   3.4722658579192947E-002  0.15709956641360681        0.0000000000000000     
   3.5300835282485135E-002  0.16488309592559372        0.0000000000000000     
   2.7146073024501834E-002  0.13422444676393011        0.0000000000000000     
   2.7726099301252891E-002  0.14168743292807137        0.0000000000000000     
   2.8272375819896299E-002  0.14926171311308978        0.0000000000000000     
   2.8784902580432054E-002  0.15694728731898533        0.0000000000000000     
   2.9263679582860160E-002  0.16474415554575805        0.0000000000000000     
   2.1630648516375743E-002  0.13406967146940701        0.0000000000000000     
   2.2093839666617453E-002  0.14154331835093778        0.0000000000000000     
   2.2529794254139937E-002  0.14912848473506199        0.0000000000000000     
   2.2938512278943196E-002  0.15682517062177953        0.0000000000000000     
   2.3319993741027226E-002  0.16463337601109046        0.0000000000000000     
   4.7655556255111253E-002  0.16524545922076933        0.0000000000000000     
   4.8384937106528463E-002  0.17309594439662768        0.0000000000000000     
   4.9058205976377472E-002  0.18103498689439132        0.0000000000000000     
   4.9675362864658276E-002  0.18906258671406020        0.0000000000000000     
   5.0236407771370867E-002  0.19717874385563436        0.0000000000000000     
   4.1431460839902165E-002  0.16505019715059746        0.0000000000000000     
   4.2063028061917175E-002  0.17291820203027977        0.0000000000000000     
   4.2644351819736734E-002  0.18087494482060607        0.0000000000000000     
   4.3175432113360841E-002  0.18892042552157629        0.0000000000000000     
   4.3656268942789497E-002  0.19705464413319046        0.0000000000000000     
   3.5300835282485135E-002  0.16488309592559372        0.0000000000000000     
   3.5837017667810674E-002  0.17276652493486808        0.0000000000000000     
   3.6329210061446501E-002  0.18073866763243335        0.0000000000000000     
   3.6777412463392625E-002  0.18879952401828967        0.0000000000000000     
   3.7181624873649045E-002  0.19694909409243702        0.0000000000000000     
   2.9263679582860160E-002  0.16474415554575805        0.0000000000000000     
   2.9706905924208958E-002  0.17264091311039245        0.0000000000000000     
   3.0112780701506782E-002  0.18062615532987333        0.0000000000000000     
   3.0481303914753642E-002  0.18869988220420045        0.0000000000000000     
   3.0812475563949535E-002  0.19686209373337396        0.0000000000000000     
   2.3319993741027226E-002  0.16463337601109046        0.0000000000000000     
   2.3672692831112018E-002  0.17254136655685315        0.0000000000000000     
   2.3995063739917569E-002  0.18053740791292586        0.0000000000000000     
   2.4287106467443878E-002  0.18862150007930861        0.0000000000000000     
   2.4548821013690943E-002  0.19679364305600139        0.0000000000000000     
   5.0236407771370867E-002  0.19717874385563436        0.0000000000000000     
   5.0739072631072663E-002  0.20537500938373801        0.0000000000000000     
   5.1181089378321075E-002  0.21364293436299539        0.0000000000000000     
   5.1562458013116097E-002  0.22198251879340647        0.0000000000000000     
   5.1883178535457722E-002  0.23039376267497130        0.0000000000000000     
   4.3656268942789497E-002  0.19705464413319046        0.0000000000000000     
   4.4085621879751333E-002  0.20526723124129209        0.0000000000000000     
   4.4462250495974978E-002  0.21354781743172468        0.0000000000000000     
   4.4786154791460427E-002  0.22189640270448815        0.0000000000000000     
   4.5057334766207671E-002  0.23031298705958267        0.0000000000000000     
   3.7181624873649045E-002  0.19694909409243702        0.0000000000000000     
   3.7541426104351440E-002  0.20517522141894179        0.0000000000000000     
   3.7856394967635446E-002  0.21346574956187056        0.0000000000000000     
   3.8126531463501083E-002  0.22182067852122322        0.0000000000000000     
   3.8351835591948338E-002  0.23024000829699987        0.0000000000000000     
   3.0812475563949535E-002  0.19686209373337396        0.0000000000000000     
   3.1106485304872974E-002  0.20509897991668702        0.0000000000000000     
   3.1363522793302491E-002  0.21339673075343291        0.0000000000000000     
   3.1583588029238080E-002  0.22175534624361151        0.0000000000000000     
   3.1766681012679737E-002  0.23017482638722297        0.0000000000000000     
   2.4548821013690943E-002  0.19679364305600139        0.0000000000000000     
   2.4780799481315955E-002  0.20503850673452789        0.0000000000000000     
   2.4983633972976111E-002  0.21334076100641181        0.0000000000000000     
   2.5157324488671414E-002  0.22170040587165313        0.0000000000000000     
   2.5301871028401868E-002  0.23011744133025186        0.0000000000000000     
   5.1883178535457722E-002  0.23039376267497130        0.0000000000000000     
   5.2151354963359153E-002  0.23886827862434915        0.0000000000000000     
   5.2375091314833547E-002  0.24739767925819930        0.0000000000000000     
   5.2554387589880902E-002  0.25598196457652178        0.0000000000000000     
   5.2689243788501247E-002  0.26462113457931657        0.0000000000000000     
   4.5057334766207671E-002  0.23031298705958267        0.0000000000000000     
   4.5284642968960800E-002  0.23878226973300731        0.0000000000000000     
   4.5476931948463889E-002  0.24728894996076148        0.0000000000000000     
   4.5634201704716944E-002  0.25583302774284511        0.0000000000000000     
   4.5756452237719951E-002  0.26441450307925818        0.0000000000000000     
   3.8351835591948338E-002  0.23024000829699987        0.0000000000000000     
   3.8541105797558012E-002  0.23870295167892863        0.0000000000000000     
   3.8703140524910903E-002  0.24718872145673751        0.0000000000000000     
   3.8837939774007013E-002  0.25569731763042658        0.0000000000000000     
   3.8945503544846327E-002  0.26422874019999582        0.0000000000000000     
   3.1766681012679737E-002  0.23017482638722297        0.0000000000000000     
   3.1920743449150794E-002  0.23863032446211296        0.0000000000000000     
   3.2053717044174590E-002  0.24709699374612740        0.0000000000000000     
   3.2165601797751124E-002  0.25557483423926619        0.0000000000000000     
   3.2256397709880376E-002  0.26406384594152943        0.0000000000000000     
   2.5301871028401868E-002  0.23011744133025186        0.0000000000000000     
   2.5423555923739145E-002  0.23856438808256042        0.0000000000000000     
   2.5528661506254942E-002  0.24701376682893109        0.0000000000000000     
   2.5617187775949263E-002  0.25546557756936406        0.0000000000000000     
   2.5689134732822104E-002  0.26391982030385913        0.0000000000000000     
   5.2689243788501247E-002  0.26462113457931657        0.0000000000000000     
   5.2810492410604634E-002  0.27326597576078449        0.0000000000000000     
   5.2948965956101150E-002  0.28186727461512628        0.0000000000000000     
   5.3104664424990788E-002  0.29042503114234203        0.0000000000000000     
   5.3277587817273563E-002  0.29893924534243177        0.0000000000000000     
   4.5756452237719951E-002  0.26441450307925818        0.0000000000000000     
   4.5867805496225454E-002  0.27298343724880203        0.0000000000000000     
   4.5992383428985997E-002  0.28148989153027804        0.0000000000000000     
   4.6130186036001559E-002  0.28993386592368614        0.0000000000000000     
   4.6281213317272155E-002  0.29831536042902634        0.0000000000000000     
   3.8945503544846327E-002  0.26422874019999582        0.0000000000000000     
   3.9044610437694680E-002  0.27273182013473013        0.0000000000000000     
   3.9154039052817877E-002  0.28115538840391424        0.0000000000000000     
   3.9273789390215925E-002  0.28949944500754848        0.0000000000000000     
   3.9403861449888819E-002  0.29776398994563258        0.0000000000000000     
   3.2256397709880376E-002  0.26406384594152943        0.0000000000000000     
   3.2340907235012296E-002  0.27251112441856862        0.0000000000000000     
   3.2433932827596802E-002  0.28086376523603512        0.0000000000000000     
   3.2535474487633879E-002  0.28912176839392911        0.0000000000000000     
   3.2645532215123535E-002  0.29728513389225053        0.0000000000000000     
   2.5689134732822104E-002  0.26391982030385913        0.0000000000000000     
   2.5756695888178319E-002  0.27232135010031755        0.0000000000000000     
   2.5832064753322757E-002  0.28061502202664057        0.0000000000000000     
   2.5915241328255428E-002  0.28880083608282808        0.0000000000000000     
   2.6006225612976330E-002  0.29687879226888020        0.0000000000000000     
   1.4027294013992640E-002   5.5780693720559243E-002   0.0000000000000000     
   1.4801276871196865E-002   6.1372585970927693E-002   0.0000000000000000     
   1.5548377847647099E-002   6.7149584511845384E-002   0.0000000000000000     
   1.6268596943343344E-002   7.3111689343312275E-002   0.0000000000000000     
   1.6961934158285601E-002   7.9258900465328422E-002   0.0000000000000000     
   1.0443540468641519E-002   5.5580245957985303E-002   0.0000000000000000     
   1.1031702757329549E-002   6.1176653812587842E-002   0.0000000000000000     
   1.1598179344559209E-002   6.6958753975643243E-002   0.0000000000000000     
   1.2142970230330501E-002   7.2926546447151505E-002   0.0000000000000000     
   1.2666075414643419E-002   7.9080031227112629E-002   0.0000000000000000     
   6.9110736192770500E-003   5.5437068979718201E-002   0.0000000000000000     
   7.3082985756110254E-003   6.1036702268310886E-002   0.0000000000000000     
   7.6900502036390183E-003   6.6822446448861664E-002   0.0000000000000000     
   8.0563285033610314E-003   7.2794301521370577E-002   0.0000000000000000     
   8.4071334747770621E-003   7.8952267485837613E-002   0.0000000000000000     
   3.4298934658992253E-003   5.5351162785757989E-002   0.0000000000000000     
   3.6310643260412888E-003   6.0952731338096817E-002   0.0000000000000000     
   3.8239904248865276E-003   6.6740661931500633E-002   0.0000000000000000     
   4.0086717624349391E-003   7.2714954565969492E-002   0.0000000000000000     
   4.1851083386865266E-003   7.8875609241503358E-002   0.0000000000000000     
   8.5080488661237741E-012   5.5322527376104630E-002   0.0000000000000000     
   8.6203416366920083E-012   6.0924741021945651E-002   0.0000000000000000     
   8.3017336494767280E-012   6.6713400423560193E-002   0.0000000000000000     
   7.5522245250071729E-012   7.2688505580948290E-002   0.0000000000000000     
   6.3718136669721481E-012   7.8850056494109907E-002   0.0000000000000000     
   1.6961934158285601E-002   7.9258900465328422E-002   0.0000000000000000     
   1.7630446615585108E-002   8.5577927580739996E-002   0.0000000000000000     
   1.8276191438353115E-002   9.2055480392393169E-002   0.0000000000000000     
   1.8899168626589614E-002   9.8691558900287954E-002   0.0000000000000000     
   1.9499378180294607E-002  0.10548616310442438        0.0000000000000000     
   1.2666075414643419E-002   7.9080031227112629E-002   0.0000000000000000     
   1.3169595261733918E-002   8.5405726625124967E-002   0.0000000000000000     
   1.3655630135837944E-002   9.1890150950786939E-002   0.0000000000000000     
   1.4124180036955496E-002   9.8533304204098532E-002   0.0000000000000000     
   1.4575244965086571E-002  0.10533518638505970        0.0000000000000000     
   8.4071334747770621E-003   7.8952267485837613E-002   0.0000000000000000     
   8.7442370420419240E-003   8.5282725942756071E-002   0.0000000000000000     
   9.0694111293104385E-003   9.1772058492619227E-002   0.0000000000000000     
   9.3826557365825972E-003   9.8420265135427148E-002   0.0000000000000000     
   9.6839708638584068E-003  0.10522734587117981        0.0000000000000000     
   4.1851083386865266E-003   7.8875609241503358E-002   0.0000000000000000     
   4.3543719565091307E-003   8.5208925533633226E-002   0.0000000000000000     
   4.5175344187705965E-003   9.1701203017890073E-002   0.0000000000000000     
   4.6745957254709231E-003   9.8352441694273901E-002   0.0000000000000000     
   4.8255558766101105E-003  0.10516264156278468        0.0000000000000000     
   6.3718136669721481E-012   7.8850056494109907E-002   0.0000000000000000     
   5.1355350094012264E-012   8.5184325397756472E-002   0.0000000000000000     
   4.2184199926589838E-012   9.1677584526599409E-002   0.0000000000000000     
   3.6204679933291711E-012   9.8329833880638692E-002   0.0000000000000000     
   3.3416810985009704E-012  0.10514107345987433        0.0000000000000000     
   1.9499378180294607E-002  0.10548616310442438        0.0000000000000000     
   2.0074201878629110E-002  0.11242803266642871        0.0000000000000000     
   2.0621021500754136E-002  0.11950590724792727        0.0000000000000000     
   2.1139837046669677E-002  0.12671978684892002        0.0000000000000000     
   2.1630648516375743E-002  0.13406967146940701        0.0000000000000000     
   1.4575244965086571E-002  0.10533518638505970        0.0000000000000000     
   1.5006949876927694E-002  0.11228455410624340        0.0000000000000000     
   1.5417419729175373E-002  0.11937016398022247        0.0000000000000000     
   1.5806654521829611E-002  0.12659201600699693        0.0000000000000000     
   1.6174654254890404E-002  0.13395011018656680        0.0000000000000000     
   9.6839708638584068E-003  0.10522734587117981        0.0000000000000000     
   9.9721655637917180E-003  0.11218206942028708        0.0000000000000000     
   1.0246048889036383E-002  0.11927320450315891        0.0000000000000000     
   1.0505620839592405E-002  0.12650075111979528        0.0000000000000000     
   1.0750881415459781E-002  0.13386470927019617        0.0000000000000000     
   4.8255558766101105E-003  0.10516264156278468        0.0000000000000000     
   4.9698489392211833E-003  0.11212057860855981        0.0000000000000000     
   5.1069089803371694E-003  0.11921502881673657        0.0000000000000000     
   5.2367359999580688E-003  0.12644599218731500        0.0000000000000000     
   5.3593299980838772E-003  0.13381346872029509        0.0000000000000000     
   3.3416810985009704E-012  0.10514107345987433        0.0000000000000000     
   3.2160908051276360E-012  0.11210008167106153        0.0000000000000000     
   3.0777280680613361E-012  0.11919563692095546        0.0000000000000000     
   2.9265942696598407E-012  0.12642773920955616        0.0000000000000000     
   2.7626906838607024E-012  0.13379638853686360        0.0000000000000000     
   2.1630648516375743E-002  0.13406967146940701        0.0000000000000000     
   2.2093839666617453E-002  0.14154331835093778        0.0000000000000000     
   2.2529794254139937E-002  0.14912848473506199        0.0000000000000000     
   2.2938512278943196E-002  0.15682517062177953        0.0000000000000000     
   2.3319993741027226E-002  0.16463337601109046        0.0000000000000000     
   1.6174654254890404E-002  0.13395011018656680        0.0000000000000000     
   1.6521761325632992E-002  0.14143218750988718        0.0000000000000000     
   1.6848318131332609E-002  0.14902598896791316        0.0000000000000000     
   1.7154324671989251E-002  0.15673151456064480        0.0000000000000000     
   1.7439780947602922E-002  0.16454876428808207        0.0000000000000000     
   1.0750881415459781E-002  0.13386470927019617        0.0000000000000000     
   1.0982095267961079E-002  0.14135280833772276        0.0000000000000000     
   1.1199527048418851E-002  0.14895277770573626        0.0000000000000000     
   1.1403176756833102E-002  0.15666461737423665        0.0000000000000000     
   1.1593044393203834E-002  0.16448832734322394        0.0000000000000000     
   5.3593299980838772E-003  0.13381346872029509        0.0000000000000000     
   5.4748414936017084E-003  0.14130518083444457        0.0000000000000000     
   5.5834210053986649E-003  0.14890885094853126        0.0000000000000000     
   5.6850685334747476E-003  0.15662447906255506        0.0000000000000000     
   5.7797840778299556E-003  0.16445206517651600        0.0000000000000000     
   2.7626906838607024E-012  0.13379638853686360        0.0000000000000000     
   2.5548859902690957E-012  0.14128930500005263        0.0000000000000000     
   2.2720517958360609E-012  0.14889420869629810        0.0000000000000000     
   1.9141869892543711E-012  0.15661109962560005        0.0000000000000000     
   1.4812920855200584E-012  0.16443997778795838        0.0000000000000000     
   2.3319993741027226E-002  0.16463337601109046        0.0000000000000000     
   2.3672692831112018E-002  0.17254136655685315        0.0000000000000000     
   2.3995063739917569E-002  0.18053740791292586        0.0000000000000000     
   2.4287106467443878E-002  0.18862150007930861        0.0000000000000000     
   2.4548821013690943E-002  0.19679364305600139        0.0000000000000000     
   1.7439780947602922E-002  0.16454876428808207        0.0000000000000000     
   1.7703451703350220E-002  0.17246566687861178        0.0000000000000000     
   1.7944101684407732E-002  0.18047015106062081        0.0000000000000000     
   1.8161730890775468E-002  0.18856221683410906        0.0000000000000000     
   1.8356339322453424E-002  0.19674186419907663        0.0000000000000000     
   1.1593044393203834E-002  0.16448832734322394        0.0000000000000000     
   1.1768255855753893E-002  0.17241159568003028        0.0000000000000000     
   1.1927937042706130E-002  0.18042211045198797        0.0000000000000000     
   1.2072087954060543E-002  0.18851987165909692        0.0000000000000000     
   1.2200708589817135E-002  0.19670487930135719        0.0000000000000000     
   5.7797840778299556E-003  0.16445206517651600        0.0000000000000000     
   5.8671052883230435E-003  0.17237915296110862        0.0000000000000000     
   5.9465698148127577E-003  0.18039328608702732        0.0000000000000000     
   6.0181776572990993E-003  0.18849446455427213        0.0000000000000000     
   6.0819288157820690E-003  0.19668268836284300        0.0000000000000000     
   1.4812920855200584E-012  0.16443997778795838        0.0000000000000000     
   1.0576680590373977E-012  0.17236833872184681        0.0000000000000000     
   7.2761740209370540E-013  0.18038367796573893        0.0000000000000000     
   4.9113724155322447E-013  0.18848599551963469        0.0000000000000000     
   3.4823099265279822E-013  0.19667529138353418        0.0000000000000000     
   2.4548821013690943E-002  0.19679364305600139        0.0000000000000000     
   2.4780799481315955E-002  0.20503850673452789        0.0000000000000000     
   2.4983633972976111E-002  0.21334076100641181        0.0000000000000000     
   2.5157324488671414E-002  0.22170040587165313        0.0000000000000000     
   2.5301871028401868E-002  0.23011744133025186        0.0000000000000000     
   1.8356339322453424E-002  0.19674186419907663        0.0000000000000000     
   1.8528705762053184E-002  0.20499249134019604        0.0000000000000000     
   1.8679608992186333E-002  0.21329749644213986        0.0000000000000000     
   1.8809049012852873E-002  0.22165687950490806        0.0000000000000000     
   1.8917025824052795E-002  0.23007064052850068        0.0000000000000000     
   1.2200708589817135E-002  0.19670487930135719        0.0000000000000000     
   1.2314541275457488E-002  0.20495962320142327        0.0000000000000000     
   1.2414328336463182E-002  0.21326659318194971        0.0000000000000000     
   1.2500069772834225E-002  0.22162578924293647        0.0000000000000000     
   1.2571765584570611E-002  0.23003721138438354        0.0000000000000000     
   6.0819288157820690E-003  0.19668268836284300        0.0000000000000000     
   6.1383060215288608E-003  0.20493990231820960        0.0000000000000000     
   6.1877920058066634E-003  0.21324805122584137        0.0000000000000000     
   6.2303867686154804E-003  0.22160713508573829        0.0000000000000000     
   6.2660903099553073E-003  0.23001715389790042        0.0000000000000000     
   3.4823099265279822E-013  0.19667529138353418        0.0000000000000000     
   2.6730570881761118E-013  0.20493332869055497        0.0000000000000000     
   2.1677332238262403E-013  0.21324187057381477        0.0000000000000000     
   1.9663277625071862E-013  0.22160091703331355        0.0000000000000000     
   2.0688659119194597E-013  0.23001046806905132        0.0000000000000000     
   2.5301871028401868E-002  0.23011744133025186        0.0000000000000000     
   2.5423555923739145E-002  0.23856438808256042        0.0000000000000000     
   2.5528661506254942E-002  0.24701376682893109        0.0000000000000000     
   2.5617187775949263E-002  0.25546557756936406        0.0000000000000000     
   2.5689134732822104E-002  0.26391982030385913        0.0000000000000000     
   1.8917025824052795E-002  0.23007064052850068        0.0000000000000000     
   1.9007883593084345E-002  0.23850962099175396        0.0000000000000000     
   1.9085966487245760E-002  0.24694466237350410        0.0000000000000000     
   1.9151274506537037E-002  0.25537576467375112        0.0000000000000000     
   1.9203807650958173E-002  0.26380292789249499        0.0000000000000000     
   1.2571765584570611E-002  0.23003721138438354        0.0000000000000000     
   1.2632066828947694E-002  0.23847050164117678        0.0000000000000000     
   1.2683624563240832E-002  0.24689530204820173        0.0000000000000000     
   1.2726438787450020E-002  0.25531161260545859        0.0000000000000000     
   1.2760509501575262E-002  0.26371943331294723        0.0000000000000000     
   6.2660903099553073E-003  0.23001715389790042        0.0000000000000000     
   6.2961056313291875E-003  0.23844703003082870        0.0000000000000000     
   6.3216357342401573E-003  0.24686568585302401        0.0000000000000000     
   6.3426806186882177E-003  0.25527312136448638        0.0000000000000000     
   6.3592402846733669E-003  0.26366933656521579        0.0000000000000000     
   2.0688659119194597E-013  0.23001046806905132        0.0000000000000000     
   2.2882412110958317E-013  0.23843920616070985        0.0000000000000000     
   2.4373786409320752E-013  0.24685581378797095        0.0000000000000000     
   2.5162763040743885E-013  0.25526029095083463        0.0000000000000000     
   2.5249377241798321E-013  0.26365263764930086        0.0000000000000000     
   2.5689134732822104E-002  0.26391982030385913        0.0000000000000000     
   2.5756695888178319E-002  0.27232135010031755        0.0000000000000000     
   2.5832064753322757E-002  0.28061502202664057        0.0000000000000000     
   2.5915241328255428E-002  0.28880083608282808        0.0000000000000000     
   2.6006225612976330E-002  0.29687879226888020        0.0000000000000000     
   1.9203807650958173E-002  0.26380292789249499        0.0000000000000000     
   1.9253553331000636E-002  0.27216882568343043        0.0000000000000000     
   1.9310498957155909E-002  0.28041613170025237        0.0000000000000000     
   1.9374644529423977E-002  0.28854484594296065        0.0000000000000000     
   1.9445990047804843E-002  0.29655496841155521        0.0000000000000000     
   1.2760509501575262E-002  0.26371943331294723        0.0000000000000000     
   1.2793056497287177E-002  0.27205987967136080        0.0000000000000000     
   1.2831299566256399E-002  0.28027406718139231        0.0000000000000000     
   1.2875238708482922E-002  0.28836199584304179        0.0000000000000000     
   1.2924873923966749E-002  0.29632366565630924        0.0000000000000000     
   6.3592402846733669E-003  0.26366933656521579        0.0000000000000000     
   6.3752053870379305E-003  0.27199451206410852        0.0000000000000000     
   6.3944665806242298E-003  0.28018882847006044        0.0000000000000000     
   6.4170238654322675E-003  0.28825228578307172        0.0000000000000000     
   6.4428772414620427E-003  0.29618488400314236        0.0000000000000000     
   2.5249377241798321E-013  0.26365263764930086        0.0000000000000000     
   2.5289731246658231E-013  0.27197272286167362        0.0000000000000000     
   2.5940653704953354E-013  0.28016041556625676        0.0000000000000000     
   2.7201556437005114E-013  0.28821571576305038        0.0000000000000000     
   2.9072751150938103E-013  0.29613862345205449        0.0000000000000000     
   8.5080488661237741E-012   5.5322527376104630E-002   0.0000000000000000     
   8.6203416366920083E-012   6.0924741021945651E-002   0.0000000000000000     
   8.3017336494767280E-012   6.6713400423560193E-002   0.0000000000000000     
   7.5522245250071729E-012   7.2688505580948290E-002   0.0000000000000000     
   6.3718136669721481E-012   7.8850056494109907E-002   0.0000000000000000     
  -3.4298934503537997E-003   5.5351162756835014E-002   0.0000000000000000     
  -3.6310643101914435E-003   6.0952731322869276E-002   0.0000000000000000     
  -3.8239904095490568E-003   6.6740661925920347E-002   0.0000000000000000     
  -4.0086717484266385E-003   7.2714954565988185E-002   0.0000000000000000     
  -4.1851083268241900E-003   7.8875609243072825E-002   0.0000000000000000     
  -6.9110736081436355E-003   5.5437068934025995E-002   0.0000000000000000     
  -7.3082985639336935E-003   6.1036702243879616E-002   0.0000000000000000     
  -7.6900501920995389E-003   6.6822446439461114E-002   0.0000000000000000     
  -8.0563284926411776E-003   7.2794301520770460E-002   0.0000000000000000     
  -8.4071334655585993E-003   7.8952267487807662E-002   0.0000000000000000     
  -1.0443540464861460E-002   5.5580245907677572E-002   0.0000000000000000     
  -1.1031702752606405E-002   6.1176653784976644E-002   0.0000000000000000     
  -1.1598179339349715E-002   6.6958753964182494E-002   0.0000000000000000     
  -1.2142970225091384E-002   7.2926546445295087E-002   0.0000000000000000     
  -1.2666075409831412E-002   7.9080031228314460E-002   0.0000000000000000     
  -1.4027294020507272E-002   5.5780693677789761E-002   0.0000000000000000     
  -1.4801276876209586E-002   6.1372585946160393E-002   0.0000000000000000     
  -1.5548377851299582E-002   6.7149584500084514E-002   0.0000000000000000     
  -1.6268596945777265E-002   7.3111689339562108E-002   0.0000000000000000     
  -1.6961934159642634E-002   7.9258900464593177E-002   0.0000000000000000     
   6.3718136669721481E-012   7.8850056494109907E-002   0.0000000000000000     
   5.1355350094012264E-012   8.5184325397756472E-002   0.0000000000000000     
   4.2184199926589838E-012   9.1677584526599409E-002   0.0000000000000000     
   3.6204679933291711E-012   9.8329833880638692E-002   0.0000000000000000     
   3.3416810985009704E-012  0.10514107345987433        0.0000000000000000     
  -4.1851083268241900E-003   7.8875609243072825E-002   0.0000000000000000     
  -4.3543719469104781E-003   8.5208925534731528E-002   0.0000000000000000     
  -4.5175344108542717E-003   9.1701203018521568E-002   0.0000000000000000     
  -4.6745957186555692E-003   9.8352441694442974E-002   0.0000000000000000     
  -4.8255558703143723E-003  0.10516264156249572        0.0000000000000000     
  -8.4071334655585993E-003   7.8952267487807662E-002   0.0000000000000000     
  -8.7442370344605232E-003   8.5282725944164028E-002   0.0000000000000000     
  -9.0694111229556538E-003   9.1772058493430841E-002   0.0000000000000000     
  -9.3826557310439963E-003   9.8420265135608101E-002   0.0000000000000000     
  -9.6839708587255473E-003  0.10522734587069579        0.0000000000000000     
  -1.2666075409831412E-002   7.9080031228314460E-002   0.0000000000000000     
  -1.3169595257514597E-002   8.5405726626054015E-002   0.0000000000000000     
  -1.3655630132085733E-002   9.1890150951327229E-002   0.0000000000000000     
  -1.4124180033544813E-002   9.8533304204134073E-002   0.0000000000000000     
  -1.4575244961891842E-002  0.10533518638447456        0.0000000000000000     
  -1.6961934159642634E-002   7.9258900464593177E-002   0.0000000000000000     
  -1.7630446616072708E-002   8.5577927580401475E-002   0.0000000000000000     
  -1.8276191438244500E-002   9.2055480392210703E-002   0.0000000000000000     
  -1.8899168626158019E-002   9.8691558900020890E-002   0.0000000000000000     
  -1.9499378179813252E-002  0.10548616310383203        0.0000000000000000     
   3.3416810985009704E-012  0.10514107345987433        0.0000000000000000     
   3.2160908051276360E-012  0.11210008167106153        0.0000000000000000     
   3.0777280680613361E-012  0.11919563692095546        0.0000000000000000     
   2.9265942696598407E-012  0.12642773920955616        0.0000000000000000     
   2.7626906838607024E-012  0.13379638853686360        0.0000000000000000     
  -4.8255558703143723E-003  0.10516264156249572        0.0000000000000000     
  -4.9698489331669090E-003  0.11212057860792969        0.0000000000000000     
  -5.1069089745494085E-003  0.11921502881599490        0.0000000000000000     
  -5.2367359944618672E-003  0.12644599218669125        0.0000000000000000     
  -5.3593299929042887E-003  0.13381346872001876        0.0000000000000000     
  -9.6839708587255473E-003  0.10522734587069579        0.0000000000000000     
  -9.9721655588711662E-003  0.11218206941930185        0.0000000000000000     
  -1.0246048884351711E-002  0.11927320450203419        0.0000000000000000     
  -1.0505620835167175E-002  0.12650075111889278        0.0000000000000000     
  -1.0750881411317569E-002  0.13386470926987770        0.0000000000000000     
  -1.4575244961891842E-002  0.10533518638447456        0.0000000000000000     
  -1.5006949873896674E-002  0.11228455410517793        0.0000000000000000     
  -1.5417419726329172E-002  0.11937016397907335        0.0000000000000000     
  -1.5806654519189334E-002  0.12659201600616082        0.0000000000000000     
  -1.6174654252477147E-002  0.13395011018644046        0.0000000000000000     
  -1.9499378179813252E-002  0.10548616310383203        0.0000000000000000     
  -2.0074201878243440E-002  0.11242803266555793        0.0000000000000000     
  -2.0621021500481798E-002  0.11950590724711237        0.0000000000000000     
  -2.1139837046528324E-002  0.12671978684849539        0.0000000000000000     
  -2.1630648516383032E-002  0.13406967146970691        0.0000000000000000     
   2.7626906838607024E-012  0.13379638853686360        0.0000000000000000     
   2.5548859902690957E-012  0.14128930500005263        0.0000000000000000     
   2.2720517958360609E-012  0.14889420869629810        0.0000000000000000     
   1.9141869892543711E-012  0.15661109962560005        0.0000000000000000     
   1.4812920855200584E-012  0.16443997778795838        0.0000000000000000     
  -5.3593299929042887E-003  0.13381346872001876        0.0000000000000000     
  -5.4748414888192831E-003  0.14130518083458862        0.0000000000000000     
  -5.5834210011494649E-003  0.14890885094901199        0.0000000000000000     
  -5.6850685298948300E-003  0.15662447906328886        0.0000000000000000     
  -5.7797840750553834E-003  0.16445206517741925        0.0000000000000000     
  -1.0750881411317569E-002  0.13386470926987770        0.0000000000000000     
  -1.0982095264160694E-002  0.14135280833809433        0.0000000000000000     
  -1.1199527045054355E-002  0.14895277770664808        0.0000000000000000     
  -1.1403176753998557E-002  0.15666461737553888        0.0000000000000000     
  -1.1593044390993294E-002  0.16448832734476687        0.0000000000000000     
  -1.6174654252477147E-002  0.13395011018644046        0.0000000000000000     
  -1.6521761323469341E-002  0.14143218751056968        0.0000000000000000     
  -1.6848318129442621E-002  0.14902598896920624        0.0000000000000000     
  -1.7154324670396990E-002  0.15673151456235013        0.0000000000000000     
  -1.7439780946332435E-002  0.16454876429000129        0.0000000000000000     
  -2.1630648516383032E-002  0.13406967146970691        0.0000000000000000     
  -2.2093839666745232E-002  0.14154331835201478        0.0000000000000000     
  -2.2529794254314266E-002  0.14912848473668663        0.0000000000000000     
  -2.2938512279090124E-002  0.15682517062372250        0.0000000000000000     
  -2.3319993741072811E-002  0.16463337601312245        0.0000000000000000     
   1.4812920855200584E-012  0.16443997778795838        0.0000000000000000     
   1.0576680590373977E-012  0.17236833872184681        0.0000000000000000     
   7.2761740209370540E-013  0.18038367796573893        0.0000000000000000     
   4.9113724155322447E-013  0.18848599551963469        0.0000000000000000     
   3.4823099265279822E-013  0.19667529138353418        0.0000000000000000     
  -5.7797840750553834E-003  0.16445206517741925        0.0000000000000000     
  -5.8671052863346635E-003  0.17237915296208225        0.0000000000000000     
  -5.9465698134362139E-003  0.18039328608795693        0.0000000000000000     
  -6.0181776563600319E-003  0.18849446455504332        0.0000000000000000     
  -6.0819288151061184E-003  0.19668268836334141        0.0000000000000000     
  -1.1593044390993294E-002  0.16448832734476687        0.0000000000000000     
  -1.1768255854146386E-002  0.17241159568165232        0.0000000000000000     
  -1.1927937041565655E-002  0.18042211045351561        0.0000000000000000     
  -1.2072087953251095E-002  0.18851987166035666        0.0000000000000000     
  -1.2200708589202710E-002  0.19670487930217562        0.0000000000000000     
  -1.7439780946332435E-002  0.16454876429000129        0.0000000000000000     
  -1.7703451702377498E-002  0.17246566688055712        0.0000000000000000     
  -1.7944101683660712E-002  0.18047015106241493        0.0000000000000000     
  -1.8161730890182054E-002  0.18856221683557486        0.0000000000000000     
  -1.8356339321941546E-002  0.19674186420003681        0.0000000000000000     
  -2.3319993741072811E-002  0.16463337601312245        0.0000000000000000     
  -2.3672692831028002E-002  0.17254136655879657        0.0000000000000000     
  -2.3995063739721368E-002  0.18053740791465500        0.0000000000000000     
  -2.4287106467152906E-002  0.18862150008069778        0.0000000000000000     
  -2.4548821013322623E-002  0.19679364305692493        0.0000000000000000     
   3.4823099265279822E-013  0.19667529138353418        0.0000000000000000     
   2.6730570881761118E-013  0.20493332869055497        0.0000000000000000     
   2.1677332238262403E-013  0.21324187057381477        0.0000000000000000     
   1.9663277625071862E-013  0.22160091703331355        0.0000000000000000     
   2.0688659119194597E-013  0.23001046806905132        0.0000000000000000     
  -6.0819288151061184E-003  0.19668268836334141        0.0000000000000000     
  -6.1383060210007728E-003  0.20493990231842599        0.0000000000000000     
  -6.1877920053702989E-003  0.21324805122587195        0.0000000000000000     
  -6.2303867682146942E-003  0.22160713508567917        0.0000000000000000     
  -6.2660903095339629E-003  0.23001715389784771        0.0000000000000000     
  -1.2200708589202710E-002  0.19670487930217562        0.0000000000000000     
  -1.2314541274948977E-002  0.20495962320178934        0.0000000000000000     
  -1.2414328336018370E-002  0.21326659318201485        0.0000000000000000     
  -1.2500069772410896E-002  0.22162578924285214        0.0000000000000000     
  -1.2571765584126551E-002  0.23003721138430117        0.0000000000000000     
  -1.8356339321941546E-002  0.19674186420003681        0.0000000000000000     
  -1.8528705761577301E-002  0.20499249134064496        0.0000000000000000     
  -1.8679608991727440E-002  0.21329749644224349        0.0000000000000000     
  -1.8809049012391971E-002  0.22165687950483237        0.0000000000000000     
  -1.8917025823570879E-002  0.23007064052841170        0.0000000000000000     
  -2.4548821013322623E-002  0.19679364305692493        0.0000000000000000     
  -2.4780799480885744E-002  0.20503850673499280        0.0000000000000000     
  -2.4983633972497504E-002  0.21334076100655783        0.0000000000000000     
  -2.5157324488157908E-002  0.22170040587161996        0.0000000000000000     
  -2.5301871027866952E-002  0.23011744133017925        0.0000000000000000     
   2.0688659119194597E-013  0.23001046806905132        0.0000000000000000     
   2.2882412110958317E-013  0.23843920616070985        0.0000000000000000     
   2.4373786409320752E-013  0.24685581378797095        0.0000000000000000     
   2.5162763040743885E-013  0.25526029095083463        0.0000000000000000     
   2.5249377241798321E-013  0.26365263764930086        0.0000000000000000     
  -6.2660903095339629E-003  0.23001715389784771        0.0000000000000000     
  -6.2961056308656824E-003  0.23844703003081891        0.0000000000000000     
  -6.3216357337474360E-003  0.24686568585303409        0.0000000000000000     
  -6.3426806181792290E-003  0.25527312136449332        0.0000000000000000     
  -6.3592402841610562E-003  0.26366933656519642        0.0000000000000000     
  -1.2571765584126551E-002  0.23003721138430117        0.0000000000000000     
  -1.2632066828466616E-002  0.23847050164115458        0.0000000000000000     
  -1.2683624562732381E-002  0.24689530204820501        0.0000000000000000     
  -1.2726438786923828E-002  0.25531161260545232        0.0000000000000000     
  -1.2760509501040976E-002  0.26371943331289666        0.0000000000000000     
  -1.8917025823570879E-002  0.23007064052841170        0.0000000000000000     
  -1.9007883592573983E-002  0.23850962099171694        0.0000000000000000     
  -1.9085966486711087E-002  0.24694466237348367        0.0000000000000000     
  -1.9151274505982176E-002  0.25537576467371192        0.0000000000000000     
  -1.9203807650387265E-002  0.26380292789240151        0.0000000000000000     
  -2.5301871027866952E-002  0.23011744133017925        0.0000000000000000     
  -2.5423555923187777E-002  0.23856438808250588        0.0000000000000000     
  -2.5528661505683555E-002  0.24701376682887005        0.0000000000000000     
  -2.5617187775354270E-002  0.25546557756927180        0.0000000000000000     
  -2.5689134732199928E-002  0.26391982030371114        0.0000000000000000     
   2.5249377241798321E-013  0.26365263764930086        0.0000000000000000     
   2.5289731246658231E-013  0.27197272286167362        0.0000000000000000     
   2.5940653704953354E-013  0.28016041556625676        0.0000000000000000     
   2.7201556437005114E-013  0.28821571576305038        0.0000000000000000     
   2.9072751150938103E-013  0.29613862345205449        0.0000000000000000     
  -6.3592402841610562E-003  0.26366933656519642        0.0000000000000000     
  -6.3752053865231287E-003  0.27199451206405584        0.0000000000000000     
  -6.3944665800956561E-003  0.28018882846998389        0.0000000000000000     
  -6.4170238648786366E-003  0.28825228578298057        0.0000000000000000     
  -6.4428772408720737E-003  0.29618488400304588        0.0000000000000000     
  -1.2760509501040976E-002  0.26371943331289666        0.0000000000000000     
  -1.2793056496745362E-002  0.27205987967125494        0.0000000000000000     
  -1.2831299565698531E-002  0.28027406718124442        0.0000000000000000     
  -1.2875238707900492E-002  0.28836199584286498        0.0000000000000000     
  -1.2924873923351239E-002  0.29632366565611662        0.0000000000000000     
  -1.9203807650387265E-002  0.26380292789240151        0.0000000000000000     
  -1.9253553330413804E-002  0.27216882568327094        0.0000000000000000     
  -1.9310498956549228E-002  0.28041613170003826        0.0000000000000000     
  -1.9374644528793544E-002  0.28854484594270358        0.0000000000000000     
  -1.9445990047146765E-002  0.29655496841126683        0.0000000000000000     
  -2.5689134732199928E-002  0.26391982030371114        0.0000000000000000     
  -2.5756695887528443E-002  0.27232135010010378        0.0000000000000000     
  -2.5832064752647734E-002  0.28061502202636557        0.0000000000000000     
  -2.5915241327557809E-002  0.28880083608249640        0.0000000000000000     
  -2.6006225612258658E-002  0.29687879226849645        0.0000000000000000     
  -1.4027294020507272E-002   5.5780693677789761E-002   0.0000000000000000     
  -1.4801276876209586E-002   6.1372585946160393E-002   0.0000000000000000     
  -1.5548377851299582E-002   6.7149584500084514E-002   0.0000000000000000     
  -1.6268596945777265E-002   7.3111689339562108E-002   0.0000000000000000     
  -1.6961934159642634E-002   7.9258900464593177E-002   0.0000000000000000     
  -1.7667038405975329E-002   5.6039373504117251E-002   0.0000000000000000     
  -1.8627326086748507E-002   6.1625309390232932E-002   0.0000000000000000     
  -1.9555432981950716E-002   6.7395603424140624E-002   0.0000000000000000     
  -2.0451359091581977E-002   7.3350255605840312E-002   0.0000000000000000     
  -2.1315104415642269E-002   7.9489265935332010E-002   0.0000000000000000     
  -2.1367477752159889E-002   5.6357246646414769E-002   0.0000000000000000     
  -2.2520155536228451E-002   6.1935634779996362E-002   0.0000000000000000     
  -2.3634131985304712E-002   6.7697476113324287E-002   0.0000000000000000     
  -2.4709407099388674E-002   7.3642770646398542E-002   0.0000000000000000     
  -2.5745980878480332E-002   7.9771518379219128E-002   0.0000000000000000     
  -2.5128612059060945E-002   5.6734313104682299E-002   0.0000000000000000     
  -2.6479765224649419E-002   6.2303562115450677E-002   0.0000000000000000     
  -2.7784474861361562E-002   6.8055202567635503E-002   0.0000000000000000     
  -2.9042740969197355E-002   7.3989234461236772E-002   0.0000000000000000     
  -3.0254563548156824E-002   8.0105657796254504E-002   0.0000000000000000     
  -2.8950441326678504E-002   5.7170572878919856E-002   0.0000000000000000     
  -3.0506155152011414E-002   6.2729091396595854E-002   0.0000000000000000     
  -3.2006461610121259E-002   6.8468782787074259E-002   0.0000000000000000     
  -3.3451360701008029E-002   7.4389647050355029E-002   0.0000000000000000     
  -3.4840852424671734E-002   8.0491684186438178E-002   0.0000000000000000     
  -1.6961934159642634E-002   7.9258900464593177E-002   0.0000000000000000     
  -1.7630446616072708E-002   8.5577927580401475E-002   0.0000000000000000     
  -1.8276191438244500E-002   9.2055480392210703E-002   0.0000000000000000     
  -1.8899168626158019E-002   9.8691558900020890E-002   0.0000000000000000     
  -1.9499378179813252E-002  0.10548616310383203        0.0000000000000000     
  -2.1315104415642269E-002   7.9489265935332010E-002   0.0000000000000000     
  -2.2148735494156583E-002   8.5799623029348834E-002   0.0000000000000000     
  -2.2954318867149898E-002   9.2268315504623943E-002   0.0000000000000000     
  -2.3731854534622208E-002   9.8895343361157281E-002   0.0000000000000000     
  -2.4481342496573522E-002  0.10568070659894893        0.0000000000000000     
  -2.5745980878480332E-002   7.9771518379219128E-002   0.0000000000000000     
  -2.6746406275787962E-002   8.6071107195038632E-002   0.0000000000000000     
  -2.7713236244519854E-002   9.2528924977109614E-002   0.0000000000000000     
  -2.8646470784675995E-002   9.9144971725432074E-002   0.0000000000000000     
  -2.9546109896256393E-002  0.10591924744000603        0.0000000000000000     
  -3.0254563548156824E-002   8.0105657796254504E-002   0.0000000000000000     
  -3.1423458960966856E-002   8.6392380077470785E-002   0.0000000000000000     
  -3.2552943570354369E-002   9.2837308809667674E-002   0.0000000000000000     
  -3.3643017376319376E-002   9.9440443992845171E-002   0.0000000000000000     
  -3.4693680378861849E-002  0.10620178562700330        0.0000000000000000     
  -3.4840852424671734E-002   8.0491684186438178E-002   0.0000000000000000     
  -3.6179893549693247E-002   8.6763441676645348E-002   0.0000000000000000     
  -3.7473440844653448E-002   9.3193467002298164E-002   0.0000000000000000     
  -3.8721494309552337E-002   9.9781760163396627E-002   0.0000000000000000     
  -3.9924053944389915E-002  0.10652832115994074        0.0000000000000000     
  -1.9499378179813252E-002  0.10548616310383203        0.0000000000000000     
  -2.0074201878243440E-002  0.11242803266555793        0.0000000000000000     
  -2.0621021500481798E-002  0.11950590724711237        0.0000000000000000     
  -2.1139837046528324E-002  0.12671978684849539        0.0000000000000000     
  -2.1630648516383032E-002  0.13406967146970691        0.0000000000000000     
  -2.4481342496573522E-002  0.10568070659894893        0.0000000000000000     
  -2.5199486236601121E-002  0.11261308855562596        0.0000000000000000     
  -2.5882989238302290E-002  0.11968117256881547        0.0000000000000000     
  -2.6531851501677028E-002  0.12688495863851748        0.0000000000000000     
  -2.7146073026725330E-002  0.13422444676473200        0.0000000000000000     
  -2.9546109896256393E-002  0.10591924744000603        0.0000000000000000     
  -3.0408367613659393E-002  0.11284030523056605        0.0000000000000000     
  -3.1229457971283361E-002  0.11989669820684679        0.0000000000000000     
  -3.2009380969128289E-002  0.12708842636884821        0.0000000000000000     
  -3.2748136607194167E-002  0.13441548971657036        0.0000000000000000     
  -3.4693680378861849E-002  0.10620178562700330        0.0000000000000000     
  -3.5700846009418252E-002  0.11310968269037826        0.0000000000000000     
  -3.6660427699425006E-002  0.12015248416120640        0.0000000000000000     
  -3.7572425448882098E-002  0.12733019003948767        0.0000000000000000     
  -3.8436839257789547E-002  0.13464280032522205        0.0000000000000000     
  -3.9924053944389915E-002  0.10652832115994074        0.0000000000000000     
  -4.1076921423877699E-002  0.11342122093506259        0.0000000000000000     
  -4.2175898422727218E-002  0.12044853043189425        0.0000000000000000     
  -4.3220984940938470E-002  0.12761024965043577        0.0000000000000000     
  -4.4212180978511456E-002  0.13490637859068713        0.0000000000000000     
  -2.1630648516383032E-002  0.13406967146970691        0.0000000000000000     
  -2.2093839666745232E-002  0.14154331835201478        0.0000000000000000     
  -2.2529794254314266E-002  0.14912848473668663        0.0000000000000000     
  -2.2938512279090124E-002  0.15682517062372250        0.0000000000000000     
  -2.3319993741072811E-002  0.16463337601312245        0.0000000000000000     
  -2.7146073026725330E-002  0.13422444676473200        0.0000000000000000     
  -2.7726099303474708E-002  0.14168743292952155        0.0000000000000000     
  -2.8272375821952668E-002  0.14926171311494874        0.0000000000000000     
  -2.8784902582159214E-002  0.15694728732101348        0.0000000000000000     
  -2.9263679584094336E-002  0.16474415554771588        0.0000000000000000     
  -3.2748136607194167E-002  0.13441548971657036        0.0000000000000000     
  -3.3446309243144109E-002  0.14186576331018202        0.0000000000000000     
  -3.4104483234641221E-002  0.14942712220985202        0.0000000000000000     
  -3.4722658581685495E-002  0.15709956641558034        0.0000000000000000     
  -3.5300835284276924E-002  0.16488309592736708        0.0000000000000000     
  -3.8436839257789547E-002  0.13464280032522205        0.0000000000000000     
  -3.9254469485753445E-002  0.14207830949399616        0.0000000000000000     
  -4.0026116492379929E-002  0.14962471202139652        0.0000000000000000     
  -4.0751780277668966E-002  0.15728200790742314        0.0000000000000000     
  -4.1431460841620589E-002  0.16505019715207603        0.0000000000000000     
  -4.4212180978511456E-002  0.13490637859068713        0.0000000000000000     
  -4.5150580031302720E-002  0.14232507148096402        0.0000000000000000     
  -4.6037275595168778E-002  0.14985448254958228        0.0000000000000000     
  -4.6872267670109637E-002  0.15749461179654187        0.0000000000000000     
  -4.7655556256125303E-002  0.16524545922184272        0.0000000000000000     
  -2.3319993741072811E-002  0.16463337601312245        0.0000000000000000     
  -2.3672692831028002E-002  0.17254136655879657        0.0000000000000000     
  -2.3995063739721368E-002  0.18053740791465500        0.0000000000000000     
  -2.4287106467152906E-002  0.18862150008069778        0.0000000000000000     
  -2.4548821013322623E-002  0.19679364305692493        0.0000000000000000     
  -2.9263679584094336E-002  0.16474415554771588        0.0000000000000000     
  -2.9706905924918606E-002  0.17264091311213428        0.0000000000000000     
  -3.0112780701792560E-002  0.18062615533134713        0.0000000000000000     
  -3.0481303914716200E-002  0.18869988220535430        0.0000000000000000     
  -3.0812475563689528E-002  0.19686209373415597        0.0000000000000000     
  -3.5300835284276924E-002  0.16488309592736708        0.0000000000000000     
  -3.5837017668870000E-002  0.17276652493633393        0.0000000000000000     
  -3.6329210061919172E-002  0.18073866763360272        0.0000000000000000     
  -3.6777412463424454E-002  0.18879952401917335        0.0000000000000000     
  -3.7181624873385853E-002  0.19694909409304592        0.0000000000000000     
  -4.1431460841620589E-002  0.16505019715207603        0.0000000000000000     
  -4.2063028062882209E-002  0.17291820203139543        0.0000000000000000     
  -4.2644351820101241E-002  0.18087494482142169        0.0000000000000000     
  -4.3175432113277706E-002  0.18892042552215482        0.0000000000000000     
  -4.3656268942411591E-002  0.19705464413359478        0.0000000000000000     
  -4.7655556256125303E-002  0.16524545922184272        0.0000000000000000     
  -4.8384937106955204E-002  0.17309594439731887        0.0000000000000000     
  -4.9058205976338740E-002  0.18103498689480421        0.0000000000000000     
  -4.9675362864275922E-002  0.18906258671429876        0.0000000000000000     
  -5.0236407770766760E-002  0.19717874385580247        0.0000000000000000     
  -2.4548821013322623E-002  0.19679364305692493        0.0000000000000000     
  -2.4780799480885744E-002  0.20503850673499280        0.0000000000000000     
  -2.4983633972497504E-002  0.21334076100655783        0.0000000000000000     
  -2.5157324488157908E-002  0.22170040587161996        0.0000000000000000     
  -2.5301871027866952E-002  0.23011744133017925        0.0000000000000000     
  -3.0812475563689528E-002  0.19686209373415597        0.0000000000000000     
  -3.1106485304462153E-002  0.20509897991711856        0.0000000000000000     
  -3.1363522792783656E-002  0.21339673075360857        0.0000000000000000     
  -3.1583588028654047E-002  0.22175534624362608        0.0000000000000000     
  -3.1766681012073313E-002  0.23017482638717110        0.0000000000000000     
  -3.7181624873385853E-002  0.19694909409304592        0.0000000000000000     
  -3.7541426103894361E-002  0.20517522141930786        0.0000000000000000     
  -3.7856394967040970E-002  0.21346574956204661        0.0000000000000000     
  -3.8126531462825693E-002  0.22182067852126211        0.0000000000000000     
  -3.8351835591248537E-002  0.23024000829695443        0.0000000000000000     
  -4.3656268942411591E-002  0.19705464413359478        0.0000000000000000     
  -4.4085621879182371E-002  0.20526723124156068        0.0000000000000000     
  -4.4462250495269466E-002  0.21354781743187173        0.0000000000000000     
  -4.4786154790672876E-002  0.22189640270452793        0.0000000000000000     
  -4.5057334765392615E-002  0.23031298705952927        0.0000000000000000     
  -5.0236407770766760E-002  0.19717874385580247        0.0000000000000000     
  -5.0739072630326176E-002  0.20537500938387698        0.0000000000000000     
  -5.1181089377469111E-002  0.21364293436308410        0.0000000000000000     
  -5.1562458012195569E-002  0.22198251879342359        0.0000000000000000     
  -5.1883178534505546E-002  0.23039376267489559        0.0000000000000000     
  -2.5301871027866952E-002  0.23011744133017925        0.0000000000000000     
  -2.5423555923187777E-002  0.23856438808250588        0.0000000000000000     
  -2.5528661505683555E-002  0.24701376682887005        0.0000000000000000     
  -2.5617187775354270E-002  0.25546557756927180        0.0000000000000000     
  -2.5689134732199928E-002  0.26391982030371114        0.0000000000000000     
  -3.1766681012073313E-002  0.23017482638717110        0.0000000000000000     
  -3.1920743448538305E-002  0.23863032446203705        0.0000000000000000     
  -3.2053717043545836E-002  0.24709699374601771        0.0000000000000000     
  -3.2165601797095912E-002  0.25557483423911292        0.0000000000000000     
  -3.2256397709188540E-002  0.26406384594132271        0.0000000000000000     
  -3.8351835591248537E-002  0.23024000829695443        0.0000000000000000     
  -3.8541105796855837E-002  0.23870295167882619        0.0000000000000000     
  -3.8703140524193956E-002  0.24718872145657991        0.0000000000000000     
  -3.8837939773262907E-002  0.25569731763021575        0.0000000000000000     
  -3.8945503544062669E-002  0.26422874019973352        0.0000000000000000     
  -4.5057334765392615E-002  0.23031298705952927        0.0000000000000000     
  -4.5284642968140408E-002  0.23878226973287309        0.0000000000000000     
  -4.5476931947627953E-002  0.24728894996055675        0.0000000000000000     
  -4.5634201703855251E-002  0.25583302774258027        0.0000000000000000     
  -4.5756452236822322E-002  0.26441450307894360        0.0000000000000000     
  -5.1883178534505546E-002  0.23039376267489559        0.0000000000000000     
  -5.2151354962391969E-002  0.23886827862417784        0.0000000000000000     
  -5.2375091313847773E-002  0.24739767925794817        0.0000000000000000     
  -5.2554387588872958E-002  0.25598196457620653        0.0000000000000000     
  -5.2689243787467498E-002  0.26462113457895292        0.0000000000000000     
  -2.5689134732199928E-002  0.26391982030371114        0.0000000000000000     
  -2.5756695887528443E-002  0.27232135010010378        0.0000000000000000     
  -2.5832064752647734E-002  0.28061502202636557        0.0000000000000000     
  -2.5915241327557809E-002  0.28880083608249640        0.0000000000000000     
  -2.6006225612258658E-002  0.29687879226849645        0.0000000000000000     
  -3.2256397709188540E-002  0.26406384594132271        0.0000000000000000     
  -3.2340907234282838E-002  0.27251112441830144        0.0000000000000000     
  -3.2433932826837944E-002  0.28086376523570333        0.0000000000000000     
  -3.2535474486853878E-002  0.28912176839352854        0.0000000000000000     
  -3.2645532214330614E-002  0.29728513389177680        0.0000000000000000     
  -3.8945503544062669E-002  0.26422874019973352        0.0000000000000000     
  -3.9044610436870519E-002  0.27273182013441177        0.0000000000000000     
  -3.9154039051963754E-002  0.28115538840352877        0.0000000000000000     
  -3.9273789389342346E-002  0.28949944500708463        0.0000000000000000     
  -3.9403861449006324E-002  0.29776398994507930        0.0000000000000000     
  -4.5756452236822322E-002  0.26441450307894360        0.0000000000000000     
  -4.5867805495291507E-002  0.27298343724843482        0.0000000000000000     
  -4.5992383428025148E-002  0.28148989152984194        0.0000000000000000     
  -4.6130186035023245E-002  0.28993386592316500        0.0000000000000000     
  -4.6281213316285798E-002  0.29831536042840384        0.0000000000000000     
  -5.2689243787467498E-002  0.26462113457895292        0.0000000000000000     
  -5.2810492409545787E-002  0.27326597576037059        0.0000000000000000     
  -5.2948965955022118E-002  0.28186727461464273        0.0000000000000000     
  -5.3104664423896539E-002  0.29042503114176943        0.0000000000000000     
  -5.3277587816169029E-002  0.29893924534175054        0.0000000000000000     
  -2.8950441326678504E-002   5.7170572878919856E-002   0.0000000000000000     
  -3.0506155152011414E-002   6.2729091396595854E-002   0.0000000000000000     
  -3.2006461610121259E-002   6.8468782787074259E-002   0.0000000000000000     
  -3.3451360701008029E-002   7.4389647050355029E-002   0.0000000000000000     
  -3.4840852424671734E-002   8.0491684186438178E-002   0.0000000000000000     
  -3.2890553078586779E-002   5.7666572609294628E-002   0.0000000000000000     
  -3.4650177299137615E-002   6.3211944532494305E-002   0.0000000000000000     
  -3.6345458117772275E-002   6.8937473525646914E-002   0.0000000000000000     
  -3.7976395534490802E-002   7.4843159588752470E-002   0.0000000000000000     
  -3.9542989549293174E-002   8.0929002721810944E-002   0.0000000000000000     
  -3.7006534838360007E-002   5.8222858935973815E-002   0.0000000000000000     
  -3.8962683646851182E-002   6.3751843432208341E-002   0.0000000000000000     
  -4.0846830270503107E-002   6.9460531537359843E-002   0.0000000000000000     
  -4.2658974709315803E-002   7.5348923251428251E-002   0.0000000000000000     
  -4.4399116963289242E-002   8.1417018574413663E-002   0.0000000000000000     
  -4.1298386605998161E-002   5.8839431858957410E-002   0.0000000000000000     
  -4.3443674195152125E-002   6.4348788095737991E-002   0.0000000000000000     
  -4.5510578068313726E-002   7.0037956822212991E-002   0.0000000000000000     
  -4.7499098225482997E-002   7.5906938038382415E-002   0.0000000000000000     
  -4.9409234666659925E-002   8.1955731744246293E-002   0.0000000000000000     
  -4.5766108381501275E-002   5.9516291378245420E-002   0.0000000000000000     
  -4.8093148944040438E-002   6.5002778523083227E-002   0.0000000000000000     
  -5.0336701511204160E-002   7.0669749380206384E-002   0.0000000000000000     
  -5.2496766082992433E-002   7.6517203949614934E-002   0.0000000000000000     
  -5.4573342659405236E-002   8.2545142231308849E-002   0.0000000000000000     
  -3.4840852424671734E-002   8.0491684186438178E-002   0.0000000000000000     
  -3.6179893549693247E-002   8.6763441676645348E-002   0.0000000000000000     
  -3.7473440844653448E-002   9.3193467002298164E-002   0.0000000000000000     
  -3.8721494309552337E-002   9.9781760163396627E-002   0.0000000000000000     
  -3.9924053944389915E-002  0.10652832115994074        0.0000000000000000     
  -3.9542989549293174E-002   8.0929002721810944E-002   0.0000000000000000     
  -4.1051687054706874E-002   8.7184079137585954E-002   0.0000000000000000     
  -4.2508934943259385E-002   9.3597465048841005E-002   0.0000000000000000     
  -4.3914733214950714E-002  0.10016916045557614        0.0000000000000000     
  -4.5269081869780847E-002  0.10689916535779134        0.0000000000000000     
  -4.4399116963289242E-002   8.1417018574413663E-002   0.0000000000000000     
  -4.6074816488747464E-002   8.7654079605316210E-002   0.0000000000000000     
  -4.7693632742014477E-002   9.4049368443136105E-002   0.0000000000000000     
  -4.9255565723090311E-002  0.10060288508787343        0.0000000000000000     
  -5.0760615431974944E-002  0.10731462953952810        0.0000000000000000     
  -4.9409234666659925E-002   8.1955731744246293E-002   0.0000000000000000     
  -5.1249281851815015E-002   8.8173443079836142E-002   0.0000000000000000     
  -5.3027534240918744E-002   9.4549177185183533E-002   0.0000000000000000     
  -5.4743991833971141E-002  0.10108293406028848        0.0000000000000000     
  -5.6398654630972191E-002  0.10777471370515099        0.0000000000000000     
  -5.4573342659405236E-002   8.2545142231308849E-002   0.0000000000000000     
  -5.6575083143909521E-002   8.8742169561145751E-002   0.0000000000000000     
  -5.8510639439972173E-002   9.5096891274983233E-002   0.0000000000000000     
  -6.0380011547593197E-002  0.10160930737282133        0.0000000000000000     
  -6.2183199466772615E-002  0.10827941785466003        0.0000000000000000     
  -3.9924053944389915E-002  0.10652832115994074        0.0000000000000000     
  -4.1076921423877699E-002  0.11342122093506259        0.0000000000000000     
  -4.2175898422727218E-002  0.12044853043189425        0.0000000000000000     
  -4.3220984940938470E-002  0.12761024965043577        0.0000000000000000     
  -4.4212180978511456E-002  0.13490637859068713        0.0000000000000000     
  -4.5269081869780847E-002  0.10689916535779134        0.0000000000000000     
  -4.6567678373973923E-002  0.11377530654742422        0.0000000000000000     
  -4.7806220193754072E-002  0.12078541081641241        0.0000000000000000     
  -4.8984707329121288E-002  0.12792947816475589        0.0000000000000000     
  -5.0103139780075585E-002  0.13520750859245462        0.0000000000000000     
  -5.0760615431974944E-002  0.10731462953952810        0.0000000000000000     
  -5.2204201376643132E-002  0.11417232611026847        0.0000000000000000     
  -5.3581743065069631E-002  0.12116369911226287        0.0000000000000000     
  -5.4893240497254456E-002  0.12828874854551131        0.0000000000000000     
  -5.6138693673197605E-002  0.13554747441001375        0.0000000000000000     
  -5.6398654630972191E-002  0.10777471370515099        0.0000000000000000     
  -5.7986490431885307E-002  0.11461227962359528        0.0000000000000000     
  -5.9502467036673910E-002  0.12158339531944565        0.0000000000000000     
  -6.0946584445337952E-002  0.12868806079270209        0.0000000000000000     
  -6.2318842657877495E-002  0.13592627604336455        0.0000000000000000     
  -6.2183199466772615E-002  0.10827941785466003        0.0000000000000000     
  -6.3914545539700482E-002  0.11509516708740468        0.0000000000000000     
  -6.5568392108566881E-002  0.12204449943796072        0.0000000000000000     
  -6.7144739173371798E-002  0.12912741490632815        0.0000000000000000     
  -6.8643586734115275E-002  0.13634391349250691        0.0000000000000000     
  -4.4212180978511456E-002  0.13490637859068713        0.0000000000000000     
  -4.5150580031302720E-002  0.14232507148096402        0.0000000000000000     
  -4.6037275595168778E-002  0.14985448254958228        0.0000000000000000     
  -4.6872267670109637E-002  0.15749461179654187        0.0000000000000000     
  -4.7655556256125303E-002  0.16524545922184272        0.0000000000000000     
  -5.0103139780075585E-002  0.13520750859245462        0.0000000000000000     
  -5.1162989793553007E-002  0.14260776768789163        0.0000000000000000     
  -5.2165729616489596E-002  0.15011852103944970        0.0000000000000000     
  -5.3111359248885368E-002  0.15773976864712896        0.0000000000000000     
  -5.3999878690740320E-002  0.16547151051092937        0.0000000000000000     
  -5.6138693673197605E-002  0.13554747441001375        0.0000000000000000     
  -5.7320047686265391E-002  0.14292811653158488        0.0000000000000000     
  -5.8439247629824199E-002  0.15041891473603933        0.0000000000000000     
  -5.9496293503874011E-002  0.15801986902337703        0.0000000000000000     
  -6.0491185308414824E-002  0.16573097939359807        0.0000000000000000     
  -6.2318842657877495E-002  0.13592627604336455        0.0000000000000000     
  -6.3621753709439899E-002  0.14328611801204388        0.0000000000000000     
  -6.4857829635172601E-002  0.15075566363935108        0.0000000000000000     
  -6.6027070435075580E-002  0.15833491292528606        0.0000000000000000     
  -6.7129476109148850E-002  0.16602386586984882        0.0000000000000000     
  -6.8643586734115275E-002  0.13634391349250691        0.0000000000000000     
  -7.0068107863076518E-002  0.14368177212926866        0.0000000000000000     
  -7.1421475632534773E-002  0.15112876774938502        0.0000000000000000     
  -7.2703690042490068E-002  0.15868490035285601        0.0000000000000000     
  -7.3914751092942377E-002  0.16635016993968169        0.0000000000000000     
  -4.7655556256125303E-002  0.16524545922184272        0.0000000000000000     
  -4.8384937106955204E-002  0.17309594439731887        0.0000000000000000     
  -4.9058205976338740E-002  0.18103498689480421        0.0000000000000000     
  -4.9675362864275922E-002  0.18906258671429876        0.0000000000000000     
  -5.0236407770766760E-002  0.19717874385580247        0.0000000000000000     
  -5.3999878690740320E-002  0.16547151051092937        0.0000000000000000     
  -5.4829077683473476E-002  0.17330270813147428        0.0000000000000000     
  -5.5596745968503912E-002  0.18122232300938712        0.0000000000000000     
  -5.6302883545831600E-002  0.18923035514466796        0.0000000000000000     
  -5.6947490415456554E-002  0.19732680453731666        0.0000000000000000     
  -6.0491185308414824E-002  0.16573097939359807        0.0000000000000000     
  -6.1421782674821533E-002  0.17354144933123172        0.0000000000000000     
  -6.2285945234468988E-002  0.18144048232080745        0.0000000000000000     
  -6.3083672987357231E-002  0.18942807836232517        0.0000000000000000     
  -6.3814965933486220E-002  0.19750423745578496        0.0000000000000000     
  -6.7129476109148850E-002  0.16602386586984882        0.0000000000000000     
  -6.8163052080999348E-002  0.17381216799659124        0.0000000000000000     
  -6.9125803774233996E-002  0.18168946482906514        0.0000000000000000     
  -7.0017731188852808E-002  0.18965575636727050        0.0000000000000000     
  -7.0838834324855757E-002  0.19771104261120734        0.0000000000000000     
  -7.3914751092942377E-002  0.16635016993968169        0.0000000000000000     
  -7.5052885902006913E-002  0.17411486412755275        0.0000000000000000     
  -7.6116321587798880E-002  0.18196927053416015        0.0000000000000000     
  -7.7105058150318304E-002  0.18991338915950384        0.0000000000000000     
  -7.8019095589565157E-002  0.19794722000358383        0.0000000000000000     
  -5.0236407770766760E-002  0.19717874385580247        0.0000000000000000     
  -5.0739072630326176E-002  0.20537500938387698        0.0000000000000000     
  -5.1181089377469111E-002  0.21364293436308410        0.0000000000000000     
  -5.1562458012195569E-002  0.22198251879342359        0.0000000000000000     
  -5.1883178534505546E-002  0.23039376267489559        0.0000000000000000     
  -5.6947490415456554E-002  0.19732680453731666        0.0000000000000000     
  -5.7527636626439976E-002  0.20550478906855424        0.0000000000000000     
  -5.8040392227843039E-002  0.21375742661960159        0.0000000000000000     
  -5.8485757219665778E-002  0.22208471719045869        0.0000000000000000     
  -5.8863731601908165E-002  0.23048666078112559        0.0000000000000000     
  -6.3814965933486220E-002  0.19750423745578496        0.0000000000000000     
  -6.4477172136637950E-002  0.20566280351788968        0.0000000000000000     
  -6.5067639660594381E-002  0.21389762046534236        0.0000000000000000     
  -6.5586368505355500E-002  0.22220868829814291        0.0000000000000000     
  -6.6033358670921319E-002  0.23059600701629132        0.0000000000000000     
  -7.0838834324855757E-002  0.19771104261120734        0.0000000000000000     
  -7.1587679160920126E-002  0.20584905273188342        0.0000000000000000     
  -7.2262831675723116E-002  0.21406351590030634        0.0000000000000000     
  -7.2864291869264741E-002  0.22235443211647613        0.0000000000000000     
  -7.3392059741544974E-002  0.23072180138039280        0.0000000000000000     
  -7.8019095589565157E-002  0.19794722000358383        0.0000000000000000     
  -7.8859157699286461E-002  0.20606353671053534        0.0000000000000000     
  -7.9625968273229236E-002  0.21425511292449353        0.0000000000000000     
  -8.0319527311393468E-002  0.22252194864545849        0.0000000000000000     
  -8.0939834813779171E-002  0.23086404387343007        0.0000000000000000     
  -5.1883178534505546E-002  0.23039376267489559        0.0000000000000000     
  -5.2151354962391969E-002  0.23886827862417784        0.0000000000000000     
  -5.2375091313847773E-002  0.24739767925794817        0.0000000000000000     
  -5.2554387588872958E-002  0.25598196457620653        0.0000000000000000     
  -5.2689243787467498E-002  0.26462113457895292        0.0000000000000000     
  -5.8863731601908165E-002  0.23048666078112559        0.0000000000000000     
  -5.9180387078266609E-002  0.23896240463561691        0.0000000000000000     
  -5.9441795352437488E-002  0.24751109599794735        0.0000000000000000     
  -5.9647956424420827E-002  0.25613273486811694        0.0000000000000000     
  -5.9798870294216599E-002  0.26482732124612574        0.0000000000000000     
  -6.6033358670921319E-002  0.23059600701629132        0.0000000000000000     
  -6.6410884614420351E-002  0.23906607405006650        0.0000000000000000     
  -6.6721220792981151E-002  0.24762538682974744        0.0000000000000000     
  -6.6964367206603703E-002  0.25627394535533399        0.0000000000000000     
  -6.7140323855288009E-002  0.26501174962682622        0.0000000000000000     
  -7.3392059741544974E-002  0.23072180138039280        0.0000000000000000     
  -7.3842847570853215E-002  0.23917928686752671        0.0000000000000000     
  -7.4213367635478741E-002  0.24774055175334833        0.0000000000000000     
  -7.4503619935421567E-002  0.25640559603785756        0.0000000000000000     
  -7.4713604470681719E-002  0.26517441972105443        0.0000000000000000     
  -8.0939834813779171E-002  0.23086404387343007        0.0000000000000000     
  -8.1476275947565166E-002  0.23930204308799760        0.0000000000000000     
  -8.1918235879930260E-002  0.24785659076875011        0.0000000000000000     
  -8.2265714610874466E-002  0.25652768691568772        0.0000000000000000     
  -8.2518712140397743E-002  0.26531533152881032        0.0000000000000000     
  -5.2689243787467498E-002  0.26462113457895292        0.0000000000000000     
  -5.2810492409545787E-002  0.27326597576037059        0.0000000000000000     
  -5.2948965955022118E-002  0.28186727461464273        0.0000000000000000     
  -5.3104664423896539E-002  0.29042503114176943        0.0000000000000000     
  -5.3277587816169029E-002  0.29893924534175054        0.0000000000000000     
  -5.9798870294216599E-002  0.26482732124612574        0.0000000000000000     
  -5.9931425025398742E-002  0.27355072178889478        0.0000000000000000     
  -6.0082508681541164E-002  0.28225880315334517        0.0000000000000000     
  -6.0252121262643892E-002  0.29095156533947697        0.0000000000000000     
  -6.0440262768706884E-002  0.29962900834729023        0.0000000000000000     
  -6.7140323855288009E-002  0.26501174962682622        0.0000000000000000     
  -6.7289357188615784E-002  0.27380896145268296        0.0000000000000000     
  -6.7451733656168744E-002  0.28263574264136315        0.0000000000000000     
  -6.7627453257946890E-002  0.29149209319286673        0.0000000000000000     
  -6.7816515993950222E-002  0.30037801310719359        0.0000000000000000     
  -7.4713604470681719E-002  0.26517441972105443        0.0000000000000000     
  -7.4884288899196891E-002  0.27404069475173531        0.0000000000000000     
  -7.5056640878904846E-002  0.28299809307869678        0.0000000000000000     
  -7.5230660409805569E-002  0.29204661470193849        0.0000000000000000     
  -7.5406347491899034E-002  0.30118625962146084        0.0000000000000000     
  -8.2518712140397743E-002  0.26531533152881032        0.0000000000000000     
  -8.2716220157142112E-002  0.27424592168605177        0.0000000000000000     
  -8.2897230349749496E-002  0.28334585446534583        0.0000000000000000     
  -8.3061742718219894E-002  0.29261512986669252        0.0000000000000000     
  -8.3209757262553322E-002  0.30205374789009187        0.0000000000000000     
  -4.5766108381501275E-002   5.9516291378245420E-002   0.0000000000000000     
  -4.8093148944040438E-002   6.5002778523083227E-002   0.0000000000000000     
  -5.0336701511204160E-002   7.0669749380206384E-002   0.0000000000000000     
  -5.2496766082992433E-002   7.6517203949614934E-002   0.0000000000000000     
  -5.4573342659405236E-002   8.2545142231308849E-002   0.0000000000000000     
  -5.0399933839236161E-002   6.0251080659972645E-002   0.0000000000000000     
  -5.2908901239168714E-002   6.5713045640192244E-002   0.0000000000000000     
  -5.5329250502687513E-002   7.1356101709868044E-002   0.0000000000000000     
  -5.7660981629792558E-002   7.7180248868999990E-002   0.0000000000000000     
  -5.9904094620483850E-002   8.3185487117588136E-002   0.0000000000000000     
  -5.5190096653569665E-002   6.1041442870273868E-002   0.0000000000000000     
  -5.7888724426189524E-002   6.6478820373013253E-002   0.0000000000000000     
  -6.0492274946276924E-002   7.2097206309725895E-002   0.0000000000000000     
  -6.3000748213831892E-002   7.7896600680411793E-002   0.0000000000000000     
  -6.5414144228854415E-002   8.3877003485070920E-002   0.0000000000000000     
  -6.0136596824501808E-002   6.1887378009149119E-002   0.0000000000000000     
  -6.3032618505102861E-002   6.7300102721546240E-002   0.0000000000000000     
  -6.5825774841972398E-002   7.2893063179779991E-002   0.0000000000000000     
  -6.8516065835110440E-002   7.8666259383850315E-002   0.0000000000000000     
  -7.1103491484516931E-002   8.4619691333757227E-002   0.0000000000000000     
  -6.5239434352032569E-002   6.2788886076598369E-002   0.0000000000000000     
  -6.8340583475908753E-002   6.8176892685791232E-002   0.0000000000000000     
  -7.1329750189773958E-002   7.3743672320030304E-002   0.0000000000000000     
  -7.4206934493628182E-002   7.9489224979315556E-002   0.0000000000000000     
  -7.6972136387471440E-002   8.5413550663647031E-002   0.0000000000000000     
  -5.4573342659405236E-002   8.2545142231308849E-002   0.0000000000000000     
  -5.6575083143909521E-002   8.8742169561145751E-002   0.0000000000000000     
  -5.8510639439972173E-002   9.5096891274983233E-002   0.0000000000000000     
  -6.0380011547593197E-002  0.10160930737282133        0.0000000000000000     
  -6.2183199466772615E-002  0.10827941785466003        0.0000000000000000     
  -5.9904094620483850E-002   8.3185487117588136E-002   0.0000000000000000     
  -6.2067598006377414E-002   8.9360003787549921E-002   0.0000000000000000     
  -6.4160500319089334E-002   9.5691986210802896E-002   0.0000000000000000     
  -6.6182801558619594E-002  0.10218143438734700        0.0000000000000000     
  -6.8134501724968183E-002  0.10882834831718227        0.0000000000000000     
  -6.5414144228854415E-002   8.3877003485070920E-002   0.0000000000000000     
  -6.7742204080565166E-002   9.0026690497353623E-002   0.0000000000000000     
  -6.9994668858184853E-002   9.6333937490910182E-002   0.0000000000000000     
  -7.2171538561713419E-002  0.10279874446574058        0.0000000000000000     
  -7.4272813191150922E-002  0.10942111142184485        0.0000000000000000     
  -7.1103491484516931E-002   8.4619691333757227E-002   0.0000000000000000     
  -7.3598901366472749E-002   9.0742229690556786E-002   0.0000000000000000     
  -7.6013145057258660E-002   9.7022745115305079E-002   0.0000000000000000     
  -7.8346222556874651E-002  0.10346123760800204        0.0000000000000000     
  -8.0598133865320790E-002  0.11005770716864774        0.0000000000000000     
  -7.6972136387471440E-002   8.5413550663647031E-002   0.0000000000000000     
  -7.9637689864100164E-002   9.1506621367159452E-002   0.0000000000000000     
  -8.2215928916310799E-002   9.7758409083987599E-002   0.0000000000000000     
  -8.4706853544103372E-002  0.10416891381413140        0.0000000000000000     
  -8.7110463747477856E-002  0.11073813555759092        0.0000000000000000     
  -6.2183199466772615E-002  0.10827941785466003        0.0000000000000000     
  -6.3914545539700482E-002  0.11509516708740468        0.0000000000000000     
  -6.5568392108566881E-002  0.12204449943796072        0.0000000000000000     
  -6.7144739173371798E-002  0.12912741490632815        0.0000000000000000     
  -6.8643586734115275E-002  0.13634391349250691        0.0000000000000000     
  -6.8134501724968183E-002  0.10882834831718227        0.0000000000000000     
  -7.0009305205794070E-002  0.11562080980043761        0.0000000000000000     
  -7.1800916388756200E-002  0.12254690063724186        0.0000000000000000     
  -7.3509335273854559E-002  0.12960662082759503        0.0000000000000000     
  -7.5134561861089161E-002  0.13679997037149721        0.0000000000000000     
  -7.4272813191150922E-002  0.10942111142184485        0.0000000000000000     
  -7.6291707935871561E-002  0.11618902906143494        0.0000000000000000     
  -7.8221437985249498E-002  0.12309048808672278        0.0000000000000000     
  -8.0062003339284801E-002  0.13012548849770841        0.0000000000000000     
  -8.1813403997977416E-002  0.13729403029439180        0.0000000000000000     
  -8.0598133865320790E-002  0.11005770716864774        0.0000000000000000     
  -8.2761753729932899E-002  0.11679982487039668        0.0000000000000000     
  -8.4829956898046802E-002  0.12367526178640351        0.0000000000000000     
  -8.6802743369662511E-002  0.13068401791666814        0.0000000000000000     
  -8.8680113144780026E-002  0.13782609326119064        0.0000000000000000     
  -8.7110463747477856E-002  0.11073813555759092        0.0000000000000000     
  -8.9419442587978112E-002  0.11745319722732286        0.0000000000000000     
  -9.1626473127148070E-002  0.12430122173628400        0.0000000000000000     
  -9.3731555364987701E-002  0.13128220908447430        0.0000000000000000     
  -9.5734689301496978E-002  0.13839615927189378        0.0000000000000000     
  -6.8643586734115275E-002  0.13634391349250691        0.0000000000000000     
  -7.0068107863076518E-002  0.14368177212926866        0.0000000000000000     
  -7.1421475632534773E-002  0.15112876774938502        0.0000000000000000     
  -7.2703690042490068E-002  0.15868490035285601        0.0000000000000000     
  -7.3914751092942377E-002  0.16635016993968169        0.0000000000000000     
  -7.5134561861089161E-002  0.13679997037149721        0.0000000000000000     
  -7.6680467005844133E-002  0.14411449468553406        0.0000000000000000     
  -7.8150921563503603E-002  0.15153773918629140        0.0000000000000000     
  -7.9545925534067544E-002  0.15906970387376923        0.0000000000000000     
  -8.0865478917535968E-002  0.16671038874796756        0.0000000000000000     
  -8.1813403997977416E-002  0.13729403029439180        0.0000000000000000     
  -8.3480187996411687E-002  0.14458370148311508        0.0000000000000000     
  -8.5066903369671903E-002  0.15198209007022048        0.0000000000000000     
  -8.6573550117758094E-002  0.15948919605570794        0.0000000000000000     
  -8.8000128240670217E-002  0.16710501943957745        0.0000000000000000     
  -8.8680113144780026E-002  0.13782609326119064        0.0000000000000000     
  -9.0467270834779165E-002  0.14508939252201178        0.0000000000000000     
  -9.2169421051039715E-002  0.15246182040117223        0.0000000000000000     
  -9.3786563793561706E-002  0.15994337689867213        0.0000000000000000     
  -9.5318699062345080E-002  0.16753406201451140        0.0000000000000000     
  -9.5734689301496978E-002  0.13839615927189378        0.0000000000000000     
  -9.7641715520946554E-002  0.14563156780222405        0.0000000000000000     
  -9.9458474607607025E-002  0.15297693017914674        0.0000000000000000     
 -0.10118496656147838       0.16043224640266182        0.0000000000000000     
 -0.10282119138256063       0.16799751647276934        0.0000000000000000     
  -7.3914751092942377E-002  0.16635016993968169        0.0000000000000000     
  -7.5052885902006913E-002  0.17411486412755275        0.0000000000000000     
  -7.6116321587798880E-002  0.18196927053416015        0.0000000000000000     
  -7.7105058150318304E-002  0.18991338915950384        0.0000000000000000     
  -7.8019095589565157E-002  0.19794722000358383        0.0000000000000000     
  -8.0865478917535968E-002  0.16671038874796756        0.0000000000000000     
  -8.2108233828177141E-002  0.17445061344451823        0.0000000000000000     
  -8.3272842380259282E-002  0.18228119759905309        0.0000000000000000     
  -8.4359304573782379E-002  0.19020214121157222        0.0000000000000000     
  -8.5367620408746472E-002  0.19821344428207552        0.0000000000000000     
  -8.8000128240670217E-002  0.16710501943957745        0.0000000000000000     
  -8.9346045549842892E-002  0.17482049166788952        0.0000000000000000     
  -9.0610709856710700E-002  0.18262654418670454        0.0000000000000000     
  -9.1794121161273654E-002  0.19052317699602253        0.0000000000000000     
  -9.2896279463531725E-002  0.19851039009584351        0.0000000000000000     
  -9.5318699062345080E-002  0.16753406201451140        0.0000000000000000     
  -9.6766321067004182E-002  0.17522449879766666        0.0000000000000000     
  -9.8129924017153175E-002  0.18300531029711448        0.0000000000000000     
  -9.9409507912792086E-002  0.19087649651285479        0.0000000000000000     
 -0.10060507275392089       0.19883805744488778        0.0000000000000000     
 -0.10282119138256063       0.16799751647276934        0.0000000000000000     
 -0.10436906037966098       0.17566263483384956        0.0000000000000000     
 -0.10583048486158667       0.18341749593028284        0.0000000000000000     
 -0.10720546482833769       0.19126209976206904        0.0000000000000000     
 -0.10849400027991404       0.19919644632920830        0.0000000000000000     
  -7.8019095589565157E-002  0.19794722000358383        0.0000000000000000     
  -7.8859157699286461E-002  0.20606353671053534        0.0000000000000000     
  -7.9625968273229236E-002  0.21425511292449353        0.0000000000000000     
  -8.0319527311393468E-002  0.22252194864545849        0.0000000000000000     
  -8.0939834813779171E-002  0.23086404387343007        0.0000000000000000     
  -8.5367620408746472E-002  0.19821344428207552        0.0000000000000000     
  -8.6300788598720674E-002  0.20630704219128848        0.0000000000000000     
  -8.7161807857274093E-002  0.21447487031993639        0.0000000000000000     
  -8.7950678184406758E-002  0.22271692866801937        0.0000000000000000     
  -8.8667399580118669E-002  0.23103321723553730        0.0000000000000000     
  -9.2896279463531725E-002  0.19851039009584351        0.0000000000000000     
  -9.3921752706206355E-002  0.20658035591158563        0.0000000000000000     
  -9.4875108832018995E-002  0.21472524686866723        0.0000000000000000     
  -9.5756347840969619E-002  0.22294506296708824        0.0000000000000000     
  -9.6565469733058254E-002  0.23123980420684870        0.0000000000000000     
 -0.10060507275392089       0.19883805744488778        0.0000000000000000     
 -0.10172205002174357       0.20688347787142694        0.0000000000000000     
 -0.10276587119746394       0.21500624257068610        0.0000000000000000     
 -0.10373653628108204       0.22320635154266519        0.0000000000000000     
 -0.10463404527259788       0.23148380478736419        0.0000000000000000     
 -0.10849400027991404       0.19919644632920830        0.0000000000000000     
 -0.10970168054533228       0.20721640807081232        0.0000000000000000     
 -0.11083409495360896       0.21531785742599294        0.0000000000000000     
 -0.11189124350474407       0.22350079439475010        0.0000000000000000     
 -0.11287312619873764       0.23176521897708385        0.0000000000000000     
  -8.0939834813779171E-002  0.23086404387343007        0.0000000000000000     
  -8.1476275947565166E-002  0.23930204308799760        0.0000000000000000     
  -8.1918235879930260E-002  0.24785659076875011        0.0000000000000000     
  -8.2265714610874466E-002  0.25652768691568772        0.0000000000000000     
  -8.2518712140397743E-002  0.26531533152881032        0.0000000000000000     
  -8.8667399580118669E-002  0.23103321723553730        0.0000000000000000     
  -8.9297620729659563E-002  0.23944930369376796        0.0000000000000000     
  -8.9826990318279162E-002  0.24799075571398907        0.0000000000000000     
  -9.0255508345977481E-002  0.25665757329620054        0.0000000000000000     
  -9.0583174812754519E-002  0.26544975644040247        0.0000000000000000     
  -9.6565469733058254E-002  0.23123980420684870        0.0000000000000000     
  -9.7293332902239724E-002  0.23963602966712694        0.0000000000000000     
  -9.7930795742468907E-002  0.24816029842710155        0.0000000000000000     
  -9.8477858253745790E-002  0.25681261048677234        0.0000000000000000     
  -9.8934520436070400E-002  0.26559296584613945        0.0000000000000000     
 -0.10463404527259788       0.23148380478736419        0.0000000000000000     
 -0.10546341246530566       0.23986222100807450        0.0000000000000000     
 -0.10622965215249951       0.24836521890808749        0.0000000000000000     
 -0.10693276433417945       0.25699279848740303        0.0000000000000000     
 -0.10757274901034544       0.26574495974602136        0.0000000000000000     
 -0.11287312619873764       0.23176521897708385        0.0000000000000000     
 -0.11380785941885735       0.24012787771661062        0.0000000000000000     
 -0.11472355954837093       0.24860551715694693        0.0000000000000000     
 -0.11562022658727834       0.25719813729809271        0.0000000000000000     
 -0.11649786053557962       0.26590573814004798        0.0000000000000000     
  -8.2518712140397743E-002  0.26531533152881032        0.0000000000000000     
  -8.2716220157142112E-002  0.27424592168605177        0.0000000000000000     
  -8.2897230349749496E-002  0.28334585446534583        0.0000000000000000     
  -8.3061742718219894E-002  0.29261512986669252        0.0000000000000000     
  -8.3209757262553322E-002  0.30205374789009187        0.0000000000000000     
  -9.0583174812754519E-002  0.26544975644040247        0.0000000000000000     
  -9.0840330566101052E-002  0.27443033344573875        0.0000000000000000     
  -9.1057316453507980E-002  0.28366233261135365        0.0000000000000000     
  -9.1234132474975249E-002  0.29314575393724696        0.0000000000000000     
  -9.1370778630502886E-002  0.30288059742341883        0.0000000000000000     
  -9.8934520436070400E-002  0.26559296584613945        0.0000000000000000     
  -9.9311799729723413E-002  0.27459962122090303        0.0000000000000000     
  -9.9620713574985614E-002  0.28393083332676333        0.0000000000000000     
  -9.9861261971856990E-002  0.29358660216372023        0.0000000000000000     
 -0.10003344492033753       0.30356692773177402        0.0000000000000000     
 -0.10757274901034544       0.26574495974602136        0.0000000000000000     
 -0.10813062764800924       0.27475378501154440        0.0000000000000000     
 -0.10858742171418244       0.28415135661157492        0.0000000000000000     
 -0.10894313120886512       0.29393767454611253        0.0000000000000000     
 -0.10919775613205725       0.30411273881515744        0.0000000000000000     
 -0.11649786053557962       0.26590573814004798        0.0000000000000000     
 -0.11729681432095843       0.27489282481766308        0.0000000000000000     
 -0.11795744087109843       0.28432390246578826        0.0000000000000000     
 -0.11847974018599963       0.29419897108442350        0.0000000000000000     
 -0.11886371226566202       0.30451803067356892        0.0000000000000000     
 </DataArray>
 <DataArray  type="Float64" Name="stress" NumberOfComponents="3" format="ascii">
   6073006353.2936354        37656402.102806330        86853340.162700981     
   5852402188.2611551        18996611.457718611        64536155.916327365     
   5632942261.2484722        4150947.5452651978        49442272.736006826     
   5414626572.2555790       -6880589.6345331669        41571690.621723987     
   5197455121.2824850       -14098000.081663132        40924409.573489100     
   5665767817.0697861        22184861.179883957        220015751.87803921     
   5464358319.2151232        9158071.5834383965        204489648.69685179     
   5263656291.2969723       -1510484.8912942410        195205449.72901428     
   5063661733.3153248       -9820808.2443420887        192163154.97454080     
   4864374645.2701941       -15772898.475686789        195362764.43341592     
   5276248185.1802521        12028991.557242870        353384714.55042583     
   5091229363.4957294        3794005.7071626186        344140129.67057520     
   4906481243.6644258       -3538640.6321778297        340156052.15139621     
   4722003825.6863489       -9968947.4607741833        341432481.99287879     
   4537797109.5614929       -15496914.778629780        347969419.19504333     
   4904447457.6250076        7188793.2348988056        486960228.17985570     
   4733015321.1029539        2904413.8288729191        483487598.83750361     
   4561417118.3508320       -1933519.6773674488        484294080.00314468     
   4389652849.3686485       -7325007.2838201523        489379671.67676938     
   4217722514.1563978       -13270048.990489244        498744373.85836649     
   4550365634.4040890        7664266.2128489017        620742292.76631474     
   4389716192.0368109        6489295.9485716820        622532056.19764316     
   4228463915.3561945        3304877.9731326103        627619533.28426373     
   4066608804.3622231       -1888987.7134776115        636004724.02618146     
   3904150859.0549002       -9092301.1112663746        647687628.42339730     
   5197455121.2824850       -14098000.081663132        40924409.573489100     
   5032617259.2065296       -4745226.0021104813        31454848.632872939     
   4867208856.5992775        2705746.3064706326        26738610.559283555     
   4701229913.4607306        8254916.8440582752        26775695.352726076     
   4534680429.7908840        11902285.610652685        31566103.013208184     
   4864374645.2701941       -15772898.475686789        195362764.43341592     
   4711041030.5834455       -7421326.0829451084        187409722.28420010     
   4557341234.2788038       -290359.08318018913        183783824.87969166     
   4403275256.3562746        5620002.5236277580        184485072.21989155     
   4248843096.8158560        10309758.737458467        189513464.30478278     
   4537797109.5614929       -15496914.778629780        347969419.19504333     
   4394750090.4858837       -8511839.6061227322        341771314.56953818     
   4251541248.7057834       -2066173.4485816956        339474176.56641263     
   4108170584.2212029        3840083.6940186024        341078005.18566084     
   3964638097.0321302        9206931.8216550350        346582800.42728961     
   4217722514.1563978       -13270048.990489244        498744373.85836649     
   4083744438.9138436       -8016766.5716505051        494539625.48888123     
   3949808899.8802099       -2621696.7897489071        493809665.61944187     
   3815915897.0554948        2915160.3552155495        496554494.25005090     
   3682065430.4396944        8593804.8632354736        502774111.38071436     
   3904150859.0549002       -9092301.1112663746        647687628.42339730     
   3778024075.8673253       -5936106.9795184135        645714655.04222834     
   3652144187.8020759       -1956929.1066911221        646790292.03878045     
   3526511194.8591480        2845232.5072109699        650914539.41306078     
   3401125097.0385523        8470377.8622107506        658087397.16506398     
   4534680429.7908840        11902285.610652685        31566103.013208184     
   4337103826.3142242        5782736.4167013168        22177993.721160207     
   4139795269.7302990        556676.86519050598        17716461.698671274     
   3942754760.0391006       -3775893.0438928604        18181506.945732422     
   3745982297.2406287       -7214973.3105540276        23573129.462355174     
   4248843096.8158560        10309758.737458467        189513464.30478278     
   4064252395.6427822        5674279.3559081554        180856602.62759501     
   3879844794.9190793        1649134.8055965900        176919841.64998621     
   3695620294.6447530       -1765674.9134569168        177703181.37193841     
   3511578894.8197980       -4570149.8012812138        183206621.79347467     
   3964638097.0321302        9206931.8216550350        346582800.42728961     
   3792443365.1055412        5878542.3353586197        338558082.18104309     
   3620346787.1849818        2877332.8691396713        335046988.06438392     
   3448348363.2704368        203303.42296862602        336049518.07732916     
   3276448093.3619103       -2143546.0031223297        341565672.21985829     
   3682065430.4396944        8593804.8632354736        502774111.38071436     
   3521676734.7025156        6395525.3550753593        495282432.38149607     
   3361301246.5280066        4241271.0558159351        492097900.94189072     
   3200938965.9161568        2131041.9654152393        493220517.06189692     
   3040589892.8669734        64838.083913445473        498650280.74151254     
   3401125097.0385523        8470377.8622107506        658087397.16506398     
   3251952504.4336958        7225228.4150671959        651029653.22896111     
   3102708172.9481497        5740949.3656252623        648072580.28249109     
   2953392102.5819097        4017540.7138756514        649216178.32565260     
   2804004293.3349867        2055002.4598375559        654460447.35844076     
   3745982297.2406287       -7214973.3105540276        23573129.462355174     
   3573663155.2809219       -3902462.6912412643        16438038.884982230     
   3400690644.2093997       -2767849.1112997532        13305457.311287764     
   3227064764.0260286       -3811132.5708559752        14175384.741278185     
   3052785514.7308378       -7032313.0698225498        19047821.174934275     
   3511578894.8197980       -4570149.8012812138        183206621.79347467     
   3349395703.4794707       -1132954.9757132530        175089089.09727365     
   3186821196.6357059        999854.83840811253        170737159.21086827     
   3023855374.2885218        1828279.6411095858        170150832.13425863     
   2860498236.4378867        1352319.4323303699        173330107.86742413     
   3276448093.3619103       -2143546.0031223297        341565672.21985829     
   3123723977.8012614        1215270.5767705441        332771426.61464369     
   2970870600.3455853        4143214.1732403040        327505877.62532371     
   2817887960.9948659        6640284.7862234116        325769025.25189793     
   2664776059.7491107        8706482.4157620668        327560869.49435753     
   3040589892.8669734        64838.083913445473        498650280.74151254     
   2896647978.2463155        3142213.9662551880        489485051.43707126     
   2752838855.3390226        6662228.8931268454        483611612.55462986     
   2609162524.1450896        10624882.864531398        481029964.09418404     
   2465618984.6645031        15030175.880444646        481740106.05573988     
   2804004293.3349867        2055002.4598375559        654460447.35844076     
   2668167704.8146234        4647875.1927057505        645229963.56456327     
   2532725961.6160145        8556898.9980688095        639054363.99879539     
   2397679063.7391639        13782073.875971913        635933648.66112971     
   2263027011.1840606        20323399.826363206        635867817.55157280     
   3052785514.7308378       -7032313.0698225498        19047821.174934275     
   2886512371.0735846       -8031228.0767087936        11829059.933318090     
   2720774201.2319818       -7246897.0314477682        6275651.2824980477     
   2555571005.2059617       -4679319.9342359304        2387595.2224754300     
   2390902782.9955535       -328496.78498315811        164891.75328226169     
   2860498236.4378867        1352319.4323303699        173330107.86742413     
   2699163433.3251638        1291590.9460672140        165501582.68233696     
   2538093702.6176906        2114437.1439796686        159589923.82054713     
   2377289044.3154645        3820858.0260413885        155595131.28205854     
   2216749458.4184980        6410853.5923000574        153517205.06686735     
   2664776059.7491107        8706482.4157620668        327560869.49435753     
   2509098207.8451352        9799523.6492973566        318807695.38706547     
   2353415526.9360690        10876468.199179769        312222901.33556628     
   2197728017.0219035        11937316.065412402        307806487.33985257     
   2042035678.1026301        12982067.247939467        305558453.39991826     
   2465618984.6645031        15030175.880444646        481740106.05573988     
   2316316694.6335373        17492570.033061862        471747398.04750586     
   2166739674.1871343        19039196.134213567        464174583.82753825     
   2016887923.3252690        19670054.183828235        459021663.39585000     
   1866761442.0479558        19385144.181950450        456288636.75243914     
   2263027011.1840606        20323399.826363206        635867817.55157280     
   2120818893.6903708        24370730.097379088        624320690.66363478     
   1978066144.3708663        26602620.949018955        615444971.29646587     
   1834768763.2255728        27019072.381351948        609240659.45006037     
   1690926750.2544594        25620084.394301414        605707755.12442768     
   2390902782.9955535       -328496.78498315811        164891.75328226169     
   2248503646.8002853        6709201.3464930058       -6344550.8508435795     
   2102936228.5549481        3185959.3110848665       -10900644.591115538     
   1954200528.2595003       -10898222.891364574       -13503389.467522087     
   1802296545.9139838       -35543345.260710239       -14152785.480097814     
   2216749458.4184980        6410853.5923000574        153517205.06686735     
   2078223608.4770775        12857009.755868912        143356536.55091527     
   1937620844.2472906        12380118.291545272        134358479.82051945     
   1794941165.7291551        4980179.1993902922        126523034.87566642     
   1650184572.9226444       -9342807.5206717253        119850201.71638118     
   2042035678.1026301        12982067.247939467        305558453.39991826     
   1905123865.6198952        18158906.805002451        293019821.36082113     
   1767226506.6105304        20050591.273290038        280853064.02898329     
   1628343601.0745380        18657120.652823985        269058181.40438104     
   1488475149.0119147        13978494.943576336        257635173.48703676     
   1866761442.0479558        19385144.181950450        456288636.75243914     
   1729204418.2287552        22614892.493960381        442645303.57888877     
   1591753215.6446726        26197378.256331205        428583108.03427207     
   1454407834.2956767        30132601.468990862        414102050.11861020     
   1317168274.1817844        34420562.132017553        399202129.83190006     
   1690926750.2544594        25620084.394301414        605707755.12442768     
   1550465266.3036666        26224966.822740316        592232983.20508933     
   1411200971.3497040        30820479.240604222        577548611.83639777     
   1273133865.3925743        39406621.647910058        561654641.01836050     
   1136263948.4322629        51983394.044621348        544551070.75096488     
   1802296545.9139838       -35543345.260710239       -14152785.480097814     
   1771463434.7097297       -16508602.819951415       -8478689.6309760548     
   1748650432.0178621        29259834.662106514       -41577672.411441393     
   1733857537.8383389        101761967.18531179       -113449733.82151560     
   1727084752.1711931        200997794.74976546       -224094873.86117435     
   1650184572.9226444       -9342807.5206717253        119850201.71638118     
   1527615787.2205751       -13889391.314696312        135466192.25087538     
   1409181098.7483840       -4655651.0091265440        124731202.47082059     
   1294880507.5060990        18358413.396129191        87645232.376226470     
   1184714013.4937077        55152801.901030540        24208281.967082083     
   1488475149.0119147        13978494.943576336        257635173.48703676     
   1309662398.2835617       -3501902.2438454628        278659378.87737042     
   1131097733.5026283       -20155346.273191273        285754702.26820409     
   952781154.66910577       -35981837.144506633        278921143.65952051     
   774712661.78301847       -50981374.857698768        258158703.05133700     
   1317168274.1817844        34420562.132017553        399202129.83190006     
   1117603267.8986964        14653864.392659724        421100870.24851930     
   914400336.28057158       -17239251.130158842        441492826.98066759     
   707559479.32737815       -61258784.436535865        460378000.02836281     
   497080697.03915423       -117404735.52635074        477756389.39159203     
   1136263948.4322629        51983394.044621348        544551070.75096488     
   951438396.06599832        40577908.594831884        562790666.36431432     
   759088907.08221459        4092634.4199618995        591945576.60824585     
   559215481.48091280       -57472428.479965240        632015801.48275828     
   351818119.26208639       -144117280.10496366        683001340.98783982     
   1727084752.1711931        200997794.74976546       -224094873.86117435     
   1456555935.5072253        184529378.05292165       -96578870.703534216     
   1153890020.2459066        60937299.364919305        60109637.616560899     
   819087006.38724446       -169778441.31422859        245970651.09918404     
   452146893.93119407       -507617843.98468101        461004169.74430054     
   1184714013.4937077        55152801.901030540        24208281.967082083     
   977629845.93533945        11813500.890767395        155587301.27633783     
   732746710.30004859       -157522360.37591648        312798364.96127105     
   450064606.58780956       -452854781.89906609        495841473.02188051     
   129583534.79862410       -874183763.67874849        704716625.45815456     
   774712661.78301847       -50981374.857698768        258158703.05133700     
   621528969.65362215       -124054812.28436956        386795224.11937994     
   424884439.96770144       -341997708.23278052        537923328.77628374     
   184779072.72526211       -704810062.70289779        711543017.02203655     
  -98787132.073686361       -1212491875.6947649        907654288.85664594     
   497080697.03915423       -117404735.52635074        477756389.39159203     
   388253306.66209108       -223075561.47240740        597044897.82557440     
   230303209.24892178       -492488744.20550686        735484529.06160736     
   23230404.799664915       -925644283.72556078        893075283.09965658     
  -232965106.68569979       -1522542180.0326517        1069817159.9397424     
   351818119.26208639       -144117280.10496366        683001340.98783982     
   277802856.96073818       -285248746.67339838        786336322.39492559     
   149003018.14368916       -608995468.29418576        905481965.81722307     
  -34581397.189024985       -1115357444.9671793        1040438271.2547361     
  -272950389.03743351       -1804334676.6924818        1191205238.7074583     
   4550365634.4040890        7664266.2128489017        620742292.76631474     
   4389716192.0368109        6489295.9485716820        622532056.19764316     
   4228463915.3561945        3304877.9731326103        627619533.28426373     
   4066608804.3622231       -1888987.7134776115        636004724.02618146     
   3904150859.0549002       -9092301.1112663746        647687628.42339730     
   4199661528.1765003        18203308.287869453        767751310.51744616     
   4047730213.6714067        13421373.913336754        763591267.20627916     
   3895552009.0579901        7816472.5110690594        763672138.77462113     
   3743126914.3362608        1388604.0810852051        767993925.22248447     
   3590454929.5062108       -5862231.3766345978        776556626.54985750     
   3832026751.1623449        23663149.126919746        912159462.43016386     
   3691508425.1600499        16082708.834309340        902464880.61570466     
   3551099153.2544718        8865782.1974163055        897954414.90497184     
   3410798935.4456077        2012369.2162392139        898628065.29798067     
   3270607771.7334576       -4477530.1092233658        904485831.79472220     
   3447461303.3616152        24043788.729996920        1053966748.5044669     
   3321050826.5027523        14473300.711501360        1039152896.4259166     
   3195105347.9456363        6452807.0321660042        1030466361.6753216     
   3069624867.6902695       -17692.308006763458        1027907144.2526797     
   2944609385.7366462       -4938197.3090270758        1031475244.1579924     
   3045965184.7743168        19345227.097105026        1193173168.7403512     
   2936357417.6995101        8593149.5449168682        1173655314.6369200     
   2827570593.1314812        577547.01531982422        1161207979.0856628     
   2719604711.0702362       -4701580.4916684628        1155831162.0865753     
   2612459771.5157704       -7244232.9760534763        1157524863.6396682     
   3904150859.0549002       -9092301.1112663746        647687628.42339730     
   3778024075.8673253       -5936106.9795184135        645714655.04222834     
   3652144187.8020759       -1956929.1066911221        646790292.03878045     
   3526511194.8591480        2845232.5072109699        650914539.41306078     
   3401125097.0385523        8470377.8622107506        658087397.16506398     
   3590454929.5062108       -5862231.3766345978        776556626.54985750     
   3472744707.1077375       -2742945.1043863297        772866010.50763571     
   3355203304.2684526        939073.03181004524        772609578.81611395     
   3237830720.9883575        5183823.0319788456        775787331.47529244     
   3120626957.2674508        9991304.8961098194        782399268.48516774     
   3270607771.7334576       -4477530.1092233658        904485831.79472220     
   3162415750.0468717       -1064659.7196482420        898986484.93445575     
   3054314472.3563371        2650690.6567631960        897306896.39786875     
   2946303938.6618524        6668521.0200191736        899447066.18495238     
   2838384148.9634242        10988831.370124578        905406994.29571068     
   2944609385.7366462       -4938197.3090270758        1031475244.1579924     
   2847037204.6847272       -901250.82529497147        1024076078.3226929     
   2749477692.0657296        3177923.7681691647        1020882244.7840419     
   2651930847.8796477        7299326.4713571072        1021893743.5420402     
   2554396672.1264853        11462957.284274101        1027110574.5966897     
   2612459771.5157704       -7244232.9760534763        1157524863.6396682     
   2526609071.0213103       -2252718.4213119745        1148134790.6723402     
   2440692963.3966308        2520772.3660284281        1143335623.9746413     
   2354711448.6417313        7076239.3859699965        1143127363.5465648     
   2268664526.7566190        11413682.638535023        1147510009.3881099     
   3401125097.0385523        8470377.8622107506        658087397.16506398     
   3251952504.4336958        7225228.4150671959        651029653.22896111     
   3102708172.9481497        5740949.3656252623        648072580.28249109     
   2953392102.5819097        4017540.7138756514        649216178.32565260     
   2804004293.3349867        2055002.4598375559        654460447.35844076     
   3120626957.2674508        9991304.8961098194        782399268.48516774     
   2982287591.1116080        8758939.4814702272        774770749.46668661     
   2843977757.1229825        7625014.6242181063        771371860.41186285     
   2705697455.3015718        6589530.3243457079        772202601.32067692     
   2567446685.6473746        5652486.5818595886        777262972.19315279     
   2838384148.9634242        10988831.370124578        905406994.29571068     
   2711246463.4680781        9879786.2514373064        897325849.75074828     
   2584239581.1878462        9206751.8498131037        893603294.14345467     
   2457363502.1227398        8969728.1652706861        894239327.47382307     
   2330618226.2727566        9168715.1977981329        899233949.74185956     
   2554396672.1264853        11462957.284274101        1027110574.5966897     
   2438829121.5030999        10587768.724963307        1018694954.0811365     
   2323493645.1427464        10486161.042429328        1014766881.4772633     
   2208390243.0454197        11158134.236647725        1015326356.7850798     
   2093518915.2111211        12603688.307628870        1020373380.0045695     
   2268664526.7566190        11413682.638535023        1147510009.3881099     
   2165035565.2166820        10882886.902070642        1138878062.4578569     
   2061739948.9876761        11463242.202041745        1134862622.4132967     
   1958777678.0696037        13154748.538464665        1135463689.2544394     
   1856148752.4624703        15957405.911344886        1140681262.9812779     
   2804004293.3349867        2055002.4598375559        654460447.35844076     
   2668167704.8146234        4647875.1927057505        645229963.56456327     
   2532725961.6160145        8556898.9980688095        639054363.99879539     
   2397679063.7391639        13782073.875971913        635933648.66112971     
   2263027011.1840606        20323399.826363206        635867817.55157280     
   2567446685.6473746        5652486.5818595886        777262972.19315279     
   2439972182.3690376        8482280.9878332615        768490123.48846841     
   2312820207.2986689        12387169.420363426        763040089.58652222     
   2185990760.4362698        17367151.879438877        760912870.48731446     
   2059483841.7818284        23422228.365068674        762108466.19083917     
   2330618226.2727566        9168715.1977981329        899233949.74185956     
   2212271324.1639552        12465086.055123329        890834366.16028965     
   2094174633.1493318        16595493.893040895        886025527.95608473     
   1976328153.2288933        21559938.711574554        884807435.12924385     
   1858731884.4026334        27358420.510705352        887180087.67976558     
   2093518915.2111211        12603688.307628870        1020373380.0045695     
   1985065130.1993668        16596290.394555807        1012262691.5800267     
   1876789239.1680088        21181872.416144013        1008010679.1074781     
   1768691242.1170406        26360434.372360826        1007617342.5869259     
   1660771139.0464683        32131976.263230979        1011082682.0183680     
   1856148752.4624703        15957405.911344886        1140681262.9812779     
   1758353600.4752769        20875894.006141186        1132775099.7476852     
   1660664025.3546870        26146304.989623427        1128995543.0407090     
   1563080027.1007068        31768638.861809134        1129342592.8603582     
   1465601605.7133355        37742895.622686327        1133816249.2066257     
   2263027011.1840606        20323399.826363206        635867817.55157280     
   2120818893.6903708        24370730.097379088        624320690.66363478     
   1978066144.3708663        26602620.949018955        615444971.29646587     
   1834768763.2255728        27019072.381351948        609240659.45006037     
   1690926750.2544594        25620084.394301414        605707755.12442768     
   2059483841.7818284        23422228.365068674        762108466.19083917     
   1924539667.0844619        26883695.746350646        751198423.93399334     
   1789231800.0309005        29132855.273637891        743339821.58965385     
   1653560240.6211390        30169706.946936905        738532659.15780985     
   1517524988.8551874        29994250.766256869        736776936.63847077     
   1858731884.4026334        27358420.510705352        887180087.67976558     
   1732137459.3351192        30559767.052307010        877118226.10189807     
   1605360281.3810186        33151937.305276036        870487836.82826030     
   1478400350.5403290        35134931.269622505        867288919.85886431     
   1351257666.8130512        36508748.945346415        867521475.19369376     
   1660771139.0464683        32131976.263230979        1011082682.0183680     
   1543612270.4423361        35398944.015230298        1002080097.1673373     
   1426451588.4212174        38659867.043931305        996889017.01228750     
   1309289092.9831247        41914745.349389791        995509441.55320275     
   1192124784.1280539        45163578.931591034        997941370.79008508     
   1465601605.7133355        37742895.622686327        1133816249.2066257     
   1358964100.4061046        41401226.635102510        1126084037.1303244     
   1252505721.1515055        45656644.489631832        1122543362.1417291     
   1146226467.9495332        50509149.186240435        1123194224.2408347     
   1040126340.8001890        55958740.724955261        1128036623.4276478     
   1690926750.2544594        25620084.394301414        605707755.12442768     
   1550465266.3036666        26224966.822740316        592232983.20508933     
   1411200971.3497040        30820479.240604222        577548611.83639777     
   1273133865.3925743        39406621.647910058        561654641.01836050     
   1136263948.4322629        51983394.044621348        544551070.75096488     
   1517524988.8551874        29994250.766256869        736776936.63847077     
   1375413513.5366223        27920189.062746286        727564698.76408017     
   1233615793.1300545        26891977.065890789        718911054.08657956     
   1092131827.6354880        26909614.775703132        710816002.60598743     
   950961617.05290246        27973102.192128956        703279544.32229555     
   1351257666.8130512        36508748.945346415        867521475.19369376     
   1212548179.1160116        33271336.806679010        861541098.26526880     
   1073269012.2461394        28134994.091891885        857887507.17999291     
   933420166.20342398        21099720.800983131        856560701.93787944     
   793001640.98787689        12165516.933947027        857560682.53891277     
   1192124784.1280539        45163578.931591034        997941370.79008508     
   1061869263.0418316        42278410.054529369        994162181.70865619     
   930160628.69795477        34549530.318615019        994477971.11663342     
   796998881.09640038        21976939.723778546        998888739.01402581     
   662384020.23717582        4560638.2700407803        1007394485.4008209     
   1040126340.8001890        55958740.724955261        1128036623.4276478     
   923376765.31409860        54941408.806340367        1125427949.0942452     
   804290642.48550665        46135585.746054143        1128682445.8965023     
   682867972.31441331        29541271.544093639        1137800113.8344316     
   559108754.80081975        5158466.2004713714        1152780952.9080150     
   1136263948.4322629        51983394.044621348        544551070.75096488     
   951438396.06599832        40577908.594831884        562790666.36431432     
   759088907.08221459        4092634.4199618995        591945576.60824585     
   559215481.48091280       -57472428.479965240        632015801.48275828     
   351818119.26208639       -144117280.10496366        683001340.98783982     
   950961617.05290246        27973102.192128956        703279544.32229555     
   791754390.39148831        10996040.661499113        721240260.78786898     
   623906302.80265236       -34783890.627200484        749277815.33754504     
   447417354.28637093       -109366691.67404115        787392207.97134006     
   262287544.84267294       -212752362.47896171        835583438.68924344     
   793001640.98787689        12165516.933947027        857560682.53891277     
   657017092.75568271       -11101814.860183954        873939441.49514520     
   511274759.28614444       -66895097.445459098        899556561.98901665     
   355774640.57926655       -155214330.82186562        934412044.02052867     
   190516736.63504866       -276059514.98940974        978505887.58967614     
   662384020.23717582        4560638.2700407803        1007394485.4008209     
   547226503.15856707       -25715657.970289201        1020888208.4861574     
   421194276.53270829       -92240986.034786612        1042781816.5626510     
   284287340.35959178       -195015345.92347136        1073075309.6303204     
   136505694.63922384       -334038737.63633788        1111768687.6891515     
   559108754.80081975        5158466.2004713714        1152780952.9080150     
   462382621.60015339       -32845488.668767214        1162086561.7608905     
   353664854.54233098       -110821556.39519814        1178953579.0584548     
   232955453.62733579       -228769736.97886348        1203382004.8007145     
   100254418.85519436       -386690030.41969413        1235371838.9876695     
   351818119.26208639       -144117280.10496366        683001340.98783982     
   277802856.96073818       -285248746.67339838        786336322.39492559     
   149003018.14368916       -608995468.29418576        905481965.81722307     
  -34581397.189024985       -1115357444.9671793        1040438271.2547361     
  -272950389.03743351       -1804334676.6924818        1191205238.7074583     
   262287544.84267294       -212752362.47896171        835583438.68924344     
   223593851.28205737       -352403668.68668115        884976143.62290430     
   140664225.13168600       -639508083.52692258        945387048.56637371     
   13498666.391581774       -1074065606.9996238        1016816153.5196407     
  -157902824.93829060       -1656076239.1048489        1099263458.4827020     
   190516736.63504866       -276059514.98940974        978505887.58967614     
   173451863.22827986       -418338485.41246945        986263067.29685318     
   122699701.15769333       -672908418.04824805        1000245985.0084182     
   38260250.423289895       -1039769312.8967439        1020454640.7243639     
  -79866488.974919736       -1518921169.9579344        1046889034.4447073     
   136505694.63922384       -334038737.63633788        1111768687.6891515     
   127376892.79939228       -483053196.85080248        1090197093.4167655     
   95109446.221694797       -709196471.85818601        1070058775.1433512     
   39703354.906111300       -1012468562.6585071        1051353732.8689028     
  -38841381.147360086       -1392869469.2517767        1034081966.5934355     
   100254418.85519436       -386690030.41969413        1235371838.9876695     
   85368939.995405763       -546547803.00166523        1196778221.9826434     
   57893460.323698610       -748372244.95671511        1154825418.9711688     
   17827979.840025187       -992163356.28497720        1109513429.9532630     
  -34827501.455578089       -1277921136.9863386        1060842254.9289150     
   3045965184.7743168        19345227.097105026        1193173168.7403512     
   2936357417.6995101        8593149.5449168682        1173655314.6369200     
   2827570593.1314812        577547.01531982422        1161207979.0856628     
   2719604711.0702362       -4701580.4916684628        1155831162.0865753     
   2612459771.5157704       -7244232.9760534763        1157524863.6396682     
   2642375735.3620391        11919560.088075399        1245468185.6335170     
   2550673396.6376042        3483678.7893500328        1231343942.2576282     
   2459692744.8534780       -2546579.3750067949        1223388079.9252017     
   2369433780.0096636       -6171214.4049944878        1221600598.6362453     
   2279896502.1061592       -7390226.3006122112        1225981498.3907557     
   2252914321.1052618        8732303.6256955862        1296645935.3564920     
   2176539874.9920340        1839357.8586856127        1287799504.5472605     
   2100787860.2526443       -2978816.6621878147        1284219317.2727928     
   2025658276.8870952       -5722219.9369276762        1285905373.5330806     
   1951151124.8953927       -6390851.9655210972        1292857673.3281260     
   1877580942.0039825        9783457.7099635601        1346706417.9092722     
   1813956852.7628002        3660186.7529230118        1343022001.5058222     
   1750855939.3289826       -719164.84621787071        1343701691.1284237     
   1688278201.7025390       -3354597.0874513388        1348745486.7770762     
   1626223639.8834696       -4246109.9707717299        1358153388.4517810     
   1516375598.0582094        15073022.340886652        1395649633.2918618     
   1462924329.9498978        8946165.4720562696        1397011433.1333122     
   1409896982.0824962        4232376.0729120970        1401835201.4921026     
   1357293554.4559889        931654.14342290163        1410120938.3682373     
   1305114047.0703878       -956000.31637674570        1421868643.7617188     
   2612459771.5157704       -7244232.9760534763        1157524863.6396682     
   2526609071.0213103       -2252718.4213119745        1148134790.6723402     
   2440692963.3966308        2520772.3660284281        1143335623.9746413     
   2354711448.6417313        7076239.3859699965        1143127363.5465648     
   2268664526.7566190        11413682.638535023        1147510009.3881099     
   2279896502.1061592       -7390226.3006122112        1225981498.3907557     
   2205552191.9508133       -2975446.4848036766        1217783532.5031946     
   2131195580.3850312        1398328.6295562983        1213978822.4696989     
   2056826667.4088156        5731099.0424641371        1214567368.2902653     
   1982445453.0221596        10022864.753918052        1219549169.9648914     
   1951151124.8953927       -6390851.9655210972        1292857673.3281260     
   1887748489.6061239       -2722221.5305504799        1285913771.1934130     
   1824386658.6262040        1082423.2689188719        1283165474.4972007     
   1761065631.9556286        5023082.4328700304        1284612783.2394829     
   1697785409.5944035        9099755.9613184929        1290255697.4202683     
   1626223639.8834696       -4246109.9707717299        1358153388.4517810     
   1573197963.9872413       -1493043.5585532188        1352525506.7429934     
   1520266198.1201487        1573056.2841131687        1350895580.0571425     
   1467428342.2821813        4952189.5571979880        1353263608.3942292     
   1414684396.4733472        8644356.2607288957        1359629591.7542520     
   1305114047.0703878       -956000.31637674570        1421868643.7617188     
   1261900615.0941663        712087.43118304014        1417618739.1519353     
   1218834198.8668647        2870227.6751388311        1417169139.1495280     
   1175914798.3884673        5518420.4154434204        1420519843.7544959     
   1133142413.6589868        8656665.6521414518        1427670852.9668362     
   2268664526.7566190        11413682.638535023        1147510009.3881099     
   2165035565.2166820        10882886.902070642        1138878062.4578569     
   2061739948.9876761        11463242.202041745        1134862622.4132967     
   1958777678.0696037        13154748.538464665        1135463689.2544394     
   1856148752.4624703        15957405.911344886        1140681262.9812779     
   1982445453.0221596        10022864.753918052        1219549169.9648914     
   1890960115.4118826        9608958.9224468470        1211868820.3113027     
   1799767671.7993917        10171366.416928530        1208886238.3552191     
   1708868122.1846929        11710087.237382054        1210601424.0966361     
   1618261466.5677791        14225121.383788347        1217014377.5355592     
   1697785409.5944035        9099755.9613184929        1290255697.4202683     
   1618675869.6617985        8872392.1592391133        1283479751.8446822     
   1539818772.4138336        9486503.9726361036        1281482834.7784026     
   1461214117.8505135        10942091.401508749        1284264946.2214339     
   1382861905.9718409        13239154.445869505        1291826086.1737664     
   1414684396.4733472        8644356.2607288957        1359629591.7542520     
   1348182827.9664242        8673186.6124436259        1353710857.0579967     
   1281893250.8310037        9408654.8691639900        1352652411.6828499     
   1215815665.0670757        10850761.030862927        1356454255.6288159     
   1149950070.6746542        12999505.097573578        1365116388.8958936     
   1133142413.6589868        8656665.6521414518        1427670852.9668362     
   1079480990.3257651        9011342.2820658684        1422562135.9512377     
   1025991107.0508933        9937819.1064944267        1422394969.0685585     
   972672763.83437443        11436096.125434637        1427169352.3187962     
   919525960.67621303        13506173.338894606        1436885285.7019482     
   1856148752.4624703        15957405.911344886        1140681262.9812779     
   1758353600.4752769        20875894.006141186        1132775099.7476852     
   1660664025.3546870        26146304.989623427        1128995543.0407090     
   1563080027.1007068        31768638.861809134        1129342592.8603582     
   1465601605.7133355        37742895.622686327        1133816249.2066257     
   1618261466.5677791        14225121.383788347        1217014377.5355592     
   1531236694.9854906        18435164.656331420        1210205873.2138860     
   1444328113.3058946        23032507.604515433        1207719157.6360455     
   1357535721.5289938        28017150.228348434        1209554230.8020267     
   1270859519.6547933        33389092.527851820        1215711092.7118349     
   1382861905.9718409        13239154.445869505        1291826086.1737664     
   1307165178.2721827        16908051.939467013        1286127622.6394556     
   1231595253.5113084        20999625.895676434        1284946130.0661781     
   1156152131.6892164        25513876.314491868        1288281608.4539323     
   1080835812.8059096        30450803.195928216        1296134057.8027148     
   1149950070.6746542        12999505.097573578        1365116388.8958936     
   1086139050.3353493        16294555.855537415        1360540348.0243871     
   1022465445.9709201        20047659.863076568        1360676460.3311074     
   958929257.58136392        24258817.120201051        1365524725.8160660     
   895530485.16668248        28928027.626901567        1375085144.4792638     
   919525960.67621303        13506173.338894606        1436885285.7019482     
   868158311.17499733        16594676.404562205        1433444049.3686719     
   816938690.68474126        20176609.506762922        1434910148.4308324     
   765867099.20544314        24251972.645492166        1441283582.8884330     
   714943536.73710942        28820765.820764482        1452564352.7414718     
   1465601605.7133355        37742895.622686327        1133816249.2066257     
   1358964100.4061046        41401226.635102510        1126084037.1303244     
   1252505721.1515055        45656644.489631832        1122543362.1417291     
   1146226467.9495332        50509149.186240435        1123194224.2408347     
   1040126340.8001890        55958740.724955261        1128036623.4276478     
   1270859519.6547933        33389092.527851820        1215711092.7118349     
   1175277511.7081330        36340570.223183632        1209905808.4765959     
   1079744991.1450875        39457005.863904357        1208576335.8888066     
   984261957.96565604        42738399.450006485        1211722674.9484627     
   888828412.16983914        46184750.981481463        1219344825.6555755     
   1080835812.8059096        30450803.195928216        1296134057.8027148     
   997121515.24765873        32939091.482515752        1292104456.2946868     
   913327066.40400779        35160208.817772627        1292834940.9938557     
   829452466.27496517        37114155.201718599        1298325511.9002166     
   745497714.86052191        38800930.634330839        1308576169.0137689     
   895530485.16668248        28928027.626901567        1375085144.4792638     
   824496111.02468681        31196790.413104326        1372679980.5845985     
   753251946.92827368        32766253.351250798        1375319177.4568741     
   681797992.87745667        33636416.441383660        1383002735.0960886     
   610134248.87222612        33807279.683469981        1395730653.5022426     
   714943536.73710942        28820765.820764482        1452564352.7414718     
   657401299.03921032        31113667.014928222        1451632381.3463285     
   599519632.71788144        32275139.464328200        1456029045.2778623     
   541298537.77313793        32305183.169013143        1465754344.5360820     
   482738014.20496798        31203798.128940374        1480808279.1209836     
   1040126340.8001890        55958740.724955261        1128036623.4276478     
   923376765.31409860        54941408.806340367        1125427949.0942452     
   804290642.48550665        46135585.746054143        1128682445.8965023     
   682867972.31441331        29541271.544093639        1137800113.8344316     
   559108754.80081975        5158466.2004713714        1152780952.9080150     
   888828412.16983914        46184750.981481463        1219344825.6555755     
   787036656.26015770        44314550.673667580        1216809884.9770982     
   682947662.10633492        34786889.552043647        1220114604.0038679     
   576561429.70835924        17601767.616579622        1229258982.7358673     
   467877959.06624478       -7240815.1326802671        1244243021.1731017     
   745497714.86052191        38800930.634330839        1308576169.0137689     
   658596603.01173937        36057709.282664895        1306160822.6049774     
   569437562.01717043        25788057.445041209        1309561624.4710011     
   478020591.87680686        7991975.1214359105        1318778574.6118250     
   384345692.59065467       -17330537.688129798        1333811673.0274572     
   610134248.87222612        33807279.683469981        1395730653.5022426     
   538056605.56883693        30170884.633320272        1393480761.9778831     
   463760342.21801382        19139089.425051525        1397023507.2979021     
   387245458.81974661        711894.05863995850        1406358889.4622982     
   308511955.37404287       -25110701.465895817        1421486908.4710734     
   482738014.20496798        31203798.128940374        1480808279.1209836     
   425416663.93144679        26654076.725606024        1478769703.0958040     
   365916002.70885509        14839985.492039546        1482500252.4845774     
   304236030.53717327       -4238475.5718287081        1491999927.2872906     
   240376747.41641670       -30581306.465946183        1507268727.5039554     
   559108754.80081975        5158466.2004713714        1152780952.9080150     
   462382621.60015339       -32845488.668767214        1162086561.7608905     
   353664854.54233098       -110821556.39519814        1178953579.0584548     
   232955453.62733579       -228769736.97886348        1203382004.8007145     
   100254418.85519436       -386690030.41969413        1235371838.9876695     
   467877959.06624478       -7240815.1326802671        1244243021.1731017     
   390328719.43391681       -41615251.773524165        1242725071.5240748     
   302633559.89549434       -109809421.43467197        1247559588.8917353     
   204792480.45099455       -211823324.11608443        1258746573.2761025     
   96805481.100406826       -347656959.81778723        1276286024.6771808     
   384345692.59065467       -17330537.688129798        1333811673.0274572     
   322519228.16097349       -49111691.610304803        1323623497.8194292     
   252392557.77628353       -108560198.71584392        1318578848.2001216     
   173965681.43658674       -195676059.00473848        1318677724.1695285     
   87238599.141876221       -310459272.47700649        1323920125.7276466     
   308511955.37404287       -25110701.465895817        1421486908.4710734     
   258954147.78133970       -55334808.179066762        1404781840.6469800     
   202941848.18469375       -107073888.23871663        1392011356.9836159     
   140475056.58411723       -180327941.64480442        1383175457.4809773     
   71553772.979601637       -275096968.39734733        1378274142.1390696     
   240376747.41641670       -30581306.465946183        1507268727.5039554     
   199633478.29499394       -60284601.479882300        1486200100.0067174     
   154281431.12071142       -105350490.00334543        1467857115.2422159     
   104320605.89358416       -165778972.03629234        1452239773.2104583     
   49751002.613589019       -241570047.57879621        1439348073.9114361     
   100254418.85519436       -386690030.41969413        1235371838.9876695     
   85368939.995405763       -546547803.00166523        1196778221.9826434     
   57893460.323698610       -748372244.95671511        1154825418.9711688     
   17827979.840025187       -992163356.28497720        1109513429.9532630     
  -34827501.455578089       -1277921136.9863386        1060842254.9289150     
   96805481.100406826       -347656959.81778723        1276286024.6771808     
   79842992.650264621       -488836503.21712196        1221971622.6867321     
   51496801.490115702       -667961722.31647635        1165108346.4372206     
   11766907.619962573       -885032617.11585045        1105696195.9286573     
  -39346688.960211813       -1140049187.6152868        1043735171.1610327     
   87238599.141876221       -310459272.47700649        1323920125.7276466     
   70514277.522473305       -432266033.76737380        1255292286.5373619     
   43612551.295000494       -587997477.08464503        1184925884.8353963     
   6533420.4594457150       -777653602.42885685        1112820920.6217656     
  -40723114.984193861       -1001234409.8000124        1038977393.8964461     
   71553772.979601637       -275096968.39734733        1378274142.1390696     
   57382794.612039372       -376836394.65240502        1296740213.5345297     
   34240709.738331050       -508479509.26128614        1214278034.1656973     
   2127518.3584635556       -670026312.22402442        1130887604.0325737     
  -38956779.527544260       -861476803.54056859        1046568923.1351675     
   49751002.613589019       -241570047.57879621        1439348073.9114361     
   40448543.918955728       -322547585.87224454        1346315403.6782305     
   23381276.820096791       -429407818.84643662        1253164794.4281213     
  -1450798.6829635501       -562150746.50129879        1159896246.1610992     
  -34047682.590245664       -720776368.83691680        1066509758.8771757     
   1516375598.0582094        15073022.340886652        1395649633.2918618     
   1462924329.9498978        8946165.4720562696        1397011433.1333122     
   1409896982.0824962        4232376.0729120970        1401835201.4921026     
   1357293554.4559889        931654.14342290163        1410120938.3682373     
   1305114047.0703878       -956000.31637674570        1421868643.7617188     
   1155083453.0976202        16645284.721892416        1436641109.9212213     
   1111778917.0630076        11085320.606752455        1434657128.1497030     
   1068792320.8149487        6585155.7801250219        1436885534.9743688     
   1026123664.3534384        3144790.2419889569        1443326330.3952239     
   983772947.67847860        764223.99235695601        1453979514.4122672     
   781923470.03682494        14657195.672832966        1476741667.3790469     
   750909723.44403744        10307341.521824598        1471288260.1311486     
   720107936.18344927        6664018.4781469107        1470797661.5582840     
   689518108.25506127        3727226.5418019295        1475269871.6604481     
   659140239.65886760        1496965.7127733529        1484704890.4376459     
   396895648.87582874        9108755.1937140971        1515951305.6653433     
   380316749.09299052        6612228.2172712237        1506904829.0776548     
   363843828.18800217        4468964.1669922471        1503571581.2438414     
   347476886.16085768        2678963.0428611934        1505951562.1639059     
   331215923.01156014        1242224.8448859304        1514044771.8378437     
  -10.385371866512974       -36.715464459922032        1554270024.7801065     
  -5.9901328402994842       -19.306900080505009        1541506834.9892173     
  -3.1713989950649295       -7.1533536649071632        1535207294.0310483     
  -1.9291670138655226      -0.25481380970450523        1535371401.9055979     
  -2.2634486318196343        1.3886814088758139        1541999158.6128693     
   1305114047.0703878       -956000.31637674570        1421868643.7617188     
   1261900615.0941663        712087.43118304014        1417618739.1519353     
   1218834198.8668647        2870227.6751388311        1417169139.1495280     
   1175914798.3884673        5518420.4154434204        1420519843.7544959     
   1133142413.6589868        8656665.6521414518        1427670852.9668362     
   983772947.67847860        764223.99235695601        1453979514.4122672     
   950499407.26084828        1756249.7136869431        1448828363.1253438     
   917336128.65694904        3115814.8141196966        1447678991.9744730     
   884283111.86678505        4842919.2936704159        1450531400.9596617     
   851340356.89035201        6937563.1523208022        1457385590.0809045     
   659140239.65886760        1496965.7127733529        1484704890.4376459     
   636382235.16748917        1985622.7181635797        1478609612.8825326     
   613697738.55466473        2719305.9853966534        1476717590.9921560     
   591086749.82039070        3698015.5144670308        1479028824.7665207     
   568549268.96466959        4921751.3053792417        1485543314.2056234     
   331215923.01156014        1242224.8448859304        1514044771.8378437     
   319549098.81410110        1400206.4446456432        1506962488.4234974     
   307919028.56000984        1680701.1889657825        1504284936.2025743     
   296325712.24929070        2083709.0778603554        1506012115.1750722     
   284769149.88194269        2609230.1113243103        1512144025.3409896     
  -2.2634486318196343        1.3886814088758139        1541999158.6128693     
  -1.7993278112892330       0.89310212156149127        1533886989.7482498     
  -1.3270186460678912       0.42481696960560889        1530381027.6057298     
 -0.84651717869853604       -1.6160161578867627E-002   1531481272.1853161     
 -0.35782530784554356      -0.42983629476258156        1537187723.4870055     
   1133142413.6589868        8656665.6521414518        1427670852.9668362     
   1079480990.3257651        9011342.2820658684        1422562135.9512377     
   1025991107.0508933        9937819.1064944267        1422394969.0685585     
   972672763.83437443        11436096.125434637        1427169352.3187962     
   919525960.67621303        13506173.338894606        1436885285.7019482     
   851340356.89035201        6937563.1523208022        1457385590.0809045     
   810604789.71039152        7056720.6171495616        1452162934.2739818     
   769997877.59621346        7604728.3012490273        1451996045.1824472     
   729519620.54780376        8581586.2045757771        1456884922.8062961     
   689170018.56516826        9987294.3271523714        1466829567.1455312     
   568549268.96466959        4921751.3053792417        1485543314.2056234     
   541065891.03074908        4903289.5329709351        1480156687.1160359     
   513668283.17002219        5170728.0045401752        1479940043.3242991     
   486356445.38248938        5724066.7200870514        1484893382.8304172     
   459130377.66814798        6563305.6796108186        1495016705.6343892     
   284769149.88194269        2609230.1113243103        1512144025.3409896     
   270864294.28682953        2551049.0295066535        1506543394.4773881     
   257002323.77232522        2635818.2163879573        1506226963.4941115     
   243183238.33843365        2863537.6719759703        1511194732.3911572     
   229407037.98515448        3234207.3962739557        1521446701.1685219     
 -0.35782530784554356      -0.42983629476258156        1537187723.4870055     
 -0.52137163634010819      -0.89325541011550258        1531323056.3580487     
 -0.59688321135492783       -1.0632260410919976        1530856805.6918848     
 -0.58436216030912258      -0.93975423825504711        1535788971.4885118     
 -0.48380850607816667      -0.52284042480092829        1546119553.7479300     
   919525960.67621303        13506173.338894606        1436885285.7019482     
   868158311.17499733        16594676.404562205        1433444049.3686719     
   816938690.68474126        20176609.506762922        1434910148.4308324     
   765867099.20544314        24251972.645492166        1441283582.8884330     
   714943536.73710942        28820765.820764482        1452564352.7414718     
   689170018.56516826        9987294.3271523714        1466829567.1455312     
   650385096.24021471        12225916.185662866        1463680387.4547682     
   611711195.66617000        14834610.547201008        1465499019.7058063     
   573148316.84303415        17813377.411769599        1472285463.8986361     
   534696459.77080119        21162216.779350400        1484039720.0332742     
   459130377.66814798        6563305.6796108186        1495016705.6343892     
   433100972.65191472        8003883.3706999719        1492116407.4494123     
   407145582.12653810        9691176.0313109159        1494244397.7525899     
   381264206.09202135        11625183.661455870        1501400676.5439334     
   355456844.54835433        13805906.261098087        1513585243.8234296     
   229407037.98515448        3234207.3962739557        1521446701.1685219     
   216305940.41010204        3928577.9596907720        1518752109.3526025     
   203241850.06585121        4746305.9591126442        1521146282.5712004     
   190214766.95240763        5687391.3945568576        1528629220.8243175     
   177224691.06976166        6751834.2659970075        1541200924.1119559     
 -0.48380850607816667      -0.52284042480092829        1546119553.7479300     
 -0.48522596197441403       -4.7373002956327612E-002   1543587493.1643386     
 -0.51589263996263424       0.33059562413624954        1546204674.1616271     
 -0.57579959573233364       0.61109769945798176        1553971096.7397919     
 -0.66496780609354467       0.79406156558528473        1566886760.8988445     
   714943536.73710942        28820765.820764482        1452564352.7414718     
   657401299.03921032        31113667.014928222        1451632381.3463285     
   599519632.71788144        32275139.464328200        1456029045.2778623     
   541298537.77313793        32305183.169013143        1465754344.5360820     
   482738014.20496798        31203798.128940374        1480808279.1209836     
   534696459.77080119        21162216.779350400        1484039720.0332742     
   490960323.96443796        22708055.439400405        1483181463.5743785     
   446969616.67926180        23405322.503404394        1487787049.2132356     
   402724337.91527766        23254017.971381947        1497856476.9498508     
   358224487.67248487        22254141.843333498        1513389746.7842212     
   355456844.54835433        13805906.261098087        1513585243.8234296     
   325913115.69372481        14720573.905070409        1512899702.3028393     
   296199672.50490189        15069527.101725206        1517813209.6510727     
   266316514.98189008        14852765.851085886        1528325765.8681378     
   236263643.12468609        14070290.153138578        1544437370.9540291     
   177224691.06976166        6751834.2659970075        1541200924.1119559     
   162259674.22707963        7151222.4119707942        1540787097.5317192     
   147209800.19481799        7267753.2593454793        1546107526.5913792     
   132075068.97297662        7101426.8081220835        1557162211.2909415     
   116855480.56157184        6652243.0583523363        1573951151.6304026     
 -0.66496780609354467       0.79406156558528473        1566886760.8988445     
 -0.43550291578115385       0.96008329491654032        1566843649.2610130     
 -0.25100041093192466       0.97623040603725786        1572670000.0341558     
 -0.11145329165068779       0.84252623193133402        1584365813.2182755     
  -1.6863891235833040E-002  0.55896299493746993        1601931088.8133566     
   482738014.20496798        31203798.128940374        1480808279.1209836     
   425416663.93144679        26654076.725606024        1478769703.0958040     
   365916002.70885509        14839985.492039546        1482500252.4845774     
   304236030.53717327       -4238475.5718287081        1491999927.2872906     
   240376747.41641670       -30581306.465946183        1507268727.5039554     
   358224487.67248487        22254141.843333498        1513389746.7842212     
   316066401.54886585        19091728.684246629        1509922721.4294460     
   272273832.22265476        10481038.183187798        1512030471.9504347     
   226846779.69385314       -3577929.6598417312        1519712998.3471978     
   179785243.96246508       -23085174.844823211        1532970300.6197164     
   236263643.12468609        14070290.153138578        1544437370.9540291     
   208713536.75615981        12128599.919844694        1540177528.6405606     
   180073774.93153501        6554724.8328876868        1541298112.6646802     
   150344357.65080234       -2651335.1077604294        1547799123.0263846     
   119525284.91396880       -15489579.902080297        1559680559.7256682     
   116855480.56157184        6652243.0583523363        1573951151.6304026     
   103358069.55332823        5764690.4323942736        1569534124.7291536     
   89315830.835476875        3061045.4410756864        1570303174.6273053     
   74728764.408019334       -1458691.9155988991        1576258301.3248596     
   59596870.270936057       -7794521.6376899816        1587399504.8218176     
  -1.6863891235833040E-002  0.55896299493746993        1601931088.8133566     
  -5.9617786897701669E-002  0.22193615992601878        1597992509.6952238     
  -6.5497790341556381E-002   7.8236867533948984E-003   1599045657.8383093     
  -3.4499349347989899E-002  -8.3360985239186905E-002   1605090533.2426128     
   3.3364611439956976E-002  -5.1661285139891100E-002   1616127135.9081426     
   240376747.41641670       -30581306.465946183        1507268727.5039554     
   199633478.29499394       -60284601.479882300        1486200100.0067174     
   154281431.12071142       -105350490.00334543        1467857115.2422159     
   104320605.89358416       -165778972.03629234        1452239773.2104583     
   49751002.613589019       -241570047.57879621        1439348073.9114361     
   179785243.96246508       -23085174.844823211        1532970300.6197164     
   148509606.09532487       -45578101.899736263        1507396707.7705653     
   113777384.68628135       -79592974.094331220        1484716334.3937333     
   75588579.735321492       -125129791.42864239        1464929180.4892175     
   33943191.242448255       -182188553.90266758        1448035246.0570257     
   119525284.91396880       -15489579.902080297        1559680559.7256682     
   98196068.985637531       -30628501.792582385        1530946228.4540348     
   74562464.026333451       -53448720.452993169        1505272693.3942997     
   48624470.036063291       -83950235.883291274        1482659954.5464640     
   20382087.014813811       -122133048.08352044        1463108011.9105296     
   59596870.270936057       -7794521.6376899816        1587399504.8218176     
   48692866.965919860       -15435801.158454254        1556848662.0571270     
   36636669.140878268       -26917729.079300225        1529526192.2439184     
   23428276.795804948       -42240305.400253423        1505432095.3822007     
   9067689.9307016470       -61403530.121306561        1484566371.4719443     
   3.3364611439956976E-002  -5.1661285139891100E-002   1616127135.9081426     
   3.6183144392775278E-002   2.6881427486899340E-003   1585104008.5798357     
   2.9912931106460625E-002   2.6739668171989941E-002   1557476830.9425941     
   1.4560079332680078E-002   2.0516772804489238E-002   1533245602.9964120     
  -9.8876950583237158E-003  -1.6022531287088956E-002   1512410324.7412877     
   49751002.613589019       -241570047.57879621        1439348073.9114361     
   40448543.918955728       -322547585.87224454        1346315403.6782305     
   23381276.820096791       -429407818.84643662        1253164794.4281213     
  -1450798.6829635501       -562150746.50129879        1159896246.1610992     
  -34047682.590245664       -720776368.83691680        1066509758.8771757     
   33943191.242448255       -182188553.90266758        1448035246.0570257     
   29802385.066228241       -242070896.27865657        1347531476.9967542     
   19837972.587800100       -321365259.66200739        1246248026.7558541     
   4049953.8071641624       -420071644.05271327        1144184895.3342891     
  -17561671.275683373       -538190049.45079541        1041342082.7320843     
   20382087.014813811       -122133048.08352044        1463108011.9105296     
   19512241.460615940       -161487402.11092073        1357397879.8088791     
   14759991.706203759       -213783103.47236800        1250246324.3628306     
   6125337.7515888512       -279020152.16782546        1141653345.5724006     
  -6391720.4032339901       -357198548.19730794        1031618943.4375674     
   9067689.9307016470       -61403530.121306561        1484566371.4719443     
   9578113.1021115668       -80797103.369059190        1375914612.1145830     
   8147334.1753130704       -106661350.27750359        1265159687.2490835     
   4775353.1503073573       -138996270.84664276        1152301596.8754439     
  -537829.97290331125       -177801865.07646275        1037340340.9936744     
  -9.8876950583237158E-003  -1.6022531287088956E-002   1512410324.7412877     
  -9.2857040737900146E-003  -5.3072152899508847E-002   1403081673.9138820     
  -4.8885346320421408E-003  -7.7469097986376981E-002   1290988115.4145870     
   3.3110190413585781E-003  -8.9190388133650045E-002   1176129649.2434206     
   1.5314306599402246E-002  -8.8238116447236420E-002   1058506275.4003752     
  -10.385371866512974       -36.715464459922032        1554270024.7801065     
  -5.9901328402994842       -19.306900080505009        1541506834.9892173     
  -3.1713989950649295       -7.1533536649071632        1535207294.0310483     
  -1.9291670138655226      -0.25481380970450523        1535371401.9055979     
  -2.2634486318196343        1.3886814088758139        1541999158.6128693     
  -396895661.83269835       -9108802.9453061223        1515951315.1015620     
  -380316757.04446709       -6612254.0567321032        1506904835.6423256     
  -363843833.10585451       -4468974.6668905169        1503571585.0034323     
  -347476890.01686049       -2678964.7757755071        1505951563.1848907     
  -331215927.77749008       -1242224.3834060878        1514044770.1866996     
  -781923474.93790591       -14657217.672512174        1476741681.0357161     
  -750909726.93488359       -10307354.457384676        1471288269.4228256     
  -720107939.05459547       -6664024.9847088158        1470797666.6179140     
  -689518111.29704046       -3727229.2544783652        1475269872.6209781     
  -659140243.66222203       -1496967.2666990757        1484704887.4320223     
  -1155083449.7009940       -16645280.897082329        1436641122.5825634     
  -1111778915.6613824       -11085320.508861423        1434657136.3307195     
  -1068792321.0176220       -6585158.1068165302        1436885538.8744853     
  -1026123665.7697092       -3144793.6909253001        1443326330.2138598     
  -983772949.91764629       -764227.26120227575        1453979510.3488374     
  -1516375586.1219652       -15072992.619017422        1395649639.7420995     
  -1462924323.2239692       -8946152.2111730576        1397011436.3660085     
  -1409896978.9949367       -4232374.0332099199        1401835201.7731509     
  -1357293553.4348669       -931658.08512282372        1410120935.9635320     
  -1305114046.5437608        955995.63308751583        1421868638.9371471     
  -2.2634486318196343        1.3886814088758139        1541999158.6128693     
  -1.7993278112892330       0.89310212156149127        1533886989.7482498     
  -1.3270186460678912       0.42481696960560889        1530381027.6057298     
 -0.84651717869853604       -1.6160161578867627E-002   1531481272.1853161     
 -0.35782530784554356      -0.42983629476258156        1537187723.4870055     
  -331215927.77749008       -1242224.3834060878        1514044770.1866996     
  -319549102.53132474       -1400206.2081547529        1506962487.0840716     
  -307919031.23938137       -1680701.2136438042        1504284935.0907218     
  -296325713.90165937       -2083709.3998715580        1506012114.2066483     
  -284769150.51816279       -2609230.7668486536        1512144024.4318542     
  -659140243.66222203       -1496967.2666990757        1484704887.4320223     
  -636382238.24208367       -1985623.8030335903        1478609610.4685738     
  -613697740.73858118       -2719306.7281528115        1476717589.0015740     
  -591086751.15171528       -3698016.0420605242        1479028823.0310314     
  -568549269.48148370       -4921751.7447493672        1485543312.5569363     
  -983772949.91764629       -764227.26120227575        1453979510.3488374     
  -950499408.93160939       -1756251.8915474415        1448828359.9017527     
  -917336129.82462156       -3115816.1187203526        1447678989.3382907     
  -884283112.59668040       -4842919.9427171946        1450531398.6584585     
  -851340357.24779034       -6937563.3635491133        1457385587.8622506     
  -1305114046.5437608        955995.63308751583        1421868638.9371471     
  -1261900614.5998998       -712090.47369068861        1417618735.3836100     
  -1218834198.4974957       -2870229.3853256702        1417169136.1008711     
  -1175914798.2365608       -5518421.1018561721        1420519841.0889342     
  -1133142413.8170817       -8656665.6232410073        1427670850.3477964     
 -0.35782530784554356      -0.42983629476258156        1537187723.4870055     
 -0.52137163634010819      -0.89325541011550258        1531323056.3580487     
 -0.59688321135492783       -1.0632260410919976        1530856805.6918848     
 -0.58436216030912258      -0.93975423825504711        1535788971.4885118     
 -0.48380850607816667      -0.52284042480092829        1546119553.7479300     
  -284769150.51816279       -2609230.7668486536        1512144024.4318542     
  -270864295.13452673       -2551050.2296434045        1506543393.7520952     
  -257002324.71701920       -2635819.5795324445        1506226962.9533861     
  -243183239.26563430       -2863538.8164968938        1511194732.0357306     
  -229407038.78038090       -3234207.9405673295        1521446700.9991231     
  -568549269.48148370       -4921751.7447493672        1485543312.5569363     
  -541065891.64135468       -4903290.1341332495        1480156685.7631874     
  -513668283.82151270       -5170728.5911419392        1479940042.2687490     
  -486356446.02195477       -5724067.1157605052        1484893382.0736217     
  -459130378.24268341       -6563305.7080065906        1495016705.1778045     
  -851340357.24779034       -6937563.3635491133        1457385587.8622506     
  -810604790.04185462       -7056720.6067280769        1452162932.3913269     
  -769997877.91036451       -7604728.0980560184        1451996043.6379733     
  -729519620.85331929       -8581585.8375340998        1456884921.6021895     
  -689170018.87072122       -9987293.8251697719        1466829566.2839749     
  -1133142413.8170817       -8656665.6232410073        1427670850.3477964     
  -1079480990.3360262       -9011341.6474176645        1422562133.6365111     
  -1025991106.9835784       -9937818.1002887487        1422394967.0610571     
  -972672763.75972939       -11436094.981821358        1427169350.6214342     
  -919525960.66448903       -13506172.292048633        1436885284.3176389     
 -0.48380850607816667      -0.52284042480092829        1546119553.7479300     
 -0.48522596197441403       -4.7373002956327612E-002   1543587493.1643386     
 -0.51589263996263424       0.33059562413624954        1546204674.1616271     
 -0.57579959573233364       0.61109769945798176        1553971096.7397919     
 -0.66496780609354467       0.79406156558528473        1566886760.8988445     
  -229407038.78038090       -3234207.9405673295        1521446700.9991231     
  -216305941.27402624       -3928577.8621941730        1518752109.1486697     
  -203241851.04587367       -4746305.3778287098        1521146282.3534143     
  -190214768.09592050       -5687390.4874584451        1528629220.6133580     
  -177224692.42416915       -6751833.1910991073        1541200923.9284959     
  -459130378.24268341       -6563305.7080065906        1495016705.1778045     
  -433100973.30194068       -8003883.0487529337        1492116406.9367151     
  -407145582.88835222       -9691175.4800147712        1494244397.2251408     
  -381264207.00191301       -11625183.001775861        1501400676.0430808     
  -355456845.64262396       -13805905.614035815        1513585243.3905349     
  -689170018.87072122       -9987293.8251697719        1466829566.2839749     
  -650385096.56897020       -12225915.607054532        1463680386.5284760     
  -611711196.04331982       -14834609.975941330        1465499018.7768064     
  -573148317.29377413       -17813376.931840658        1472285463.0289664     
  -534696460.32032943       -21162216.474747717        1484039719.2849569     
  -919525960.66448903       -13506172.292048633        1436885284.3176389     
  -868158311.07510579       -16594675.537068009        1433444047.9239480     
  -816938690.51078153       -20176608.865618646        1434910147.0084069     
  -765867098.97151124       -24251972.277682185        1441283581.5710108     
  -714943536.45728827       -28820765.773235649        1452564351.6117678     
 -0.66496780609354467       0.79406156558528473        1566886760.8988445     
 -0.43550291578115385       0.96008329491654032        1566843649.2610130     
 -0.25100041093192466       0.97623040603725786        1572670000.0341558     
 -0.11145329165068779       0.84252623193133402        1584365813.2182755     
  -1.6863891235833040E-002  0.55896299493746993        1601931088.8133566     
  -177224692.42416915       -6751833.1910991073        1541200923.9284959     
  -162259675.18857774       -7151221.1432724744        1540787097.3539507     
  -147209800.81831294       -7267751.9798678905        1546107526.4004223     
  -132075069.31337325       -7101425.7008794993        1557162211.0679100     
  -116855480.67376648       -6652242.3063358739        1573951151.3564153     
  -355456845.64262396       -13805905.614035815        1513585243.3905349     
  -325913116.51505834       -14720573.218639985        1512899701.9221780     
  -296199673.07318836       -15069526.442227557        1517813209.2848780     
  -266316515.31702021       -14852765.284823105        1528325765.4786422     
  -236263643.24654648       -14070289.746401288        1544437370.5034683     
  -534696460.32032943       -21162216.474747717        1484039719.2849569     
  -490960324.41494876       -22708055.266035438        1483181462.9656858     
  -446969617.01563269       -23405322.410868332        1487787048.6875210     
  -402724338.12238830       -23254017.909276500        1497856476.4504671     
  -358224487.73520607       -22254141.761222243        1513389746.2545109     
  -714943536.45728827       -28820765.773235649        1452564351.6117678     
  -657401298.88824964       -31113667.285454035        1451632380.4844859     
  -599519632.64564264       -32275139.885778755        1456029044.6083581     
  -541298537.72947598       -32305183.574239135        1465754343.9833817     
  -482738014.13974631       -31203798.350820750        1480808278.6095569     
  -1.6863891235833040E-002  0.55896299493746993        1601931088.8133566     
  -5.9617786897701669E-002  0.22193615992601878        1597992509.6952238     
  -6.5497790341556381E-002   7.8236867533948984E-003   1599045657.8383093     
  -3.4499349347989899E-002  -8.3360985239186905E-002   1605090533.2426128     
   3.3364611439956976E-002  -5.1661285139891100E-002   1616127135.9081426     
  -116855480.67376648       -6652242.3063358739        1573951151.3564153     
  -103358069.69024347       -5764690.1220940761        1569534124.5467954     
  -89315830.949166596       -3061045.4126696885        1570303174.5297246     
  -74728764.450559586        1458691.8218531683        1576258301.3052008     
  -59596870.194398843        7794521.5815560855        1587399504.8732214     
  -236263643.24654648       -14070289.746401288        1544437370.5034683     
  -208713536.86152673       -12128599.728301607        1540177528.3431485     
  -180073774.99829033       -6554724.7828203589        1541298112.5066962     
  -150344357.65684307        2651335.0900334418        1547799122.9941137     
  -119525284.83718336        15489579.890260465        1559680559.8054051     
  -358224487.73520607       -22254141.761222243        1513389746.2545109     
  -316066401.57347310       -19091728.596711397        1509922721.0842695     
  -272273832.21286094       -10481038.102597997        1512030471.7692235     
  -226846779.65336320        3577929.7211328298        1519712998.3093734     
  -179785243.89498481        23085174.874463104        1532970300.7047172     
  -482738014.13974631       -31203798.350820750        1480808278.6095569     
  -425416663.82608724       -26654076.727328196        1478769702.7701724     
  -365916002.59287757       -14839985.372002825        1482500252.3173063     
  -304236030.44011819        4238475.7151551247        1491999927.2509575     
  -240376747.36780548        30581306.534159988        1507268727.5711401     
   3.3364611439956976E-002  -5.1661285139891100E-002   1616127135.9081426     
   3.6183144392775278E-002   2.6881427486899340E-003   1585104008.5798357     
   2.9912931106460625E-002   2.6739668171989941E-002   1557476830.9425941     
   1.4560079332680078E-002   2.0516772804489238E-002   1533245602.9964120     
  -9.8876950583237158E-003  -1.6022531287088956E-002   1512410324.7412877     
  -59596870.194398843        7794521.5815560855        1587399504.8732214     
  -48692866.897631690        15435801.157677710        1556848662.0889580     
  -36636669.091870084        26917729.097115606        1529526192.2578073     
  -23428276.777114283        42240305.399865940        1505432095.3797665     
  -9067689.9533649497        61403530.065929770        1484566371.4548242     
  -119525284.83718336        15489579.890260465        1559680559.8054051     
  -98196068.926330119        30628501.784208871        1530946228.5029566     
  -74562463.988405883        53448720.435059056        1505272693.4156613     
  -48624470.023401022        83950235.842844725        1482659954.5435166     
  -20382087.031324476        122133048.00753738        1463108011.8865333     
  -179785243.89498481        23085174.874463104        1532970300.7047172     
  -148509606.04991499        45578101.882264100        1507396707.8218315     
  -113777384.65968816        79592974.040588558        1484716334.4161551     
  -75588579.724305570        125129791.34943150        1464929180.4876730     
  -33943191.243763365        182188553.80880782        1448035246.0363951     
  -240376747.36780548        30581306.534159988        1507268727.5711401     
  -199633478.26838070        60284601.451868400        1486200100.0455863     
  -154281431.10572660        105350489.91367453        1467857115.2592869     
  -104320605.87982494        165778971.91963965        1452239773.2122357     
  -49751002.590688765        241570047.46971905        1439348073.9044263     
  -9.8876950583237158E-003  -1.6022531287088956E-002   1512410324.7412877     
  -9.2857040737900146E-003  -5.3072152899508847E-002   1403081673.9138820     
  -4.8885346320421408E-003  -7.7469097986376981E-002   1290988115.4145870     
   3.3110190413585781E-003  -8.9190388133650045E-002   1176129649.2434206     
   1.5314306599402246E-002  -8.8238116447236420E-002   1058506275.4003752     
  -9067689.9533649497        61403530.065929770        1484566371.4548242     
  -9578113.1184478961        80797103.262562886        1375914612.1067977     
  -8147334.1811605468        106661350.13376294        1265159687.2492778     
  -4775353.1415100470        138996270.67950943        1152301596.8822579     
   537830.00051181763        177801864.89981988        1037340341.0057410     
  -20382087.031324476        122133048.00753738        1463108011.8865333     
  -19512241.469572209        161487402.00561261        1357397879.7995474     
  -14759991.706883341        213783103.34014475        1250246324.3654485     
  -6125337.7432630211        279020152.01111597        1141653345.5842385     
   6391720.4212897867        357198548.01852536        1031618943.4559039     
  -33943191.243763365        182188553.80880782        1448035246.0363951     
  -29802385.062661916        242070896.17607105        1347531476.9921217     
  -19837972.582054943        321365259.54168606        1246248026.7631111     
  -4049953.8019421101        420071643.90565819        1144184895.3493681     
   17561671.277663022        538190049.26792943        1041342082.7509031     
  -49751002.590688765        241570047.46971905        1439348073.9044263     
  -40448543.897713766        322547585.77394754        1346315403.6845255     
  -23381276.806671768        429407818.73839718        1253164794.4422741     
   1450798.6824415326        562150746.36309004        1159896246.1776719     
   34047682.569621325        720776368.64799571        1066509758.8907033     
  -1516375586.1219652       -15072992.619017422        1395649639.7420995     
  -1462924323.2239692       -8946152.2111730576        1397011436.3660085     
  -1409896978.9949367       -4232374.0332099199        1401835201.7731509     
  -1357293553.4348669       -931658.08512282372        1410120935.9635320     
  -1305114046.5437608        955995.63308751583        1421868638.9371471     
  -1877580929.9655128       -9783429.1096433401        1346706421.9520295     
  -1813956844.8259552       -3660172.9652646780        1343022003.6939695     
  -1750855934.0956903        719168.48146843910        1343701691.6685205     
  -1688278197.7747192        3354595.2305562496        1348745485.8756864     
  -1626223635.8630426        4246107.2819938064        1358153386.3154609     
  -2252914309.9357343       -8732276.4382728338        1296645937.5992219     
  -2176539866.9849725       -1839343.8864680529        1287799506.0954814     
  -2100787854.1838348        2978821.4999293089        1284219318.2737262     
  -2025658271.5323222        5722219.7209049463        1285905374.1339550     
  -1951151119.0304325        6390850.7764693499        1292857673.6761718     
  -2642375726.0326319       -11919534.604904652        1245468186.6836908     
  -2550673389.7010231       -3483664.9747754335        1231343943.5705454     
  -2459692739.2593699        2546585.0221713781        1223388081.5887613     
  -2369433774.7076697        6171215.3859328032        1221600600.7383387     
  -2279896496.0459251        7390226.1165165901        1225981501.0192742     
  -3045965178.2561984       -19345203.609536886        1193173169.2054226     
  -2936357412.9741035       -8593136.2302016020        1173655316.1191599     
  -2827570589.3222909       -577540.95180225372        1161207981.6136305     
  -2719604707.3007665        4701582.2256369591        1155831165.6888366     
  -2612459766.9095263        7244233.3021246195        1157524868.3447750     
  -1305114046.5437608        955995.63308751583        1421868638.9371471     
  -1261900614.5998998       -712090.47369068861        1417618735.3836100     
  -1218834198.4974957       -2870229.3853256702        1417169136.1008711     
  -1175914798.2365608       -5518421.1018561721        1420519841.0889342     
  -1133142413.8170817       -8656665.6232410073        1427670850.3477964     
  -1626223635.8630426        4246107.2819938064        1358153386.3154609     
  -1573197960.9140897        1493041.7774404883        1352525505.0744648     
  -1520266196.0396893       -1573057.3089560270        1350895578.6583791     
  -1467428341.2398517       -4952189.9772261977        1353263607.0672033     
  -1414684396.5145676       -8644356.2273449898        1359629590.3009408     
  -1951151119.0304325        6390850.7764693499        1292857673.6761718     
  -1887748485.2074966        2722220.6348148584        1285913771.4757698     
  -1824386655.6922147       -1082423.8656822443        1283165474.6543894     
  -1761065630.4845848       -5023082.7250255346        1284612783.2120314     
  -1697785409.5846088       -9099755.9432072639        1290255697.1486943     
  -2279896496.0459251        7390226.1165165901        1225981501.0192742     
  -2205552187.4801240        2975446.0984172821        1217783534.5875247     
  -2131195577.4550679       -1398329.0555069447        1213978824.0889077     
  -2056826665.9707606       -5731099.3452577591        1214567369.5234220     
  -1982445453.0272040       -10022864.770841360        1219549170.8910711     
  -2612459766.9095263        7244233.3021246195        1157524868.3447750     
  -2526609067.7319655        2252718.1682621241        1148134794.4097321     
  -2440692961.3282547       -2520772.8784334660        1143335626.9619300     
  -2354711447.6983833       -7076239.8379269838        1143127366.0013707     
  -2268664526.8423576       -11413682.710239768        1147510011.5280545     
  -1133142413.8170817       -8656665.6232410073        1427670850.3477964     
  -1079480990.3360262       -9011341.6474176645        1422562133.6365111     
  -1025991106.9835784       -9937818.1002887487        1422394967.0610571     
  -972672763.75972939       -11436094.981821358        1427169350.6214342     
  -919525960.66448903       -13506172.292048633        1436885284.3176389     
  -1414684396.5145676       -8644356.2273449898        1359629590.3009408     
  -1348182827.8431551       -8673185.9451329112        1353710855.7971301     
  -1281893250.6256623       -9408653.8426566124        1352652410.6178305     
  -1215815664.8620794       -10850759.919872999        1356454254.7630396     
  -1149950070.5524163       -12999504.176825225        1365116388.2327588     
  -1697785409.5846088       -9099755.9432072639        1290255697.1486943     
  -1618675869.4694698       -8872391.4786038399        1283479751.6394994     
  -1539818772.1335611       -9486502.9447621703        1281482834.6434927     
  -1461214117.5768745       -10942090.341664851        1284264946.1606753     
  -1382861905.7994175       -13239153.669332266        1291826086.1910448     
  -1982445453.0272040       -10022864.770841360        1219549170.8910711     
  -1890960115.2149694       -9608958.2478286028        1211868821.1636224     
  -1799767671.5072784       -10171365.406623363        1208886239.1380448     
  -1708868121.9041176       -11710086.247187614        1210601424.8143327     
  -1618261466.4054990       -14225120.769559324        1217014378.1924927     
  -2268664526.8423576       -11413682.710239768        1147510011.5280545     
  -2165035565.0796561       -10882886.252809525        1138878064.3694956     
  -2061739948.7468081       -11463241.228216767        1134862624.1014860     
  -1958777677.8438058       -13154747.636444449        1135463690.7240205     
  -1856148752.3706536       -15957405.477508307        1140681264.2371054     
  -919525960.66448903       -13506172.292048633        1436885284.3176389     
  -868158311.07510579       -16594675.537068009        1433444047.9239480     
  -816938690.51078153       -20176608.865618646        1434910147.0084069     
  -765867098.97151124       -24251972.277682185        1441283581.5710108     
  -714943536.45728827       -28820765.773235649        1452564351.6117678     
  -1149950070.5524163       -12999504.176825225        1365116388.2327588     
  -1086139049.9627252       -16294555.148258984        1360540347.2558243     
  -1022465445.3466988       -20047659.365247130        1360676459.5070744     
  -958929256.70433319       -24258816.827765763        1365524724.9865079     
  -895530484.03563452       -28928027.535841942        1375085143.6941295     
  -1382861905.7994175       -13239153.669332266        1291826086.1910448     
  -1307165177.7807431       -16908051.438569546        1286127622.5241528     
  -1231595252.6843438       -20999625.615394413        1284946129.8354845     
  -1156152130.5102162       -25513876.199791014        1288281608.1250319     
  -1080835811.2583625       -30450803.191769361        1296134057.3928030     
  -1618261466.4054990       -14225120.769559324        1217014378.1924927     
  -1531236694.5291655       -18435164.408001423        1210205873.7289355     
  -1444328112.5237143       -23032507.616045892        1207719157.9936340     
  -1357535720.3891530       -28017150.393727422        1209554230.9865868     
  -1270859518.1254704       -33389092.741000772        1215711092.7077951     
  -1856148752.3706536       -15957405.477508307        1140681264.2371054     
  -1758353600.2079878       -20875894.056546688        1132775100.8701682     
  -1660664024.8648193       -26146305.367242634        1128995543.9815223     
  -1563080026.3411415       -31768639.409575582        1129342593.5711706     
  -1465601604.6369600       -37742896.183560014        1133816249.6391106     
  -714943536.45728827       -28820765.773235649        1452564351.6117678     
  -657401298.88824964       -31113667.285454035        1451632380.4844859     
  -599519632.64564264       -32275139.885778755        1456029044.6083581     
  -541298537.72947598       -32305183.574239135        1465754343.9833817     
  -482738014.13974631       -31203798.350820750        1480808278.6095569     
  -895530484.03563452       -28928027.535841942        1375085143.6941295     
  -824496110.17530477       -31196790.616727144        1372679979.9837115     
  -753251946.31732559       -32766253.705443472        1375319176.9928250     
  -681797992.46168745       -33636416.801968127        1383002734.7214758     
  -610134248.60840893       -33807279.906353235        1395730653.1696544     
  -1080835811.2583625       -30450803.191769361        1296134057.3928030     
  -997121514.05422497       -32939091.725553095        1292104455.9773510     
  -913327065.52834582       -35160209.186869472        1292834940.7498121     
  -829452465.68073857       -37114155.575762361        1298325511.7101839     
  -745497714.51139534       -38800930.892196149        1308576168.8584707     
  -1270859518.1254704       -33389092.741000772        1215711092.7077951     
  -1175277510.5250101       -36340570.611938596        1209905808.4654064     
  -1079744990.2787240       -39457006.330126107        1208576335.8793101     
  -984261957.38661909       -42738399.895585477        1211722674.9495103     
  -888828411.84870028       -46184751.308328003        1219344825.6759970     
  -1465601604.6369600       -37742896.183560014        1133816249.6391106     
  -1358964099.5876610       -41401227.275890470        1126084037.4478805     
  -1252505720.5684483       -45656645.135174990        1122543362.3813274     
  -1146226467.5793490       -50509149.761498749        1123194224.4394500     
  -1040126340.6203287       -55958741.154763460        1128036623.6222460     
  -482738014.13974631       -31203798.350820750        1480808278.6095569     
  -425416663.82608724       -26654076.727328196        1478769702.7701724     
  -365916002.59287757       -14839985.372002825        1482500252.3173063     
  -304236030.44011819        4238475.7151551247        1491999927.2509575     
  -240376747.36780548        30581306.534159988        1507268727.5711401     
  -610134248.60840893       -33807279.906353235        1395730653.1696544     
  -538056605.32705927       -30170884.655667722        1393480761.7639475     
  -463760342.02576691       -19139089.338501796        1397023507.1867411     
  -387245458.70454180       -711893.95489333570        1406358889.4380407     
  -308511955.36337852        25110701.495170936        1421486908.5178397     
  -745497714.51139534       -38800930.892196149        1308576168.8584707     
  -658596602.71382594       -36057709.349715710        1306160822.5035558     
  -569437561.79594219       -25788057.406186581        1309561624.4191194     
  -478020591.75773269       -7991975.0615719259        1318778574.6051726     
  -384345692.59921092        17330537.684084117        1333811673.0617008     
  -888828411.84870028       -46184751.308328003        1219344825.6759970     
  -787036655.98640251       -44314550.809524983        1216809884.9889898     
  -682947661.90340173       -34786889.575049907        1220114604.0144444     
  -576561429.59969652       -17601767.604889125        1229258982.7523642     
  -467877959.07529038        7240815.1009364724        1244243021.2027516     
  -1040126340.6203287       -55958741.154763460        1128036623.6222460     
  -923376765.14478052       -54941409.035068005        1125427949.2202547     
  -804290642.34815407       -46135585.845119476        1128682445.9727106     
  -682867972.23042667       -29541271.584827393        1137800113.8796153     
  -559108754.79162526       -5158466.2542944252        1152780952.9409630     
  -240376747.36780548        30581306.534159988        1507268727.5711401     
  -199633478.26838070        60284601.451868400        1486200100.0455863     
  -154281431.10572660        105350489.91367453        1467857115.2592869     
  -104320605.87982494        165778971.91963965        1452239773.2122357     
  -49751002.590688765        241570047.46971905        1439348073.9044263     
  -308511955.36337852        25110701.495170936        1421486908.5178397     
  -258954147.77294821        55334808.135563508        1404781840.6813095     
  -202941848.17018893        107073888.15038680        1392011357.0087600     
  -140475056.55511448        180327941.53959084        1383175457.5002034     
  -71553772.927724361        275096968.30318660        1378274142.1556213     
  -384345692.59921092        17330537.684084117        1333811673.0617008     
  -322519228.16136998        49111691.554135680        1323623497.8547893     
  -252392557.76212418        108560198.62885885        1318578848.2365942     
  -173965681.40149516        195676058.90820175        1318677724.2071180     
  -87238599.079462588        310459272.39221668        1323920125.7663677     
  -467877959.07529038        7240815.1009364724        1244243021.2027516     
  -390328719.43365365        41615251.707542598        1242725071.5660365     
  -302633559.88153422        109809421.34908764        1247559588.9427783     
  -204792480.41895097        211823324.02550995        1258746573.3329806     
  -96805481.045887515        347656959.73687410        1276286024.7366264     
  -559108754.79162526       -5158466.2542944252        1152780952.9409630     
  -462382621.58980489        32845488.595775932        1162086561.8150420     
  -353664854.52841890        110821556.31107073        1178953579.1273201     
  -232955453.60750318        228769736.89146173        1203382004.8777869     
  -100254418.82701945        386690030.33707947        1235371839.0664451     
  -49751002.590688765        241570047.46971905        1439348073.9044263     
  -40448543.897713766        322547585.77394754        1346315403.6845255     
  -23381276.806671768        429407818.73839718        1253164794.4422741     
   1450798.6824415326        562150746.36309004        1159896246.1776719     
   34047682.569621325        720776368.64799571        1066509758.8907033     
  -71553772.927724361        275096968.30318660        1378274142.1556213     
  -57382794.574439049        376836394.56332874        1296740213.5526943     
  -34240709.719977945        508479509.16072905        1214278034.1825366     
  -2127518.3643401265        670026312.09538257        1130887604.0451438     
   38956779.492472798        861476803.36729074        1046568923.1405126     
  -87238599.079462588        310459272.39221668        1323920125.7663677     
  -70514277.479801863        432266033.68413532        1255292286.5673673     
  -43612551.275863260        587997476.99030530        1184925884.8562605     
  -6533420.4676459134        777653602.31073737        1112820920.6330299     
   40723114.944848597        1001234409.6454296        1038977393.8976861     
  -96805481.045887515        347656959.73687410        1276286024.7366264     
  -79842992.613808125        488836503.13633400        1221971622.7285223     
  -51496801.474342108        667961722.22708786        1165108346.4634161     
  -11766907.627491772        885032617.00912046        1105696195.9413207     
   39346688.926741958        1140049187.4824305        1043735171.1622195     
  -100254418.82701945        386690030.33707947        1235371839.0664451     
  -85368939.976455510        546547802.91994023        1196778222.0361800     
  -57893460.315394223        748372244.87112844        1154825419.0040283     
  -17827979.843864977        992163356.19055271        1109513429.9700181     
   34827501.438164890        1277921136.8782904        1060842254.9341109     
  -3045965178.2561984       -19345203.609536886        1193173169.2054226     
  -2936357412.9741035       -8593136.2302016020        1173655316.1191599     
  -2827570589.3222909       -577540.95180225372        1161207981.6136305     
  -2719604707.3007665        4701582.2256369591        1155831165.6888366     
  -2612459766.9095263        7244233.3021246195        1157524868.3447750     
  -3447461302.0500555       -24043775.843220234        1053966743.9132030     
  -3321050825.6721816       -14473293.513673782        1039152894.0969330     
  -3195105347.0954080       -6452803.8544722795        1030466361.5543307     
  -3069624866.3197398        17693.134382247925        1027907146.2853907     
  -2944609383.3451743        4938197.4528982639        1031475248.2901139     
  -3832026753.6767554       -23663146.426757812        912159454.57503998     
  -3691508427.0804386       -16082707.410199404        902464875.82948256     
  -3551099154.4560490       -8865781.6333897114        897954413.05051374     
  -3410798935.8035812       -2012369.0963194370        898628066.23813879     
  -3270607771.1230321        4477530.2010123730        904485835.39236009     
  -4199661533.1362829       -18203315.360143661        767751301.19093931     
  -4047730217.1988764       -13421377.919780970        763591261.31679463     
  -3895552011.4042120       -7816474.2885651588        763672136.10217619     
  -3743126915.7522893       -1388604.4664828777        767993925.54707766     
  -3590454930.2431097        5862231.5464570522        776556629.65150166     
  -4550365640.4286489       -7664282.6433794498        620742283.76089406     
  -4389716196.0274944       -6489305.0424168110        622532050.55888057     
  -4228463917.9399042       -3304881.8199992180        627619530.70931900     
  -4066608806.1658721        1888987.0238838196        636004724.21220922     
  -3904150860.7053990        9092301.4892382622        647687631.06755018     
  -2612459766.9095263        7244233.3021246195        1157524868.3447750     
  -2526609067.7319655        2252718.1682621241        1148134794.4097321     
  -2440692961.3282547       -2520772.8784334660        1143335626.9619300     
  -2354711447.6983833       -7076239.8379269838        1143127366.0013707     
  -2268664526.8423576       -11413682.710239768        1147510011.5280545     
  -2944609383.3451743        4938197.4528982639        1031475248.2901139     
  -2847037203.0223713        901250.61730372906        1024076081.7141544     
  -2749477691.0689554       -3177924.1162413359        1020882247.6169198     
  -2651930847.4849281       -7299326.7477550507        1021893745.9984124     
  -2554396672.2702913       -11462957.277220845        1027110576.8586313     
  -3270607771.1230321        4477530.2010123730        904485835.39236009     
  -3162415749.6793165        1064659.6563967466        898986487.98067784     
  -3054314472.2005343       -2650690.7713258266        897306899.03920949     
  -2946303938.6866813       -6668521.0821454525        899447068.56794822     
  -2838384149.1377568       -10988831.276068091        905406996.56690061     
  -3590454930.2431097        5862231.5464570522        776556629.65150166     
  -3472744707.7028122        2742945.2855195999        772866013.20930362     
  -3355203304.7229915       -939072.84366416931        772609581.22879946     
  -3237830721.3036375       -5183822.8410854340        775787333.70999169     
  -3120626957.4447713       -9991304.7067764997        782399270.65287685     
  -3904150860.7053990        9092301.4892382622        647687631.06755018     
  -3778024077.0928535        5936107.5046758652        645714657.40003145     
  -3652144188.6363225        1956929.6667296886        646790294.18569124     
  -3526511195.3358102       -2845232.0246148109        650914541.42452836     
  -3401125097.1913152       -8470377.5693438053        658087399.11654782     
  -2268664526.8423576       -11413682.710239768        1147510011.5280545     
  -2165035565.0796561       -10882886.252809525        1138878064.3694956     
  -2061739948.7468081       -11463241.228216767        1134862624.1014860     
  -1958777677.8438058       -13154747.636444449        1135463690.7240205     
  -1856148752.3706536       -15957405.477508307        1140681264.2371054     
  -2554396672.2702913       -11462957.277220845        1027110576.8586313     
  -2438829121.4890175       -10587768.249062657        1018694956.0082340     
  -2323493645.0497985       -10486160.361074805        1014766883.0729473     
  -2208390242.9526343       -11158133.613276362        1015326358.0527673     
  -2093518915.1975279       -12603688.005668402        1020373380.9476939     
  -2838384149.1377568       -10988831.276068091        905406996.56690061     
  -2711246463.5534539       -9879785.9418232441        897325851.62709701     
  -2584239581.2234092       -9206751.4551149607        893603295.62695730     
  -2457363502.1476307       -8969727.8159615993        894239328.56649017     
  -2330618226.3261151       -9168715.0243422985        899233950.44568658     
  -3120626957.4447713       -9991304.7067764997        782399270.65287685     
  -2982287591.2729726       -8758939.3311111927        774770751.22608387     
  -2843977757.2676449       -7625014.5103446245        771371861.76351786     
  -2705697455.4287939       -6589530.2445017099        772202602.26518118     
  -2567446685.7564044       -5652486.5335333347        777262972.73107266     
  -3401125097.1913152       -8470377.5693438053        658087399.11654782     
  -3251952504.6475720       -7225228.4169299603        651029654.80519128     
  -3102708173.1825037       -5740949.5267630816        648072581.48262465     
  -2953392102.7961192       -4017540.8988711834        649216179.14884794     
  -2804004293.4884062       -2055002.5332248211        654460447.80386007     
  -1856148752.3706536       -15957405.477508307        1140681264.2371054     
  -1758353600.2079878       -20875894.056546688        1132775100.8701682     
  -1660664024.8648193       -26146305.367242634        1128995543.9815223     
  -1563080026.3411415       -31768639.409575582        1129342593.5711706     
  -1465601604.6369600       -37742896.183560014        1133816249.6391106     
  -2093518915.1975279       -12603688.005668402        1020373380.9476939     
  -1985065130.0864205       -16596290.429899096        1012262692.4427342     
  -1876789238.9224629       -21181872.677981257        1008010679.8456379     
  -1768691241.7056634       -26360434.749914765        1007617343.1564059     
  -1660771138.4360175       -32131976.645696700        1011082682.3750380     
  -2330618226.3261151       -9168715.0243422985        899233950.44568658     
  -2212271324.1820650       -12465086.068404794        890834366.82043016     
  -2094174633.1128323       -16595494.028538585        886025528.53260779     
  -1976328153.1184154       -21559938.904719710        884807435.58222008     
  -1858731884.1988189       -27358420.696956515        887180087.96927381     
  -2567446685.7564044       -5652486.5335333347        777262972.73107266     
  -2439972182.4949255       -8482280.9720873833        768490124.00324702     
  -2312820207.4359188       -12387169.418900490        763040090.04243124     
  -2185990760.5793986       -17367151.873995781        760912870.84862185     
  -2059483841.9253552       -23422228.337343335        762108466.42182028     
  -2804004293.4884062       -2055002.5332248211        654460447.80386007     
  -2668167705.0249996       -4647875.1409238577        645229963.99118996     
  -2532725961.8917418       -8556898.8491065502        639054364.37510407     
  -2397679064.0886154       -13782073.657739162        635933648.95560145     
  -2263027011.6156292       -20323399.566838145        635867817.73267412     
  -1465601604.6369600       -37742896.183560014        1133816249.6391106     
  -1358964099.5876610       -41401227.275890470        1126084037.4478805     
  -1252505720.5684483       -45656645.135174990        1122543362.3813274     
  -1146226467.5793490       -50509149.761498749        1123194224.4394500     
  -1040126340.6203287       -55958741.154763460        1128036623.6222460     
  -1660771138.4360175       -32131976.645696700        1011082682.3750380     
  -1543612269.9847858       -35398944.439103842        1002080097.4491531     
  -1426451588.1042469       -38659867.468171895        996889017.25417852     
  -1309289092.7944229       -41914745.732942283        995509441.79011321     
  -1192124784.0552976       -45163579.233385146        997941371.05696213     
  -1858731884.1988189       -27358420.696956515        887180087.96927381     
  -1732137459.1849685       -30559767.243227959        877118226.34468591     
  -1605360281.2824354       -33151937.493878245        870487837.05724704     
  -1478400350.4912109       -35134931.448903143        867288920.10695422     
  -1351257666.8113115       -36508749.108330369        867521475.49380624     
  -2059483841.9253552       -23422228.337343335        762108466.42182028     
  -1924539667.1882150       -26883695.688271165        751198424.13448715     
  -1789231800.1030061       -29132855.212296367        743339821.79053771     
  -1653560240.6697192       -30169706.909391940        738532659.38996780     
  -1517524988.8883524       -29994250.779578626        736776936.93278611     
  -2263027011.6156292       -20323399.566838145        635867817.73267412     
  -2120818893.9945285       -24370729.774241209        624320690.81855190     
  -1978066144.5659697       -26602620.623438954        615444971.45404625     
  -1834768763.3299303       -27019072.114376545        609240659.63916099     
  -1690926750.2864387       -25620084.247140527        605707755.37388968     
  -1040126340.6203287       -55958741.154763460        1128036623.6222460     
  -923376765.14478052       -54941409.035068005        1125427949.2202547     
  -804290642.34815407       -46135585.845119476        1128682445.9727106     
  -682867972.23042667       -29541271.584827393        1137800113.8796153     
  -559108754.79162526       -5158466.2542944252        1152780952.9409630     
  -1192124784.0552976       -45163579.233385146        997941371.05696213     
  -1061869262.9619524       -42278410.236419201        994162181.89777732     
  -930160628.62240529       -34549530.418777347        994477971.24154401     
  -796998881.03666127       -21976939.780474305        998888739.08826041     
  -662384020.20471966       -4560638.3215366602        1007394485.4379308     
  -1351257666.8113115       -36508749.108330369        867521475.49380624     
  -1212548179.1044271       -33271336.935334682        861541098.49005830     
  -1073269012.2262400       -28134994.191324353        857887507.33776093     
  -933420166.17673814       -21099720.876280725        856560702.03692234     
  -793001640.95594132       -12165516.990230352        857560682.58754110     
  -1517524988.8883524       -29994250.779578626        736776936.93278611     
  -1375413513.5722075       -27920189.131848395        727564698.99709475     
  -1233615793.1596498       -26891977.162743568        718911054.26136744     
  -1092131827.6506681       -26909614.872219801        710816002.72559750     
  -950961617.04527664       -27973102.260351479        703279544.38978934     
  -1690926750.2864387       -25620084.247140527        605707755.37388968     
  -1550465266.3653054       -26224966.825970829        592232983.41889012     
  -1411200971.4226351       -30820479.333025455        577548612.01235569     
  -1273133865.4584465       -39406621.768347383        561654641.15429091     
  -1136263948.4727309       -51983394.131908357        544551070.84468222     
  -559108754.79162526       -5158466.2542944252        1152780952.9409630     
  -462382621.58980489        32845488.595775932        1162086561.8150420     
  -353664854.52841890        110821556.31107073        1178953579.1273201     
  -232955453.60750318        228769736.89146173        1203382004.8777869     
  -100254418.82701945        386690030.33707947        1235371839.0664451     
  -662384020.20471966       -4560638.3215366602        1007394485.4379308     
  -547226503.13431430        25715657.912790984        1020888208.5391058     
  -421194276.51634473        92240985.972350806        1042781816.6277076     
  -284287340.35081476        195015345.85709083        1073075309.7037429     
  -136505694.63772261        334038737.56705076        1111768687.7672048     
  -793001640.95594132       -12165516.990230352        857560682.58754110     
  -657017092.73341405        11101814.813438982        873939441.55181777     
  -511274759.27531254        66895097.402333319        899556562.05276012     
  -355774640.58164942        155214330.77645013        934412044.09036779     
  -190516736.65240848        276059514.93581384        978505887.66464436     
  -950961617.04527664       -27973102.260351479        703279544.38978934     
  -791754390.38709593       -10996040.702316076        721240260.85318506     
  -623906302.80533457        34783890.601005316        749277815.40247309     
  -447417354.30000925        109366691.64953163        787392208.03766716     
  -262287544.87108985        212752362.44337165        835583438.75876760     
  -1136263948.4727309       -51983394.131908357        544551070.84468222     
  -951438396.09536242       -40577908.634419739        562790666.44319737     
  -759088907.10641444       -4092634.4316666722        591945576.67685127     
  -559215481.50587487        57472428.476394743        632015801.54563999     
  -351818119.29374528        144117280.08975053        683001341.04956996     
  -100254418.82701945        386690030.33707947        1235371839.0664451     
  -85368939.976455510        546547802.91994023        1196778222.0361800     
  -57893460.315394223        748372244.87112844        1154825419.0040283     
  -17827979.843864977        992163356.19055271        1109513429.9700181     
   34827501.438164890        1277921136.8782904        1060842254.9341109     
  -136505694.63772261        334038737.56705076        1111768687.7672048     
  -127376892.79737157        483053196.78071362        1090197093.4705625     
  -95109446.219621032        709196471.78571916        1070058775.1762221     
  -39703354.904466510        1012468562.5820677        1051353732.8841832     
   38841381.148094475        1392869469.1697562        1034081966.5944296     
  -190516736.65240848        276059514.93581384        978505887.66464436     
  -173451863.23892793        418338485.35526824        986263067.34970129     
  -122699701.16111684        672908417.98914742        1000245985.0412323     
  -38260250.418998539        1039769312.8373898        1020454640.7392402     
   79866488.987444878        1518921169.9000480        1046889034.4437031     
  -262287544.87108985        212752362.44337165        835583438.75876760     
  -223593851.30111387        352403668.64363396        884976143.67359293     
  -140664225.13990012        639508083.48136699        945387048.59906363     
  -13498666.387450457        1074065606.9565363        1016816153.5351719     
   157902824.95623726        1656076239.0691657        1099263458.4819295     
  -351818119.29374528        144117280.08975053        683001341.04956996     
  -277802856.98392653        285248746.64582503        786336322.44223130     
  -149003018.15594238        608995468.26244557        905481965.84970224     
   34581397.190174282        1115357444.9395213        1040438271.2720017     
   272950389.05445576        1804334676.6771247        1191205238.7091186     
  -4550365640.4286489       -7664282.6433794498        620742283.76089406     
  -4389716196.0274944       -6489305.0424168110        622532050.55888057     
  -4228463917.9399042       -3304881.8199992180        627619530.70931900     
  -4066608806.1658721        1888987.0238838196        636004724.21220922     
  -3904150860.7053990        9092301.4892382622        647687631.06755018     
  -4904447460.5752897       -7188805.8252701759        486960221.13771576     
  -4733015323.2235689       -2904421.0342371464        483487594.24479246     
  -4561417120.1068916        1933516.3066534996        484294077.68676007     
  -4389652851.2252560        7325006.1973979473        489379671.46361583     
  -4217722516.5786667        13270048.637990952        498744375.57536387     
  -5276248186.0422373       -12029000.603255749        353384708.76549494     
  -5091229364.3615503       -3794011.2086174488        344140125.60659587     
  -4906481244.8374004        3538637.6642549038        340156049.76503396     
  -4722003827.4697723        9968946.0153682232        341432481.24079382     
  -4537797112.2586727        15496913.844723940        347969420.03388131     
  -5665767816.8294878       -22184866.977329016        220015746.64422536     
  -5464358319.4414520       -9158075.5655848980        204489644.64429879     
  -5263656292.1314211        1510482.2528018951        195205446.94413540     
  -5063661734.8994074        9820806.4777998924        192163153.54373634     
  -4864374647.7453957        15772897.109457254        195362764.44310409     
  -6073006352.9370508       -37656404.947496414        86853334.773921818     
  -5852402188.4632607       -18996614.105114698        64536151.357894249     
  -5632942261.9889717       -4150949.9277122021        49442269.224069290     
  -5414626573.5141716        6880587.5846929550        41571688.372447424     
  -5197455123.0388660        14097998.432140112        40924408.803027205     
  -3904150860.7053990        9092301.4892382622        647687631.06755018     
  -3778024077.0928535        5936107.5046758652        645714657.40003145     
  -3652144188.6363225        1956929.6667296886        646790294.18569124     
  -3526511195.3358102       -2845232.0246148109        650914541.42452836     
  -3401125097.1913152       -8470377.5693438053        658087399.11654782     
  -4217722516.5786667        13270048.637990952        498744375.57536387     
  -4083744440.6960535        8016766.5507395267        494539627.03721106     
  -3949808901.0610194        2621696.9715540409        493809667.04655361     
  -3815915897.6735725       -2915160.0995910168        496554495.60338658     
  -3682065430.5337081       -8593804.6626694202        502774112.70771199     
  -4537797112.2586727        15496913.844723940        347969420.03388131     
  -4394750092.4079475        8511839.1641955376        341771315.35160297     
  -4251541249.8963723        2066173.3531808853        339474177.31113279     
  -4108170584.7239466       -3840083.5883471966        341078005.91246861     
  -3964638096.8906736       -9206931.6603701115        346582801.15561181     
  -4864374647.7453957        15772897.109457254        195362764.44310409     
  -4711041032.2285261        7421325.3450610638        187409722.34320340     
  -4557341235.1423740        290358.81160664558        183783824.97943068     
  -4403275256.4869356       -5620002.4908900261        184485072.35176954     
  -4248843096.2622066       -10309758.562429190        189513464.46024176     
  -5197455123.0388660        14097998.432140112        40924408.803027205     
  -5032617260.1578102        4745225.0932881832        31454848.012015726     
  -4867208856.7990236       -2705746.6531467438        26738610.051440749     
  -4701229912.9625292       -8254916.8072135448        26775694.921301547     
  -4534680428.6483154       -11902285.368881226        31566102.621598363     
  -3401125097.1913152       -8470377.5693438053        658087399.11654782     
  -3251952504.6475720       -7225228.4169299603        651029654.80519128     
  -3102708173.1825037       -5740949.5267630816        648072581.48262465     
  -2953392102.7961192       -4017540.8988711834        649216179.14884794     
  -2804004293.4884062       -2055002.5332248211        654460447.80386007     
  -3682065430.5337081       -8593804.6626694202        502774112.70771199     
  -3521676734.8525014       -6395525.3867135048        495282433.43575853     
  -3361301246.6973581       -4241271.1976289749        492097901.71378213     
  -3200938966.0682745       -2131042.0954104662        493220517.54178965     
  -3040589892.9652543       -64838.080075979233        498650280.91977811     
  -3964638096.8906736       -9206931.6603701115        346582801.15561181     
  -3792443365.0400276       -5878542.3512909412        338558082.73443758     
  -3620346787.1628222       -2877332.9536771774        335046988.42444330     
  -3448348363.2590666       -203303.46756386757        336049518.22561955     
  -3276448093.3287520        2143546.1070778370        341565672.13796932     
  -4248843096.2622066       -10309758.562429190        189513464.46024176     
  -4064252395.2101398       -5674279.3106300831        180856602.70123515     
  -3879844794.5788946       -1649134.7948982716        176919841.61460111     
  -3695620294.3684864        1765674.9847126007        177703181.20033297     
  -3511578894.5788980        4570150.0282511711        183206621.45843259     
  -4534680428.6483154       -11902285.368881226        31566102.621598363     
  -4337103825.3628426       -5782736.2647466660        22177993.336154077     
  -4139795268.9455824       -556676.72132372856        17716461.284264304     
  -3942754759.3965335        3775893.2614011765        18181506.465937693     
  -3745982296.7156944        7214973.6834154129        23573128.881179042     
  -2804004293.4884062       -2055002.5332248211        654460447.80386007     
  -2668167705.0249996       -4647875.1409238577        645229963.99118996     
  -2532725961.8917418       -8556898.8491065502        639054364.37510407     
  -2397679064.0886154       -13782073.657739162        635933648.95560145     
  -2263027011.6156292       -20323399.566838145        635867817.73267412     
  -3040589892.9652543       -64838.080075979233        498650280.91977811     
  -2896647978.4726071       -3142213.8491922617        489485051.61563736     
  -2752838855.7075443       -6662228.7102550268        483611612.71312320     
  -2609162524.6700435       -10624882.663198948        481029964.21223462     
  -2465618985.3601289       -15030175.708083749        481740106.11297327     
  -3276448093.3287520        2143546.1070778370        341565672.13796932     
  -3123723977.9353108       -1215270.3620011806        332771426.54535264     
  -2970870600.6668725       -4143213.9144413471        327505877.55940342     
  -2817887961.5234489       -6640284.5502517223        325769025.18012398     
  -2664776060.5050344       -8706482.2694311142        327560869.40751803     
  -3511578894.5788980        4570150.0282511711        183206621.45843259     
  -3349395703.4131002        1132955.3206803799        175089088.78033397     
  -3186821196.7697506       -999854.46171903610        170737158.91394427     
  -3023855374.6488333       -1828279.3188948631        170150831.85927477     
  -2860498237.0503664       -1352319.2509028912        173330107.61631906     
  -3745982296.7156944        7214973.6834154129        23573128.881179042     
  -3573663154.9059815        3902463.1988337040        16438038.320582420     
  -3400690644.0161471        2767849.6479940414        13305456.776746122     
  -3227064764.0462041        3811133.0308394432        14175384.249673670     
  -3052785514.9961271        7032313.3474831581        19047820.739359621     
  -2263027011.6156292       -20323399.566838145        635867817.73267412     
  -2120818893.9945285       -24370729.774241209        624320690.81855190     
  -1978066144.5659697       -26602620.623438954        615444971.45404625     
  -1834768763.3299303       -27019072.114376545        609240659.63916099     
  -1690926750.2864387       -25620084.247140527        605707755.37388968     
  -2465618985.3601289       -15030175.708083749        481740106.11297327     
  -2316316695.1619635       -17492569.825311184        471747398.12292665     
  -2166739674.5585132       -19039195.924917936        464174583.92942393     
  -2016887923.5498090       -19670054.007012367        459021663.53246260     
  -1866761442.1358128       -19385144.071470261        456288636.93204510     
  -2664776060.5050344       -8706482.2694311142        327560869.40751803     
  -2509098208.4528823       -9799523.5133994818        318807695.37232530     
  -2353415527.3976440       -10876468.080413103        312222901.38060236     
  -2197728017.3393307       -11937315.970511317        307806487.43233913     
  -2042035678.2779238       -12982067.183640957        305558453.52755207     
  -2860498237.0503664       -1352319.2509028912        173330107.61631906     
  -2699163433.8673100       -1291590.8385604620        165501582.56675375     
  -2538093703.0833478       -2114437.0898668766        159589923.80758235     
  -2377289044.6985002       -3820858.0048995018        155595131.33880162     
  -2216749458.7127676       -6410853.5836284161        153517205.16041321     
  -3052785514.9961271        7032313.3474831581        19047820.739359621     
  -2886512371.4052248        8031228.1992591619        11829059.706211295     
  -2720774201.6156263        7246897.0467103720        6275651.2103692070     
  -2555571005.6273413        4679319.8897782564        2387595.2518456862     
  -2390902783.4403319        328496.72858142853        164891.83062808376     
  -1690926750.2864387       -25620084.247140527        605707755.37388968     
  -1550465266.3653054       -26224966.825970829        592232983.41889012     
  -1411200971.4226351       -30820479.333025455        577548612.01235569     
  -1273133865.4584465       -39406621.768347383        561654641.15429091     
  -1136263948.4727309       -51983394.131908357        544551070.84468222     
  -1866761442.1358128       -19385144.071470261        456288636.93204510     
  -1729204418.3340952       -22614892.491937637        442645303.73205537     
  -1591753215.7545519       -26197378.319641590        428583108.16288090     
  -1454407834.3971746       -30132601.554565549        414102050.22453070     
  -1317168274.2619672       -34420562.196733177        399202129.91700214     
  -2042035678.2779238       -12982067.183640957        305558453.52755207     
  -1905123865.7888999       -18158906.803715467        293019821.46492636     
  -1767226506.7657428       -20050591.310018301        280853064.11547118     
  -1628343601.2084539       -18657120.702555299        269058181.47919494     
  -1488475149.1170297       -13978494.981299222        257635173.55609050     
  -2216749458.7127676       -6410853.5836284161        153517205.16041321     
  -2078223608.7297149       -12857009.761313081        143356536.61750561     
  -1937620844.4562209       -12380118.304198623        134358479.87012705     
  -1794941165.8922882       -4980179.2122818232        126523034.91827632     
  -1650184573.0379293        9342807.5143802166        119850201.76195467     
  -2390902783.4403319        328496.72858142853        164891.83062808376     
  -2248503647.1565280       -6709201.3646837473       -6344550.8102004491     
  -2102936228.8259706       -3185959.3021337986       -10900644.573158748     
  -1954200528.4486885        10898222.916185260       -13503389.458222635     
  -1802296546.0246615        35543345.290309906       -14152785.465419810     
  -1136263948.4727309       -51983394.131908357        544551070.84468222     
  -951438396.09536242       -40577908.634419739        562790666.44319737     
  -759088907.10641444       -4092634.4316666722        591945576.67685127     
  -559215481.50587487        57472428.476394743        632015801.54563999     
  -351818119.29374528        144117280.08975053        683001341.04956996     
  -1317168274.2619672       -34420562.196733177        399202129.91700214     
  -1117603267.9613252       -14653864.424181640        421100870.31773442     
  -914400336.32965827        17239251.118467867        441492827.03775257     
  -707559479.36695898        61258784.431212425        460378000.07705390     
  -497080697.07325220        117404735.51399300        477756389.43564880     
  -1488475149.1170297       -13978494.981299222        257635173.55609050     
  -1309662398.3669853        3501902.2241574526        278659378.93172562     
  -1131097733.5664718        20155346.264531553        285754702.31078219     
  -952781154.71549714        35981837.139760613        278921143.69327557     
  -774712661.81406343        50981374.849864095        258158703.07920191     
  -1650184573.0379293        9342807.5143802166        119850201.76195467     
  -1527615787.3123515        13889391.310599625        135466192.28516206     
  -1409181098.8168724        4655651.0064857602        124731202.49595241     
  -1294880507.5514705       -18358413.397898495        87645232.394312158     
  -1184714013.5161910       -55152801.902663052        24208281.980254881     
  -1802296546.0246615        35543345.290309906       -14152785.465419810     
  -1771463434.7974074        16508602.835134864       -8478689.6219448168     
  -1748650432.0808229       -29259834.655571818       -41577672.406755395     
  -1733857537.8748949       -101761967.18181610       -113449733.81984065     
  -1727084752.1796272       -200997794.74359596       -224094873.86121020     
  -351818119.29374528        144117280.08975053        683001341.04956996     
  -277802856.98392653        285248746.64582503        786336322.44223130     
  -149003018.15594238        608995468.26244557        905481965.84970224     
   34581397.190174282        1115357444.9395213        1040438271.2720017     
   272950389.05445576        1804334676.6771247        1191205238.7091186     
  -497080697.07325220        117404735.51399300        477756389.43564880     
  -388253306.68809474        223075561.45081401        597044897.85964429     
  -230303209.26482400        492488744.18134582        735484529.08506286     
  -23230404.803418994        925644283.70564485        893075283.11190951     
   232965106.69610995        1522542180.0237179        1069817159.9401793     
  -774712661.81406343        50981374.849864095        258158703.07920191     
  -621528969.67757297        124054812.27016327        386795224.14118683     
  -424884439.98298222        341997708.21746486        537923328.79119492     
  -184779072.73029205        704810062.69178152        711543017.02923119     
   98787132.080525219        1212491875.6931527        907654288.85530341     
  -1184714013.5161910       -55152801.902663052        24208281.980254881     
  -977629845.95233643       -11813500.896029711        155587301.28685635     
  -732746710.31041980        157522360.37080586        312798364.96808785     
  -450064606.59040159        452854781.89800191        495841473.02396578     
  -129583534.79230690        874183763.68541312        704716625.45445824     
  -1727084752.1796272       -200997794.74359596       -224094873.86121020     
  -1456555935.5124123       -184529378.04789639       -96578870.703347176     
  -1153890020.2471397       -60937299.358637869        60109637.615755774     
  -819087006.38381314        169778441.32412833        245970651.09610236     
  -452146893.92240405        507617844.00048089        461004169.73768532     
 </DataArray>
 <DataArray  type="Float64" Name="VM" NumberOfComponents="1" format="ascii">
   6056134667.4792423     
   5843996165.3142366     
   5631519094.8866119     
   5418548578.6639671     
   5205001117.7686529     
   5667534176.8474169     
   5471261351.4324293     
   5275257909.3905439     
   5079495632.7378550     
   4884016235.6899061     
   5305668094.8600607     
   5124120603.5268040     
   4943485754.9854288     
   4763845225.9742117     
   4585347616.8210726     
   4972905617.0548038     
   4805099021.3473310     
   4638854570.2161903     
   4474342121.6921329     
   4311793888.4389219     
   4671934708.0455627     
   4517056859.6236095     
   4364362758.0797729     
   4214083356.6754169     
   4066506130.2586432     
   5205001117.7686529     
   5035286300.0645618     
   4866076941.6768246     
   4697336840.6422100     
   4529071037.1643658     
   4884016235.6899061     
   4725917059.3250551     
   4568589712.1815395     
   4412054212.6350594     
   4256373510.9482450     
   4585347616.8210726     
   4438663212.2189837     
   4293031543.0741258     
   4148530727.0520163     
   4005283606.4417806     
   4311793888.4389219     
   4176539196.5534220     
   4042634831.1166396     
   3910217093.9857774     
   3779468501.9116402     
   4066506130.2586432     
   3942939278.9508801     
   3821036643.4984350     
   3700989701.6047220     
   3583036690.4625092     
   4529071037.1643658     
   4334385573.7863235     
   4139630693.1853919     
   3944769762.2340298     
   3749817284.4385891     
   4256373510.9482450     
   4073480742.7568002     
   3891105479.9790549     
   3709295486.4571133     
   3528165197.5507488     
   4005283606.4417806     
   3834609748.1943488     
   3665142786.8978930     
   3497026343.9923291     
   3330486637.9879589     
   3779468501.9116402     
   3621552017.7290792     
   3465629654.3252234     
   3311946996.0957360     
   3160845782.7355194     
   3583036690.4625092     
   3438498222.1209621     
   3296818569.8342080     
   3158341434.6472602     
   3023514097.1766248     
   3749817284.4385891     
   3575729336.9505959     
   3402153468.4317541     
   3229065362.0169992     
   3056485801.4272995     
   3528165197.5507488     
   3363661122.0460873     
   3200015236.3777776     
   3037273469.9117060     
   2875537108.2566161     
   3330486637.9879589     
   3175856933.7497516     
   3022508996.9561067     
   2870575107.7067957     
   2720256384.0957346     
   3160845782.7355194     
   3016664439.8069143     
   2874276723.2107263     
   2733914665.5327134     
   2595893831.8196163     
   3023514097.1766248     
   2890623515.9423542     
   2760121949.7258825     
   2632345848.2434416     
   2507727165.2547078     
   3056485801.4272995     
   2890608964.9346070     
   2724426562.3219357     
   2557917218.1416097     
   2391067065.3687892     
   2875537108.2566161     
   2713700612.5520725     
   2552050999.8562808     
   2390620013.6971245     
   2229464195.9377556     
   2720256384.0957346     
   2564370667.4276385     
   2409467889.6389723     
   2255692900.9283080     
   2103251365.2796540     
   2595893831.8196163     
   2448008886.9402709     
   2302225978.8890791     
   2158854829.2908611     
   2018312311.2424181     
   2507727165.2547078     
   2369833281.4457922     
   2235430420.5631452     
   2105007182.4450970     
   1979195197.8665466     
   2391067065.3687892     
   2245183457.8356133     
   2101429878.5839045     
   1959811933.1774232     
   1820493537.8105416     
   2229464195.9377556     
   2086650957.4046884     
   1945429626.4408007     
   1805802784.6414318     
   1667844711.6434517     
   2103251365.2796540     
   1962858520.0299206     
   1823374055.4886975     
   1684828680.6746392     
   1547279765.6066966     
   2018312311.2424181     
   1881318201.6095459     
   1744624682.4284687     
   1608361450.1177986     
   1472707162.5328925     
   1979195197.8665466     
   1848293567.0283353     
   1717449093.9587162     
   1587016264.5136511     
   1457511160.5614860     
   1820493537.8105416     
   1779835746.7103319     
   1735700249.8494678     
   1696699511.3829846     
   1681290327.5807877     
   1667844711.6434517     
   1552441248.3996613     
   1427952141.4143760     
   1294729959.7526650     
   1158881767.3851390     
   1547279765.6066966     
   1397414512.1607158     
   1244006927.9593713     
   1084785900.8945274     
   917721348.45503175     
   1472707162.5328925     
   1328477482.7595251     
   1198722858.9738073     
   1087925088.3250930     
   1001991128.6421409     
   1457511160.5614860     
   1348508142.4840405     
   1274489992.9466047     
   1243582094.7968392     
   1262822768.7522988     
   1681290327.5807877     
   1383767089.7035370     
   1129468944.8064756     
   1010097144.8425840     
   1152911555.2590759     
   1158881767.3851390     
   1008450627.6295413     
   985232702.56596160     
   1161475704.4184036     
   1544067852.7587097     
   917721348.45503175     
   963131949.64862680     
   1144938097.6372204     
   1476487411.1405802     
   1957453901.1854694     
   1001991128.6421409     
   1164689224.9420419     
   1425418867.2582850     
   1808759372.3220894     
   2334787891.1394677     
   1262822768.7522988     
   1446637006.0721390     
   1715666725.7632277     
   2110493514.1188529     
   2663558043.4084744     
   4671934708.0455627     
   4517056859.6236095     
   4364362758.0797729     
   4214083356.6754169     
   4066506130.2586432     
   4396517576.7395802     
   4251962933.2002854     
   4110294695.5109959     
   3971806555.1177645     
   3836869769.3343449     
   4134055611.6823096     
   4001431273.1351500     
   3872707957.0277963     
   3748237831.3161845     
   3628473969.7736206     
   3890400394.7638383     
   3771079119.8023229     
   3657007682.8692589     
   3548581467.1529303     
   3446318821.6469707     
   3672919804.2218418     
   3567833594.9167924     
   3469687975.8592744     
   3378889663.1201749     
   3295984713.8233471     
   4066506130.2586432     
   3942939278.9508801     
   3821036643.4984350     
   3700989701.6047220     
   3583036690.4625092     
   3836869769.3343449     
   3723097431.3304992     
   3611788476.3269377     
   3503188299.1590347     
   3397599026.2506156     
   3628473969.7736206     
   3525446284.7411413     
   3425817694.8490944     
   3329882723.6115632     
   3237999425.9857259     
   3446318821.6469707     
   3354755280.8395433     
   3267644674.8391743     
   3185315315.9986472     
   3108160423.0422068     
   3295984713.8233471     
   3216223049.4730701     
   3142051099.4634552     
   3073804496.9548039     
   3011878625.5643182     
   3583036690.4625092     
   3438498222.1209621     
   3296818569.8342080     
   3158341434.6472602     
   3023514097.1766248     
   3397599026.2506156     
   3266313435.8600287     
   3138729980.8959436     
   3015278335.1731138     
   2896500502.3534155     
   3237999425.9857259     
   3120857174.2717113     
   3008349558.5827785     
   2900976711.2773418     
   2799350227.5218606     
   3108160423.0422068     
   3005893553.4132080     
   2909230761.0908723     
   2818711281.2607179     
   2734973445.0809770     
   3011878625.5643182     
   2924904327.0043063     
   2844469777.3105221     
   2771109738.0942893     
   2705436146.3812475     
   3023514097.1766248     
   2890623515.9423542     
   2760121949.7258825     
   2632345848.2434416     
   2507727165.2547078     
   2896500502.3534155     
   2775710878.2922792     
   2658445408.9669175     
   2545163644.7492590     
   2436434390.0882907     
   2799350227.5218606     
   2692114641.2164788     
   2589635621.2366786     
   2492464819.8369365     
   2401259306.4232135     
   2734973445.0809770     
   2642317460.2855568     
   2555638706.3401580     
   2475523831.4899817     
   2402643117.6939602     
   2705436146.3812475     
   2627750799.3893218     
   2557139263.8839560     
   2494156283.9543314     
   2439408617.9452500     
   2507727165.2547078     
   2369833281.4457922     
   2235430420.5631452     
   2105007182.4450970     
   1979195197.8665466     
   2436434390.0882907     
   2312084371.4664955     
   2192655011.0538902     
   2078839993.5131550     
   1971493211.9858518     
   2401259306.4232135     
   2292664281.5324659     
   2190503846.7850142     
   2095597474.8738687     
   2008899692.2990406     
   2402643117.6939602     
   2311242792.4758635     
   2227661425.6649222     
   2152726968.4346561     
   2087347974.4913588     
   2439408617.9452500     
   2365677594.9162579     
   2300865207.2507057     
   2245704157.3663731     
   2200952043.2408395     
   1979195197.8665466     
   1848293567.0283353     
   1717449093.9587162     
   1587016264.5136511     
   1457511160.5614860     
   1971493211.9858518     
   1855314323.1005514     
   1743518295.5555880     
   1637029437.1874068     
   1536982595.0367937     
   2008899692.2990406     
   1912536577.8643663     
   1824942316.3892896     
   1747315715.1210957     
   1680947143.7940776     
   2087347974.4913588     
   2012345641.8423014     
   1949670525.3686829     
   1900397522.8266990     
   1865551779.8825071     
   2200952043.2408395     
   2145850832.3239973     
   2105630000.9701312     
   2081051624.3628538     
   2072789628.0175107     
   1457511160.5614860     
   1348508142.4840405     
   1274489992.9466047     
   1243582094.7968392     
   1262822768.7522988     
   1536982595.0367937     
   1476093596.4524138     
   1447902833.7541718     
   1456377487.3027046     
   1504812170.2622173     
   1680947143.7940776     
   1652391973.7134433     
   1651570353.6457934     
   1680852762.7857692     
   1742848460.6557374     
   1865551779.8825071     
   1854947070.1585340     
   1867336644.6169457     
   1904931109.3766344     
   1970761963.7100387     
   2072789628.0175107     
   2069154230.3844504     
   2084789812.1986268     
   2122329319.9267576     
   2185584190.5756292     
   1262822768.7522988     
   1446637006.0721390     
   1715666725.7632277     
   2110493514.1188529     
   2663558043.4084744     
   1504812170.2622173     
   1613234692.7423666     
   1788849612.7271447     
   2066408204.0150764     
   2476118565.1841011     
   1742848460.6557374     
   1787679708.6533263     
   1884649227.0769598     
   2060667107.1344283     
   2340965447.6422882     
   1970761963.7100387     
   1968929705.8457336     
   2003630223.6044893     
   2093538000.6795251     
   2257314683.0295224     
   2185584190.5756292     
   2156268745.1513939     
   2146532965.8652742     
   2166899717.2166667     
   2228440588.5020995     
   3672919804.2218418     
   3567833594.9167924     
   3469687975.8592744     
   3378889663.1201749     
   3295984713.8233471     
   3406518552.8139410     
   3323504911.6747165     
   3247521188.4256368     
   3178962232.1409059     
   3118320626.5620828     
   3178033685.2372665     
   3115864000.0295863     
   3060593755.0719185     
   3012569227.3777480     
   2972195142.2511296     
   2991302593.2179222     
   2948717980.6477675     
   2912620623.3816590     
   2883279590.5198674     
   2860990800.4862409     
   2849610409.1340799     
   2825254483.9045482     
   2806650315.8155503     
   2793976613.2265530     
   2787418626.5391364     
   3295984713.8233471     
   3216223049.4730701     
   3142051099.4634552     
   3073804496.9548039     
   3011878625.5643182     
   3118320626.5620828     
   3052871111.4826465     
   2993367700.3661213     
   2940119484.6915340     
   2893479079.4568768     
   2972195142.2511296     
   2920524494.1478457     
   2875057216.4858727     
   2836057372.8611817     
   2803816678.0059967     
   2860990800.4862409     
   2822282525.7812696     
   2789906257.9251757     
   2764067774.4972835     
   2744987342.5795999     
   2787418626.5391364     
   2760511502.3597174     
   2739921863.4404135     
   2725792866.9111147     
   2718273280.1752992     
   3011878625.5643182     
   2924904327.0043063     
   2844469777.3105221     
   2771109738.0942893     
   2705436146.3812475     
   2893479079.4568768     
   2821972793.1050720     
   2757748872.6400867     
   2701300393.2270455     
   2653172543.9271078     
   2803816678.0059967     
   2747324076.8900075     
   2698725461.4408441     
   2658436955.3206682     
   2626902798.8498425     
   2744987342.5795999     
   2702513343.9235787     
   2668385950.0886741     
   2642922130.5287824     
   2626448864.1639738     
   2718273280.1752992     
   2688248859.7598352     
   2666867589.9009314     
   2654342967.8864307     
   2650888361.4482093     
   2705436146.3812475     
   2627750799.3893218     
   2557139263.8839560     
   2494156283.9543314     
   2439408617.9452500     
   2653172543.9271078     
   2590481005.0356040     
   2535567863.0639215     
   2488919087.7642012     
   2451045957.7358398     
   2626902798.8498425     
   2578611613.6263523     
   2538634373.9689760     
   2507359027.9510050     
   2485178358.6746078     
   2626448864.1639738     
   2591423452.7761564     
   2565084939.4290042     
   2547713612.6746793     
   2539583275.6049356     
   2650888361.4482093     
   2627518403.0405345     
   2613085201.2832179     
   2607769522.5601707     
   2611742574.1414571     
   2439408617.9452500     
   2365677594.9162579     
   2300865207.2507057     
   2245704157.3663731     
   2200952043.2408395     
   2451045957.7358398     
   2394055932.4671726     
   2346651417.6116481     
   2309404233.7615404     
   2282871890.8824749     
   2485178358.6746078     
   2443582165.8043990     
   2411961101.2825913     
   2390717848.5369325     
   2380222913.9915133     
   2539583275.6049356     
   2511532685.7813449     
   2493649814.7136650     
   2486189125.1944623     
   2489371793.4426303     
   2611742574.1414571     
   2595072267.7528090     
   2588663291.5391569     
   2592656625.7455382     
   2607168173.7800412     
   2200952043.2408395     
   2145850832.3239973     
   2105630000.9701312     
   2081051624.3628538     
   2072789628.0175107     
   2282871890.8824749     
   2242407677.1289029     
   2215831435.9806886     
   2203591918.6770091     
   2206076181.5957170     
   2380222913.9915133     
   2351482605.2037258     
   2335614355.4199114     
   2332869052.4357281     
   2343468287.3410463     
   2489371793.4426303     
   2469726189.5421500     
   2462029254.2789741     
   2466418426.0455852     
   2483028839.6252732     
   2607168173.7800412     
   2594345812.2883372     
   2592702365.0791144     
   2602317884.6965508     
   2623288829.4501367     
   2072789628.0175107     
   2069154230.3844504     
   2084789812.1986268     
   2122329319.9267576     
   2185584190.5756292     
   2206076181.5957170     
   2191672597.9288797     
   2192280087.0866895     
   2209868256.6739039     
   2247356182.8274431     
   2343468287.3410463     
   2319096282.5198598     
   2306260532.3239069     
   2306366605.2892995     
   2321502328.8786106     
   2483028839.6252732     
   2450445761.3215151     
   2426410278.1625299     
   2411867746.0423794     
   2408194623.1857324     
   2623288829.4501367     
   2584936129.8284979     
   2552443660.9651508     
   2526392822.9540524     
   2507592119.1123605     
   2185584190.5756292     
   2156268745.1513939     
   2146532965.8652742     
   2166899717.2166667     
   2228440588.5020995     
   2247356182.8274431     
   2182661251.6928444     
   2134398053.8020213     
   2112232828.9261663     
   2127099544.8933783     
   2321502328.8786106     
   2224765895.1612635     
   2141362934.0861144     
   2079658566.4551697     
   2049823750.1182218     
   2408194623.1857324     
   2282877115.1951051     
   2168074714.9483614     
   2070527854.8115232     
   1999004523.3622966     
   2507592119.1123605     
   2357204935.6375690     
   2215004259.1506639     
   2085971693.1497326     
   1976984130.1536901     
   2849610409.1340799     
   2825254483.9045482     
   2806650315.8155503     
   2793976613.2265530     
   2787418626.5391364     
   2739905325.4293432     
   2720031993.3911695     
   2707257347.8035331     
   2701718972.9136319     
   2703558258.7997365     
   2672537408.0821123     
   2655239952.2980366     
   2646419906.2204070     
   2646156213.5146699     
   2654529566.8297997     
   2654867036.9078865     
   2637130315.6566749     
   2629250615.2310758     
   2631251946.9397993     
   2643158867.6276917     
   2692074651.6004825     
   2669968158.4160180     
   2659057033.4121079     
   2659341276.5887504     
   2670820887.9459491     
   2787418626.5391364     
   2760511502.3597174     
   2739921863.4404135     
   2725792866.9111147     
   2718273280.1752992     
   2703558258.7997365     
   2683112701.8248429     
   2669453206.7737684     
   2662671891.0835710     
   2662863229.7001357     
   2654529566.8297997     
   2638670468.0267792     
   2630028138.1832218     
   2628647973.1282873     
   2634576066.8298335     
   2643158867.6276917     
   2629538738.4425564     
   2623531768.6062751     
   2625150145.4524918     
   2634406177.6212425     
   2670820887.9459491     
   2656770199.3128505     
   2650697694.7525926     
   2652603374.2651882     
   2662487237.8506317     
   2718273280.1752992     
   2688248859.7598352     
   2666867589.9009314     
   2654342967.8864307     
   2650888361.4482093     
   2662863229.7001357     
   2641541457.9205546     
   2629063803.7940335     
   2625557677.8610787     
   2631147858.6117640     
   2634576066.8298335     
   2619678375.9095235     
   2613789088.2950535     
   2616967041.3061132     
   2629268951.2564921     
   2634406177.6212425     
   2623299827.3178644     
   2621361998.5086889     
   2628607707.6111860     
   2645051283.5718946     
   2662487237.8506317     
   2652329336.4137993     
   2651521766.5709410     
   2660064528.3220525     
   2677957621.6671343     
   2650888361.4482093     
   2627518403.0405345     
   2613085201.2832179     
   2607769522.5601707     
   2611742574.1414571     
   2631147858.6117640     
   2615775128.4508681     
   2609290762.9266596     
   2611796328.9383111     
   2623386066.3323917     
   2629268951.2564921     
   2619810707.8809009     
   2619201153.9926195     
   2627484966.2562346     
   2644702939.5507455     
   2645051283.5718946     
   2639276004.4793301     
   2642351825.1691780     
   2654289747.2643843     
   2675099708.8144999     
   2677957621.6671343     
   2673571964.0885115     
   2678105054.5484190     
   2691556893.0468502     
   2713927479.5838261     
   2611742574.1414571     
   2595072267.7528090     
   2588663291.5391569     
   2592656625.7455382     
   2607168173.7800412     
   2623386066.3323917     
   2613405958.3053455     
   2613503221.8744583     
   2623753944.1288266     
   2644218907.1353011     
   2644702939.5507455     
   2639741455.8731208     
   2644762478.1482024     
   2659798581.4372325     
   2684875148.4034262     
   2675099708.8144999     
   2673442280.3950772     
   2681790281.2026892     
   2700151623.4257889     
   2728532350.5085287     
   2713927479.5838261     
   2713852808.0367045     
   2723944343.5985060     
   2744202086.2692351     
   2774626036.0488653     
   2607168173.7800412     
   2594345812.2883372     
   2592702365.0791144     
   2602317884.6965508     
   2623288829.4501367     
   2644218907.1353011     
   2633216300.3396320     
   2632507858.2528033     
   2642132982.4397030     
   2662141968.5625262     
   2684875148.4034262     
   2675372403.9027061     
   2675460485.8047423     
   2685154640.6962700     
   2704475542.9526114     
   2728532350.5085287     
   2720373577.4688811     
   2721262476.9679990     
   2731202339.5829086     
   2750197926.3926029     
   2774626036.0488653     
   2767804216.9066291     
   2769628322.9983501     
   2780098354.3240275     
   2799214310.8836751     
   2623288829.4501367     
   2584936129.8284979     
   2552443660.9651508     
   2526392822.9540524     
   2507592119.1123605     
   2662141968.5625262     
   2616798761.1254501     
   2577107680.3404584     
   2543399691.9187670     
   2516137335.6401801     
   2704475542.9526114     
   2654237599.5404301     
   2609586028.3752594     
   2570668325.4297009     
   2537691155.5327258     
   2750197926.3926029     
   2697164092.5813699     
   2649793219.0794373     
   2608121953.9241862     
   2572201652.0094132     
   2799214310.8836751     
   2745480678.1413689     
   2697629002.8039355     
   2655659284.8713655     
   2619571524.3436556     
   2507592119.1123605     
   2357204935.6375690     
   2215004259.1506639     
   2085971693.1497326     
   1976984130.1536901     
   2516137335.6401801     
   2348238496.3065767     
   2183906326.5315318     
   2026241615.1956105     
   1879809943.7708938     
   2537691155.5327258     
   2357370760.4276228     
   2176792163.7740083     
   1997427330.8733463     
   1821554686.8137636     
   2572201652.0094132     
   2384704773.2264657     
   2194128330.5864501     
   2000850677.6048896     
   1805475869.2577672     
   2619571524.3436556     
   2430208746.3876314     
   2236057007.8656583     
   2037116308.7777669     
   1833386649.1239443     
   2692074651.6004825     
   2669968158.4160180     
   2659057033.4121079     
   2659341276.5887504     
   2670820887.9459491     
   2654867051.5816226     
   2637130326.2485142     
   2629250621.6487012     
   2631251949.0874219     
   2643158865.4150839     
   2672537429.0434241     
   2655239966.9453521     
   2646419914.5651484     
   2646156215.5621095     
   2654529562.5874591     
   2739905344.7072420     
   2720032005.7857528     
   2707257353.6396818     
   2701718972.5090995     
   2703558252.4644346     
   2849610420.0421343     
   2825254488.6192040     
   2806650315.1972318     
   2793976608.1335926     
   2787418617.8113942     
   2670820887.9459491     
   2656770199.3128505     
   2650697694.7525926     
   2652603374.2651882     
   2662487237.8506317     
   2643158865.4150839     
   2629538736.6047029     
   2623531767.0059099     
   2625150143.9537220     
   2634406176.0893936     
   2654529562.5874591     
   2638670464.5790639     
   2630028135.2527661     
   2628647970.4386821     
   2634576064.1053858     
   2703558252.4644346     
   2683112696.8098083     
   2669453202.6628060     
   2662671887.4578657     
   2662863226.1379213     
   2787418617.8113942     
   2760511495.6337209     
   2739921858.1671371     
   2725792862.5316720     
   2718273276.1202264     
   2662487237.8506317     
   2652329336.4137993     
   2651521766.5709410     
   2660064528.3220525     
   2677957621.6671343     
   2634406176.0893936     
   2623299826.0945954     
   2621361997.6032834     
   2628607707.0317574     
   2645051283.3251238     
   2634576064.1053858     
   2619678373.6809721     
   2613789086.5729895     
   2616967040.1001148     
   2629268950.5748439     
   2662863226.1379213     
   2641541454.9184823     
   2629063801.3557796     
   2625557675.9908347     
   2631147857.3141346     
   2718273276.1202264     
   2688248856.2145267     
   2666867586.8528123     
   2654342965.3259683     
   2650888359.3693519     
   2677957621.6671343     
   2673571964.0885115     
   2678105054.5484190     
   2691556893.0468502     
   2713927479.5838261     
   2645051283.3251238     
   2639276004.2012868     
   2642351824.8888645     
   2654289747.0111861     
   2675099708.6183233     
   2629268950.5748439     
   2619810707.1369748     
   2619201153.2477169     
   2627484965.5726023     
   2644702938.9918213     
   2631147857.3141346     
   2615775127.0461245     
   2609290761.5124106     
   2611796327.6143589     
   2623386065.2008038     
   2650888359.3693519     
   2627518400.7811708     
   2613085198.9815073     
   2607769520.3587747     
   2611742572.1874719     
   2713927479.5838261     
   2713852808.0367045     
   2723944343.5985060     
   2744202086.2692351     
   2774626036.0488653     
   2675099708.6183233     
   2673442280.1798944     
   2681790280.9374475     
   2700151623.0802960     
   2728532350.0533195     
   2644702938.9918213     
   2639741455.3562841     
   2644762477.6129298     
   2659798580.8236237     
   2684875147.6520581     
   2623386065.2008038     
   2613405957.3664494     
   2613503221.0397439     
   2623753943.3086457     
   2644218906.2388835     
   2611742572.1874719     
   2595072266.2381558     
   2588663290.3496141     
   2592656624.7620368     
   2607168172.8790359     
   2774626036.0488653     
   2767804216.9066291     
   2769628322.9983501     
   2780098354.3240275     
   2799214310.8836751     
   2728532350.0533195     
   2720373577.1635375     
   2721262476.8031740     
   2731202339.5487142     
   2750197926.4790783     
   2684875147.6520581     
   2675372403.4036412     
   2675460485.5376782     
   2685154640.6402917     
   2704475543.0866227     
   2644218906.2388835     
   2633216299.7533278     
   2632507857.9434104     
   2642132982.3736453     
   2662141968.7057753     
   2607168172.8790359     
   2594345811.7146511     
   2592702364.7839260     
   2602317884.6312442     
   2623288829.5651264     
   2799214310.8836751     
   2745480678.1413689     
   2697629002.8039355     
   2655659284.8713655     
   2619571524.3436556     
   2750197926.4790783     
   2697164092.6350503     
   2649793219.1028662     
   2608121953.9196439     
   2572201651.9787006     
   2704475543.0866227     
   2654237599.6222954     
   2609586028.4101291     
   2570668325.4224520     
   2537691155.4877882     
   2662141968.7057753     
   2616798761.2102728     
   2577107680.3747802     
   2543399691.9104257     
   2516137335.5971971     
   2623288829.5651264     
   2584936129.8914399     
   2552443660.9869766     
   2526392822.9460349     
   2507592119.0871425     
   2619571524.3436556     
   2430208746.3876314     
   2236057007.8656583     
   2037116308.7777669     
   1833386649.1239443     
   2572201651.9787006     
   2384704773.2095103     
   2194128330.5796957     
   2000850677.6045258     
   1805475869.2598455     
   2537691155.4877882     
   2357370760.4042339     
   2176792163.7651229     
   1997427330.8709066     
   1821554686.8084660     
   2516137335.5971971     
   2348238496.2871466     
   2183906326.5252285     
   2026241615.1899698     
   1879809943.7504032     
   2507592119.0871425     
   2357204935.6322432     
   2215004259.1517267     
   2085971693.1402502     
   1976984130.1117368     
   2849610420.0421343     
   2825254488.6192040     
   2806650315.1972318     
   2793976608.1335926     
   2787418617.8113942     
   2991302600.0239229     
   2948717982.9837875     
   2912620622.0761604     
   2883279586.4069176     
   2860990794.3874116     
   3178033689.6415362     
   3115864001.2301884     
   3060593753.8283296     
   3012569224.4685078     
   2972195138.4560046     
   3406518556.5397339     
   3323504913.1006799     
   3247521188.2095194     
   3178962230.9747581     
   3118320625.1565909     
   3672919808.9022064     
   3567833597.9431953     
   3469687977.7631474     
   3378889664.4805317     
   3295984715.2544236     
   2787418617.8113942     
   2760511495.6337209     
   2739921858.1671371     
   2725792862.5316720     
   2718273276.1202264     
   2860990794.3874116     
   2822282521.1712303     
   2789906254.4815578     
   2764067771.8850060     
   2744987340.4497418     
   2972195138.4560046     
   2920524491.3852835     
   2875057214.6459918     
   2836057371.8215384     
   2803816677.6305890     
   3118320625.1565909     
   3052871110.6049647     
   2993367700.0993590     
   2940119485.1098452     
   2893479080.6256895     
   3295984715.2544236     
   3216223050.7908411     
   3142051100.9200630     
   3073804498.7999368     
   3011878628.0479264     
   2718273276.1202264     
   2688248856.2145267     
   2666867586.8528123     
   2654342965.3259683     
   2650888359.3693519     
   2744987340.4497418     
   2702513342.1318536     
   2668385948.6137061     
   2642922129.3528266     
   2626448863.2737589     
   2803816677.6305890     
   2747324076.6877437     
   2698725461.3788614     
   2658436955.3696799     
   2626902798.9854803     
   2893479080.6256895     
   2821972794.2952480     
   2757748873.8054118     
   2701300394.3239880     
   2653172544.9165988     
   3011878628.0479264     
   2924904329.3740320     
   2844469779.5060406     
   2771109740.0562210     
   2705436148.0532565     
   2650888359.3693519     
   2627518400.7811708     
   2613085198.9815073     
   2607769520.3587747     
   2611742572.1874719     
   2626448863.2737589     
   2591423451.5543990     
   2565084937.9666014     
   2547713611.0671206     
   2539583273.9521966     
   2626902798.9854803     
   2578611613.3299866     
   2538634373.2865710     
   2507359026.9316726     
   2485178357.3705311     
   2653172544.9165988     
   2590481005.5609736     
   2535567863.1297135     
   2488919087.3747468     
   2451045956.8949413     
   2705436148.0532565     
   2627750800.6467094     
   2557139264.6957006     
   2494156284.2840443     
   2439408617.7501254     
   2611742572.1874719     
   2595072266.2381558     
   2588663290.3496141     
   2592656624.7620368     
   2607168172.8790359     
   2539583273.9521966     
   2511532684.4916420     
   2493649813.7164812     
   2486189124.4135308     
   2489371792.7960515     
   2485178357.3705311     
   2443582164.7757454     
   2411961100.5004597     
   2390717847.9666972     
   2380222913.5926967     
   2451045956.8949413     
   2394055931.7888536     
   2346651417.1062059     
   2309404233.4350567     
   2282871890.7363963     
   2439408617.7501254     
   2365677594.7339077     
   2300865207.1268854     
   2245704157.3457346     
   2200952043.3667035     
   2607168172.8790359     
   2594345811.7146511     
   2592702364.7839260     
   2602317884.6312442     
   2623288829.5651264     
   2489371792.7960515     
   2469726189.1266685     
   2462029254.0617595     
   2466418425.9941339     
   2483028839.7063274     
   2380222913.5926967     
   2351482604.9452019     
   2335614355.2842340     
   2332869052.4061794     
   2343468287.4005895     
   2282871890.7363963     
   2242407677.0337272     
   2215831435.9340224     
   2203591918.6780562     
   2206076181.6443481     
   2200952043.3667035     
   2145850832.4082141     
   2105630001.0249715     
   2081051624.4038978     
   2072789628.0628891     
   2623288829.5651264     
   2584936129.8914399     
   2552443660.9869766     
   2526392822.9460349     
   2507592119.0871425     
   2483028839.7063274     
   2450445761.3762932     
   2426410278.1966796     
   2411867746.0617528     
   2408194623.1974921     
   2343468287.4005895     
   2319096282.5753689     
   2306260532.3757277     
   2306366605.3378091     
   2321502328.9254055     
   2206076181.6443481     
   2191672597.9930816     
   2192280087.1613598     
   2209868256.7537131     
   2247356182.9078970     
   2072789628.0628891     
   2069154230.4639802     
   2084789812.3011198     
   2122329320.0403965     
   2185584190.6889133     
   2507592119.0871425     
   2357204935.6322432     
   2215004259.1517267     
   2085971693.1402502     
   1976984130.1117368     
   2408194623.1974921     
   2282877115.2061868     
   2168074714.9498353     
   2070527854.7913818     
   1999004523.3045790     
   2321502328.9254055     
   2224765895.1890640     
   2141362934.0908675     
   2079658566.4304566     
   2049823750.0549645     
   2247356182.9078970     
   2182661251.7380462     
   2134398053.8130183     
   2112232828.9026549     
   2127099544.8334980     
   2185584190.6889133     
   2156268745.2150517     
   2146532965.8856444     
   2166899717.1996918     
   2228440588.4531240     
   3672919808.9022064     
   3567833597.9431953     
   3469687977.7631474     
   3378889664.4805317     
   3295984715.2544236     
   3890400395.5042715     
   3771079120.2889562     
   3657007683.4074512     
   3548581468.0912309     
   3446318823.3738041     
   4134055610.0422287     
   4001431272.3157306     
   3872707957.0955505     
   3748237832.3725328     
   3628473971.9549022     
   4396517573.2325115     
   4251962931.4853988     
   4110294695.4038930     
   3971806556.4588385     
   3836869771.9874544     
   4671934702.3443270     
   4517056856.7618790     
   4364362757.6105499     
   4214083358.1675386     
   4066506133.2908092     
   3295984715.2544236     
   3216223050.7908411     
   3142051100.9200630     
   3073804498.7999368     
   3011878628.0479264     
   3446318823.3738041     
   3354755282.4460802     
   3267644676.5100040     
   3185315317.9201679     
   3108160425.4054165     
   3628473971.9549022     
   3525446286.7133455     
   3425817696.7347651     
   3329882725.5371861     
   3237999428.0843577     
   3836869771.9874544     
   3723097433.6528807     
   3611788478.3847842     
   3503188301.0227690     
   3397599027.9971538     
   4066506133.2908092     
   3942939281.5368347     
   3821036645.6541786     
   3700989703.3495865     
   3583036691.8209147     
   3011878628.0479264     
   2924904329.3740320     
   2844469779.5060406     
   2771109740.0562210     
   2705436148.0532565     
   3108160425.4054165     
   3005893555.5524669     
   2909230762.9562049     
   2818711282.7998357     
   2734973446.2403736     
   3237999428.0843577     
   3120857176.0977492     
   3008349560.1035762     
   2900976712.4557133     
   2799350228.3161049     
   3397599027.9971538     
   3266313437.3273730     
   3138729982.0747042     
   3015278336.0484362     
   2896500502.9043212     
   3583036691.8209147     
   3438498223.2174425     
   3296818570.6867647     
   3158341435.2688117     
   3023514097.5741162     
   2705436148.0532565     
   2627750800.6467094     
   2557139264.6957006     
   2494156284.2840443     
   2439408617.7501254     
   2734973446.2403736     
   2642317461.1795063     
   2555638706.9403291     
   2475523831.7627888     
   2402643117.5992951     
   2799350228.3161049     
   2692114641.8812547     
   2589635621.7451205     
   2492464820.1573210     
   2401259306.5175343     
   2896500502.9043212     
   2775710878.8371887     
   2658445409.4792051     
   2545163645.1980553     
   2436434390.4371238     
   3023514097.5741162     
   2890623516.4458747     
   2760121950.3077312     
   2632345848.8724909     
   2507727165.8951750     
   2439408617.7501254     
   2365677594.7339077     
   2300865207.1268854     
   2245704157.3457346     
   2200952043.3667035     
   2402643117.5992951     
   2311242792.4052868     
   2227661425.6609812     
   2152726968.5412259     
   2087347974.7537172     
   2401259306.5175343     
   2292664281.6291032     
   2190503846.9202471     
   2095597475.0874205     
   2008899692.6348350     
   2436434390.4371238     
   2312084371.7711735     
   2192655011.3407702     
   2078839993.8132622     
   1971493212.3361733     
   2507727165.8951750     
   2369833281.9801311     
   2235430421.0049510     
   2105007182.8125021     
   1979195198.1836536     
   2200952043.3667035     
   2145850832.4082141     
   2105630001.0249715     
   2081051624.4038978     
   2072789628.0628891     
   2087347974.7537172     
   2012345642.0371172     
   1949670525.5023320     
   1900397522.9078155     
   1865551779.9221246     
   2008899692.6348350     
   1912536578.1223600     
   1824942316.5725300     
   1747315715.2334554     
   1680947143.8406842     
   1971493212.3361733     
   1855314323.3762214     
   1743518295.7597423     
   1637029437.3226087     
   1536982595.1049306     
   1979195198.1836536     
   1848293567.2838147     
   1717449094.1591909     
   1587016264.6646791     
   1457511160.6664453     
   2072789628.0628891     
   2069154230.4639802     
   2084789812.3011198     
   2122329320.0403965     
   2185584190.6889133     
   1865551779.9221246     
   1854947070.2293546     
   1867336644.7117143     
   1904931109.4872062     
   1970761963.8277607     
   1680947143.8406842     
   1652391973.7848279     
   1651570353.7379558     
   1680852762.8938575     
   1742848460.7738616     
   1536982595.1049306     
   1476093596.5351744     
   1447902833.8498859     
   1456377487.4093807     
   1504812170.3768604     
   1457511160.6664453     
   1348508142.5903060     
   1274489993.0531240     
   1243582094.9035468     
   1262822768.8592308     
   2185584190.6889133     
   2156268745.2150517     
   2146532965.8856444     
   2166899717.1996918     
   2228440588.4531240     
   1970761963.8277607     
   1968929705.9152548     
   2003630223.6293187     
   2093538000.6644251     
   2257314682.9807696     
   1742848460.7738616     
   1787679708.7269135     
   1884649227.1070149     
   2060667107.1248665     
   2340965447.6007328     
   1504812170.3768604     
   1613234692.8181217     
   1788849612.7630107     
   2066408204.0143664     
   2476118565.1554871     
   1262822768.8592308     
   1446637006.1479342     
   1715666725.8052464     
   2110493514.1297128     
   2663558043.3970652     
   4671934702.3443270     
   4517056856.7618790     
   4364362757.6105499     
   4214083358.1675386     
   4066506133.2908092     
   4972905611.7032585     
   4805099018.5048599     
   4638854569.5591869     
   4474342122.9104700     
   4311793891.2343969     
   5305668090.0829544     
   5124120600.8389292     
   4943485754.1824560     
   4763845226.8627472     
   4585347619.2205448     
   5667534173.1230021     
   5471261349.2219915     
   5275257908.5970230     
   5079495633.2722111     
   4884016237.4755335     
   6056134665.4823065     
   5843996164.0482893     
   5631519094.3447571     
   5418548578.8438959     
   5205001118.6786604     
   4066506133.2908092     
   3942939281.5368347     
   3821036645.6541786     
   3700989703.3495865     
   3583036691.8209147     
   4311793891.2343969     
   4176539198.8374901     
   4042634832.8826194     
   3910217095.2288342     
   3779468502.6299486     
   4585347619.2205448     
   4438663214.0849037     
   4293031544.3828769     
   4148530727.7811270     
   4005283606.5704436     
   4884016237.4755335     
   4725917060.6043291     
   4568589712.9195776     
   4412054212.7982149     
   4256373510.5039468     
   5205001118.6786604     
   5035286300.5491238     
   4866076941.6950045     
   4697336840.1550283     
   4529071036.1340961     
   3583036691.8209147     
   3438498223.2174425     
   3296818570.6867647     
   3158341435.2688117     
   3023514097.5741162     
   3779468502.6299486     
   3621552018.2920113     
   3465629654.7495861     
   3311946996.3943701     
   3160845782.9162745     
   4005283606.5704436     
   3834609748.2683296     
   3665142786.9330711     
   3497026344.0018835     
   3330486637.9813347     
   4256373510.5039468     
   4073480742.3577724     
   3891105479.6404300     
   3709295486.1926661     
   3528165197.3718777     
   4529071036.1340961     
   4334385572.9048920     
   4139630692.4672928     
   3944769761.6937561     
   3749817284.0896835     
   3023514097.5741162     
   2890623516.4458747     
   2760121950.3077312     
   2632345848.8724909     
   2507727165.8951750     
   3160845782.9162745     
   3016664440.1670885     
   2874276723.7304020     
   2733914666.1902962     
   2595893832.5910392     
   3330486637.9813347     
   3175856933.9653330     
   3022508997.3770900     
   2870575108.3159046     
   2720256384.8748660     
   3528165197.3718777     
   3363661122.1023626     
   3200015236.6511722     
   3037273470.3843040     
   2875537108.9104948     
   3749817284.0896835     
   3575729336.8220878     
   3402153468.5009027     
   3229065362.2610917     
   3056485801.8237305     
   2507727165.8951750     
   2369833281.9801311     
   2235430421.0049510     
   2105007182.8125021     
   1979195198.1836536     
   2595893832.5910392     
   2448008887.5787878     
   2302225979.3954520     
   2158854829.6677365     
   2018312311.4951000     
   2720256384.8748660     
   2564370668.0815921     
   2409467890.1637411     
   2255692901.3203292     
   2103251365.5357490     
   2875537108.9104948     
   2713700613.1234527     
   2552051000.3436298     
   2390620014.0992756     
   2229464196.2535338     
   3056485801.8237305     
   2890608965.3249784     
   2724426562.7127395     
   2557917218.5407805     
   2391067065.7853770     
   1979195198.1836536     
   1848293567.2838147     
   1717449094.1591909     
   1587016264.6646791     
   1457511160.6664453     
   2018312311.4951000     
   1881318201.8147540     
   1744624682.5947461     
   1608361450.2533553     
   1472707162.6454470     
   2103251365.5357490     
   1962858520.2404084     
   1823374055.6608474     
   1684828680.8156846     
   1547279765.7240322     
   2229464196.2535338     
   2086650957.6665742     
   1945429626.6522851     
   1805802784.8059440     
   1667844711.7645159     
   2391067065.7853770     
   2245183458.1824512     
   2101429878.8591018     
   1959811933.3789165     
   1820493537.9360809     
   1457511160.6664453     
   1348508142.5903060     
   1274489993.0531240     
   1243582094.9035468     
   1262822768.8592308     
   1472707162.6454470     
   1328477482.8647749     
   1198722859.0700507     
   1087925088.4117329     
   1001991128.7195607     
   1547279765.7240322     
   1397414512.2622468     
   1244006928.0432012     
   1084785900.9598389     
   917721348.50187457     
   1667844711.7645159     
   1552441248.4973037     
   1427952141.4873497     
   1294729959.8005333     
   1158881767.4076571     
   1820493537.9360809     
   1779835746.8055716     
   1735700249.9152124     
   1696699511.4204855     
   1681290327.5913930     
   1262822768.8592308     
   1446637006.1479342     
   1715666725.8052464     
   2110493514.1297128     
   2663558043.3970652     
   1001991128.7195607     
   1164689224.9978604     
   1425418867.2896094     
   1808759372.3309278     
   2334787891.1323328     
   917721348.50187457     
   963131949.68548477     
   1144938097.6587737     
   1476487411.1468098     
   1957453901.1808710     
   1158881767.4076571     
   1008450627.6482985     
   985232702.57827926     
   1161475704.4219630     
   1544067852.7553830     
   1681290327.5913930     
   1383767089.7105863     
   1129468944.8104434     
   1010097144.8429399     
   1152911555.2558126     
 </DataArray>
 <DataArray  type="Float64" Name="strain" NumberOfComponents="3" format="ascii">
  0.10102849054437990       -2.9737425064754741E-002   3.7636447403837092E-003
   9.7445053413730665E-002  -2.8945400750343797E-002   2.7965667563741858E-003
   9.3861616283081539E-002  -2.8095528847154605E-002   2.1424984852269624E-003
   9.0278179152432303E-002  -2.7187809355186776E-002   1.8014399269413728E-003
   8.6694742021783067E-002  -2.6222242274440144E-002   1.7733910815178611E-003
   9.4318539311930349E-002  -2.7959091399017533E-002   9.5340159147150327E-003
   9.1026848295668206E-002  -2.7169157069684979E-002   8.8612181101969112E-003
   8.7735157279406006E-002  -2.6343456204673099E-002   8.4589028215906192E-003
   8.4443466263143779E-002  -2.5481988803982322E-002   8.3270700488967675E-003
   8.1151775246881663E-002  -2.4584754867612413E-002   8.4657197921146898E-003
   8.7877324795217981E-002  -2.6180757733280546E-002   1.5313337630518453E-002
   8.4834852696393015E-002  -2.5392913389025940E-002   1.4912738952391591E-002
   8.1792380597567993E-002  -2.4591383562191760E-002   1.4740095593227170E-002
   7.8749908498743013E-002  -2.3776168252777979E-002   1.4795407553024748E-002
   7.5707436399918032E-002  -2.2947267460784626E-002   1.5078674831785210E-002
   8.1704846994242311E-002  -2.4402424067543393E-002   2.1101609887793749E-002
   7.8869066615904870E-002  -2.3616669708366886E-002   2.0951129282958489E-002
   7.6033286237567360E-002  -2.2839310919710282E-002   2.0986076800136269E-002
   7.3197505859229919E-002  -2.2070347701573581E-002   2.1206452439326673E-002
   7.0361725480892409E-002  -2.1309780053956812E-002   2.1612256200529215E-002
   7.5801105909003907E-002  -2.2624090401806296E-002   2.6898832686540308E-002
   7.3129490054203994E-002  -2.1840426027707860E-002   2.6976389101897869E-002
   7.0457874199404247E-002  -2.1087238277228762E-002   2.7196846442318096E-002
   6.7786258344604444E-002  -2.0364527150369075E-002   2.7560204707801197E-002
   6.5114642489804669E-002  -1.9672292647128942E-002   2.8066463898347216E-002
   8.6694742021783067E-002  -2.6222242274440144E-002   1.7733910815178611E-003
   8.3900680450119391E-002  -2.5242173396067824E-002   1.3630434407578274E-003
   8.1106618878455605E-002  -2.4290948511221877E-002   1.1586731242356207E-003
   7.8312557306791875E-002  -2.3368567619902678E-002   1.1602801319514633E-003
   7.5518495735128144E-002  -2.2475030722110212E-002   1.3678644639056881E-003
   8.1151775246881663E-002  -2.4584754867612413E-002   8.4657197921146898E-003
   7.8554457140138811E-002  -2.3678893920966310E-002   8.1210879656486712E-003
   7.5957139033395960E-002  -2.2791545489447021E-002   7.9639657447866385E-003
   7.3359820926653108E-002  -2.1922709573054245E-002   7.9943531295286335E-003
   7.0762502819910311E-002  -2.1072386171788304E-002   8.2122501198739206E-003
   7.5707436399918032E-002  -2.2947267460784626E-002   1.5078674831785210E-002
   7.3288394039462010E-002  -2.2115614445864795E-002   1.4810090298013320E-002
   7.0869351679005960E-002  -2.1292142467671943E-002   1.4710547651211214E-002
   6.8450309318549951E-002  -2.0476851526205701E-002   1.4780046891378636E-002
   6.6031266958093887E-002  -1.9669741621466397E-002   1.5018588018515883E-002
   7.0361725480892409E-002  -2.1309780053956812E-002   2.1612256200529215E-002
   6.8102491148088973E-002  -2.0552334970763392E-002   2.1430050437851521E-002
   6.5843256815285578E-002  -1.9792739445896865E-002   2.1398418843509147E-002
   6.3584022482482169E-002  -1.9030993479357213E-002   2.1517361417502205E-002
   6.1324788149678726E-002  -1.8267097071144545E-002   2.1786878159830957E-002
   6.5114642489804669E-002  -1.9672292647128942E-002   2.8066463898347216E-002
   6.2996748466019686E-002  -1.8989055495661933E-002   2.7980968385163230E-002
   6.0878854442234717E-002  -1.8293336424121898E-002   2.8027579321680485E-002
   5.8760960418449741E-002  -1.7585135432508892E-002   2.8206296707899300E-002
   5.6643066394664821E-002  -1.6864452520822582E-002   2.8517120543819441E-002
   7.5518495735128144E-002  -2.2475030722110212E-002   1.3678644639056881E-003
   7.2256150089820226E-002  -2.1589140191292766E-002   9.6104639458360896E-004
   6.8993804444512363E-002  -2.0689698400898321E-002   7.6771334027575522E-004
   6.5731458799204473E-002  -1.9776705350927050E-002   7.8786530098173824E-004
   6.2469113153896583E-002  -1.8850161041379043E-002   1.0215022767020576E-003
   7.0762502819910311E-002  -2.1072386171788304E-002   8.2122501198739206E-003
   6.7709168530600161E-002  -2.0226690655615442E-002   7.8371194471957839E-003
   6.4655834241290011E-002  -1.9371738394502125E-002   7.6665264714994019E-003
   6.1602499951979833E-002  -1.8507529388448046E-002   7.7004711927839975E-003
   5.8549165662669711E-002  -1.7634063637453679E-002   7.9389536110505698E-003
   6.6031266958093887E-002  -1.9669741621466397E-002   1.5018588018515883E-002
   6.3177996706748896E-002  -1.8864241119938396E-002   1.4670850227845200E-002
   6.0324726455404001E-002  -1.8053778388105915E-002   1.4518702816123302E-002
   5.7471456204059100E-002  -1.7238353425969372E-002   1.4562145783350931E-002
   5.4618185952714116E-002  -1.6417966233528258E-002   1.4801179129527192E-002
   6.1324788149678726E-002  -1.8267097071144545E-002   2.1786878159830957E-002
   5.8662634618266554E-002  -1.7501791584261323E-002   2.1462238736531497E-002
   5.6000481086854362E-002  -1.6735818381709767E-002   2.1324242374148598E-002
   5.3338327555442204E-002  -1.5969177463490532E-002   2.1372889072682200E-002
   5.0676174024029991E-002  -1.5201868829602977E-002   2.1608178832132209E-002
   5.6643066394664821E-002  -1.6864452520822582E-002   2.8517120543819441E-002
   5.4163082265152929E-002  -1.6139342048584027E-002   2.8211284973254980E-002
   5.1683098135641037E-002  -1.5417858375313662E-002   2.8083145145574612E-002
   4.9203114006129117E-002  -1.4700001501011622E-002   2.8132701060778281E-002
   4.6723129876617253E-002  -1.3985771425677640E-002   2.8359952718865766E-002
   6.2469113153896583E-002  -1.8850161041379043E-002   1.0215022767020576E-003
   5.9580564901471567E-002  -1.7933356821258628E-002   7.1231501834922994E-004
   5.6692016649046495E-002  -1.7049584039568660E-002   5.7656981682246977E-004
   5.3803468396621423E-002  -1.6198842696311076E-002   6.1426667212205466E-004
   5.0914920144196407E-002  -1.5381132791484564E-002   8.2540558424715194E-004
   5.8549165662669711E-002  -1.7634063637453679E-002   7.9389536110505698E-003
   5.5828926499536413E-002  -1.6765861100325907E-002   7.5871938608818579E-003
   5.3108687336403060E-002  -1.5917441735871729E-002   7.3986102324709591E-003
   5.0388448173269818E-002  -1.5088805544090783E-002   7.3732027258178734E-003
   4.7668209010136464E-002  -1.4279952524983930E-002   7.5109713409217127E-003
   5.4618185952714116E-002  -1.6417966233528258E-002   1.4801179129527192E-002
   5.2055989943803838E-002  -1.5598365379393464E-002   1.4420095153301227E-002
   4.9493793934893560E-002  -1.4785299432173923E-002   1.4191921363764029E-002
   4.6931597925983309E-002  -1.3978768391870604E-002   1.4116657760915578E-002
   4.4369401917073031E-002  -1.3178772258482851E-002   1.4194304344755493E-002
   5.0676174024029991E-002  -1.5201868829602977E-002   2.1608178832132209E-002
   4.8261755234273986E-002  -1.4430869658460660E-002   2.1211018895606421E-002
   4.5847336444518078E-002  -1.3653157128476333E-002   2.0956503210700628E-002
   4.3432917654762170E-002  -1.2868731239649924E-002   2.0844631777414642E-002
   4.1018498865006164E-002  -1.2077591991981773E-002   2.0875404595748728E-002
   4.6723129876617253E-002  -1.3985771425677640E-002   2.8359952718865766E-002
   4.4446222370946864E-002  -1.3263373937528022E-002   2.7959965087797745E-002
   4.2169314865276558E-002  -1.2521014824778923E-002   2.7692355773281135E-002
   3.9892407359606211E-002  -1.1758694087429623E-002   2.7557124775315620E-002
   3.7615499853935863E-002  -1.0976411725480917E-002   2.7554272093901488E-002
   5.0914920144196407E-002  -1.5381132791484564E-002   8.2540558424715194E-004
   4.8148695658276619E-002  -1.4566415656646403E-002   5.1259259711045058E-004
   4.5382471172356942E-002  -1.3724652623350708E-002   2.7194488890824875E-004
   4.2616246686437209E-002  -1.2855843691600408E-002   1.0346245964060197E-004
   3.9850022200517476E-002  -1.1959988861394155E-002   7.1453093088980069E-006
   4.7668209010136464E-002  -1.4279952524983930E-002   7.5109713409217127E-003
   4.4979599267355730E-002  -1.3474290650858034E-002   7.1717352495679343E-003
   4.2290989524574940E-002  -1.2655227894022125E-002   6.9155633655570425E-003
   3.9602379781794206E-002  -1.1822764254476634E-002   6.7424556888892040E-003
   3.6913770039013472E-002  -1.0976899732220824E-002   6.6524122195642521E-003
   4.4369401917073031E-002  -1.3178772258482851E-002   1.4194304344755493E-002
   4.1769305845839100E-002  -1.2382165645070720E-002   1.3815000133439503E-002
   3.9169209774605251E-002  -1.1585803164694014E-002   1.3529659057874538E-002
   3.6569113703371334E-002  -1.0789684817352645E-002   1.3338281118060277E-002
   3.3969017632137471E-002  -9.9938106030474927E-003   1.3240866313996458E-002
   4.1018498865006164E-002  -1.2077591991981773E-002   2.0875404595748728E-002
   3.8517815393726978E-002  -1.1290040639283322E-002   2.0442387248725255E-002
   3.6017131922447834E-002  -1.0516378435365445E-002   2.0114231965859992E-002
   3.3516448451168676E-002  -9.7566053802292073E-003   1.9890938747153499E-002
   3.1015764979889511E-002  -9.0107214738739394E-003   1.9772507592605695E-002
   3.7615499853935863E-002  -1.0976411725480917E-002   2.7554272093901488E-002
   3.5225127911019283E-002  -1.0197915633495536E-002   2.7053896595424176E-002
   3.2834755968102675E-002  -9.4469537060373476E-003   2.6669282089513524E-002
   3.0444384025186122E-002  -8.7235259431053327E-003   2.6400428576169283E-002
   2.8054012082269486E-002  -8.0276323447006082E-003   2.6247336055391868E-002
   3.9850022200517476E-002  -1.1959988861394155E-002   7.1453093088980069E-006
   3.7441514773272289E-002  -1.1130698211559875E-002  -2.7493053686988844E-004
   3.5033007346027045E-002  -1.0461581820923327E-002  -4.7236126561500669E-004
   3.2624499918781830E-002  -9.9526396894869112E-003  -5.8514687692595713E-004
   3.0215992491536614E-002  -9.6038718172484216E-003  -6.1328737080423856E-004
   3.6913770039013472E-002  -1.0976899732220824E-002   6.6524122195642521E-003
   3.4572775092505281E-002  -1.0176834546454239E-002   6.2121165838729953E-003
   3.2231780145997119E-002  -9.4817689163773644E-003   5.8222007922225094E-003
   2.9890785199488970E-002  -8.8917028419892713E-003   5.4826648446122117E-003
   2.7549790252980766E-002  -8.4066363232910835E-003   5.1935087410431846E-003
   3.3969017632137471E-002  -9.9938106030474927E-003   1.3240866313996458E-002
   3.1661269892973243E-002  -9.2229708813494349E-003   1.2697525592302250E-002
   2.9353522153809056E-002  -8.5019560118311521E-003   1.2170299441255944E-002
   2.7045774414644848E-002  -7.8307659944922905E-003   1.1659187860856512E-002
   2.4738026675480695E-002  -7.2094008293333012E-003   1.1164190851104927E-002
   3.1015764979889511E-002  -9.0107214738739394E-003   1.9772507592605695E-002
   2.8706999174676118E-002  -8.2691072162444368E-003   1.9181296488418514E-002
   2.6398233369462887E-002  -7.5221431072845096E-003   1.8571934681485124E-002
   2.4089467564249657E-002  -6.7698291469952022E-003   1.7944422171806442E-002
   2.1780701759036319E-002  -6.0121653353752968E-003   1.7298758959382335E-002
   2.8054012082269486E-002  -8.0276323447006082E-003   2.6247336055391868E-002
   2.5709962937614073E-002  -7.3152435511393277E-003   2.5663429272220539E-002
   2.3365913792958715E-002  -6.5423302027384500E-003   2.5027106512910569E-002
   2.1021864648303357E-002  -5.7088922994977045E-003   2.4338367777462289E-002
   1.8677815503647943E-002  -4.8149298414176256E-003   2.3597213065875144E-002
   3.0215992491536614E-002  -9.6038718172484216E-003  -6.1328737080423856E-004
   2.9606933592595253E-002  -9.1324605538811721E-003  -3.6740988400896235E-004
   2.8997874693653836E-002  -8.2555882490542021E-003  -1.8016991378291269E-003
   2.8388815794712419E-002  -6.9732549027698293E-003  -4.9161551322656760E-003
   2.7779756895771057E-002  -5.2854605150265410E-003  -9.7107778673175549E-003
   2.7549790252980766E-002  -8.4066363232910835E-003   5.1935087410431846E-003
   2.5529710076916401E-002  -7.8695687913478141E-003   5.8702016642045995E-003
   2.3509629900852036E-002  -7.1234996772273629E-003   5.4050187737355593E-003
   2.1489549724787671E-002  -6.1684289809283421E-003   3.7979600696364801E-003
   1.9469469548723306E-002  -5.0043567024513624E-003   1.0490255519068903E-003
   2.4738026675480695E-002  -7.2094008293333012E-003   1.1164190851104927E-002
   2.1845216149278590E-002  -6.6066770288152332E-003   1.2075239751352718E-002
   1.8952405623076429E-002  -5.9914111053996633E-003   1.2382703764955511E-002
   1.6059595096874296E-002  -5.3636030590873060E-003   1.2086582891912556E-002
   1.3166784570672135E-002  -4.7232528898767390E-003   1.1186877132224604E-002
   2.1780701759036319E-002  -6.0121653353752968E-003   1.7298758959382335E-002
   1.8553451809681640E-002  -5.3437852662824858E-003   1.8247704377435836E-002
   1.5326201860326988E-002  -4.8593225335721718E-003   1.9131355835828930E-002
   1.2098951910972315E-002  -4.5587771372458223E-003   1.9949713334562389E-002
   8.8717019616176562E-003  -4.4421490773016159E-003   2.0702776873635656E-002
   1.8677815503647943E-002  -4.8149298414176256E-003   2.3597213065875144E-002
   1.5654417058125814E-002  -4.0808935037494609E-003   2.4387595542453622E-002
   1.2631018612603767E-002  -3.7272339617450412E-003   2.5650974986357322E-002
   9.6076201670817069E-003  -3.7539512154039847E-003   2.7387351397586190E-002
   6.5842217215595911E-003  -4.1610452647264928E-003   2.9596724776139727E-002
   2.7779756895771057E-002  -5.2854605150265410E-003  -9.7107778673175549E-003
   2.3353285368189147E-002  -4.2072900433207661E-003  -4.1850843971531493E-003
   1.8926813840607182E-002  -4.7538284451475454E-003   2.6047509633843058E-003
   1.4500342313025216E-002  -6.9250757205066987E-003   1.0658728214297974E-002
   1.0073870785443306E-002  -1.0721031869400655E-002   1.9976847355586358E-002
   1.9469469548723306E-002  -5.0043567024513624E-003   1.0490255519068903E-003
   1.6234763261135154E-002  -4.6912575481639074E-003   6.7421163886413060E-003
   1.3000056973547058E-002  -6.2891062244321838E-003   1.3554595814988413E-002
   9.7653506859588235E-003  -9.7979027312568162E-003   2.1486463830948155E-002
   6.5306443983708107E-003  -1.5217647068638929E-002   3.0537720436520033E-002
   1.3166784570672135E-002  -4.7232528898767390E-003   1.1186877132224604E-002
   1.0979090222315552E-002  -5.1752250530076038E-003   1.6761126378506463E-002
   8.7913958739589265E-003  -7.8243840037181822E-003   2.3310010913638962E-002
   6.6037015256021903E-003  -1.2670729742007940E-002   3.0833530737621587E-002
   4.4160071772457177E-003  -1.9714262267877647E-002   3.9331685850454656E-002
   8.8717019616176562E-003  -4.4421490773016159E-003   2.0702776873635656E-002
   7.5862662517302212E-003  -5.6591925578505786E-003   2.5871945572441560E-002
   6.3008305418428973E-003  -9.3596617830030565E-003   3.1870996259336322E-002
   5.0153948319555525E-003  -1.5543556752757672E-002   3.8699928934318450E-002
   3.7299591220682632E-003  -2.4210877467115699E-002   4.6358743597388841E-002
   6.5842217215595911E-003  -4.1610452647264928E-003   2.9596724776139727E-002
   6.0562913493792947E-003  -6.1431600626936644E-003   3.4074573970446775E-002
   5.5283609771990816E-003  -1.0894939562288208E-002   3.9237551852079666E-002
   5.0004306050188130E-003  -1.8416383763507863E-002   4.5085658421038566E-002
   4.4725002328385166E-003  -2.8707492666354195E-002   5.1618893677323197E-002
   7.5801105909003907E-002  -2.2624090401806296E-002   2.6898832686540308E-002
   7.3129490054203994E-002  -2.1840426027707860E-002   2.6976389101897869E-002
   7.0457874199404247E-002  -2.1087238277228762E-002   2.7196846442318096E-002
   6.7786258344604444E-002  -2.0364527150369075E-002   2.7560204707801197E-002
   6.5114642489804669E-002  -1.9672292647128942E-002   2.8066463898347216E-002
   6.9903342261502327E-002  -2.0694919169418013E-002   3.3269223455756003E-002
   6.7395063358290097E-002  -2.0014961503134754E-002   3.3088954912272095E-002
   6.4886784455077826E-002  -1.9347485503438802E-002   3.3092459346900249E-002
   6.2378505551865589E-002  -1.8692491170329884E-002   3.3279736759640993E-002
   5.9870226648653352E-002  -1.8049978503808295E-002   3.3650787150493827E-002
   6.3748796773737820E-002  -1.8765747937029731E-002   3.9526910038640437E-002
   6.1444726875162614E-002  -1.8189496978561759E-002   3.9106811493347202E-002
   5.9140656976587450E-002  -1.7607732729648752E-002   3.8911357979215445E-002
   5.6836587078012264E-002  -1.7020455190290718E-002   3.8940549496245827E-002
   5.4532517179437072E-002  -1.6427664360487676E-002   3.9194386044437965E-002
   5.7337469445710269E-002  -1.6836576704641462E-002   4.5671892435193567E-002
   5.5278480604821698E-002  -1.6364032453988736E-002   4.5029958845123050E-002
   5.3219491763933105E-002  -1.5867979955858747E-002   4.4653542339263934E-002
   5.1160502923044519E-002  -1.5348419210251457E-002   4.4542642917616122E-002
   4.9101514082155906E-002  -1.4805350217167015E-002   4.4697260580179671E-002
   5.0669360277419750E-002  -1.4907405472253166E-002   5.1704170645415215E-002
   4.8896324547267250E-002  -1.4538567929415602E-002   5.0858396967599862E-002
   4.7123288817114750E-002  -1.4128227182068742E-002   5.0319012427045395E-002
   4.5350253086962278E-002  -1.3676383230212322E-002   5.0086017023751594E-002
   4.3577217356809778E-002  -1.3183036073846410E-002   5.0159410757718959E-002
   6.5114642489804669E-002  -1.9672292647128942E-002   2.8066463898347216E-002
   6.2996748466019686E-002  -1.8989055495661933E-002   2.7980968385163230E-002
   6.0878854442234717E-002  -1.8293336424121898E-002   2.8027579321680485E-002
   5.8760960418449741E-002  -1.7585135432508892E-002   2.8206296707899300E-002
   5.6643066394664821E-002  -1.6864452520822582E-002   2.8517120543819441E-002
   5.9870226648653352E-002  -1.8049978503808295E-002   3.3650787150493827E-002
   5.7892793177317561E-002  -1.7409439287278464E-002   3.3490860455330881E-002
   5.5915359705981826E-002  -1.6760365304145430E-002   3.3479748415364941E-002
   5.3937926234646064E-002  -1.6102756554408806E-002   3.3617451030596004E-002
   5.1960492763310301E-002  -1.5436613038068758E-002   3.3903968301023935E-002
   5.4532517179437072E-002  -1.6427664360487676E-002   3.9194386044437965E-002
   5.2712252466046099E-002  -1.5829823078895161E-002   3.8956081013826416E-002
   5.0891987752655132E-002  -1.5227394184168963E-002   3.8883298843907649E-002
   4.9071723039264117E-002  -1.4620377676308943E-002   3.8976039534681269E-002
   4.7251458325873116E-002  -1.4008773555315046E-002   3.9234303086147462E-002
   4.9101514082155906E-002  -1.4805350217167015E-002   4.4697260580179671E-002
   4.7455126332205264E-002  -1.4250206870511886E-002   4.4376630060650027E-002
   4.5808738582254649E-002  -1.3694423064192496E-002   4.4238230607308485E-002
   4.4162350832304013E-002  -1.3137998798208955E-002   4.4282062220155079E-002
   4.2515963082353392E-002  -1.2580934072561195E-002   4.4508124899189885E-002
   4.3577217356809778E-002  -1.3183036073846410E-002   5.0159410757718959E-002
   4.2121414775795063E-002  -1.2670590662128417E-002   4.9752507595801410E-002
   4.0665612194780376E-002  -1.2161451944216015E-002   4.9544543705567795E-002
   3.9209809613765675E-002  -1.1655619920109158E-002   4.9535519087017810E-002
   3.7754007032750975E-002  -1.1153094589807511E-002   4.9725433740151426E-002
   5.6643066394664821E-002  -1.6864452520822582E-002   2.8517120543819441E-002
   5.4163082265152929E-002  -1.6139342048584027E-002   2.8211284973254980E-002
   5.1683098135641037E-002  -1.5417858375313662E-002   2.8083145145574612E-002
   4.9203114006129117E-002  -1.4700001501011622E-002   2.8132701060778281E-002
   4.6723129876617253E-002  -1.3985771425677640E-002   2.8359952718865766E-002
   5.1960492763310301E-002  -1.5436613038068758E-002   3.3903968301023935E-002
   4.9660998487786115E-002  -1.4765455630866869E-002   3.3573399143556421E-002
   4.7361504212261957E-002  -1.4092805208544612E-002   3.3426113951180725E-002
   4.5062009936737799E-002  -1.3418661771102097E-002   3.3462112723896001E-002
   4.2762515661213613E-002  -1.2743025318539214E-002   3.3681395461703290E-002
   4.7251458325873116E-002  -1.4008773555315046E-002   3.9234303086147462E-002
   4.5138042126544112E-002  -1.3391569213149768E-002   3.8884120155865759E-002
   4.3024625927215038E-002  -1.2767752041775680E-002   3.8722809412883037E-002
   4.0911209727885971E-002  -1.2137322041192519E-002   3.8750370857198999E-002
   3.8797793528556959E-002  -1.1500279211400483E-002   3.8966804488813914E-002
   4.2515963082353392E-002  -1.2580934072561195E-002   4.4508124899189885E-002
   4.0594213181426850E-002  -1.2017682795432777E-002   4.4143448010182579E-002
   3.8672463280500301E-002  -1.1442698875006579E-002   4.3973231530681410E-002
   3.6750713379573752E-002  -1.0855982311282968E-002   4.3997475460686795E-002
   3.4828963478647210E-002  -1.0257533104261793E-002   4.4216179800198013E-002
   3.7754007032750975E-002  -1.1153094589807511E-002   4.9725433740151426E-002
   3.6029511652434343E-002  -1.0643796377715564E-002   4.9351382706507130E-002
   3.4305016272117725E-002  -1.0117645708237685E-002   4.9177380304576190E-002
   3.2580520891801072E-002  -9.5746425813736068E-003   4.9203426534359038E-002
   3.0856025511484447E-002  -9.0147869971232697E-003   4.9429521395855380E-002
   4.6723129876617253E-002  -1.3985771425677640E-002   2.8359952718865766E-002
   4.4446222370946864E-002  -1.3263373937528022E-002   2.7959965087797745E-002
   4.2169314865276558E-002  -1.2521014824778923E-002   2.7692355773281135E-002
   3.9892407359606211E-002  -1.1758694087429623E-002   2.7557124775315620E-002
   3.7615499853935863E-002  -1.0976411725480917E-002   2.7554272093901488E-002
   4.2762515661213613E-002  -1.2743025318539214E-002   3.3681395461703290E-002
   4.0623791634544798E-002  -1.2058489562047969E-002   3.3301238684500301E-002
   3.8485067607875997E-002  -1.1357648212820620E-002   3.3065070548749298E-002
   3.6346343581207301E-002  -1.0640501270857368E-002   3.2972891054450296E-002
   3.4207619554538465E-002  -9.9070487361579973E-003   3.3024700201603030E-002
   3.8797793528556959E-002  -1.1500279211400483E-002   3.8966804488813914E-002
   3.6808863305790307E-002  -1.0853605186567722E-002   3.8602822533612552E-002
   3.4819933083023662E-002  -1.0194281600862644E-002   3.8394439544763674E-002
   3.2831002860257016E-002  -9.5223084542848894E-003   3.8341655522267232E-002
   3.0842072637490364E-002  -8.8376857468347447E-003   3.8444470466123176E-002
   3.4828963478647210E-002  -1.0257533104261793E-002   4.4216179800198013E-002
   3.3001437384683335E-002  -9.6487208110875716E-003   4.3864716635134492E-002
   3.1173911290719426E-002  -9.0309149889043101E-003   4.3680462761324056E-002
   2.9346385196755542E-002  -8.4041156377125219E-003   4.3663418178766789E-002
   2.7518859102791650E-002  -7.7683227575118252E-003   4.3813582887462614E-002
   3.0856025511484447E-002  -9.0147869971232697E-003   4.9429521395855380E-002
   2.9201513871223911E-002  -8.4438364356073659E-003   4.9086920989066363E-002
   2.7547002230963333E-002  -7.8675483769463789E-003   4.8923140198430720E-002
   2.5892490590702734E-002  -7.2859228211400485E-003   4.8938179023948855E-002
   2.4237978950442163E-002  -6.6989597681885726E-003   4.9132037465620448E-002
   3.7615499853935863E-002  -1.0976411725480917E-002   2.7554272093901488E-002
   3.5225127911019283E-002  -1.0197915633495536E-002   2.7053896595424176E-002
   3.2834755968102675E-002  -9.4469537060373476E-003   2.6669282089513524E-002
   3.0444384025186122E-002  -8.7235259431053327E-003   2.6400428576169283E-002
   2.8054012082269486E-002  -8.0276323447006082E-003   2.6247336055391868E-002
   3.4207619554538465E-002  -9.9070487361579973E-003   3.3024700201603030E-002
   3.1941242639342615E-002  -9.1746367396497996E-003   3.2551931703806380E-002
   2.9674865724146821E-002  -8.4606114122605380E-003   3.2211392268885003E-002
   2.7408488808950970E-002  -7.7649727539900806E-003   3.2003081896838426E-002
   2.5142111893755176E-002  -7.0877207648383234E-003   3.1927000587667065E-002
   3.0842072637490364E-002  -8.8376857468347447E-003   3.8444470466123176E-002
   2.8716158820323787E-002  -8.1513578458038138E-003   3.8008456464415585E-002
   2.6590245003157265E-002  -7.4742691184838256E-003   3.7721139595891282E-002
   2.4464331185990701E-002  -6.8064195648746030E-003   3.7582519860550785E-002
   2.2338417368824123E-002  -6.1478091849761496E-003   3.7592597258393395E-002
   2.7518859102791650E-002  -7.7683227575118252E-003   4.3813582887462614E-002
   2.5549876453962783E-002  -7.1280789519578419E-003   4.3423470877251284E-002
   2.3580893805133965E-002  -6.4879268247072311E-003   4.3198524070532457E-002
   2.1611911156305130E-002  -5.8478663757591271E-003   4.3138742467305452E-002
   1.9642928507476280E-002  -5.2078976051137538E-003   4.3244126067570353E-002
   2.4237978950442163E-002  -6.6989597681885726E-003   4.9132037465620448E-002
   2.2442395540259563E-002  -6.1048000581121475E-003   4.8796974942314053E-002
   2.0646812130076936E-002  -5.5015845309303313E-003   4.8643545692808265E-002
   1.8851228719894350E-002  -4.8893131866436582E-003   4.8671749717102836E-002
   1.7055645309711709E-002  -4.2679860252516910E-003   4.8881587015198069E-002
   2.8054012082269486E-002  -8.0276323447006082E-003   2.6247336055391868E-002
   2.5709962937614073E-002  -7.3152435511393277E-003   2.5663429272220539E-002
   2.3365913792958715E-002  -6.5423302027384500E-003   2.5027106512910569E-002
   2.1021864648303357E-002  -5.7088922994977045E-003   2.4338367777462289E-002
   1.8677815503647943E-002  -4.8149298414176256E-003   2.3597213065875144E-002
   2.5142111893755176E-002  -7.0877207648383234E-003   3.1927000587667065E-002
   2.2783957613629974E-002  -6.4117310833040064E-003   3.1527803613110139E-002
   2.0425803333504786E-002  -5.7198793478854260E-003   3.1152812343751779E-002
   1.8067649053379618E-002  -5.0121655585823877E-003   3.0802026779592789E-002
   1.5709494773254395E-002  -4.2885897153956964E-003   3.0475446920632809E-002
   2.2338417368824123E-002  -6.1478091849761496E-003   3.7592597258393395E-002
   2.0042779634566799E-002  -5.5082186154687407E-003   3.7333447591494984E-002
   1.7747141900309529E-002  -4.8974284930324991E-003   3.7175125311133025E-002
   1.5451504166052149E-002  -4.3154388176674004E-003   3.7117630417308110E-002
   1.3155866431794880E-002  -3.7622495893736008E-003   3.7160962910019552E-002
   1.9642928507476280E-002  -5.2078976051137538E-003   4.3244126067570353E-002
   1.7486429000424547E-002  -4.6047061476336693E-003   4.3080361207375101E-002
   1.5329929493372838E-002  -4.0749776381795236E-003   4.3094045415054114E-002
   1.3173429986321114E-002  -3.6187120767523593E-003   4.3285178690607787E-002
   1.1016930479269393E-002  -3.2359094633518659E-003   4.3653761034035572E-002
   1.7055645309711709E-002  -4.2679860252516910E-003   4.8881587015198069E-002
   1.5114905711203275E-002  -3.7011936797981537E-003   4.8768544460750629E-002
   1.3174166112694841E-002  -3.2525267833266314E-003   4.8909572655515099E-002
   1.1233426514186420E-002  -2.9219853358371725E-003   4.9304671599492034E-002
   9.2926869156779723E-003  -2.7095693373295759E-003   4.9953841292680656E-002
   1.8677815503647943E-002  -4.8149298414176256E-003   2.3597213065875144E-002
   1.5654417058125814E-002  -4.0808935037494609E-003   2.4387595542453622E-002
   1.2631018612603767E-002  -3.7272339617450412E-003   2.5650974986357322E-002
   9.6076201670817069E-003  -3.7539512154039847E-003   2.7387351397586190E-002
   6.5842217215595911E-003  -4.1610452647264928E-003   2.9596724776139727E-002
   1.5709494773254395E-002  -4.2885897153956964E-003   3.0475446920632809E-002
   1.3140926303217310E-002  -3.7755046075991228E-003   3.1253744634140990E-002
   1.0572357833180210E-002  -3.6992630244666036E-003   3.2468705331293618E-002
   8.0037893631430546E-003  -4.0598649659992075E-003   3.4120329012091402E-002
   5.4352208931060242E-003  -4.8573104321960603E-003   3.6208615676533884E-002
   1.3155866431794880E-002  -3.7622495893736008E-003   3.7160962910019552E-002
   1.1005793953562298E-002  -3.4701157114481462E-003   3.7870709131456293E-002
   8.8557214753297031E-003  -3.6712920871883742E-003   3.8980784352857387E-002
   6.7056489970971044E-003  -4.3657787165940938E-003   4.0491188574222910E-002
   4.5555765188645264E-003  -5.5535755996654057E-003   4.2401921795552633E-002
   1.1016930479269393E-002  -3.2359094633518659E-003   4.3653761034035572E-002
   9.2490200091608979E-003  -3.1647268152976554E-003   4.4238489034400155E-002
   7.4811095390524048E-003  -3.6433211499099852E-003   4.5187212051048212E-002
   5.7131990689438866E-003  -4.6716924671891483E-003   4.6499930083980553E-002
   3.9452885988354204E-003  -6.2498407671350842E-003   4.8176643133196570E-002
   9.2926869156779723E-003  -2.7095693373295759E-003   4.9953841292680656E-002
   7.8706044700130595E-003  -2.8593379191468871E-003   5.0357084342971925E-002
   6.4485220243481745E-003  -3.6153502126316239E-003   5.1087988425866371E-002
   5.0264395786832478E-003  -4.9776062177844041E-003   5.2146553541364299E-002
   3.6043571330183766E-003  -6.9461059346042076E-003   5.3532779689465682E-002
   6.5842217215595911E-003  -4.1610452647264928E-003   2.9596724776139727E-002
   6.0562913493792947E-003  -6.1431600626936644E-003   3.4074573970446775E-002
   5.5283609771990816E-003  -1.0894939562288208E-002   3.9237551852079666E-002
   5.0004306050188130E-003  -1.8416383763507863E-002   4.5085658421038566E-002
   4.4725002328385166E-003  -2.8707492666354195E-002   5.1618893677323197E-002
   5.4352208931060242E-003  -4.8573104321960603E-003   3.6208615676533884E-002
   5.4885825314676950E-003  -6.9913637345216384E-003   3.8348966223659187E-002
   5.5419441698293798E-003  -1.1361789184440474E-002   4.0966772104542859E-002
   5.5953058081911478E-003  -1.7968586781951637E-002   4.4062033319184429E-002
   5.6486674465527353E-003  -2.6811756527056030E-002   4.7634749867583759E-002
   4.5555765188645264E-003  -5.5535755996654057E-003   4.2401921795552633E-002
   4.9825568142003451E-003  -7.8395674063492238E-003   4.2738066249530304E-002
   5.4095371095361292E-003  -1.1828638806592601E-002   4.3343992683698124E-002
   5.8365174048718854E-003  -1.7520789800395516E-002   4.4219701098055772E-002
   6.2634977002076764E-003  -2.4916020387757642E-002   4.5365191492603985E-002
   3.9452885988354204E-003  -6.2498407671350842E-003   4.8176643133196570E-002
   4.5382141975772172E-003  -8.6877710781770034E-003   4.7241874048059837E-002
   5.1311397963191771E-003  -1.2295488428744908E-002   4.6369213589545218E-002
   5.7240653950610572E-003  -1.7072992818839009E-002   4.5558661757652455E-002
   6.3169909938028818E-003  -2.3020284248459477E-002   4.4810218552382208E-002
   3.6043571330183766E-003  -6.9461059346042076E-003   5.3532779689465682E-002
   4.1555546815984223E-003  -9.5359747500047831E-003   5.1860389619247882E-002
   4.7067522301785514E-003  -1.2762338050897076E-002   5.0042434822083981E-002
   5.2579497787586388E-003  -1.6625195837283079E-002   4.8078915297974728E-002
   5.8091473273387262E-003  -2.1124548109161090E-002   4.5969831046919651E-002
   5.0669360277419750E-002  -1.4907405472253166E-002   5.1704170645415215E-002
   4.8896324547267250E-002  -1.4538567929415602E-002   5.0858396967599862E-002
   4.7123288817114750E-002  -1.4128227182068742E-002   5.0319012427045395E-002
   4.5350253086962278E-002  -1.3676383230212322E-002   5.0086017023751594E-002
   4.3577217356809778E-002  -1.3183036073846410E-002   5.0159410757718959E-002
   4.3979997788926944E-002  -1.3013219342008941E-002   5.3970288044119075E-002
   4.2493804883346656E-002  -1.2695305670032186E-002   5.3358237497830557E-002
   4.1007611977766339E-002  -1.2340906713850838E-002   5.3013483463425409E-002
   3.9521419072186037E-002  -1.1950022473464893E-002   5.2936025940903964E-002
   3.8035226166605721E-002  -1.1522652948874335E-002   5.3125864930266081E-002
   3.7504910500292560E-002  -1.1119033211764717E-002   5.6187990532114651E-002
   3.6266467793907138E-002  -1.0852043410648743E-002   5.5804645197047961E-002
   3.5028025087521675E-002  -1.0553586245633018E-002   5.5649503748487691E-002
   3.3789582381136225E-002  -1.0223661716717604E-002   5.5722566186433495E-002
   3.2551139674750817E-002  -9.8622698239023143E-003   5.6023832510885455E-002
   3.1244098411516562E-002  -9.2248470815205208E-003   5.8357278109401792E-002
   3.0214313278948725E-002  -9.0087811512652854E-003   5.8197620065252295E-002
   2.9184528146380801E-002  -8.7662657774152108E-003   5.8227073282231694E-002
   2.8154743013812905E-002  -8.4973009599702172E-003   5.8445637760339966E-002
   2.7124957881245020E-002  -8.2018866989302108E-003   5.8853313499577176E-002
   2.5197561522599055E-002  -7.3306609512762688E-003   6.0478150775980677E-002
   2.4337341338471347E-002  -7.1655188918818835E-003   6.0537162102443531E-002
   2.3477121154343708E-002  -6.9789453091972792E-003   6.0746192064657784E-002
   2.2616900970216035E-002  -6.7709402032228964E-003   6.1105240662623614E-002
   2.1756680786088348E-002  -6.5415035739582184E-003   6.1614307896341147E-002
   4.3577217356809778E-002  -1.3183036073846410E-002   5.0159410757718959E-002
   4.2121414775795063E-002  -1.2670590662128417E-002   4.9752507595801410E-002
   4.0665612194780376E-002  -1.2161451944216015E-002   4.9544543705567795E-002
   3.9209809613765675E-002  -1.1655619920109158E-002   4.9535519087017810E-002
   3.7754007032750975E-002  -1.1153094589807511E-002   4.9725433740151426E-002
   3.8035226166605721E-002  -1.1522652948874335E-002   5.3125864930266081E-002
   3.6774080431604239E-002  -1.1077351734500793E-002   5.2770619741805094E-002
   3.5512934696602737E-002  -1.0632672424765885E-002   5.2605748973686958E-002
   3.4251788961601276E-002  -1.0188615019669677E-002   5.2631252625911500E-002
   3.2990643226599739E-002  -9.7451795192121660E-003   5.2847130698478628E-002
   3.2551139674750817E-002  -9.8622698239023143E-003   5.6023832510885455E-002
   3.1476085934421486E-002  -9.4841128068731267E-003   5.5722930085047903E-002
   3.0401032194092140E-002  -9.1038929053157067E-003   5.5603837228212029E-002
   2.9325978453762794E-002  -8.7216101192303091E-003   5.5666553940377589E-002
   2.8250924713433469E-002  -8.3372644486167102E-003   5.5911080221544965E-002
   2.7124957881245020E-002  -8.2018866989302108E-003   5.8853313499577176E-002
   2.6227431284246785E-002  -7.8908738792454261E-003   5.8609438625529711E-002
   2.5329904687248581E-002  -7.5751133858655249E-003   5.8538808469142847E-002
   2.4432378090250367E-002  -7.2546052187909401E-003   5.8641423030416598E-002
   2.3534851493252143E-002  -6.9293493780212545E-003   5.8917282309350921E-002
   2.1756680786088348E-002  -6.5415035739582184E-003   6.1614307896341147E-002
   2.1028116481080189E-002  -6.2976349516177810E-003   6.1430145363250532E-002
   2.0299552176072051E-002  -6.0463338664153432E-003   6.1410662696479545E-002
   1.9570987871063903E-002  -5.7876003183516128E-003   6.1555859896028159E-002
   1.8842423566055741E-002  -5.5214343074259098E-003   6.1865736961896234E-002
   3.7754007032750975E-002  -1.1153094589807511E-002   4.9725433740151426E-002
   3.6029511652434343E-002  -1.0643796377715564E-002   4.9351382706507130E-002
   3.4305016272117725E-002  -1.0117645708237685E-002   4.9177380304576190E-002
   3.2580520891801072E-002  -9.5746425813736068E-003   4.9203426534359038E-002
   3.0856025511484447E-002  -9.0147869971232697E-003   4.9429521395855380E-002
   3.2990643226599739E-002  -9.7451795192121660E-003   5.2847130698478628E-002
   3.1467957128919144E-002  -9.2946512616852994E-003   5.2514315546823120E-002
   2.9945271031238556E-002  -8.8293155853814836E-003   5.2385070328726163E-002
   2.8422584933557971E-002  -8.3491724903004307E-003   5.2459395044187562E-002
   2.6899898835877373E-002  -7.8542219764424215E-003   5.2737289693207567E-002
   2.8250924713433469E-002  -8.3372644486167102E-003   5.5911080221544965E-002
   2.6933569200233778E-002  -7.9455061456550069E-003   5.5617455913269567E-002
   2.5616213687034050E-002  -7.5409854625252334E-003   5.5530922840397449E-002
   2.4298858173834349E-002  -7.1237023992274228E-003   5.5651481002928799E-002
   2.2981502660634666E-002  -6.6936569557613790E-003   5.5979130400863206E-002
   2.3534851493252143E-002  -6.9293493780212545E-003   5.8917282309350921E-002
   2.2426347866378187E-002  -6.5963610296247283E-003   5.8660803805846526E-002
   2.1317844239504242E-002  -6.2526553396689520E-003   5.8614937839590167E-002
   2.0209340612630283E-002  -5.8982323081543308E-003   5.8779684410582018E-002
   1.9100836985756368E-002  -5.5330919350803781E-003   5.9155043518822059E-002
   1.8842423566055741E-002  -5.5214343074259098E-003   6.1865736961896234E-002
   1.7946293127352422E-002  -5.2472159135943941E-003   6.1644359224553635E-002
   1.7050162688649083E-002  -4.9643252168128926E-003   6.1637115326304198E-002
   1.6154032249945733E-002  -4.6727622170812944E-003   6.1844005267147839E-002
   1.5257901811242411E-002  -4.3725269143994883E-003   6.2265029047084419E-002
   3.0856025511484447E-002  -9.0147869971232697E-003   4.9429521395855380E-002
   2.9201513871223911E-002  -8.4438364356073659E-003   4.9086920989066363E-002
   2.7547002230963333E-002  -7.8675483769463789E-003   4.8923140198430720E-002
   2.5892490590702734E-002  -7.2859228211400485E-003   4.8938179023948855E-002
   2.4237978950442163E-002  -6.6989597681885726E-003   4.9132037465620448E-002
   2.6899898835877373E-002  -7.8542219764424215E-003   5.2737289693207567E-002
   2.5428435759809853E-002  -7.3489307306552620E-003   5.2442254505935065E-002
   2.3956972683742334E-002  -6.8377654397875492E-003   5.2334496830895305E-002
   2.2485509607674821E-002  -6.3207261038391617E-003   5.2414016668087829E-002
   2.1014046531607294E-002  -5.7978127228097698E-003   5.2680814017512845E-002
   2.2981502660634666E-002  -6.6936569557613790E-003   5.5979130400863206E-002
   2.1701546044839044E-002  -6.2540250257031305E-003   5.5732196981043078E-002
   2.0421589429043426E-002  -5.8079825026286017E-003   5.5680998969534386E-002
   1.9141632813247815E-002  -5.3555293865378845E-003   5.5825536366337067E-002
   1.7861676197452186E-002  -4.8966656774307449E-003   5.6165809171450976E-002
   1.9100836985756368E-002  -5.5330919350803781E-003   5.9155043518822059E-002
   1.8020844726311470E-002  -5.1591193207511238E-003   5.8956748414390109E-002
   1.6940852466866618E-002  -4.7781995654699906E-003   5.8962646614347983E-002
   1.5860860207421727E-002  -4.3903326692368025E-003   5.9172738118696194E-002
   1.4780867947976867E-002  -3.9955186320517200E-003   5.9587022927434764E-002
   1.5257901811242411E-002  -4.3725269143994883E-003   6.2265029047084419E-002
   1.4386331804227145E-002  -4.0642136157989506E-003   6.2115908805975784E-002
   1.3514761797211873E-002  -3.7484166283109910E-003   6.2179439765336075E-002
   1.2643191790196590E-002  -3.4251359519356789E-003   6.2455621925165433E-002
   1.1771621783181335E-002  -3.0943715866728061E-003   6.2944455285463774E-002
   2.4237978950442163E-002  -6.6989597681885726E-003   4.9132037465620448E-002
   2.2442395540259563E-002  -6.1048000581121475E-003   4.8796974942314053E-002
   2.0646812130076936E-002  -5.5015845309303313E-003   4.8643545692808265E-002
   1.8851228719894350E-002  -4.8893131866436582E-003   4.8671749717102836E-002
   1.7055645309711709E-002  -4.2679860252516910E-003   4.8881587015198069E-002
   2.1014046531607294E-002  -5.7978127228097698E-003   5.2680814017512845E-002
   1.9406255677352963E-002  -5.2707113881542700E-003   5.2429251700652491E-002
   1.7798464823098603E-002  -4.7411081913270314E-003   5.2371641221848286E-002
   1.6190673968844237E-002  -4.2090031323281721E-003   5.2507982581100052E-002
   1.4582883114589912E-002  -3.6743962111578377E-003   5.2838275778408272E-002
   1.7861676197452186E-002  -4.8966656774307449E-003   5.6165809171450976E-002
   1.6453996463381734E-002  -4.4366227181963647E-003   5.5991193106103093E-002
   1.5046316729311268E-002  -3.9806318517238287E-003   5.6022847443067084E-002
   1.3638636995240826E-002  -3.5286930780128491E-003   5.6260772182342718E-002
   1.2230957261170378E-002  -3.0808063970637622E-003   5.6704967323929989E-002
   1.4780867947976867E-002  -3.9955186320517200E-003   5.9587022927434764E-002
   1.3585617898345927E-002  -3.6025340482383622E-003   5.9482799158665937E-002
   1.2390367848714974E-002  -3.2201555121205219E-003   5.9597164356464546E-002
   1.1195117799084026E-002  -2.8483830236975555E-003   5.9930118520830508E-002
   9.9998677494530855E-003  -2.4872165829699644E-003   6.0481661651763850E-002
   1.1771621783181335E-002  -3.0943715866728061E-003   6.2944455285463774E-002
   1.0801119982245533E-002  -2.7684453782805818E-003   6.2904069858340905E-002
   9.8306181813097165E-003  -2.4596791725172706E-003   6.3094591962040703E-002
   8.8601163803739003E-003  -2.1680729693821371E-003   6.3516021596563554E-002
   7.8896145794380979E-003  -1.8936267688758335E-003   6.4168358761909294E-002
   1.7055645309711709E-002  -4.2679860252516910E-003   4.8881587015198069E-002
   1.5114905711203275E-002  -3.7011936797981537E-003   4.8768544460750629E-002
   1.3174166112694841E-002  -3.2525267833266314E-003   4.8909572655515099E-002
   1.1233426514186420E-002  -2.9219853358371725E-003   4.9304671599492034E-002
   9.2926869156779723E-003  -2.7095693373295759E-003   4.9953841292680656E-002
   1.4582883114589912E-002  -3.6743962111578377E-003   5.2838275778408272E-002
   1.2895704850967624E-002  -3.1966074367396624E-003   5.2728428349007594E-002
   1.1208526587345363E-002  -2.8349568179976137E-003   5.2871632840167604E-002
   9.5213483237230889E-003  -2.5894443549321355E-003   5.3267889251887579E-002
   7.8341700601008146E-003  -2.4600700475425619E-003   5.3917197584167742E-002
   1.2230957261170378E-002  -3.0808063970637622E-003   5.6704967323929989E-002
   1.0796321503782333E-002  -2.6920211936809491E-003   5.6600302312882350E-002
   9.3616857463943021E-003  -2.4173868526684988E-003   5.6747670393743385E-002
   7.9270499890062678E-003  -2.2569033740267690E-003   5.7147071566512421E-002
   6.4924142316182265E-003  -2.2105707577554368E-003   5.7798505831189811E-002
   9.9998677494530855E-003  -2.4872165829699644E-003   6.0481661651763850E-002
   8.8167556696473470E-003  -2.1874349506221802E-003   6.0384166352374938E-002
   7.6336435898416398E-003  -1.9998168873392105E-003   6.0537685316242429E-002
   6.4505315100359109E-003  -1.9243623931214007E-003   6.0942218543366254E-002
   5.2674194302301941E-003  -1.9610714679684782E-003   6.1597766033746511E-002
   7.8896145794380979E-003  -1.8936267688758335E-003   6.4168358761909294E-002
   6.9570073485627493E-003  -1.6828487075637999E-003   6.4080020467484844E-002
   6.0244001176873868E-003  -1.5822469220102831E-003   6.4241677607665026E-002
   5.0917928868120313E-003  -1.5918214122163446E-003   6.4653330182449259E-002
   4.1591856559366758E-003  -1.7115721781811866E-003   6.5314978191838069E-002
   9.2926869156779723E-003  -2.7095693373295759E-003   4.9953841292680656E-002
   7.8706044700130595E-003  -2.8593379191468871E-003   5.0357084342971925E-002
   6.4485220243481745E-003  -3.6153502126316239E-003   5.1087988425866371E-002
   5.0264395786832478E-003  -4.9776062177844041E-003   5.2146553541364299E-002
   3.6043571330183766E-003  -6.9461059346042076E-003   5.3532779689465682E-002
   7.8341700601008146E-003  -2.4600700475425619E-003   5.3917197584167742E-002
   6.7135549160995678E-003  -2.6452311267283202E-003   5.3851419766043240E-002
   5.5929397720982654E-003  -3.3433248233886714E-003   5.4060915518641867E-002
   4.4723246280969978E-003  -4.5543511375230467E-003   5.4545684841964440E-002
   3.3517094840957162E-003  -6.2783100691318205E-003   5.5305727736011168E-002
   6.4924142316182265E-003  -2.2105707577554368E-003   5.7798505831189811E-002
   5.6208789274010823E-003  -2.4311243343099476E-003   5.7357018238841928E-002
   4.7493436231839450E-003  -3.0712994341454830E-003   5.7138416755338609E-002
   3.8778083189668043E-003  -4.1310960572619078E-003   5.7142701380679568E-002
   3.0062730147496358E-003  -5.6105142036594891E-003   5.7369872114864690E-002
   5.2674194302301941E-003  -1.9610714679684782E-003   6.1597766033746511E-002
   4.5925765039176621E-003  -2.2170175418911447E-003   6.0873879761369140E-002
   3.9177335776051456E-003  -2.7992740449020795E-003   6.0320492135956694E-002
   3.2428906512926422E-003  -3.7078409770006596E-003   5.9937603157509019E-002
   2.5680477249800972E-003  -4.9427183381871298E-003   5.9725212826026351E-002
   4.1591856559366758E-003  -1.7115721781811866E-003   6.5314978191838069E-002
   3.6286476456493105E-003  -2.0029107494730081E-003   6.4402004333624419E-002
   3.0981096353619175E-003  -2.5272486556593143E-003   6.3607141660496025E-002
   2.5675716250745315E-003  -3.2845858967394601E-003   6.2930390172453193E-002
   2.0370336147871315E-003  -4.2749224727145485E-003   6.2371749869495563E-002
   3.6043571330183766E-003  -6.9461059346042076E-003   5.3532779689465682E-002
   4.1555546815984223E-003  -9.5359747500047831E-003   5.1860389619247882E-002
   4.7067522301785514E-003  -1.2762338050897076E-002   5.0042434822083981E-002
   5.2579497787586388E-003  -1.6625195837283079E-002   4.8078915297974728E-002
   5.8091473273387262E-003  -2.1124548109161090E-002   4.5969831046919651E-002
   3.3517094840957162E-003  -6.2783100691318205E-003   5.5305727736011168E-002
   3.7748990602566868E-003  -8.5464900168700231E-003   5.2952103649758386E-002
   4.1980886364176434E-003  -1.1390179379391852E-002   5.0488028345612890E-002
   4.6212782125786278E-003  -1.4809378156697320E-002   4.7913501823575150E-002
   5.0444677887395706E-003  -1.8804086348787052E-002   4.5228524083644750E-002
   3.0062730147496358E-003  -5.6105142036594891E-003   5.7369872114864690E-002
   3.3365681275447576E-003  -7.5570052837352630E-003   5.4395999083285684E-002
   3.6668632403399001E-003  -1.0018020707885752E-002   5.1346788342867170E-002
   3.9971583531350462E-003  -1.2993560476111509E-002   4.8222239893609846E-002
   4.3274534659301644E-003  -1.6483624588412571E-002   4.5022353735512666E-002
   2.5680477249800972E-003  -4.9427183381871298E-003   5.9725212826026351E-002
   2.8405618834626816E-003  -6.5675205506002809E-003   5.6192075919829623E-002
   3.1130760419452817E-003  -8.6458620363797575E-003   5.2618714813846890E-002
   3.3855902004278479E-003  -1.1177742795526057E-002   4.9005129508078192E-002
   3.6581043589104384E-003  -1.4163162828038423E-002   4.5351320002523926E-002
   2.0370336147871315E-003  -4.2749224727145485E-003   6.2371749869495563E-002
   2.2868803280104849E-003  -5.5780358174655209E-003   5.8340334159389995E-002
   2.5367270412337967E-003  -7.2737033648744287E-003   5.4303807758551925E-002
   2.7865737544571015E-003  -9.3619251149401617E-003   5.0262170666980965E-002
   3.0364204676804896E-003  -1.1842701067664052E-002   4.6215422884677615E-002
   2.5197561522599055E-002  -7.3306609512762688E-003   6.0478150775980677E-002
   2.4337341338471347E-002  -7.1655188918818835E-003   6.0537162102443531E-002
   2.3477121154343708E-002  -6.9789453091972792E-003   6.0746192064657784E-002
   2.2616900970216035E-002  -6.7709402032228964E-003   6.1105240662623614E-002
   2.1756680786088348E-002  -6.5415035739582184E-003   6.1614307896341147E-002
   1.9168164461350876E-002  -5.4979958534565609E-003   6.2254448096586257E-002
   1.8474222014683031E-002  -5.3741392418691636E-003   6.2168475553153801E-002
   1.7780279568015186E-002  -5.2342090077393266E-003   6.2265039848889314E-002
   1.7086337121347363E-002  -5.0782051510673762E-003   6.2544140983793031E-002
   1.6392394674679525E-002  -4.9061276718531110E-003   6.3005778957864911E-002
   1.2958771855582918E-002  -3.6653307556369086E-003   6.3992138919758704E-002
   1.2463625349791500E-002  -3.5827595918564437E-003   6.3755824605683104E-002
   1.1968478844000086E-002  -3.4894727062814643E-003   6.3734565334192306E-002
   1.1473332338208677E-002  -3.3854700989119409E-003   6.3928361105286088E-002
   1.0978185832417258E-002  -3.2707517697481148E-003   6.4337211918964660E-002
   6.5693837052952422E-003  -1.8326656578172423E-003   6.5691223245498212E-002
   6.3055513437968187E-003  -1.7913799418437654E-003   6.5299209260031715E-002
   6.0417189822984082E-003  -1.7447364048234736E-003   6.5154768520566467E-002
   5.7778866207999890E-003  -1.6927350467566020E-003   6.5257901027102591E-002
   5.5140542593015733E-003  -1.6353758676430352E-003   6.5608606779639894E-002
   1.0487791191060580E-011  -5.5999754833280235E-010   6.7351701073804615E-002
  -3.3010469357996897E-012  -2.9183100380691940E-010   6.6798629516199415E-002
  -1.7089881593213008E-011  -1.0336556610646142E-010   6.6525649408012089E-002
  -3.0878714515902850E-011   5.3989382409191933E-012   6.6532760749242581E-002
  -4.4667550908039644E-011   3.4461933307028403E-011   6.6819963539891003E-002
   2.1756680786088348E-002  -6.5415035739582184E-003   6.1614307896341147E-002
   2.1028116481080189E-002  -6.2976349516177810E-003   6.1430145363250532E-002
   2.0299552176072051E-002  -6.0463338664153432E-003   6.1410662696479545E-002
   1.9570987871063903E-002  -5.7876003183516128E-003   6.1555859896028159E-002
   1.8842423566055741E-002  -5.5214343074259098E-003   6.1865736961896234E-002
   1.6392394674679525E-002  -4.9061276718531110E-003   6.3005778957864911E-002
   1.5832875539112369E-002  -4.7232262077427922E-003   6.2782562402098230E-002
   1.5273356403545220E-002  -4.5347503963827501E-003   6.2732756318893829E-002
   1.4713837267978067E-002  -4.3407002377727523E-003   6.2856360708252013E-002
   1.4154318132410929E-002  -4.1410757319130798E-003   6.3153375570172532E-002
   1.0978185832417258E-002  -3.2707517697481148E-003   6.4337211918964660E-002
   1.0596442472534003E-002  -3.1488174638680533E-003   6.4073083224909747E-002
   1.0214699112650763E-002  -3.0231669263500460E-003   6.3991095609660098E-002
   9.8329557527675089E-003  -2.8938001571941693E-003   6.4091249073215895E-002
   9.4512123928842638E-003  -2.7607171564003608E-003   6.4373543615577011E-002
   5.5140542593015733E-003  -1.6353758676430352E-003   6.5608606779639894E-002
   5.3188172813451243E-003  -1.5744087199930784E-003   6.5301707831684888E-002
   5.1235803033886692E-003  -1.5115834563172864E-003   6.5185680568778215E-002
   4.9283433254322098E-003  -1.4469000766154476E-003   6.5260524990919791E-002
   4.7331063474757564E-003  -1.3803585808876417E-003   6.5526241098109547E-002
  -4.4667550908039644E-011   3.4461933307028403E-011   6.6819963539891003E-002
  -3.4454307462628009E-011   2.3881674415804355E-011   6.6468436222424154E-002
  -2.4241062282492898E-011   1.3715376057099604E-011   6.6316511196248290E-002
  -1.4027818837081263E-011   3.9632498671782201E-012   6.6364188461363702E-002
  -3.8145736569461519E-012  -5.3748117068153078E-012   6.6611468017770237E-002
   1.8842423566055741E-002  -5.5214343074259098E-003   6.1865736961896234E-002
   1.7946293127352422E-002  -5.2472159135943941E-003   6.1644359224553635E-002
   1.7050162688649083E-002  -4.9643252168128926E-003   6.1637115326304198E-002
   1.6154032249945733E-002  -4.6727622170812944E-003   6.1844005267147839E-002
   1.5257901811242411E-002  -4.3725269143994883E-003   6.2265029047084419E-002
   1.4154318132410929E-002  -4.1410757319130798E-003   6.3153375570172532E-002
   1.3474796225420776E-002  -3.9354119382661312E-003   6.2927060485205882E-002
   1.2795274318430645E-002  -3.7232439162935838E-003   6.2919828624572710E-002
   1.2115752411440518E-002  -3.5045716659960896E-003   6.3131679988272835E-002
   1.1436230504450376E-002  -3.2793951873733018E-003   6.3562614576306353E-002
   9.4512123928842638E-003  -2.7607171564003608E-003   6.4373543615577011E-002
   8.9932484028476291E-003  -2.6236079629375630E-003   6.4140123108361563E-002
   8.5352844128110030E-003  -2.4821626157744414E-003   6.4130735210719630E-002
   8.0773204227743874E-003  -2.3363811149109959E-003   6.4345379922651408E-002
   7.6193564327377457E-003  -2.1862634603472264E-003   6.4784057244156867E-002
   4.7331063474757564E-003  -1.3803585808876417E-003   6.5526241098109547E-002
   4.5016496596329584E-003  -1.3118039876090365E-003   6.5283547094020150E-002
   4.2701929717901474E-003  -1.2410813152551603E-003   6.5269835084744834E-002
   4.0387362839473476E-003  -1.1681905638259021E-003   6.5485105070283475E-002
   3.8072795961045383E-003  -1.0931317333212065E-003   6.5929357050635948E-002
  -3.8145736569461519E-012  -5.3748117068153078E-012   6.6611468017770237E-002
  -4.2232502217576240E-012  -1.2280731986891169E-011   6.6357332442182115E-002
  -4.6319233171221441E-012  -1.4736017961425318E-011   6.6337128246648336E-002
  -5.0405981472101402E-012  -1.2740759836038507E-011   6.6550855431168843E-002
  -5.4492729772981363E-012  -6.2949645496246376E-012   6.6998513995743636E-002
   1.5257901811242411E-002  -4.3725269143994883E-003   6.2265029047084419E-002
   1.4386331804227145E-002  -4.0642136157989506E-003   6.2115908805975784E-002
   1.3514761797211873E-002  -3.7484166283109910E-003   6.2179439765336075E-002
   1.2643191790196590E-002  -3.4251359519356789E-003   6.2455621925165433E-002
   1.1771621783181335E-002  -3.0943715866728061E-003   6.2944455285463774E-002
   1.1436230504450376E-002  -3.2793951873733018E-003   6.3562614576306353E-002
   1.0778622023075266E-002  -3.0481602114400264E-003   6.3426150123039954E-002
   1.0121013541700162E-002  -2.8113124692108332E-003   6.3504957520584937E-002
   9.4634050603250551E-003  -2.5688519606856773E-003   6.3799036768940900E-002
   8.8057965789499343E-003  -2.3207786858648327E-003   6.4308387868108552E-002
   7.6193564327377457E-003  -2.1862634603472264E-003   6.4784057244156867E-002
   7.1783301273450791E-003  -2.0321068070812409E-003   6.4658377656141200E-002
   6.7373038219524142E-003  -1.8742083101108420E-003   6.4750590569278899E-002
   6.2962775165597432E-003  -1.7125679694358423E-003   6.5060695983570449E-002
   5.8552512111670826E-003  -1.5471857850568038E-003   6.5588693899015282E-002
   3.8072795961045383E-003  -1.0931317333212065E-003   6.5929357050635948E-002
   3.5854561170365800E-003  -1.0160534027223306E-003   6.5812591405279439E-002
   3.3636326379686238E-003  -9.3710415101071198E-004   6.5916338911418682E-002
   3.1418091589006762E-003  -8.5628397818609051E-004   6.6240599569053760E-002
   2.9199856798327092E-003  -7.7359288424885819E-004   6.6785373378184756E-002
  -5.4492729772981363E-012  -6.2949645496246376E-012   6.6998513995743636E-002
  -7.8502343514585959E-012   1.6365797605999433E-012   6.6888791370454670E-002
  -1.0251188786725152E-011   8.0893902687506625E-012   6.7002202547003842E-002
  -1.2652148426162135E-011   1.3063959636294697E-011   6.7338747525390985E-002
  -1.5053104596152167E-011   1.6559198456889135E-011   6.7898426305616599E-002
   1.1771621783181335E-002  -3.0943715866728061E-003   6.2944455285463774E-002
   1.0801119982245533E-002  -2.7684453782805818E-003   6.2904069858340905E-002
   9.8306181813097165E-003  -2.4596791725172706E-003   6.3094591962040703E-002
   8.8601163803739003E-003  -2.1680729693821371E-003   6.3516021596563554E-002
   7.8896145794380979E-003  -1.8936267688758335E-003   6.4168358761909294E-002
   8.8057965789499343E-003  -2.3207786858648327E-003   6.4308387868108552E-002
   8.0691317888769640E-003  -2.0763340291655163E-003   6.4271196754889737E-002
   7.3324669988040075E-003  -1.8447593750062358E-003   6.4470772132573545E-002
   6.5958022087310511E-003  -1.6260547233866891E-003   6.4907114001160199E-002
   5.8591374186580808E-003  -1.4202200743068660E-003   6.5580222360649587E-002
   5.8552512111670826E-003  -1.5471857850568038E-003   6.5588693899015282E-002
   5.3582823920367284E-003  -1.3842226800507840E-003   6.5558987099789703E-002
   4.8613135729064054E-003  -1.2298395774957560E-003   6.5771905751546483E-002
   4.3643447537760720E-003  -1.0840364773913522E-003   6.6227449854285969E-002
   3.8673759346457420E-003  -9.4681337973778756E-004   6.6925619408007925E-002
   2.9199856798327092E-003  -7.7359288424885819E-004   6.6785373378184756E-002
   2.6685717917248070E-003  -6.9211133093588506E-004   6.6767440893041166E-002
   2.4171579036169058E-003  -6.1491977998499869E-004   6.6997992818959767E-002
   2.1657440155090002E-003  -5.4201823139618174E-004   6.7477029155940796E-002
   1.9143301274011024E-003  -4.7340668516865358E-004   6.8204549903984113E-002
  -1.5053104596152167E-011   1.6559198456889135E-011   6.7898426305616599E-002
  -1.2058798404268600E-011   1.8178902827514776E-011   6.7896558134643903E-002
  -9.0644922123850336E-012   1.7525508821947255E-011   6.8149033334813425E-002
  -6.0701860205014668E-012   1.4599370323775673E-011   6.8655851906125276E-002
  -3.0758798286179001E-012   9.4003693718036629E-012   6.9417013848578790E-002
   7.8896145794380979E-003  -1.8936267688758335E-003   6.4168358761909294E-002
   6.9570073485627493E-003  -1.6828487075637999E-003   6.4080020467484844E-002
   6.0244001176873868E-003  -1.5822469220102831E-003   6.4241677607665026E-002
   5.0917928868120313E-003  -1.5918214122163446E-003   6.4653330182449259E-002
   4.1591856559366758E-003  -1.7115721781811866E-003   6.5314978191838069E-002
   5.8591374186580808E-003  -1.4202200743068660E-003   6.5580222360649587E-002
   5.1723147157265309E-003  -1.2621365296735521E-003   6.5429984595275992E-002
   4.4854920127949741E-003  -1.1866851913934773E-003   6.5521320451185500E-002
   3.7986693098634276E-003  -1.1938660594666278E-003   6.5854229928378569E-002
   3.1118466069318673E-003  -1.2836791338927123E-003   6.6428713026854380E-002
   3.8673759346457420E-003  -9.4681337973778756E-004   6.6925619408007925E-002
   3.4179159463367734E-003  -8.4142435178338748E-004   6.6741026241090962E-002
   2.9684559580278116E-003  -7.9112346077621354E-004   6.6789584882136141E-002
   2.5189959697188413E-003  -7.9591070671668554E-004   6.7071295331143338E-002
   2.0695359814098813E-003  -8.5578608960451552E-004   6.7586157588112289E-002
   1.9143301274011024E-003  -4.7340668516865358E-004   6.8204549903984113E-002
   1.6938110403934992E-003  -4.2071217389340332E-004   6.8013145404929989E-002
   1.4732919533859030E-003  -3.9556173015945634E-004   6.8046470900516562E-002
   1.2527728663783168E-003  -3.9795535396674499E-004   6.8304526390743914E-002
   1.0322537793707176E-003  -4.2789304531618000E-004   6.8787311875612100E-002
  -3.0758798286179001E-012   9.4003693718036629E-012   6.9417013848578790E-002
  -2.1033105812584552E-012   3.9970249332554886E-012   6.9246342086793033E-002
  -1.1307482727929141E-012   4.5788373093103019E-013   6.9291978506326735E-002
  -1.5818422960389711E-013  -1.2168530072464989E-012   6.9553923107179894E-002
   8.1438328303207186E-013  -1.0278444761979699E-012   7.0032175889352843E-002
   4.1591856559366758E-003  -1.7115721781811866E-003   6.5314978191838069E-002
   3.6286476456493105E-003  -2.0029107494730081E-003   6.4402004333624419E-002
   3.0981096353619175E-003  -2.5272486556593143E-003   6.3607141660496025E-002
   2.5675716250745315E-003  -3.2845858967394601E-003   6.2930390172453193E-002
   2.0370336147871315E-003  -4.2749224727145485E-003   6.2371749869495563E-002
   3.1118466069318673E-003  -1.2836791338927123E-003   6.6428713026854380E-002
   2.7030506110874292E-003  -1.5021830621388954E-003   6.5320524003391167E-002
   2.2942546152430118E-003  -1.8954364916702604E-003   6.4337707823728441E-002
   1.8854586193985702E-003  -2.4634394224873138E-003   6.3480264487866089E-002
   1.4766626235541425E-003  -3.2061918545900348E-003   6.2748193995804447E-002
   2.0695359814098813E-003  -8.5578608960451552E-004   6.7586157588112289E-002
   1.7897436587235374E-003  -1.0014553748045607E-003   6.6341003233008178E-002
   1.5099513360371901E-003  -1.2636243276815534E-003   6.5228483380419658E-002
   1.2301590133508445E-003  -1.6422929482351710E-003   6.4248598030346771E-002
   9.5036669066449891E-004  -2.1374612364660761E-003   6.3401347182789614E-002
   1.0322537793707176E-003  -4.2789304531618000E-004   6.8787311875612100E-002
   8.8872678855760230E-004  -5.0072768747050356E-004   6.7463442022475506E-002
   7.4519979774447225E-004  -6.3181216369272847E-004   6.6279468330569802E-002
   6.0167280693134957E-004  -8.2114647398324851E-004   6.5235390799895362E-002
   4.5814581611822690E-004  -1.0687306183419509E-003   6.4331209430450925E-002
   8.1438328303207186E-013  -1.0278444761979699E-012   7.0032175889352843E-002
   5.8961169280280501E-013  -1.3611334281904419E-013   6.8687840371792874E-002
   3.6485051091439402E-013   2.9609648066752925E-013   6.7490662674179080E-002
   1.4008412485555510E-013   2.6914581674475357E-013   6.6440642796511185E-002
  -8.4682261203283815E-014  -2.1760371282653068E-013   6.5537780738789131E-002
   2.0370336147871315E-003  -4.2749224727145485E-003   6.2371749869495563E-002
   2.2868803280104849E-003  -5.5780358174655209E-003   5.8340334159389995E-002
   2.5367270412337967E-003  -7.2737033648744287E-003   5.4303807758551925E-002
   2.7865737544571015E-003  -9.3619251149401617E-003   5.0262170666980965E-002
   3.0364204676804896E-003  -1.1842701067664052E-002   4.6215422884677615E-002
   1.4766626235541425E-003  -3.2061918545900348E-003   6.2748193995804447E-002
   1.7070608991637537E-003  -4.1835268633087508E-003   5.8393030669859347E-002
   1.9374591747733719E-003  -5.4552775239724571E-003   5.4004081159420347E-002
   2.1678574503829692E-003  -7.0214438365810428E-003   4.9581345464485865E-002
   2.3982557259925874E-003  -8.8820258011348407E-003   4.5124823585056983E-002
   9.5036669066449891E-004  -2.1374612364660761E-003   6.3401347182789614E-002
   1.1326410348982026E-003  -2.7890179091517586E-003   5.8820574791718094E-002
   1.3149153791319028E-003  -3.6368516830704856E-003   5.4177340722389333E-002
   1.4971897233656082E-003  -4.6809625582217018E-003   4.9471644974804024E-002
   1.6794640675993067E-003  -5.9213505346056294E-003   4.4703487548961252E-002
   4.5814581611822690E-004  -1.0687306183419509E-003   6.4331209430450925E-002
   5.6362073521382203E-004  -1.3945089549948775E-003   5.9622966524965265E-002
   6.6909565430940243E-004  -1.8184258421682920E-003   5.4823586447460285E-002
   7.7457057340500320E-004  -2.3404812798622499E-003   4.9933069197935900E-002
   8.8004549250059183E-004  -2.9606752680765291E-003   4.4951414776392556E-002
  -8.4682261203283815E-014  -2.1760371282653068E-013   6.5537780738789131E-002
   1.1059902993437731E-013  -8.3810736128953067E-013   6.0800205869601553E-002
   3.0586991273118258E-013  -1.2667089599460724E-012   5.5942818334632105E-002
   5.0113559135755992E-013  -1.5030615641009604E-012   5.0965618133881563E-002
   6.9642902555955288E-013  -1.5472068071176182E-012   4.5868605267349594E-002
   1.0487791191060580E-011  -5.5999754833280235E-010   6.7351701073804615E-002
  -3.3010469357996897E-012  -2.9183100380691940E-010   6.6798629516199415E-002
  -1.7089881593213008E-011  -1.0336556610646142E-010   6.6525649408012089E-002
  -3.0878714515902850E-011   5.3989382409191933E-012   6.6532760749242581E-002
  -4.4667550908039644E-011   3.4461933307028403E-011   6.6819963539891003E-002
  -6.5693836824851082E-003   1.8326649267417228E-003   6.5691223654401026E-002
  -6.3055513471241241E-003   1.7913795509434671E-003   6.5299209544500775E-002
  -6.0417190117631227E-003   1.7447362544144307E-003   6.5154768683482064E-002
  -5.7778866764021308E-003   1.6927350371547106E-003   6.5257901071345270E-002
  -5.5140543410411372E-003   1.6353758991640155E-003   6.5608606708090322E-002
  -1.2958771827269205E-002   3.6653304134809939E-003   6.3992139511547697E-002
  -1.2463625343294472E-002   3.5827593937180074E-003   6.3755825008322442E-002
  -1.1968478859319714E-002   3.4894726121944969E-003   6.3734565553442937E-002
  -1.1473332375344949E-002   3.3854700689105628E-003   6.3928361146909057E-002
  -1.0978185891370205E-002   3.2707517638661254E-003   6.4337211788720969E-002
  -1.9168164423864490E-002   5.4979959002202650E-003   6.2254448645244410E-002
  -1.8474221991812066E-002   5.3741392364925547E-003   6.2168475907664514E-002
  -1.7780279559759617E-002   5.2342089699745006E-003   6.2265040017894360E-002
  -1.7086337127707196E-002   5.0782051006664584E-003   6.2544140975933929E-002
  -1.6392394695654761E-002   4.9061276285681937E-003   6.3005778781782956E-002
  -2.5197561472271000E-002   7.3306613869595361E-003   6.0478151055490981E-002
  -2.4337341292676958E-002   7.1655190792669632E-003   6.0537162242527032E-002
  -2.3477121113082897E-002   6.9789453277545183E-003   6.0746192076836542E-002
  -2.2616900933488837E-002   6.7709401324222880E-003   6.1105240558419718E-002
  -2.1756680753894784E-002   6.5415034932702620E-003   6.1614307687276382E-002
  -4.4667550908039644E-011   3.4461933307028403E-011   6.6819963539891003E-002
  -3.4454307462628009E-011   2.3881674415804355E-011   6.6468436222424154E-002
  -2.4241062282492898E-011   1.3715376057099604E-011   6.6316511196248290E-002
  -1.4027818837081263E-011   3.9632498671782201E-012   6.6364188461363702E-002
  -3.8145736569461519E-012  -5.3748117068153078E-012   6.6611468017770237E-002
  -5.5140543410411372E-003   1.6353758991640155E-003   6.5608606708090322E-002
  -5.3188173444813046E-003   1.5744087425207109E-003   6.5301707773643108E-002
  -5.1235803479214703E-003   1.5115834693028435E-003   6.5185680520597949E-002
  -4.9283433513616316E-003   1.4469000795104374E-003   6.5260524948954762E-002
  -4.7331063548018033E-003   1.3803585731433365E-003   6.5526241058713686E-002
  -1.0978185891370205E-002   3.2707517638661254E-003   6.4337211788720969E-002
  -1.0596442518352893E-002   3.1488174611598585E-003   6.4073083120304866E-002
  -1.0214699145335590E-002   3.0231669248903595E-003   6.3991095523401542E-002
  -9.8329557723182848E-003   2.8938001550575677E-003   6.4091248998011358E-002
  -9.4512123993009817E-003   2.7607171516615958E-003   6.4373543544133910E-002
  -1.6392394695654761E-002   4.9061276285681937E-003   6.3005778781782956E-002
  -1.5832875556069086E-002   4.7232261797989228E-003   6.2782562262409289E-002
  -1.5273356416483424E-002   4.5347503804777679E-003   6.2732756204659262E-002
  -1.4713837276897755E-002   4.3407002306047821E-003   6.2856360608533196E-002
  -1.4154318137312093E-002   4.1410757301797996E-003   6.3153375474030854E-002
  -2.1756680753894784E-002   6.5415034932702620E-003   6.1614307687276382E-002
  -2.1028116457629874E-002   6.2976348984379871E-003   6.1430145199956432E-002
  -2.0299552161364968E-002   6.0463338360653845E-003   6.1410662564371082E-002
  -1.9570987865100066E-002   5.7876003061518681E-003   6.1555859780520486E-002
  -1.8842423568835157E-002   5.5214343086980588E-003   6.1865736848404518E-002
  -3.8145736569461519E-012  -5.3748117068153078E-012   6.6611468017770237E-002
  -4.2232502217576240E-012  -1.2280731986891169E-011   6.6357332442182115E-002
  -4.6319233171221441E-012  -1.4736017961425318E-011   6.6337128246648336E-002
  -5.0405981472101402E-012  -1.2740759836038507E-011   6.6550855431168843E-002
  -5.4492729772981363E-012  -6.2949645496246376E-012   6.6998513995743636E-002
  -4.7331063548018033E-003   1.3803585731433365E-003   6.5526241058713686E-002
  -4.5016496677605621E-003   1.3118039718452434E-003   6.5283547062590791E-002
  -4.2701929807193242E-003   1.2410812972595553E-003   6.5269835061313397E-002
  -4.0387362936780873E-003   1.1681905493865566E-003   6.5485105054881657E-002
  -3.8072796066368451E-003   1.0931317282257824E-003   6.5929357043295334E-002
  -9.4512123993009817E-003   2.7607171516615958E-003   6.4373543544133910E-002
  -8.9932484100185769E-003   2.6236079559712189E-003   6.4140123049738124E-002
  -8.5352844207361687E-003   2.4821626092551979E-003   6.4130735164979122E-002
  -8.0773204314537779E-003   2.3363811115137655E-003   6.4345379889856946E-002
  -7.6193564421713576E-003   2.1862634627466404E-003   6.4784057224371527E-002
  -1.4154318137312093E-002   4.1410757301797996E-003   6.3153375474030854E-002
  -1.3474796230997271E-002   3.9354119400971388E-003   6.2927060403624169E-002
  -1.2795274324682462E-002   3.7232439212508892E-003   6.2919828557645510E-002
  -1.2115752418367650E-002   3.5045716736410281E-003   6.3131679936094878E-002
  -1.1436230512052838E-002   3.2793951972674429E-003   6.3562614538972245E-002
  -1.8842423568835157E-002   5.5214343086980588E-003   6.1865736848404518E-002
  -1.7946293130696681E-002   5.2472159242231697E-003   6.1644359124248815E-002
  -1.7050162692558199E-002   4.9643252332464138E-003   6.1637115239312479E-002
  -1.6154032254419717E-002   4.6727622357682908E-003   6.1844005193595480E-002
  -1.5257901816281241E-002   4.3725269317883009E-003   6.2265028987097681E-002
  -5.4492729772981363E-012  -6.2949645496246376E-012   6.6998513995743636E-002
  -7.8502343514585959E-012   1.6365797605999433E-012   6.6888791370454670E-002
  -1.0251188786725152E-011   8.0893902687506625E-012   6.7002202547003842E-002
  -1.2652148426162135E-011   1.3063959636294697E-011   6.7338747525390985E-002
  -1.5053104596152167E-011   1.6559198456889135E-011   6.7898426305616599E-002
  -3.8072796066368451E-003   1.0931317282257824E-003   6.5929357043295334E-002
  -3.5854561319227998E-003   1.0160534086668949E-003   6.5812591396442355E-002
  -3.3636326572087510E-003   9.3710416559888987E-004   6.5916338901981286E-002
  -3.1418091824947161E-003   8.5628399902196173E-004   6.6240599559912183E-002
  -2.9199857077806569E-003   7.7359290893586063E-004   6.6785373370234824E-002
  -7.6193564421713576E-003   2.1862634627466404E-003   6.4784057224371527E-002
  -7.1783301397885801E-003   2.0321068156971545E-003   6.4658377633924319E-002
  -6.7373038374057958E-003   1.8742083231081813E-003   6.4750590546422765E-002
  -6.2962775350230045E-003   1.7125679849799673E-003   6.5060695961866838E-002
  -5.8552512326402201E-003   1.5471858013125228E-003   6.5588693880256510E-002
  -1.1436230512052838E-002   3.2793951972674429E-003   6.3562614538972245E-002
  -1.0778622031447563E-002   3.0481602227272753E-003   6.3426150082900631E-002
  -1.0121013550842290E-002   2.8113124806175768E-003   6.3504957480328278E-002
  -9.4634050702370326E-003   2.5688519709381932E-003   6.3799036731255213E-002
  -8.8057965896317508E-003   2.3207786936891850E-003   6.4308387835681463E-002
  -1.5257901816281241E-002   4.3725269317883009E-003   6.2265028987097681E-002
  -1.4386331806899758E-002   4.0642136297577292E-003   6.2115908743371084E-002
  -1.3514761797518267E-002   3.7484166381269307E-003   6.2179439703697631E-002
  -1.2643191788136776E-002   3.4251359568961866E-003   6.2455621868077141E-002
  -1.1771621778755292E-002   3.0943715860658472E-003   6.2944455236509933E-002
  -1.5053104596152167E-011   1.6559198456889135E-011   6.7898426305616599E-002
  -1.2058798404268600E-011   1.8178902827514776E-011   6.7896558134643903E-002
  -9.0644922123850336E-012   1.7525508821947255E-011   6.8149033334813425E-002
  -6.0701860205014668E-012   1.4599370323775673E-011   6.8655851906125276E-002
  -3.0758798286179001E-012   9.4003693718036629E-012   6.9417013848578790E-002
  -2.9199857077806569E-003   7.7359290893586063E-004   6.6785373370234824E-002
  -2.6685718140932665E-003   6.9211135688834746E-004   6.6767440885337870E-002
  -2.4171579204058762E-003   6.1491980442709981E-004   6.6997992810684970E-002
  -2.1657440267184901E-003   5.4201825155220790E-004   6.7477029146276096E-002
  -1.9143301330310954E-003   4.7340669826323456E-004   6.8204549892111332E-002
  -5.8552512326402201E-003   1.5471858013125228E-003   6.5588693880256510E-002
  -5.3582824091577726E-003   1.3842226955979586E-003   6.5558987083294384E-002
  -4.8613135856753345E-003   1.2298395913288157E-003   6.5771905735678052E-002
  -4.3643447621928878E-003   1.0840364885047159E-003   6.6227449837407831E-002
  -3.8673759387104351E-003   9.4681338712604424E-004   6.6925619388483626E-002
  -8.8057965896317508E-003   2.3207786936891850E-003   6.4308387835681463E-002
  -8.0691317972523026E-003   2.0763340343074865E-003   6.4271196728513058E-002
  -7.3324670048728700E-003   1.8447593782303581E-003   6.4470772109792573E-002
  -6.5958022124934226E-003   1.6260547254573331E-003   6.4907113979520245E-002
  -5.8591374201139891E-003   1.4202200759889927E-003   6.5580222337695476E-002
  -1.1771621778755292E-002   3.0943715860658472E-003   6.2944455236509933E-002
  -1.0801119978376891E-002   2.7684453730170144E-003   6.2904069820994390E-002
  -9.8306181779984833E-003   2.4596791651319005E-003   6.3094591933028854E-002
  -8.8601163776200718E-003   2.1680729624100614E-003   6.3516021572613213E-002
  -7.8896145772416673E-003   1.8936267648517191E-003   6.4168358739747466E-002
  -3.0758798286179001E-012   9.4003693718036629E-012   6.9417013848578790E-002
  -2.1033105812584552E-012   3.9970249332554886E-012   6.9246342086793033E-002
  -1.1307482727929141E-012   4.5788373093103019E-013   6.9291978506326735E-002
  -1.5818422960389711E-013  -1.2168530072464989E-012   6.9553923107179894E-002
   8.1438328303207186E-013  -1.0278444761979699E-012   7.0032175889352843E-002
  -1.9143301330310954E-003   4.7340669826323456E-004   6.8204549892111332E-002
  -1.6938110442269207E-003   4.2071217974964936E-004   6.8013145397027797E-002
  -1.4732919554227616E-003   3.9556173120133820E-004   6.8046470896288069E-002
  -1.2527728666185921E-003   3.9795535261701737E-004   6.8304526389892040E-002
  -1.0322537778144278E-003   4.2789304399792893E-004   6.8787311877839596E-002
  -3.8673759387104351E-003   9.4681338712604424E-004   6.6925619388483626E-002
  -3.4179159490506043E-003   8.4142435550260686E-004   6.6741026228203104E-002
  -2.9684559593907370E-003   7.9112346194444572E-004   6.6789584875290173E-002
  -2.5189959697308850E-003   7.9591070645143938E-004   6.7071295329744929E-002
  -2.0695359800710252E-003   8.5578608902359132E-004   6.7586157591567553E-002
  -5.8591374201139891E-003   1.4202200759889927E-003   6.5580222337695476E-002
  -5.1723147165743276E-003   1.2621365312555088E-003   6.5429984580318346E-002
  -4.4854920130346920E-003   1.1866851926876712E-003   6.5521320443333017E-002
  -3.7986693094950509E-003   1.1938660602856966E-003   6.5854229926739519E-002
  -3.1118466059553958E-003   1.2836791340493092E-003   6.6428713030537739E-002
  -7.8896145772416673E-003   1.8936267648517191E-003   6.4168358739747466E-002
  -6.9570073467981469E-003   1.6828487070082998E-003   6.4080020453374131E-002
  -6.0244001163546126E-003   1.5822469234310077E-003   6.4241677600416602E-002
  -5.0917928859110784E-003   1.5918214141198428E-003   6.4653330180874824E-002
  -4.1591856554675580E-003   1.7115721790750271E-003   6.5314978194749407E-002
   8.1438328303207186E-013  -1.0278444761979699E-012   7.0032175889352843E-002
   5.8961169280280501E-013  -1.3611334281904419E-013   6.8687840371792874E-002
   3.6485051091439402E-013   2.9609648066752925E-013   6.7490662674179080E-002
   1.4008412485555510E-013   2.6914581674475357E-013   6.6440642796511185E-002
  -8.4682261203283815E-014  -2.1760371282653068E-013   6.5537780738789131E-002
  -1.0322537778144278E-003   4.2789304399792893E-004   6.8787311877839596E-002
  -8.8872678741558353E-004   5.0072768711612037E-004   6.7463442023854847E-002
  -7.4519979701674621E-004   6.3181216374461058E-004   6.6279468331171654E-002
  -6.0167280661790109E-004   8.2114647388333711E-004   6.5235390799789877E-002
  -4.5814581621906464E-004   1.0687306175323208E-003   6.4331209429709046E-002
  -2.0695359800710252E-003   8.5578608902359132E-004   6.7586157591567553E-002
  -1.7897436576932131E-003   1.0014553743684651E-003   6.6341003235128121E-002
  -1.5099513353153933E-003   1.2636243271930137E-003   6.5228483381345320E-002
  -1.2301590129375740E-003   1.6422929474977505E-003   6.4248598030219053E-002
  -9.5036669055976151E-004   2.1374612352822453E-003   6.3401347181749779E-002
  -3.1118466059553958E-003   1.2836791340493092E-003   6.6428713030537739E-002
  -2.7030506102432373E-003   1.5021830616206433E-003   6.5320524005612696E-002
  -2.2942546145310787E-003   1.8954364906415833E-003   6.4337707824700052E-002
  -1.8854586188189171E-003   2.4634394211120528E-003   6.3480264487799171E-002
  -1.4766626231067620E-003   3.2061918530322808E-003   6.2748193994910453E-002
  -4.1591856554675580E-003   1.7115721790750271E-003   6.5314978194749407E-002
  -3.6286476450656871E-003   2.0029107488730435E-003   6.4402004335308738E-002
  -3.0981096346638162E-003   2.5272486540898753E-003   6.3607141661235767E-002
  -2.5675716242619471E-003   3.2845858947264522E-003   6.2930390172530215E-002
  -2.0370336138600745E-003   4.2749224707820943E-003   6.2371749869191806E-002
  -8.4682261203283815E-014  -2.1760371282653068E-013   6.5537780738789131E-002
   1.1059902993437731E-013  -8.3810736128953067E-013   6.0800205869601553E-002
   3.0586991273118258E-013  -1.2667089599460724E-012   5.5942818334632105E-002
   5.0113559135755992E-013  -1.5030615641009604E-012   5.0965618133881563E-002
   6.9642902555955288E-013  -1.5472068071176182E-012   4.5868605267349594E-002
  -4.5814581621906464E-004   1.0687306175323208E-003   6.4331209429709046E-002
  -5.6362073495361265E-004   1.3945089533016208E-003   5.9622966524627896E-002
  -6.6909565368815718E-004   1.8184258398018516E-003   5.4823586447468708E-002
  -7.7457057242271473E-004   2.3404812770327077E-003   4.9933069198231178E-002
  -8.8004549115723585E-004   2.9606752649944390E-003   4.4951414776915444E-002
  -9.5036669055976151E-004   2.1374612352822453E-003   6.3401347181749779E-002
  -1.1326410345209332E-003   2.7890179074414045E-003   5.8820574791313723E-002
  -1.3149153784821127E-003   3.6368516808701623E-003   5.4177340722502770E-002
  -1.4971897224432969E-003   4.6809625555682480E-003   4.9471644975317003E-002
  -1.6794640664044638E-003   5.9213505315356407E-003   4.4703487549755838E-002
  -1.4766626231067620E-003   3.2061918530322808E-003   6.2748193994910453E-002
  -1.7070608985913873E-003   4.1835268615811605E-003   5.8393030669658605E-002
  -1.9374591740760128E-003   5.4552775219383759E-003   5.4004081159734811E-002
  -2.1678574495606596E-003   7.0214438341040138E-003   4.9581345465139287E-002
  -2.3982557250452636E-003   8.8820257980771755E-003   4.5124823585872470E-002
  -2.0370336138600745E-003   4.2749224707820943E-003   6.2371749869191806E-002
  -2.2868803271649668E-003   5.5780358157210275E-003   5.8340334159662777E-002
  -2.5367270404698487E-003   7.2737033630066450E-003   5.4303807759165212E-002
  -2.7865737537747584E-003   9.3619251126392938E-003   5.0262170667699113E-002
  -3.0364204670796230E-003   1.1842701064618488E-002   4.6215422885263813E-002
  -2.5197561472271000E-002   7.3306613869595361E-003   6.0478151055490981E-002
  -2.4337341292676958E-002   7.1655190792669632E-003   6.0537162242527032E-002
  -2.3477121113082897E-002   6.9789453277545183E-003   6.0746192076836542E-002
  -2.2616900933488837E-002   6.7709401324222880E-003   6.1105240558419718E-002
  -2.1756680753894784E-002   6.5415034932702620E-003   6.1614307687276382E-002
  -3.1244098353876999E-002   9.2248474980001771E-003   5.8357278284587949E-002
  -3.0214313215606265E-002   9.0087813413753659E-003   5.8197620160072017E-002
  -2.9184528077335514E-002   8.7662658118362602E-003   5.8227073305635882E-002
  -2.8154742939064767E-002   8.4973009093828669E-003   5.8445637721279746E-002
  -2.7124957800794013E-002   8.2018866340151098E-003   5.8853313407003310E-002
  -3.7504910450070872E-002   1.1119033609040790E-002   5.6187990629299620E-002
  -3.6266467730317199E-002   1.0852043603483727E-002   5.5804645264137531E-002
  -3.5028025010563561E-002   1.0553586295917995E-002   5.5649503791861475E-002
  -3.3789582290809896E-002   1.0223661686343361E-002   5.5722566212471389E-002
  -3.2551139571056223E-002   9.8622697747599852E-003   5.6023832525967446E-002
  -4.3979997760852679E-002   1.3013219720081418E-002   5.3970288089626603E-002
  -4.2493804836809840E-002   1.2695305865592192E-002   5.3358237554723638E-002
  -4.1007611912767021E-002   1.2340906779999706E-002   5.3013483535512988E-002
  -3.9521418988724161E-002   1.1950022463303896E-002   5.2936026031994675E-002
  -3.8035226064681335E-002   1.1522652915504902E-002   5.3125865044168552E-002
  -5.0669360286222292E-002   1.4907405831122045E-002   5.1704170665568316E-002
  -4.8896324535084051E-002   1.4538568127700491E-002   5.0858397031830260E-002
  -4.7123288783945838E-002   1.4128227264081417E-002   5.0319012536590657E-002
  -4.5350253032807625E-002   1.3676383240264448E-002   5.0086017179849590E-002
  -4.3577217281669398E-002   1.3183036056249708E-002   5.0159410961606921E-002
  -2.1756680753894784E-002   6.5415034932702620E-003   6.1614307687276382E-002
  -2.1028116457629874E-002   6.2976348984379871E-003   6.1430145199956432E-002
  -2.0299552161364968E-002   6.0463338360653845E-003   6.1410662564371082E-002
  -1.9570987865100066E-002   5.7876003061518681E-003   6.1555859780520486E-002
  -1.8842423568835157E-002   5.5214343086980588E-003   6.1865736848404518E-002
  -2.7124957800794013E-002   8.2018866340151098E-003   5.8853313407003310E-002
  -2.6227431224122029E-002   7.8908738341944562E-003   5.8609438553226811E-002
  -2.5329904647450042E-002   7.5751133583825125E-003   5.8538808408529763E-002
  -2.4432378070778062E-002   7.2546052065788208E-003   5.8641422972912138E-002
  -2.3534851494106071E-002   6.9293493787837557E-003   5.8917282246374103E-002
  -3.2551139571056223E-002   9.8622697747599852E-003   5.6023832525967446E-002
  -3.1476085856632349E-002   9.4841127699510641E-003   5.5722930097283352E-002
  -3.0401032142208503E-002   9.1038928806997030E-003   5.5603837235023539E-002
  -2.9325978427784619E-002   8.7216101070058307E-003   5.5666553939188027E-002
  -2.8250924713360780E-002   8.3372644488695913E-003   5.5911080209776753E-002
  -3.8035226064681335E-002   1.1522652915504902E-002   5.3125865044168552E-002
  -3.6774080355160818E-002   1.1077351705707575E-002   5.2770619832126067E-002
  -3.5512934645640259E-002   1.0632672403016890E-002   5.2605749043852665E-002
  -3.4251788936119722E-002   1.0188615007432841E-002   5.2631252679348289E-002
  -3.2990643226599191E-002   9.7451795189553297E-003   5.2847130738613080E-002
  -4.3577217281669398E-002   1.3183036056249708E-002   5.0159410961606921E-002
  -4.2121414719707401E-002   1.2670590641464197E-002   4.9752507757755055E-002
  -4.0665612157745411E-002   1.2161451925334049E-002   4.9544543835016969E-002
  -3.9209809595783421E-002   1.1655619907859800E-002   4.9535519193392732E-002
  -3.7754007033821424E-002   1.1153094589041124E-002   4.9725433832882360E-002
  -1.8842423568835157E-002   5.5214343086980588E-003   6.1865736848404518E-002
  -1.7946293130696681E-002   5.2472159242231697E-003   6.1644359124248815E-002
  -1.7050162692558199E-002   4.9643252332464138E-003   6.1637115239312479E-002
  -1.6154032254419717E-002   4.6727622357682908E-003   6.1844005193595480E-002
  -1.5257901816281241E-002   4.3725269317883009E-003   6.2265028987097681E-002
  -2.3534851494106071E-002   6.9293493787837557E-003   5.8917282246374103E-002
  -2.2426347867660255E-002   6.5963610401302275E-003   5.8660803751208968E-002
  -2.1317844241214426E-002   6.2526553557507025E-003   5.8614937793439320E-002
  -2.0209340614768624E-002   5.8982323256458469E-003   5.8779684373065050E-002
  -1.9100836988322812E-002   5.5330919498149944E-003   5.9155043490086212E-002
  -2.8250924713360780E-002   8.3372644488695913E-003   5.5911080209776753E-002
  -2.6933569200431478E-002   7.9455061560372853E-003   5.5617455904378305E-002
  -2.5616213687502207E-002   7.5409854782551022E-003   5.5530922834551355E-002
  -2.4298858174572918E-002   7.1237024155232920E-003   5.5651481000295933E-002
  -2.2981502661643630E-002   6.6936569678415492E-003   5.5979130401611940E-002
  -3.2990643226599191E-002   9.7451795189553297E-003   5.2847130738613080E-002
  -3.1467957129010349E-002   9.2946512719443708E-003   5.2514315583756965E-002
  -2.9945271031421524E-002   8.8293156007593354E-003   5.2385070362648611E-002
  -2.8422584933832686E-002   8.3491725054007926E-003   5.2459395075287747E-002
  -2.6899898836243854E-002   7.8542219858681733E-003   5.2737289721674685E-002
  -3.7754007033821424E-002   1.1153094589041124E-002   4.9725433832882360E-002
  -3.6029511653396892E-002   1.0643796387851456E-002   4.9351382789344811E-002
  -3.4305016272972388E-002   1.0117645723263763E-002   4.9177380377731061E-002
  -3.2580520892547871E-002   9.5746425952782863E-003   4.9203426598040889E-002
  -3.0856025512123353E-002   9.0147870038947975E-003   4.9429521450274572E-002
  -1.5257901816281241E-002   4.3725269317883009E-003   6.2265028987097681E-002
  -1.4386331806899758E-002   4.0642136297577292E-003   6.2115908743371084E-002
  -1.3514761797518267E-002   3.7484166381269307E-003   6.2179439703697631E-002
  -1.2643191788136776E-002   3.4251359568961866E-003   6.2455621868077141E-002
  -1.1771621778755292E-002   3.0943715860658472E-003   6.2944455236509933E-002
  -1.9100836988322812E-002   5.5330919498149944E-003   5.9155043490086212E-002
  -1.8020844723637457E-002   5.1591193306759764E-003   5.8956748381085722E-002
  -1.6940852458952077E-002   4.7781995706460412E-003   5.8962646578639893E-002
  -1.5860860194266725E-002   4.3903326697255704E-003   5.9172738082748672E-002
  -1.4780867929581366E-002   3.9955186279141408E-003   5.9587022893412278E-002
  -2.2981502661643630E-002   6.6936569678415492E-003   5.5979130401611940E-002
  -2.1701546039152874E-002   6.2540250315942236E-003   5.5732196976046616E-002
  -2.0421589416662091E-002   5.8079825031651447E-003   5.5680998959537660E-002
  -1.9141632794171314E-002   5.3555293825545639E-003   5.5825536352084718E-002
  -1.7861676171680531E-002   4.8966656697623234E-003   5.6165809153688129E-002
  -2.6899898836243854E-002   7.8542219858681733E-003   5.2737289721674685E-002
  -2.5428435753446086E-002   7.3489307325124709E-003   5.2442254528253872E-002
  -2.3956972670648342E-002   6.8377654356844737E-003   5.2334496846390806E-002
  -2.2485509587850578E-002   6.3207260953836416E-003   5.2414016676085431E-002
  -2.1014046505052834E-002   5.7978127116106726E-003   5.2680814017337790E-002
  -3.0856025512123353E-002   9.0147870038947975E-003   4.9429521450274572E-002
  -2.9201513866517065E-002   8.4438364334308291E-003   4.9086921037707287E-002
  -2.7547002220910777E-002   7.8675483682033864E-003   4.8923140239199303E-002
  -2.5892490575304482E-002   7.2859228082127817E-003   4.8938179054750730E-002
  -2.4237978929698201E-002   6.6989597534587997E-003   4.9132037484361457E-002
  -1.1771621778755292E-002   3.0943715860658472E-003   6.2944455236509933E-002
  -1.0801119978376891E-002   2.7684453730170144E-003   6.2904069820994390E-002
  -9.8306181779984833E-003   2.4596791651319005E-003   6.3094591933028854E-002
  -8.8601163776200718E-003   2.1680729624100614E-003   6.3516021572613213E-002
  -7.8896145772416673E-003   1.8936267648517191E-003   6.4168358739747466E-002
  -1.4780867929581366E-002   3.9955186279141408E-003   5.9587022893412278E-002
  -1.3585617883171443E-002   3.6025340405977380E-003   5.9482799132627495E-002
  -1.2390367836761541E-002   3.2201555031625695E-003   5.9597164336355757E-002
  -1.1195117790351617E-002   2.8483830156089684E-003   5.9930118504597285E-002
  -9.9998677439417163E-003   2.4872165779361577E-003   6.0481661637351691E-002
  -1.7861676171680531E-002   4.8966656697623234E-003   5.6165809153688129E-002
  -1.6453996442275982E-002   4.4366227081785725E-003   5.5991193092351871E-002
  -1.5046316712871417E-002   3.9806318411939046E-003   5.6022847432491862E-002
  -1.3638636983466831E-002   3.5286930688076534E-003   5.6260772174107965E-002
  -1.2230957254062275E-002   3.0808063910203742E-003   5.6704967317200400E-002
  -2.1014046505052834E-002   5.7978127116106726E-003   5.2680814017337790E-002
  -1.9406255655690475E-002   5.2707113757594071E-003   5.2429251700167614E-002
  -1.7798464806328101E-002   4.7411081792248511E-003   5.2371641221436768E-002
  -1.6190673956965725E-002   4.2090031220066715E-003   5.2507982581145446E-002
  -1.4582883107603365E-002   3.6743962041047018E-003   5.2838275779293203E-002
  -2.4237978929698201E-002   6.6989597534587997E-003   4.9132037484361457E-002
  -2.2442395523414899E-002   6.1048000433401306E-003   4.8796974956074823E-002
  -2.0646812117131597E-002   5.5015845172559918E-003   4.8643545703190849E-002
  -1.8851228710848322E-002   4.8893131752050997E-003   4.8671749725709507E-002
  -1.7055645304564993E-002   4.2679860171889183E-003   4.8881587023630657E-002
  -7.8896145772416673E-003   1.8936267648517191E-003   6.4168358739747466E-002
  -6.9570073467981469E-003   1.6828487070082998E-003   6.4080020453374131E-002
  -6.0244001163546126E-003   1.5822469234310077E-003   6.4241677600416602E-002
  -5.0917928859110784E-003   1.5918214141198428E-003   6.4653330180874824E-002
  -4.1591856554675580E-003   1.7115721790750271E-003   6.5314978194749407E-002
  -9.9998677439417163E-003   2.4872165779361577E-003   6.0481661637351691E-002
  -8.8167556655059827E-003   2.1874349490408340E-003   6.0384166343104395E-002
  -7.6336435870702733E-003   1.9998168878204714E-003   6.0537685311425449E-002
  -6.4505315086345640E-003   1.9243623942744870E-003   6.0942218542315102E-002
  -5.2674194301988303E-003   1.9610714684030750E-003   6.1597766035773049E-002
  -1.2230957254062275E-002   3.0808063910203742E-003   5.6704967317200400E-002
  -1.0796321498481854E-002   2.6920211910738678E-003   5.6600302308487421E-002
  -9.3616857429014381E-003   2.4173868522099351E-003   5.6747670391495170E-002
  -7.9270499873210186E-003   2.2569033744291311E-003   5.7147071566224145E-002
  -6.4924142317406026E-003   2.2105707577307898E-003   5.7798505832673708E-002
  -1.4582883107603365E-002   3.6743962041047018E-003   5.2838275779293203E-002
  -1.2895704845725751E-002   3.1966074331065963E-003   5.2728428349522891E-002
  -1.1208526583848112E-002   2.8349568165995098E-003   5.2871632840625918E-002
  -9.5213483219704978E-003   2.5894443545836643E-003   5.3267889252602452E-002
  -7.8341700600928557E-003   2.4600700470587267E-003   5.3917197585452575E-002
  -1.7055645304564993E-002   4.2679860171889183E-003   4.8881587023630657E-002
  -1.5114905707237669E-002   3.7011936751394359E-003   4.8768544466211039E-002
  -1.3174166109910304E-002   3.2525267809887792E-003   4.8909572658817457E-002
  -1.1233426512582974E-002   2.9219853347383432E-003   4.9304671601449995E-002
  -9.2926869152556157E-003   2.7095693363865525E-003   4.9953841294108403E-002
  -4.1591856554675580E-003   1.7115721790750271E-003   6.5314978194749407E-002
  -3.6286476450656871E-003   2.0029107488730435E-003   6.4402004335308738E-002
  -3.0981096346638162E-003   2.5272486540898753E-003   6.3607141661235767E-002
  -2.5675716242619471E-003   3.2845858947264522E-003   6.2930390172530215E-002
  -2.0370336138600745E-003   4.2749224707820943E-003   6.2371749869191806E-002
  -5.2674194301988303E-003   1.9610714684030750E-003   6.1597766035773049E-002
  -4.5925765035602882E-003   2.2170175411241333E-003   6.0873879762856742E-002
  -3.9177335769217496E-003   2.7992740433573915E-003   6.0320492137046267E-002
  -3.2428906502831954E-003   3.7078409751020863E-003   5.9937603158342151E-002
  -2.5680477236446723E-003   4.9427183363583982E-003   5.9725212826743590E-002
  -6.4924142317406026E-003   2.2105707577307898E-003   5.7798505832673708E-002
  -5.6208789271268451E-003   2.4311243333757782E-003   5.7357018240374202E-002
  -4.7493436225130312E-003   3.0712994326249354E-003   5.7138416756919080E-002
  -3.8778083178992611E-003   4.1310960554775053E-003   5.7142701382308453E-002
  -3.0062730132854598E-003   5.6105142019342580E-003   5.7369872116542597E-002
  -7.8341700600928557E-003   2.4600700470587267E-003   5.3917197585452575E-002
  -6.7135549157652744E-003   2.6452311256273120E-003   5.3851419767861577E-002
  -5.5929397714376758E-003   3.3433248218924655E-003   5.4060915520853729E-002
  -4.4723246271100659E-003   4.5543511358532539E-003   5.4545684844429163E-002
  -3.3517094827824959E-003   6.2783100675106729E-003   5.5305727738587149E-002
  -9.2926869152556157E-003   2.7095693363865525E-003   4.9953841294108403E-002
  -7.8706044694756283E-003   2.8593379178786238E-003   5.0357084345318492E-002
  -6.4485220236956686E-003   3.6153502111599400E-003   5.1087988428850539E-002
  -5.0264395779156951E-003   4.9776062162285445E-003   5.2146553544704100E-002
  -3.6043571321357215E-003   6.9461059330864217E-003   5.3532779692879284E-002
  -2.0370336138600745E-003   4.2749224707820943E-003   6.2371749869191806E-002
  -2.2868803271649668E-003   5.5780358157210275E-003   5.8340334159662777E-002
  -2.5367270404698487E-003   7.2737033630066450E-003   5.4303807759165212E-002
  -2.7865737537747584E-003   9.3619251126392938E-003   5.0262170667699113E-002
  -3.0364204670796230E-003   1.1842701064618488E-002   4.6215422885263813E-002
  -2.5680477236446723E-003   4.9427183363583982E-003   5.9725212826743590E-002
  -2.8405618823906277E-003   6.5675205489276745E-003   5.6192075920616757E-002
  -3.1130760411366108E-003   8.6458620346120396E-003   5.2618714814576584E-002
  -3.3855901998825818E-003   1.1177742793411410E-002   4.9005129508622902E-002
  -3.6581043586285736E-003   1.4163162825325815E-002   4.5351320002755546E-002
  -3.0062730132854598E-003   5.6105142019342580E-003   5.7369872116542597E-002
  -3.3365681264173747E-003   7.5570052821345990E-003   5.4395999084585922E-002
  -3.6668632395492479E-003   1.0018020706217740E-002   5.1346788343771294E-002
  -3.9971583526811193E-003   1.2993560474183853E-002   4.8222239894097962E-002
  -4.3274534658130047E-003   1.6483624586032919E-002   4.5022353735566401E-002
  -3.3517094827824959E-003   6.2783100675106729E-003   5.5305727738587149E-002
  -3.7748990592451387E-003   8.5464900153412737E-003   5.2952103651569299E-002
  -4.1980886357078084E-003   1.1390179377823176E-002   5.0488028346748030E-002
  -4.6212782121704647E-003   1.4809378154956133E-002   4.7913501824123891E-002
  -5.0444677886331201E-003   1.8804086346740134E-002   4.5228524083696181E-002
  -3.6043571321357215E-003   6.9461059330864217E-003   5.3532779692879284E-002
  -4.1555546808739602E-003   9.5359747485479485E-003   5.1860389621567804E-002
  -4.7067522296122127E-003   1.2762338049429112E-002   5.0042434823507898E-002
  -5.2579497783505139E-003   1.6625195835728537E-002   4.8078915298700786E-002
  -5.8091473270887040E-003   2.1124548107447350E-002   4.5969831047144805E-002
  -5.0669360286222292E-002   1.4907405831122045E-002   5.1704170665568316E-002
  -4.8896324535084051E-002   1.4538568127700491E-002   5.0858397031830260E-002
  -4.7123288783945838E-002   1.4128227264081417E-002   5.0319012536590657E-002
  -4.5350253032807625E-002   1.3676383240264448E-002   5.0086017179849590E-002
  -4.3577217281669398E-002   1.3183036056249708E-002   5.0159410961606921E-002
  -5.7337469488284831E-002   1.6836576912863277E-002   4.5671892236238798E-002
  -5.5278480626967996E-002   1.6364032569799680E-002   4.5029958744200432E-002
  -5.3219491765651106E-002   1.5867980004569168E-002   4.4653542334020996E-002
  -5.1160502904334243E-002   1.5348419217171737E-002   4.4542643005700266E-002
  -4.9101514043017401E-002   1.4805350207607509E-002   4.4697260759238272E-002
  -6.3748796829145471E-002   1.8765747994604481E-002   3.9526909698251733E-002
  -6.1444726914289642E-002   1.8189497011898870E-002   3.9106811285944246E-002
  -5.9140656999433869E-002   1.7607732745057086E-002   3.8911357898855595E-002
  -5.6836587084578095E-002   1.7020455194079250E-002   3.8940549536986016E-002
  -5.4532517169722267E-002   1.6427664358965366E-002   3.9194386200335607E-002
  -6.9903342308803990E-002   2.0694919076345686E-002   3.3269223051607372E-002
  -6.7395063397049038E-002   2.0014961453998031E-002   3.3088954657061104E-002
  -6.4886784485294044E-002   1.9347485485544977E-002   3.3092459231094301E-002
  -6.2378505573539078E-002   1.8692491170986734E-002   3.3279736773706700E-002
  -5.9870226661784112E-002   1.8049978510323167E-002   3.3650787284898405E-002
  -7.5801105927260581E-002   2.2624090158086918E-002   2.6898832296305408E-002
  -7.3129490075246162E-002   2.1840425896097193E-002   2.6976388857551492E-002
  -7.0457874223231742E-002   2.1087238226032867E-002   2.7196846330737157E-002
  -6.7786258371217295E-002   2.0364527147894093E-002   2.7560204715862402E-002
  -6.5114642519202848E-002   1.9672292661680968E-002   2.8066464012927173E-002
  -4.3577217281669398E-002   1.3183036056249708E-002   5.0159410961606921E-002
  -4.2121414719707401E-002   1.2670590641464197E-002   4.9752507757755055E-002
  -4.0665612157745411E-002   1.2161451925334049E-002   4.9544543835016969E-002
  -3.9209809595783421E-002   1.1655619907859800E-002   4.9535519193392732E-002
  -3.7754007033821424E-002   1.1153094589041124E-002   4.9725433832882360E-002
  -4.9101514043017401E-002   1.4805350207607509E-002   4.4697260759238272E-002
  -4.7455126303459376E-002   1.4250206858733586E-002   4.4376630207613357E-002
  -4.5808738563901386E-002   1.3694423053407422E-002   4.4238230730066525E-002
  -4.4162350824343360E-002   1.3137998791628724E-002   4.4282062326597871E-002
  -4.2515963084785419E-002   1.2580934073397776E-002   4.4508124997207354E-002
  -5.4532517169722267E-002   1.6427664358965366E-002   3.9194386200335607E-002
  -5.2712252459603932E-002   1.5829823076003197E-002   3.8956081145829373E-002
  -5.0891987749485605E-002   1.5227394181480572E-002   3.8883298958365745E-002
  -4.9071723039367292E-002   1.4620377675397648E-002   3.8976039637944423E-002
  -4.7251458329248944E-002   1.4008773557754317E-002   3.9234303184565694E-002
  -5.9870226661784112E-002   1.8049978510323167E-002   3.3650787284898405E-002
  -5.7892793188141140E-002   1.7409439293272724E-002   3.3490860572403157E-002
  -5.5915359714498208E-002   1.6760365309553889E-002   3.3479748519914643E-002
  -5.3937926240855201E-002   1.6102756559166764E-002   3.3617451127432973E-002
  -5.1960492767212305E-002   1.5436613042110914E-002   3.3903968394957996E-002
  -6.5114642519202848E-002   1.9672292661680968E-002   2.8066464012927173E-002
  -6.2996748489070942E-002   1.8989055510542197E-002   2.7980968487334695E-002
  -6.0878854458939022E-002   1.8293336437627108E-002   2.8027579414713288E-002
  -5.8760960428807095E-002   1.7585135442935471E-002   2.8206296795062896E-002
  -5.6643066398675196E-002   1.6864452526467510E-002   2.8517120628383741E-002
  -3.7754007033821424E-002   1.1153094589041124E-002   4.9725433832882360E-002
  -3.6029511653396892E-002   1.0643796387851456E-002   4.9351382789344811E-002
  -3.4305016272972388E-002   1.0117645723263763E-002   4.9177380377731061E-002
  -3.2580520892547871E-002   9.5746425952782863E-003   4.9203426598040889E-002
  -3.0856025512123353E-002   9.0147870038947975E-003   4.9429521450274572E-002
  -4.2515963084785419E-002   1.2580934073397776E-002   4.4508124997207354E-002
  -4.0594213183571648E-002   1.2017682803294044E-002   4.4143448093690141E-002
  -3.8672463282357933E-002   1.1442698885897745E-002   4.3973231599827717E-002
  -3.6750713381144190E-002   1.0855982321208567E-002   4.3997475515619916E-002
  -3.4828963479930461E-002   1.0257533109226502E-002   4.4216179841066738E-002
  -4.7251458329248944E-002   1.4008773557754317E-002   3.9234303184565694E-002
  -4.5138042129515110E-002   1.3391569218736882E-002   3.8884120237174205E-002
  -4.3024625929781249E-002   1.2767752048531797E-002   3.8722809477168149E-002
  -4.0911209730047374E-002   1.2137322047138795E-002   3.8750370904547908E-002
  -3.8797793530313547E-002   1.1500279214558207E-002   3.8966804519313086E-002
  -5.1960492767212305E-002   1.5436613042110914E-002   3.3903968394957996E-002
  -4.9660998491227321E-002   1.4765455634179678E-002   3.3573399219796969E-002
  -4.7361504215242357E-002   1.4092805211165814E-002   3.3426114009752442E-002
  -4.5062009939257387E-002   1.3418661773068939E-002   3.3462112764824518E-002
  -4.2762515663272410E-002   1.2743025319889800E-002   3.3681395485013151E-002
  -5.6643066398675196E-002   1.6864452526467510E-002   2.8517120628383741E-002
  -5.4163082268708224E-002   1.6139342049622363E-002   2.8211285041558287E-002
  -5.1683098138741251E-002   1.5417858373799803E-002   2.8083145197580400E-002
  -4.9203114008774293E-002   1.4700001498999409E-002   2.8132701096450080E-002
  -4.6723129878807307E-002   1.3985771425221616E-002   2.8359952738167271E-002
  -3.0856025512123353E-002   9.0147870038947975E-003   4.9429521450274572E-002
  -2.9201513866517065E-002   8.4438364334308291E-003   4.9086921037707287E-002
  -2.7547002220910777E-002   7.8675483682033864E-003   4.8923140239199303E-002
  -2.5892490575304482E-002   7.2859228082127817E-003   4.8938179054750730E-002
  -2.4237978929698201E-002   6.6989597534587997E-003   4.9132037484361457E-002
  -3.4828963479930461E-002   1.0257533109226502E-002   4.4216179841066738E-002
  -3.3001437382624184E-002   9.6487208099337862E-003   4.3864716672518483E-002
  -3.1173911285317810E-002   9.0309149833126268E-003   4.3680462793310976E-002
  -2.9346385188011484E-002   8.4041156293630723E-003   4.3663418203444257E-002
  -2.7518859090705144E-002   7.7683227480851436E-003   4.3813582902918313E-002
  -3.8797793530313547E-002   1.1500279214558207E-002   3.8966804519313086E-002
  -3.6808863306025723E-002   1.0853605186436910E-002   3.8602822562218642E-002
  -3.4819933081737850E-002   1.0194281598421853E-002   3.8394439569746336E-002
  -3.2831002857449991E-002   9.5223084505134149E-003   3.8341655541896204E-002
  -3.0842072633162201E-002   8.8376857427114874E-003   3.8444470478668530E-002
  -4.2762515663272410E-002   1.2743025319889800E-002   3.3681395485013151E-002
  -4.0623791636721661E-002   1.2058489562939839E-002   3.3301238706807373E-002
  -3.8485067610170808E-002   1.1357648213531253E-002   3.3065070568505356E-002
  -3.6346343583620003E-002   1.0640501271663732E-002   3.2972891070106945E-002
  -3.4207619557069205E-002   9.9070487373377203E-003   3.3024700211612211E-002
  -4.6723129878807307E-002   1.3985771425221616E-002   2.8359952738167271E-002
  -4.4446222374712047E-002   1.3263373939442935E-002   2.7959965106284901E-002
  -4.2169314870616828E-002   1.2521014828640264E-002   2.7692355789587841E-002
  -3.9892407366521561E-002   1.1758694092814090E-002   2.7557124788076065E-002
  -3.7615499862426294E-002   1.0976411731964175E-002   2.7554272101749211E-002
  -2.4237978929698201E-002   6.6989597534587997E-003   4.9132037484361457E-002
  -2.2442395523414899E-002   6.1048000433401306E-003   4.8796974956074823E-002
  -2.0646812117131597E-002   5.5015845172559918E-003   4.8643545703190849E-002
  -1.8851228710848322E-002   4.8893131752050997E-003   4.8671749725709507E-002
  -1.7055645304564993E-002   4.2679860171889183E-003   4.8881587023630657E-002
  -2.7518859090705144E-002   7.7683227480851436E-003   4.3813582902918313E-002
  -2.5549876444217579E-002   7.1280789426055313E-003   4.3423470889463300E-002
  -2.3580893797729922E-002   6.4879268160517034E-003   4.3198524081014406E-002
  -2.1611911151242339E-002   5.8478663684230769E-003   4.3138742477571573E-002
  -1.9642928504754700E-002   5.2078975997200683E-003   4.3244126079135026E-002
  -3.0842072633162201E-002   8.8376857427114874E-003   3.8444470478668530E-002
  -2.8716158816866667E-002   8.1513578418710431E-003   3.8008456474936392E-002
  -2.6590245000571201E-002   7.4742691148475399E-003   3.7721139605814039E-002
  -2.4464331184275667E-002   6.8064195616410021E-003   3.7582519871301352E-002
  -2.2338417367980208E-002   6.1478091822510517E-003   3.7592597271398270E-002
  -3.4207619557069205E-002   9.9070487373377203E-003   3.3024700211612211E-002
  -3.1941242641362229E-002   9.1746367411365548E-003   3.2551931712494445E-002
  -2.9674865725655288E-002   8.4606114136434249E-003   3.2211392277589970E-002
  -2.7408488809948360E-002   7.7649727548587313E-003   3.2003081906898607E-002
  -2.5142111894241315E-002   7.0877207647821183E-003   3.1927000600420731E-002
  -3.7615499862426294E-002   1.0976411731964175E-002   2.7554272101749211E-002
  -3.5225127917704269E-002   1.0197915640401956E-002   2.7053896602137251E-002
  -3.2834755972982299E-002   9.4469537124391989E-003   2.6669282096342006E-002
  -3.0444384028260288E-002   8.7235259480767102E-003   2.6400428584363644E-002
  -2.8054012083538277E-002   8.0276323473131850E-003   2.6247336066201887E-002
  -1.7055645304564993E-002   4.2679860171889183E-003   4.8881587023630657E-002
  -1.5114905707237669E-002   3.7011936751394359E-003   4.8768544466211039E-002
  -1.3174166109910304E-002   3.2525267809887792E-003   4.8909572658817457E-002
  -1.1233426512582974E-002   2.9219853347383432E-003   4.9304671601449995E-002
  -9.2926869152556157E-003   2.7095693363865525E-003   4.9953841294108403E-002
  -1.9642928504754700E-002   5.2078975997200683E-003   4.3244126079135026E-002
  -1.7486428998183777E-002   4.6047061442027748E-003   4.3080361215570351E-002
  -1.5329929491612868E-002   4.0749776361324042E-003   4.3094045420466909E-002
  -1.3173429985041982E-002   3.6187120755087343E-003   4.3285178693824616E-002
  -1.1016930478470979E-002   3.2359094623313212E-003   4.3653761035643668E-002
  -2.2338417367980208E-002   6.1478091822510517E-003   3.7592597271398270E-002
  -2.0042779633730447E-002   5.5082186132665578E-003   3.7333447601235858E-002
  -1.7747141899480710E-002   4.8974284912757932E-003   3.7175125317969640E-002
  -1.5451504165230898E-002   4.3154388162790110E-003   3.7117630421599969E-002
  -1.3155866430981204E-002   3.7622495882758678E-003   3.7160962912126783E-002
  -2.5142111894241315E-002   7.0877207647821183E-003   3.1927000600420731E-002
  -2.2783957613877547E-002   6.4117310823302298E-003   3.1527803623207437E-002
  -2.0425803333513778E-002   5.7198793464191891E-003   3.1152812351325925E-002
  -1.8067649053150038E-002   5.0121655570496779E-003   3.0802026784775893E-002
  -1.5709494772786187E-002   4.2885897142205254E-003   3.0475446923557539E-002
  -2.8054012083538277E-002   8.0276323473131850E-003   2.6247336066201887E-002
  -2.5709962938625236E-002   7.3152435513936798E-003   2.5663429281485239E-002
  -2.3365913793712126E-002   6.5423302015627516E-003   2.5027106520535414E-002
  -2.1021864648799037E-002   5.7088922978197759E-003   2.4338367783352605E-002
  -1.8677815503885975E-002   4.8149298401651830E-003   2.3597213069936229E-002
  -9.2926869152556157E-003   2.7095693363865525E-003   4.9953841294108403E-002
  -7.8706044694756283E-003   2.8593379178786238E-003   5.0357084345318492E-002
  -6.4485220236956686E-003   3.6153502111599400E-003   5.1087988428850539E-002
  -5.0264395779156951E-003   4.9776062162285445E-003   5.2146553544704100E-002
  -3.6043571321357215E-003   6.9461059330864217E-003   5.3532779692879284E-002
  -1.1016930478470979E-002   3.2359094623313212E-003   4.3653761035643668E-002
  -9.2490200084691943E-003   3.1647268142180884E-003   4.4238489036694584E-002
  -7.4811095384674994E-003   3.6433211487875705E-003   4.5187212053867332E-002
  -5.7131990684657005E-003   4.6716924660389209E-003   4.6499930087162189E-002
  -3.9452885984639641E-003   6.2498407659727917E-003   4.8176643136578878E-002
  -1.3155866430981204E-002   3.7622495882758678E-003   3.7160962912126783E-002
  -1.1005793952957428E-002   3.4701157105577196E-003   3.7870709133912106E-002
  -8.8557214749335408E-003   3.6712920864154508E-003   3.8980784355619608E-002
  -6.7056489969097403E-003   4.3657787158490821E-003   4.0491188577249274E-002
  -4.5555765188858774E-003   5.5535755988589397E-003   4.2401921798801256E-002
  -1.5709494772786187E-002   4.2885897142205254E-003   3.0475446923557539E-002
  -1.3140926302940019E-002   3.7755046068968789E-003   3.1253744636971351E-002
  -1.0572357833093937E-002   3.6992630240434282E-003   3.2468705334107166E-002
  -8.0037893632478128E-003   4.0598649656589068E-003   3.4120329014965575E-002
  -5.4352208934016887E-003   4.8573104317449767E-003   3.6208615679546599E-002
  -1.8677815503885975E-002   4.8149298401651830E-003   2.3597213069936229E-002
  -1.5654417058417275E-002   4.0808935032364824E-003   2.4387595545871887E-002
  -1.2631018612948575E-002   3.7272339616709615E-003   2.5650974989330222E-002
  -9.6076201674798883E-003   3.7539512154692867E-003   2.7387351400311066E-002
  -6.5842217220111743E-003   4.1610452646312357E-003   2.9596724778814698E-002
  -3.6043571321357215E-003   6.9461059330864217E-003   5.3532779692879284E-002
  -4.1555546808739602E-003   9.5359747485479485E-003   5.1860389621567804E-002
  -4.7067522296122127E-003   1.2762338049429112E-002   5.0042434823507898E-002
  -5.2579497783505139E-003   1.6625195835728537E-002   4.8078915298700786E-002
  -5.8091473270887040E-003   2.1124548107447350E-002   4.5969831047144805E-002
  -3.9452885984639641E-003   6.2498407659727917E-003   4.8176643136578878E-002
  -4.5382141971930939E-003   8.6877710769987515E-003   4.7241874050391042E-002
  -5.1311397959222793E-003   1.2295488427526757E-002   4.6369213590969627E-002
  -5.7240653946514473E-003   1.7072992817556795E-002   4.5558661758314606E-002
  -6.3169909933805390E-003   2.3020284247088796E-002   4.4810218552425285E-002
  -4.5555765188858774E-003   5.5535755988589397E-003   4.2401921798801256E-002
  -4.9825568140918070E-003   7.8395674054491105E-003   4.2738066251820389E-002
  -5.4095371092976845E-003   1.1828638805624708E-002   4.3343992685120070E-002
  -5.8365174045035915E-003   1.7520789799384824E-002   4.4219701098700409E-002
  -6.2634976997094916E-003   2.4916020386730242E-002   4.5365191492560464E-002
  -5.4352208934016887E-003   4.8573104317449767E-003   3.6208615679546599E-002
  -5.4885825315700680E-003   6.9913637338994694E-003   3.8348966225855693E-002
  -5.5419441697385037E-003   1.1361789183722285E-002   4.0966772105959427E-002
  -5.5953058079068561E-003   1.7968586781212856E-002   4.4062033319857447E-002
  -5.6486674460752076E-003   2.6811756526371577E-002   4.7634749867550286E-002
  -6.5842217220111743E-003   4.1610452646312357E-003   2.9596724778814698E-002
  -6.0562913496279014E-003   6.1431600623500504E-003   3.4074573972496691E-002
  -5.5283609772446007E-003   1.0894939561820471E-002   3.9237551853487096E-002
  -5.0004306048613695E-003   1.8416383763041153E-002   4.5085658421786745E-002
  -4.4725002324780272E-003   2.8707492666013135E-002   5.1618893677395139E-002
  -7.5801105927260581E-002   2.2624090158086918E-002   2.6898832296305408E-002
  -7.3129490075246162E-002   2.1840425896097193E-002   2.6976388857551492E-002
  -7.0457874223231742E-002   2.1087238226032867E-002   2.7196846330737157E-002
  -6.7786258371217295E-002   2.0364527147894093E-002   2.7560204715862402E-002
  -6.5114642519202848E-002   1.9672292661680968E-002   2.8066464012927173E-002
  -8.1704846980461820E-002   2.4402423872455281E-002   2.1101609582634351E-002
  -7.8869066615221639E-002   2.3616669598880563E-002   2.0951129083941006E-002
  -7.6033286249981458E-002   2.2839310872312016E-002   2.0986076699759604E-002
  -7.3197505884741249E-002   2.2070347692749574E-002   2.1206452430090020E-002
  -7.0361725519501067E-002   2.1309780060193184E-002   2.1612256274932434E-002
  -8.7877324764354336E-002   2.6180757586823589E-002   1.5313337379838116E-002
  -8.4834852683316087E-002   2.5392913301664127E-002   1.4912738776285822E-002
  -8.1792380602277948E-002   2.4591383518591248E-002   1.4740095489818139E-002
  -7.8749908521239712E-002   2.3776168237604998E-002   1.4795407520434400E-002
  -7.5707436440201503E-002   2.2947267458705428E-002   1.5078674868134856E-002
  -9.4318539278938143E-002   2.7959091301191952E-002   9.5340156879164320E-003
  -9.1026848279529601E-002   2.7169157004447511E-002   8.8612179345862810E-003
  -8.7735157280121018E-002   2.6343456164870466E-002   8.4589027009125337E-003
  -8.4443466280712462E-002   2.5481988782460368E-002   8.3270699868952421E-003
  -8.1151775281303892E-002   2.4584754857217936E-002   8.4657197925345103E-003
 -0.10102849052421337        2.9737425015560315E-002   3.7636445068699453E-003
  -9.7445053403862114E-002   2.8945400707231062E-002   2.7965665588420840E-003
  -9.3861616283510974E-002   2.8095528811149656E-002   2.1424983330430025E-003
  -9.0278179163159666E-002   2.7187809327315744E-002   1.8014398294727216E-003
  -8.6694742042808470E-002   2.6222242255729999E-002   1.7733910481311788E-003
  -6.5114642519202848E-002   1.9672292661680968E-002   2.8066464012927173E-002
  -6.2996748489070942E-002   1.8989055510542197E-002   2.7980968487334695E-002
  -6.0878854458939022E-002   1.8293336437627108E-002   2.8027579414713288E-002
  -5.8760960428807095E-002   1.7585135442935471E-002   2.8206296795062896E-002
  -5.6643066398675196E-002   1.6864452526467510E-002   2.8517120628383741E-002
  -7.0361725519501067E-002   2.1309780060193184E-002   2.1612256274932434E-002
  -6.8102491177687935E-002   2.0552334979325931E-002   2.1430050504945813E-002
  -6.5843256835874761E-002   1.9792739454830996E-002   2.1398418905350658E-002
  -6.3584022494061587E-002   1.9030993486708014E-002   2.1517361476146753E-002
  -6.1324788152248455E-002   1.8267097074957384E-002   2.1786878217334188E-002
  -7.5707436440201503E-002   2.2947267458705428E-002   1.5078674868134856E-002
  -7.3288394069286777E-002   2.2115614448109666E-002   1.4810090331902795E-002
  -7.0869351698372107E-002   2.1292142472034876E-002   1.4710547683482421E-002
  -6.8450309327457368E-002   2.0476851530480608E-002   1.4780046922873640E-002
  -6.6031266956542711E-002   1.9669741623447201E-002   1.5018588050076512E-002
  -8.1151775281303892E-002   2.4584754857217936E-002   8.4657197925345103E-003
  -7.8554457163867414E-002   2.3678893916893651E-002   8.1210879682054801E-003
  -7.5957139046430935E-002   2.2791545489238649E-002   7.9639657491086622E-003
  -7.3359820928994471E-002   2.1922709574253178E-002   7.9943531352433470E-003
  -7.0762502811557965E-002   2.1072386171937213E-002   8.2122501266104764E-003
  -8.6694742042808470E-002   2.6222242255729999E-002   1.7733910481311788E-003
  -8.3900680461429955E-002   2.5242173385677191E-002   1.3630434138540148E-003
  -8.1106618880051329E-002   2.4290948506442672E-002   1.1586731022290991E-003
  -7.8312557298672758E-002   2.3368567618025755E-002   1.1602801132564004E-003
  -7.5518495717294187E-002   2.2475030720426892E-002   1.3678644469359291E-003
  -5.6643066398675196E-002   1.6864452526467510E-002   2.8517120628383741E-002
  -5.4163082268708224E-002   1.6139342049622363E-002   2.8211285041558287E-002
  -5.1683098138741251E-002   1.5417858373799803E-002   2.8083145197580400E-002
  -4.9203114008774293E-002   1.4700001498999409E-002   2.8132701096450080E-002
  -4.6723129878807307E-002   1.3985771425221616E-002   2.8359952738167271E-002
  -6.1324788152248455E-002   1.8267097074957384E-002   2.1786878217334188E-002
  -5.8662634620608126E-002   1.7501791584483950E-002   2.1462238782216203E-002
  -5.6000481088967824E-002   1.6735818380192974E-002   2.1324242407597227E-002
  -5.3338327557327522E-002   1.5969177462084531E-002   2.1372889093477551E-002
  -5.0676174025687193E-002   1.5201868830158338E-002   2.1608178839857051E-002
  -6.6031266956542711E-002   1.9669741623447201E-002   1.5018588050076512E-002
  -6.3177996705577333E-002   1.8864241119345287E-002   1.4670850251825629E-002
  -6.0324726454611982E-002   1.8053778386586158E-002   1.4518702831725877E-002
  -5.7471456203646624E-002   1.7238353425169269E-002   1.4562145789776847E-002
  -5.4618185952681260E-002   1.6417966235095061E-002   1.4801179125978670E-002
  -7.0762502811557965E-002   2.1072386171937213E-002   8.2122501266104764E-003
  -6.7709168523615845E-002   2.0226690654206861E-002   7.8371194503868563E-003
  -6.4655834235673754E-002   1.9371738392979503E-002   7.6665264699660486E-003
  -6.1602499947731676E-002   1.8507529388254312E-002   7.7004711853477618E-003
  -5.8549165659789550E-002   1.7634063640032005E-002   7.9389535965320793E-003
  -7.5518495717294187E-002   2.2475030720426892E-002   1.3678644469359291E-003
  -7.2256150074723635E-002   2.1589140189068434E-002   9.6104637790001002E-004
  -6.8993804432153083E-002   2.0689698399372514E-002   7.6771332231811984E-004
  -6.5731458789582559E-002   1.9776705351339352E-002   7.8786528019063329E-004
  -6.2469113147011979E-002   1.8850161044968727E-002   1.0215022515177585E-003
  -4.6723129878807307E-002   1.3985771425221616E-002   2.8359952738167271E-002
  -4.4446222374712047E-002   1.3263373939442935E-002   2.7959965106284901E-002
  -4.2169314870616828E-002   1.2521014828640264E-002   2.7692355789587841E-002
  -3.9892407366521561E-002   1.1758694092814090E-002   2.7557124788076065E-002
  -3.7615499862426294E-002   1.0976411731964175E-002   2.7554272101749211E-002
  -5.0676174025687193E-002   1.5201868830158338E-002   2.1608178839857051E-002
  -4.8261755238630827E-002   1.4430869661543166E-002   2.1211018903344286E-002
  -4.5847336451574461E-002   1.3653157133366803E-002   2.0956503217568673E-002
  -4.3432917664518067E-002   1.2868731245630236E-002   2.0844631782530168E-002
  -4.1018498877461729E-002   1.2077591998332582E-002   2.0875404598228842E-002
  -5.4618185952681260E-002   1.6417966235095061E-002   1.4801179125978670E-002
  -5.2055989947111844E-002   1.5598365383643203E-002   1.4420095150298615E-002
  -4.9493793941542338E-002   1.4785299438093674E-002   1.4191921360907481E-002
  -4.6931597935972895E-002   1.3978768398446383E-002   1.4116657757805372E-002
  -4.4369401930403424E-002   1.3178772264701322E-002   1.4194304340992447E-002
  -5.8549165659789550E-002   1.7634063640032005E-002   7.9389535965320793E-003
  -5.5828926500155071E-002   1.6765861105743504E-002   7.5871938471478058E-003
  -5.3108687340520579E-002   1.5917441742820101E-002   7.3986102196042514E-003
  -5.0388448180886079E-002   1.5088805551262584E-002   7.3732027139019069E-003
  -4.7668209021251594E-002   1.4279952531070117E-002   7.5109713300404932E-003
  -6.2469113147011979E-002   1.8850161044968727E-002   1.0215022515177585E-003
  -5.9580564897760535E-002   1.7933356827843805E-002   7.1231499389190489E-004
  -5.6692016648509092E-002   1.7049584047547306E-002   5.7656979365899863E-004
  -5.3803468399257592E-002   1.6198842704078342E-002   6.1426665081919241E-004
  -5.0914920150006204E-002   1.5381132797438690E-002   8.2540556537225029E-004
  -3.7615499862426294E-002   1.0976411731964175E-002   2.7554272101749211E-002
  -3.5225127917704269E-002   1.0197915640401956E-002   2.7053896602137251E-002
  -3.2834755972982299E-002   9.4469537124391989E-003   2.6669282096342006E-002
  -3.0444384028260288E-002   8.7235259480767102E-003   2.6400428584363644E-002
  -2.8054012083538277E-002   8.0276323473131850E-003   2.6247336066201887E-002
  -4.1018498877461729E-002   1.2077591998332582E-002   2.0875404598228842E-002
  -3.8517815403572839E-002   1.1290040645387966E-002   2.0442387251993488E-002
  -3.6017131929683963E-002   1.0516378440710600E-002   2.0114231970275037E-002
  -3.3516448455795086E-002   9.7566053842988373E-003   1.9890938753073378E-002
  -3.1015764981906196E-002   9.0107214761545595E-003   1.9772507600388622E-002
  -4.4369401930403424E-002   1.3178772264701322E-002   1.4194304340992447E-002
  -4.1769305856647711E-002   1.2382165650374422E-002   1.3815000132800764E-002
  -3.9169209782891998E-002   1.1585803168981335E-002   1.3529659059826102E-002
  -3.6569113709136285E-002   1.0789684820521464E-002   1.3338281122068030E-002
  -3.3969017635380523E-002   9.9938106049956010E-003   1.3240866319527256E-002
  -4.7668209021251594E-002   1.4279952531070117E-002   7.5109713300404932E-003
  -4.4979599276929037E-002   1.3474290655360543E-002   7.1717352445593296E-003
  -4.2290989532606460E-002   1.2655227897252291E-002   6.9155633649952350E-003
  -3.9602379788283834E-002   1.1822764256744174E-002   6.7424556913480704E-003
  -3.6913770043961319E-002   1.0976899733836698E-002   6.6524122236179054E-003
  -5.0914920150006204E-002   1.5381132797438690E-002   8.2540556537225029E-004
  -4.8148695664416707E-002   1.4566415660347110E-002   5.1259258726915613E-004
  -4.5382471178827322E-002   1.3724652625523304E-002   2.7194488578266562E-004
  -4.2616246693237908E-002   1.2855843692966343E-002   1.0346246091331307E-004
  -3.9850022207648439E-002   1.1959988862678017E-002   7.1453126605502959E-006
  -2.8054012083538277E-002   8.0276323473131850E-003   2.6247336066201887E-002
  -2.5709962938625236E-002   7.3152435513936798E-003   2.5663429281485239E-002
  -2.3365913793712126E-002   6.5423302015627516E-003   2.5027106520535414E-002
  -2.1021864648799037E-002   5.7088922978197759E-003   2.4338367783352605E-002
  -1.8677815503885975E-002   4.8149298401651830E-003   2.3597213069936229E-002
  -3.1015764981906196E-002   9.0107214761545595E-003   1.9772507600388622E-002
  -2.8706999176441900E-002   8.2691072168048496E-003   1.9181296495055733E-002
  -2.6398233370977658E-002   7.5221431067787337E-003   1.8571934687058173E-002
  -2.4089467565513417E-002   6.7698291460764476E-003   1.7944422176396330E-002
  -2.1780701760049120E-002   6.0121653346976167E-003   1.7298758963070093E-002
  -3.3969017635380523E-002   9.9938106049956010E-003   1.3240866319527256E-002
  -3.1661269895796422E-002   9.2229708822159084E-003   1.2697525596813475E-002
  -2.9353522156212290E-002   8.5019560119950766E-003   1.2170299445003752E-002
  -2.7045774416628122E-002   7.8307659943330152E-003   1.1659187864098447E-002
  -2.4738026677044000E-002   7.2094008292301615E-003   1.1164190854097256E-002
  -3.6913770043961319E-002   1.0976899733836698E-002   6.6524122236179054E-003
  -3.4572775096688685E-002   1.0176834547626690E-002   6.2121165867585759E-003
  -3.2231780149416023E-002   9.4817689172111280E-003   5.8222007943721718E-003
  -2.9890785202143395E-002   8.8917028425900789E-003   5.4826648464586410E-003
  -2.7549790254870723E-002   8.4066363237626507E-003   5.1935087430180354E-003
  -3.9850022207648439E-002   1.1959988862678017E-002   7.1453126605502959E-006
  -3.7441514779118723E-002   1.1130698213037915E-002  -2.7493053510868615E-004
  -3.5033007350588841E-002   1.0461581822427624E-002  -4.7236126483687912E-004
  -3.2624499922059069E-002   9.9526396908465320E-003  -5.8514687652298086E-004
  -3.0215992493529242E-002   9.6038718182951399E-003  -6.1328737016819179E-004
  -1.8677815503885975E-002   4.8149298401651830E-003   2.3597213069936229E-002
  -1.5654417058417275E-002   4.0808935032364824E-003   2.4387595545871887E-002
  -1.2631018612948575E-002   3.7272339616709615E-003   2.5650974989330222E-002
  -9.6076201674798883E-003   3.7539512154692867E-003   2.7387351400311066E-002
  -6.5842217220111743E-003   4.1610452646312357E-003   2.9596724778814698E-002
  -2.1780701760049120E-002   6.0121653346976167E-003   1.7298758963070093E-002
  -1.8553451810567848E-002   5.3437852660702667E-003   1.8247704380435159E-002
  -1.5326201861086644E-002   4.8593225336227563E-003   1.9131355838302611E-002
  -1.2098951911605378E-002   4.5587771373550023E-003   1.9949713336672337E-002
  -8.8717019621241677E-003   4.4421490772661443E-003   2.0702776875544782E-002
  -2.4738026677044000E-002   7.2094008292301615E-003   1.1164190854097256E-002
  -2.1845216150570543E-002   6.6066770289042176E-003   1.2075239753708111E-002
  -1.8952405624097189E-002   5.9914111055745511E-003   1.2382703766800562E-002
  -1.6059595097623756E-002   5.3636030592401629E-003   1.2086582893375275E-002
  -1.3166784571150378E-002   4.7232528899013859E-003   1.1186877133432083E-002
  -2.7549790254870723E-002   8.4066363237626507E-003   5.1935087430180354E-003
  -2.5529710078425524E-002   7.8695687917384183E-003   5.8702016656903555E-003
  -2.3509629901980300E-002   7.1234996775257908E-003   5.4050187748246048E-003
  -2.1489549725535018E-002   6.1684289811257120E-003   3.7979600704201935E-003
  -1.9469469549089870E-002   5.0043567025365721E-003   1.0490255524777115E-003
  -3.0215992493529242E-002   9.6038718182951399E-003  -6.1328737016819179E-004
  -2.9606933594132467E-002   9.1324605545726190E-003  -3.6740988361760873E-004
  -2.8997874694735859E-002   8.2555882494779187E-003  -1.8016991376260671E-003
  -2.8388815795339167E-002   6.9732549030108726E-003  -4.9161551321930952E-003
  -2.7779756895942476E-002   5.2854605151715361E-003  -9.7107778673191092E-003
  -6.5842217220111743E-003   4.1610452646312357E-003   2.9596724778814698E-002
  -6.0562913496279014E-003   6.1431600623500504E-003   3.4074573972496691E-002
  -5.5283609772446007E-003   1.0894939561820471E-002   3.9237551853487096E-002
  -5.0004306048613695E-003   1.8416383763041153E-002   4.5085658421786745E-002
  -4.4725002324780272E-003   2.8707492666013135E-002   5.1618893677395139E-002
  -8.8717019621241677E-003   4.4421490772661443E-003   2.0702776875544782E-002
  -7.5862662520556484E-003   5.6591925576207069E-003   2.5871945573917920E-002
  -6.3008305419871291E-003   9.3596617826798845E-003   3.1870996260352724E-002
  -5.0153948319185404E-003   1.5543556752444510E-002   3.8699928934849415E-002
  -3.7299591218500905E-003   2.4210877466914749E-002   4.6358743597407770E-002
  -1.3166784571150378E-002   4.7232528899013859E-003   1.1186877133432083E-002
  -1.0979090222643699E-002   5.1752250528905863E-003   1.6761126379451430E-002
  -8.7913958741370271E-003   7.8243840035393253E-003   2.3310010914285112E-002
  -6.6037015256304420E-003   1.2670729741847818E-002   3.0833530737933351E-002
  -4.4160071771236764E-003   1.9714262267816585E-002   3.9331685850396481E-002
  -1.9469469549089870E-002   5.0043567025365721E-003   1.0490255524777115E-003
  -1.6234763261392126E-002   4.6912575481611873E-003   6.7421163890971081E-003
  -1.3000056973694359E-002   6.2891062243988632E-003   1.3554595815283808E-002
  -9.7653506859967029E-003   9.7979027312520388E-003   2.1486463831038517E-002
  -6.5306443982988474E-003   1.5217647068718421E-002   3.0537720436359855E-002
  -2.7779756895942476E-002   5.2854605151715361E-003  -9.7107778673191092E-003
  -2.3353285368300725E-002   4.2072900434304561E-003  -4.1850843971450447E-003
  -1.8926813840659140E-002   4.7538284452584012E-003   2.6047509633494170E-003
  -1.4500342313017528E-002   6.9250757206545388E-003   1.0658728214164435E-002
  -1.0073870785375805E-002   1.0721031869620035E-002   1.9976847355299698E-002
 </DataArray>
 </PointData>
 </Piece>
 </UnstructuredGrid>
 </VTKFile>
